40
Properties=species:S:1:pos:R:3 Energy:=T -2313.7277908=T pbc="F F F"
Au      15.08413000      14.86162000      16.48604000
Au      17.23305000      11.41645000      14.36268000
Au      14.43684000      12.09853000      17.38456000
Au      18.00374000      15.29278000      17.12637000
Au      12.46279000      14.01929000      17.29711000
Au      11.26835000      14.84917000      15.00052000
Au      12.97350000      18.05365000      13.38013000
Au      15.32571000      18.80222000      14.53113000
Au      14.90422000      16.01140000      13.92564000
Au      14.25990000      13.90641000      19.37226000
Au      14.90424000      12.33767000      13.16536000
Au      12.85138000      14.16498000      12.80733000
Au      15.18126000      14.28743000      11.30365000
Au      16.85490000      14.21677000      14.42617000
Au      12.86094000      12.54765000      15.01299000
Au      14.73438000      10.50656000      15.22511000
Au      17.68221000      16.87880000      14.91478000
Au      19.56202000      14.74843000      14.79691000
Au      15.98310000      17.55259000      17.02439000
Au      18.96579000      16.22253000      12.57971000
Au      13.30302000      17.91605000      16.17928000
Au      16.84851000      10.73510000      17.02948000
Au      11.00989000      16.26899000      12.60800000
Au      15.28800000      18.07825000      11.83641000
Au      11.25554000      16.42989000      17.34727000
Au      10.76770000      17.63540000      14.97361000
Au      16.85069000      13.13032000      18.41379000
Au      15.55496000      16.43119000       9.59603000
Au      18.69027000      12.69243000      16.33119000
Au      16.39949000      15.81602000      19.21213000
Au      17.74142000      14.97611000      10.46806000
Au      14.48023000      15.87034000      21.15512000
Au      13.75530000      16.61884000      18.54774000
Au      13.26106000      16.31896000      11.08504000
Au      17.48505000      12.85534000      12.07018000
Au      17.77402000      17.73824000      10.53640000
Au      17.72691000      18.83656000      13.00641000
Au      17.61925000      19.50206000      15.76226000
C       10.99629503      10.95721753      14.51940751
O       10.14882143      10.23437240      14.29507626
