     161
 i =        1, E =     -8104.5137083331
 Fe         5.0938794100       11.8196869300        0.3885799900
 Fe         7.6575796300        7.3792284900        0.3885799900
 Fe        10.2212798400        2.9387700600        0.3885799900
 Fe        -0.0335205200       11.8196869300        0.3885799900
 Fe         2.5301797000        7.3792284900        0.3885799900
 Fe         5.0938799200        2.9387700600        0.3885799900
 Fe        -5.1609204400       11.8196869300        0.3885799900
 Fe        -2.5972202200        7.3792284900        0.3885799900
 Fe        -0.0335200000        2.9387700600        0.3885799900
  O         8.4519195100        8.9577468800        1.1642700400
  O        11.0156197300        4.5172884400        1.1642700400
  O        13.5793199500        0.0768300000        1.1642700400
  O         3.3245195900        8.9577468800        1.1642700400
  O         5.8882198100        4.5172884400        1.1642700400
  O         8.4519200300        0.0768300000        1.1642700400
  O        -1.8028803300        8.9577468800        1.1642700400
  O         0.7608198900        4.5172884400        1.1642700400
  O         3.3245201100        0.0768300000        1.1642700400
  O         8.4568493000       11.7183869300        1.1650400200
  O        11.0205495200        7.2779284900        1.1650400200
  O        13.5842497300        2.8374700500        1.1650400200
  O         3.3294493700       11.7183869300        1.1650400200
  O         5.8931495900        7.2779284900        1.1650400200
  O         8.4568498100        2.8374700500        1.1650400200
  O        -1.7979505500       11.7183869300        1.1650400200
  O         0.7657496700        7.2779284900        1.1650400200
  O         3.3294498900        2.8374700500        1.1650400200
  O         6.0627194200       10.3425368500        1.1660399400
  O         8.6264196400        5.9020784100        1.1660399400
  O        11.1901198600        1.4616199700        1.1660399400
  O         0.9353195000       10.3425368500        1.1660399400
  O         3.4990197200        5.9020784100        1.1660399400
  O         6.0627199400        1.4616199700        1.1660399400
  O        -4.1920804200       10.3425368500        1.1660399400
  O        -1.6283802000        5.9020784100        1.1660399400
  O         0.9353200200        1.4616199700        1.1660399400
 Fe         7.6576695000       13.2997167500        1.9292099500
 Fe        10.2213697200        8.8592583200        1.9292099500
 Fe        12.7850699400        4.4187998800        1.9292099500
 Fe         2.5302695800       13.2997167500        1.9292099500
 Fe         5.0939698000        8.8592583200        1.9292099500
 Fe         7.6576700200        4.4187998800        1.9292099500
 Fe        -2.5971303400       13.2997167500        1.9292099500
 Fe        -0.0334301200        8.8592583200        1.9292099500
 Fe         2.5302701000        4.4187998800        1.9292099500
 Fe         7.6573893600       10.3392168700        2.7128999200
 Fe        10.2210895800        5.8987584300        2.7128999200
 Fe        12.7847898000        1.4582999900        2.7128999200
 Fe         2.5299894400       10.3392168700        2.7128999200
 Fe         5.0936896600        5.8987584300        2.7128999200
 Fe         7.6573898800        1.4582999900        2.7128999200
 Fe        -2.5974104800       10.3392168700        2.7128999200
 Fe        -0.0337102600        5.8987584300        2.7128999200
 Fe         2.5299899600        1.4582999900        2.7128999200
  O         4.1324419901       13.3034183378        3.4988438217
  O         6.6972209724        8.8632743871        3.5001103982
  O         9.2613195282        4.4245832115        3.5001606993
  O        -0.9949151315       13.3036389926        3.4987976075
  O         1.5692684020        8.8642351178        3.4995948732
  O         4.1323876246        4.4226005501        3.4980366685
  O        -6.1223269533       13.3035763446        3.4991793037
  O        -3.5585693079        8.8631440673        3.4993593390
  O        -0.9945997738        4.4233639791        3.4992376954
  O         6.8610636742       11.9094833705        3.5014036366
  O         9.4222717533        7.4699553248        3.5023734807
  O        11.9877351160        3.0291642683        3.5005303874
  O         1.7337914571       11.9095631321        3.5012998930
  O         4.2976616458        7.4698718288        3.5008047812
  O         6.8608422990        3.0296817707        3.4990578376
  O        -3.3937444790       11.9099842766        3.5008483978
  O        -0.8306129583        7.4698436500        3.5005664347
  O         1.7339946037        3.0289955779        3.5013150970
  O         9.4150748817       10.2447595529        3.5022630396
  O        11.9791231716        5.8045473537        3.5014880304
  O        14.5431016037        1.3639085071        3.5008080624
  O         4.2899407002       10.2454105618        3.5008108804
  O         6.8515435750        5.8056227320        3.5016120684
  O         9.4157109649        1.3639527340        3.5007859277
  O        -0.8393744439       10.2449891798        3.5015349582
  O         1.7242708729        5.8041623140        3.5006099333
  O         4.2875652446        1.3634440811        3.5007947889
 Fe         5.0949431565       11.8199738698        4.4869308430
 Fe         7.6530448517        7.3781472021        4.4909512329
 Fe        10.2212100981        2.9381929901        4.4866944562
 Fe        -0.0330585109       11.8196830173        4.4860410887
 Fe         2.5300952745        7.3796392571        4.4852330903
 Fe         5.0937096313        2.9365762750        4.4845313168
 Fe        -5.1598224187       11.8196215616        4.4859786093
 Fe        -2.5969190223        7.3785222865        4.4867122051
 Fe        -0.0328086415        2.9384556736        4.4859915951
 Fe         7.6584358646       13.2997874104        4.8225131616
 Fe        10.2227385695        8.8590187259        4.8231644592
 Fe        12.7873347725        4.4179981510        4.8226134681
 Fe         2.5309638896       13.2992282276        4.8227831393
 Fe         5.0968212253        8.8553899685        4.8223088399
 Fe         7.6618986330        4.4192651714        4.8208340707
 Fe        -2.5959364196       13.3001469751        4.8225823992
 Fe        -0.0320957826        8.8584893818        4.8222068933
 Fe         2.5318806778        4.4182167674        4.8231806898
  O         5.8647497068       10.3861582258        5.7300702349
  O         8.4289935650        5.9498693134        5.7322246288
  O        10.9940184554        1.5071331072        5.7238220937
  O         0.7377868131       10.3885409352        5.7275588989
  O         3.3015904535        5.9509485170        5.7159590620
  O         5.8670055007        1.5074079344        5.7278946099
  O        -4.3891926199       10.3890027073        5.7282762263
  O        -1.8249581538        5.9486281075        5.7269289315
  O         0.7383398493        1.5075605238        5.7267953022
  O         5.9478530358       13.2042838818        5.7278570935
  O         8.5115884905        8.7615907822        5.7313908783
  O        11.0765691144        4.3222009961        5.7243290589
  O         0.8200878828       13.2033734340        5.7273931793
  O         3.3879372128        8.7619911114        5.7331891552
  O         5.9543391657        4.3109413608        5.7157435684
  O        -4.3066819534       13.2030233840        5.7279024701
  O        -1.7426573555        8.7628640702        5.7278852893
  O         0.8205704815        4.3220857327        5.7277546218
  O         3.4699950842       11.8652547902        5.7299028105
  O         6.0202077962        7.4141227791        5.7457724287
  O         8.5960664843        2.9850163206        5.7274009138
  O        -1.6580160402       11.8659776253        5.7292331814
  O         0.9058997088        7.4257539713        5.7305880922
  O         3.4696225692        2.9839559620        5.7299695777
  O        -6.7843564308       11.8667212947        5.7301115923
  O        -4.2228987494        7.4245953483        5.7312694023
  O        -1.6573910395        2.9838665105        5.7282470203
 Fe         7.6582887963       10.3403163286        5.9738665419
 Fe        10.2221558075        5.8958442571        5.9800923093
 Fe        12.7842109829        1.4591045752        5.9853281785
 Fe         2.5298038168       10.3390349012        5.9766765059
 Fe         5.0882111710        5.8723702639        6.0005957862
 Fe         7.6589252453        1.4590473448        5.9845975759
 Fe        -2.5968104641       10.3393372668        5.9793005958
 Fe        -0.0331101472        5.8984158681        5.9800846504
 Fe         2.5300598246        1.4580834135        5.9803109843
  C         9.4384607440        5.4167431640       11.3457666620
  C         8.8660379706        4.8303712879       10.0444318926
  H         9.3154092562        6.5133934973       11.3520240662
  O         8.8379459603        4.8641747705       12.5436094295
  H        10.5129423196        5.1898824149       11.3832882179
  C         7.3395459334        4.6202139875       10.0943195199
  C         6.5403904552        5.8982327149       10.4546159709
  O         7.0623099314        3.5105553691       10.9935616998
  H         7.0121238437        4.2963850116        9.0936893486
  C         5.0952381901        5.8884775723        9.8980592366
  H         7.0594780198        6.7557643338        9.9912238059
  O         6.4975117731        6.1768663543       11.8725713245
  C         4.2713747590        4.6613877454       10.3187698604
  O         5.0977369249        5.9258712988        8.4570379669
  H         4.6131900449        6.8061737068       10.2832434475
  H         3.2008958527        4.8834503131       10.2149138244
  O         4.5186159518        4.2851328405       11.6869718194
  H         4.5184264163        3.8361552063        9.6318182193
  H         8.0325961897        5.4215862387       12.6763456681
  H         7.6326615694        3.6989676674       11.7868463073
  H         5.7324706909        5.6438453077       12.2070654658
  H         5.2536481427        6.8505958489        8.1854518244
  H         5.3309600274        3.7219868131       11.6321127384
  O         9.5073894864        3.6008913284        9.6886992473
  H         9.0882323654        5.5383912333        9.2254390627
  H         8.9952928184        2.8858562346       10.1144866464
     161
 i =        2, E =     -8104.5137121735
 Fe         5.0938794100       11.8196869300        0.3885799900
 Fe         7.6575796300        7.3792284900        0.3885799900
 Fe        10.2212798400        2.9387700600        0.3885799900
 Fe        -0.0335205200       11.8196869300        0.3885799900
 Fe         2.5301797000        7.3792284900        0.3885799900
 Fe         5.0938799200        2.9387700600        0.3885799900
 Fe        -5.1609204400       11.8196869300        0.3885799900
 Fe        -2.5972202200        7.3792284900        0.3885799900
 Fe        -0.0335200000        2.9387700600        0.3885799900
  O         8.4519195100        8.9577468800        1.1642700400
  O        11.0156197300        4.5172884400        1.1642700400
  O        13.5793199500        0.0768300000        1.1642700400
  O         3.3245195900        8.9577468800        1.1642700400
  O         5.8882198100        4.5172884400        1.1642700400
  O         8.4519200300        0.0768300000        1.1642700400
  O        -1.8028803300        8.9577468800        1.1642700400
  O         0.7608198900        4.5172884400        1.1642700400
  O         3.3245201100        0.0768300000        1.1642700400
  O         8.4568493000       11.7183869300        1.1650400200
  O        11.0205495200        7.2779284900        1.1650400200
  O        13.5842497300        2.8374700500        1.1650400200
  O         3.3294493700       11.7183869300        1.1650400200
  O         5.8931495900        7.2779284900        1.1650400200
  O         8.4568498100        2.8374700500        1.1650400200
  O        -1.7979505500       11.7183869300        1.1650400200
  O         0.7657496700        7.2779284900        1.1650400200
  O         3.3294498900        2.8374700500        1.1650400200
  O         6.0627194200       10.3425368500        1.1660399400
  O         8.6264196400        5.9020784100        1.1660399400
  O        11.1901198600        1.4616199700        1.1660399400
  O         0.9353195000       10.3425368500        1.1660399400
  O         3.4990197200        5.9020784100        1.1660399400
  O         6.0627199400        1.4616199700        1.1660399400
  O        -4.1920804200       10.3425368500        1.1660399400
  O        -1.6283802000        5.9020784100        1.1660399400
  O         0.9353200200        1.4616199700        1.1660399400
 Fe         7.6576695000       13.2997167500        1.9292099500
 Fe        10.2213697200        8.8592583200        1.9292099500
 Fe        12.7850699400        4.4187998800        1.9292099500
 Fe         2.5302695800       13.2997167500        1.9292099500
 Fe         5.0939698000        8.8592583200        1.9292099500
 Fe         7.6576700200        4.4187998800        1.9292099500
 Fe        -2.5971303400       13.2997167500        1.9292099500
 Fe        -0.0334301200        8.8592583200        1.9292099500
 Fe         2.5302701000        4.4187998800        1.9292099500
 Fe         7.6573893600       10.3392168700        2.7128999200
 Fe        10.2210895800        5.8987584300        2.7128999200
 Fe        12.7847898000        1.4582999900        2.7128999200
 Fe         2.5299894400       10.3392168700        2.7128999200
 Fe         5.0936896600        5.8987584300        2.7128999200
 Fe         7.6573898800        1.4582999900        2.7128999200
 Fe        -2.5974104800       10.3392168700        2.7128999200
 Fe        -0.0337102600        5.8987584300        2.7128999200
 Fe         2.5299899600        1.4582999900        2.7128999200
  O         4.1324419901       13.3034183378        3.4988438217
  O         6.6972209724        8.8632743871        3.5001103982
  O         9.2613195282        4.4245832115        3.5001606993
  O        -0.9949151315       13.3036389926        3.4987976075
  O         1.5692684020        8.8642351178        3.4995948732
  O         4.1323876246        4.4226005501        3.4980366685
  O        -6.1223269533       13.3035763446        3.4991793037
  O        -3.5585693079        8.8631440673        3.4993593390
  O        -0.9945997738        4.4233639791        3.4992376954
  O         6.8610636742       11.9094833705        3.5014036366
  O         9.4222717533        7.4699553248        3.5023734807
  O        11.9877351160        3.0291642683        3.5005303874
  O         1.7337914571       11.9095631321        3.5012998930
  O         4.2976616458        7.4698718288        3.5008047812
  O         6.8608422990        3.0296817707        3.4990578376
  O        -3.3937444790       11.9099842766        3.5008483978
  O        -0.8306129583        7.4698436500        3.5005664347
  O         1.7339946037        3.0289955779        3.5013150970
  O         9.4150748817       10.2447595529        3.5022630396
  O        11.9791231716        5.8045473537        3.5014880304
  O        14.5431016037        1.3639085071        3.5008080624
  O         4.2899407002       10.2454105618        3.5008108804
  O         6.8515435750        5.8056227320        3.5016120684
  O         9.4157109649        1.3639527340        3.5007859277
  O        -0.8393744439       10.2449891798        3.5015349582
  O         1.7242708729        5.8041623140        3.5006099333
  O         4.2875652446        1.3634440811        3.5007947889
 Fe         5.0949431565       11.8199738698        4.4869308430
 Fe         7.6530448517        7.3781472021        4.4909512329
 Fe        10.2212100981        2.9381929901        4.4866944562
 Fe        -0.0330585109       11.8196830173        4.4860410887
 Fe         2.5300952745        7.3796392571        4.4852330903
 Fe         5.0937096313        2.9365762750        4.4845313168
 Fe        -5.1598224187       11.8196215616        4.4859786093
 Fe        -2.5969190223        7.3785222865        4.4867122051
 Fe        -0.0328086415        2.9384556736        4.4859915951
 Fe         7.6584358646       13.2997874104        4.8225131616
 Fe        10.2227385695        8.8590187259        4.8231644592
 Fe        12.7873347725        4.4179981510        4.8226134681
 Fe         2.5309638896       13.2992282276        4.8227831393
 Fe         5.0968212253        8.8553899685        4.8223088399
 Fe         7.6618986330        4.4192651714        4.8208340707
 Fe        -2.5959364196       13.3001469751        4.8225823992
 Fe        -0.0320957826        8.8584893818        4.8222068933
 Fe         2.5318806778        4.4182167674        4.8231806898
  O         5.8647497068       10.3861582258        5.7300702349
  O         8.4289935650        5.9498693134        5.7322246288
  O        10.9940184554        1.5071331072        5.7238220937
  O         0.7377868131       10.3885409352        5.7275588989
  O         3.3015904535        5.9509485170        5.7159590620
  O         5.8670055007        1.5074079344        5.7278946099
  O        -4.3891926199       10.3890027073        5.7282762263
  O        -1.8249581538        5.9486281075        5.7269289315
  O         0.7383398493        1.5075605238        5.7267953022
  O         5.9478530358       13.2042838818        5.7278570935
  O         8.5115884905        8.7615907822        5.7313908783
  O        11.0765691144        4.3222009961        5.7243290589
  O         0.8200878828       13.2033734340        5.7273931793
  O         3.3879372128        8.7619911114        5.7331891552
  O         5.9543391657        4.3109413608        5.7157435684
  O        -4.3066819534       13.2030233840        5.7279024701
  O        -1.7426573555        8.7628640702        5.7278852893
  O         0.8205704815        4.3220857327        5.7277546218
  O         3.4699950842       11.8652547902        5.7299028105
  O         6.0202077962        7.4141227791        5.7457724287
  O         8.5960664843        2.9850163206        5.7274009138
  O        -1.6580160402       11.8659776253        5.7292331814
  O         0.9058997088        7.4257539713        5.7305880922
  O         3.4696225692        2.9839559620        5.7299695777
  O        -6.7843564308       11.8667212947        5.7301115923
  O        -4.2228987494        7.4245953483        5.7312694023
  O        -1.6573910395        2.9838665105        5.7282470203
 Fe         7.6582887963       10.3403163286        5.9738665419
 Fe        10.2221558075        5.8958442571        5.9800923093
 Fe        12.7842109829        1.4591045752        5.9853281785
 Fe         2.5298038168       10.3390349012        5.9766765059
 Fe         5.0882111710        5.8723702639        6.0005957862
 Fe         7.6589252453        1.4590473448        5.9845975759
 Fe        -2.5968104641       10.3393372668        5.9793005958
 Fe        -0.0331101472        5.8984158681        5.9800846504
 Fe         2.5300598246        1.4580834135        5.9803109843
  C         9.4384607440        5.4167431640       11.3457666620
  C         8.8660379706        4.8303712879       10.0444318926
  H         9.3154092562        6.5133934973       11.3520240662
  O         8.8379459603        4.8641747705       12.5436094295
  H        10.5129423196        5.1898824149       11.3832882179
  C         7.3395459334        4.6202139875       10.0943195199
  C         6.5403904552        5.8982327149       10.4546159709
  O         7.0623099314        3.5105553691       10.9935616998
  H         7.0121238437        4.2963850116        9.0936893486
  C         5.0952381901        5.8884775723        9.8980592366
  H         7.0594780198        6.7557643338        9.9912238059
  O         6.4975117731        6.1768663543       11.8725713245
  C         4.2713747590        4.6613877454       10.3187698604
  O         5.0977369249        5.9258712988        8.4570379669
  H         4.6131900449        6.8061737068       10.2832434475
  H         3.2008958527        4.8834503131       10.2149138244
  O         4.5186159518        4.2851328405       11.6869718194
  H         4.5184264163        3.8361552063        9.6318182193
  H         8.0325961897        5.4215862387       12.6763456681
  H         7.6326615694        3.6989676674       11.7868463073
  H         5.7324706909        5.6438453077       12.2070654658
  H         5.2536481427        6.8505958489        8.1854518244
  H         5.3309600274        3.7219868131       11.6321127384
  O         9.5073894864        3.6008913284        9.6886992473
  H         9.0882323654        5.5383912333        9.2254390627
  H         8.9952928184        2.8858562346       10.1144866464
