9

O      -1.171200000000000      0.299700000000000      0.000000000000000
C      -0.046300000000000     -0.566500000000000      0.000000000000000
C       1.217500000000000      0.266800000000000      0.000000000000000
H      -0.095800000000000     -1.212000000000000      0.881900000000000
H      -0.095200000000000     -1.193800000000000     -0.894600000000000
H       2.105000000000000     -0.372000000000000     -0.017700000000000
H       1.242600000000000      0.930700000000000     -0.870400000000000
H       1.261600000000000      0.905200000000000      0.888600000000000
H      -1.129100000000000      0.836400000000000      0.809900000000000
