 DBCSR| Multiplication driver                                               XSMM
 DBCSR| Multrec recursion limit                                              512
 DBCSR| Multiplication stack size                                           1000
 DBCSR| Maximum elements for images                                    UNLIMITED
 DBCSR| Multiplicative factor virtual images                                   1
 DBCSR| Multiplication size stacks                                             3
 DBCSR| Number of 3D layers                                               SINGLE
 DBCSR| Use MPI memory allocation                                              T
 DBCSR| Use RMA algorithm                                                      F
 DBCSR| Use Communication thread                                               T
 DBCSR| Communication thread load                                             87


  **** **** ******  **  PROGRAM STARTED AT               2020-10-29 19:08:54.351
 ***** ** ***  *** **   PROGRAM STARTED ON                             irene3036
 **    ****   ******    PROGRAM STARTED BY                              marticar
 ***** **    ** ** **   PROGRAM PROCESS ID                                136329
  **** **  *******  **  PROGRAM STARTED IN /ccc/scratch/cont003/gen0609/marticar
                                           /5728937

 CP2K| version string:                                          CP2K version 6.1
 CP2K| source code revision number:                                    svn:18464
 CP2K| cp2kflags: libint fftw3 parallel mpi3 scalapack xsmm mkl                 
 CP2K| is freely available from                            https://www.cp2k.org/
 CP2K| Program compiled at                          Mon Dec 24 15:18:38 CET 2018
 CP2K| Program compiled on                                             cobalt170
 CP2K| Program compiled for                                   Linux-x86-64-iomkl
 CP2K| Data directory path          /tmp/cp2k/6.1/iomkl-174196.202/cp2k-6.1/data
 CP2K| Input file name                                             screening.inp
 
 GLOBAL| Force Environment number                                              1
 GLOBAL| Basis set file name            /ccc/work/cont003/gen0609/marticar/data/
 GLOBAL| Potential file name            /ccc/work/cont003/gen0609/marticar/data/
 GLOBAL| MM Potential file name                                     MM_POTENTIAL
 GLOBAL| Coordinate file name                                          coord.xyz
 GLOBAL| Method name                                                        CP2K
 GLOBAL| Project name                                         sorbitol_screening
 GLOBAL| Preferred FFT library                                             FFTW3
 GLOBAL| Preferred diagonalization lib.                                       SL
 GLOBAL| Run type                                                        GEO_OPT
 GLOBAL| All-to-all communication in single precision                          F
 GLOBAL| FFTs using library dependent lengths                                  F
 GLOBAL| Global print level                                                  LOW
 GLOBAL| Total number of message passing processes                            64
 GLOBAL| Number of threads for this process                                    1
 GLOBAL| This output is from process                                           0
 GLOBAL| CPU model name :  Intel(R) Xeon Phi(TM) CPU 7250 @ 1.40GHz

 MEMORY| system memory details [Kb]
 MEMORY|                        rank 0           min           max       average
 MEMORY| MemTotal             98253756      98253756      98253756      98253756
 MEMORY| MemFree              69846132      69844644      69846132      69845132
 MEMORY| Buffers                     0             0             0             0
 MEMORY| Cached                1435568       1435568       1435568       1435568
 MEMORY| Slab                   979252        979252        979252        979252
 MEMORY| SReclaimable           115216        115216        115216        115216
 MEMORY| MemLikelyFree        71396916      71395428      71396916      71395916

 
 GENERATE|  Preliminary Number of Bonds generated:                             0
 GENERATE|  Achieved consistency in connectivity generation.

 *******************************************************************************
 *******************************************************************************
 **                                                                           **
 **     #####                         ##              ##                      **
 **    ##   ##            ##          ##              ##                      **
 **   ##     ##                       ##            ######                    **
 **   ##     ##  ##   ##  ##   #####  ##  ##   ####   ##    #####    #####    **
 **   ##     ##  ##   ##  ##  ##      ## ##   ##      ##   ##   ##  ##   ##   **
 **   ##  ## ##  ##   ##  ##  ##      ####     ###    ##   ######   ######    **
 **    ##  ###   ##   ##  ##  ##      ## ##      ##   ##   ##       ##        **
 **     #######   #####   ##   #####  ##  ##  ####    ##    #####   ##        **
 **           ##                                                    ##        **
 **                                                                           **
 **                                                ... make the atoms dance   **
 **                                                                           **
 **            Copyright (C) by CP2K developers group (2000 - 2018)           **
 **                                                                           **
 *******************************************************************************


 TOTAL NUMBERS AND MAXIMUM NUMBERS

  Total number of            - Atomic kinds:                                   6
                             - Atoms:                                        161
                             - Shell sets:                                   161
                             - Shells:                                       939
                             - Primitive Cartesian functions:               1073
                             - Cartesian basis functions:                   3046
                             - Spherical basis functions:                   2683

  Maximum angular momentum of- Orbital basis functions:                        3
                             - Local part of the GTH pseudopotential:          2
                             - Non-local part of the GTH pseudopotential:      3


 SCF PARAMETERS         Density guess:                                   RESTART
                        --------------------------------------------------------
                        max_scf:                                             500
                        max_scf_history:                                       0
                        max_diis:                                              4
                        --------------------------------------------------------
                        eps_scf:                                        1.00E-05
                        eps_scf_history:                                0.00E+00
                        eps_diis:                                       1.00E-01
                        eps_eigval:                                     1.00E-05
                        --------------------------------------------------------
                        level_shift [a.u.]:                                 0.00
                        --------------------------------------------------------
                        Outer loop SCF in use 
                        No variables optimised in outer loop
                        eps_scf                                         1.00E-05
                        max_scf                                               10
                        No outer loop optimization
                        step_size                                       5.00E-01

 BFGS| Use rational function optimization for step estimation:                NO
 BFGS| Use model Hessian for initial guess:                                  YES
 BFGS| Restart Hessian:                                                       NO
 BFGS| Trust radius:                                                       0.472

 *******************************************************************************
 ***                     STARTING GEOMETRY OPTIMIZATION                      ***
 ***                                   BFGS                                  ***
 *******************************************************************************

 Spin 1

 Number of electrons:                                                        712
 Number of occupied orbitals:                                                712
 Number of molecular orbitals:                                               712

 Spin 2

 Number of electrons:                                                        712
 Number of occupied orbitals:                                                712
 Number of molecular orbitals:                                               712

 Number of orbital functions:                                               2683
 Number of independent orbital functions:                                   2683

 Extrapolation method: initial_guess

 *** WARNING in qs_initial_guess.F:263 :: User requested to restart the  ***
 *** wavefunction from the file named: sorbitol_screening-RESTART.wfn.   ***
 *** This file does not exist. Please check the existence of the file or ***
 *** change properly the value of the keyword WFN_RESTART_FILE_NAME.     ***
 *** Calculation continues using ATOMIC GUESS.                           ***



 SCF WAVEFUNCTION OPTIMIZATION

  ----------------------------------- OT ---------------------------------------
  Minimizer      : CG                  : conjugate gradient
  Preconditioner : FULL_ALL            : diagonalization, state selective
  Precond_solver : DEFAULT
  Line search    : 3PNT                : 3 energies
  stepsize       :    0.15000000                  energy_gap     :    0.08000000
  eps_taylor     :   0.10000E-15                  max_taylor     :             4
  ----------------------------------- OT ---------------------------------------

  Step     Update method      Time    Convergence         Total energy    Change
  ------------------------------------------------------------------------------
     1 OT CG       0.12E+00   21.9     0.01894337     -7997.8166086524 -8.00E+03
     2 OT LS       0.17E+00    9.8                    -8078.6889716904
     3 OT LS       0.14E+00    9.7                    -8077.0819218591
     4 OT CG       0.11E+00   18.4     0.00469440     -8079.0754506756 -8.13E+01
     5 OT LS       0.16E+00    9.7                    -8086.6882221493
     6 OT LS       0.31E+00    9.7                    -8088.8039917683
     7 OT CG       0.25E+00   18.4     0.00308283     -8092.0231793584 -1.29E+01

 *** WARNING in dft_plus_u.F:2007 :: DFT+U energy contibution is negative ***
 *** possibly due to unphysical Mulliken charges. Check your input, if    ***
 *** this warning persists or try a different method!                     ***

     8 OT LS       0.35E+00    9.7                    -8097.5519464305

 *** WARNING in dft_plus_u.F:2007 :: DFT+U energy contibution is negative ***
 *** possibly due to unphysical Mulliken charges. Check your input, if    ***
 *** this warning persists or try a different method!                     ***

     9 OT LS       0.32E+00    9.7                    -8097.8132404709

 *** WARNING in dft_plus_u.F:2007 :: DFT+U energy contibution is negative ***
 *** possibly due to unphysical Mulliken charges. Check your input, if    ***
 *** this warning persists or try a different method!                     ***

    10 OT CG       0.26E+00   18.4     0.00245487     -8097.8499406059 -5.83E+00
    11 OT LS       0.36E+00    9.7                    -8099.1227615479
    12 OT LS       0.16E+00    9.7                    -8097.0048248852
    13 OT CG       0.13E+00   18.4     0.00214900     -8099.7478527072 -1.90E+00
    14 OT LS       0.18E+00    9.7                    -8101.4126674392
    15 OT LS       0.23E+00    9.7                    -8101.7105184296
    16 OT CG       0.19E+00   18.4     0.00169190     -8101.7995374333 -2.05E+00
    17 OT LS       0.26E+00    9.7                    -8102.5983528702
    18 OT LS       0.15E+00    9.7                    -8102.2191164561
    19 OT CG       0.12E+00   18.4     0.00126021     -8102.6383307061 -8.39E-01
    20 OT LS       0.17E+00    9.7                    -8103.1468900558
    21 OT LS       0.19E+00    9.7                    -8103.2182247375
    22 OT CG       0.15E+00   18.4     0.00100787     -8103.2254586756 -5.87E-01
    23 OT LS       0.22E+00    9.7                    -8103.5338641879
    24 OT LS       0.16E+00    9.7                    -8103.4941963928
    25 OT CG       0.13E+00   18.4     0.00078131     -8103.5341393317 -3.09E-01
    26 OT LS       0.18E+00    9.7                    -8103.7382456442
    27 OT LS       0.20E+00    9.7                    -8103.7677966590
    28 OT CG       0.16E+00   18.4     0.00072422     -8103.7713394300 -2.37E-01
    29 OT LS       0.23E+00    9.7                    -8103.9509661792
    30 OT LS       0.18E+00    9.7                    -8103.9410153099
    31 OT CG       0.14E+00   18.4     0.00058204     -8103.9529200427 -1.82E-01
    32 OT LS       0.20E+00    9.7                    -8104.0706007352
    33 OT LS       0.19E+00    9.7                    -8104.0784116252
    34 OT CG       0.16E+00   18.4     0.00053467     -8104.0786772679 -1.26E-01
    35 OT LS       0.22E+00    9.7                    -8104.1786260251
    36 OT LS       0.19E+00    9.7                    -8104.1794484625
    37 OT CG       0.15E+00   18.4     0.00043830     -8104.1818700467 -1.03E-01
    38 OT LS       0.21E+00    9.7                    -8104.2457433545
    39 OT LS       0.18E+00    9.7                    -8104.2449518606
    40 OT CG       0.14E+00   18.4     0.00037815     -8104.2472601144 -6.54E-02
    41 OT LS       0.20E+00    9.7                    -8104.2983550595
    42 OT LS       0.21E+00    9.7                    -8104.3037847927
    43 OT CG       0.17E+00   18.5     0.00035161     -8104.3038549346 -5.66E-02
    44 OT LS       0.23E+00    9.7                    -8104.3467191106
    45 OT LS       0.18E+00    9.7                    -8104.3439918468
    46 OT CG       0.15E+00   18.4     0.00029735     -8104.3471133432 -4.33E-02
    47 OT LS       0.20E+00    9.7                    -8104.3787291677
    48 OT LS       0.20E+00    9.7                    -8104.3813627469
    49 OT CG       0.16E+00   18.4     0.00028224     -8104.3813682130 -3.43E-02
    50 OT LS       0.23E+00    9.7                    -8104.4107940780
    51 OT LS       0.20E+00    9.7                    -8104.4114053819
    52 OT CG       0.16E+00   18.4     0.00025267     -8104.4119347659 -3.06E-02
    53 OT LS       0.22E+00    9.7                    -8104.4348600759
    54 OT LS       0.19E+00    9.7                    -8104.4349133582
    55 OT CG       0.15E+00   18.4     0.00022938     -8104.4355444652 -2.36E-02
    56 OT LS       0.22E+00    9.7                    -8104.4546650083
    57 OT LS       0.20E+00    9.7                    -8104.4556017497
    58 OT CG       0.16E+00   18.4     0.00020677     -8104.4557303976 -2.02E-02
    59 OT LS       0.22E+00    9.7                    -8104.4709170182
    60 OT LS       0.19E+00    9.7                    -8104.4708257942
    61 OT CG       0.15E+00   18.4     0.00018304     -8104.4713153475 -1.56E-02
    62 OT LS       0.21E+00    9.7                    -8104.4832297941
    63 OT LS       0.20E+00    9.7                    -8104.4837362761
    64 OT CG       0.16E+00   18.4     0.00016291     -8104.4838404859 -1.25E-02
    65 OT LS       0.22E+00    9.7                    -8104.4931204095
    66 OT LS       0.19E+00    9.7                    -8104.4931480720
    67 OT CG       0.15E+00   18.4     0.00013995     -8104.4933975950 -9.56E-03
    68 OT LS       0.21E+00    9.7                    -8104.5002715406
    69 OT LS       0.19E+00    9.7                    -8104.5005522525
    70 OT CG       0.15E+00   18.4     0.00012434     -8104.5006160552 -7.22E-03
    71 OT LS       0.22E+00    9.7                    -8104.5061274271
    72 OT LS       0.20E+00    9.7                    -8104.5063120019
    73 OT CG       0.16E+00   18.4     0.00010787     -8104.5063786639 -5.76E-03
    74 OT LS       0.22E+00    9.7                    -8104.5104708739
    75 OT LS       0.19E+00    9.7                    -8104.5105125142
    76 OT CG       0.15E+00   18.4     0.00009382     -8104.5106065646 -4.23E-03
    77 OT LS       0.21E+00    9.7                    -8104.5137656188
    78 OT LS       0.20E+00    9.7                    -8104.5139321861
    79 OT CG       0.16E+00   18.4     0.00008414     -8104.5139493978 -3.34E-03
    80 OT LS       0.22E+00    9.7                    -8104.5164923894
    81 OT LS       0.19E+00    9.7                    -8104.5165246756
    82 OT CG       0.16E+00   18.4     0.00007473     -8104.5165798293 -2.63E-03
    83 OT LS       0.22E+00    9.7                    -8104.5185978003
    84 OT LS       0.20E+00    9.7                    -8104.5186757186
    85 OT CG       0.16E+00   18.4     0.00006725     -8104.5186961478 -2.12E-03
    86 OT LS       0.22E+00    9.7                    -8104.5203372191
    87 OT LS       0.20E+00    9.7                    -8104.5203771150
    88 OT CG       0.16E+00   18.4     0.00006027     -8104.5204034755 -1.71E-03
    89 OT LS       0.22E+00    9.7                    -8104.5217174821
    90 OT LS       0.20E+00    9.7                    -8104.5217502080
    91 OT CG       0.16E+00   18.4     0.00005441     -8104.5217709633 -1.37E-03
    92 OT LS       0.22E+00    9.7                    -8104.5228529437
    93 OT LS       0.20E+00    9.7                    -8104.5228931279
    94 OT CG       0.16E+00   18.4     0.00004935     -8104.5229046903 -1.13E-03
    95 OT LS       0.22E+00    9.7                    -8104.5237817891
    96 OT LS       0.19E+00    9.7                    -8104.5237881281
    97 OT CG       0.16E+00   18.4     0.00004371     -8104.5238096798 -9.05E-04
    98 OT LS       0.22E+00    9.7                    -8104.5244998294
    99 OT LS       0.20E+00    9.7                    -8104.5245262409
   100 OT CG       0.16E+00   18.4     0.00003938     -8104.5245333165 -7.24E-04
   101 OT LS       0.22E+00    9.7                    -8104.5250938587
   102 OT LS       0.20E+00    9.7                    -8104.5251056753
   103 OT CG       0.16E+00   18.4     0.00003532     -8104.5251155152 -5.82E-04
   104 OT LS       0.22E+00    9.7                    -8104.5255653066
   105 OT LS       0.20E+00    9.7                    -8104.5255774870
   106 OT CG       0.16E+00   18.4     0.00003175     -8104.5255841527 -4.69E-04
   107 OT LS       0.22E+00    9.7                    -8104.5259516283
   108 OT LS       0.20E+00    9.7                    -8104.5259651094
   109 OT CG       0.16E+00   18.4     0.00002885     -8104.5259690978 -3.85E-04
   110 OT LS       0.22E+00    9.7                    -8104.5262724795
   111 OT LS       0.20E+00    9.7                    -8104.5262790226
   112 OT CG       0.16E+00   18.4     0.00002636     -8104.5262842801 -3.15E-04
   113 OT LS       0.22E+00    9.7                    -8104.5265409405
   114 OT LS       0.20E+00    9.7                    -8104.5265515545
   115 OT CG       0.16E+00   18.4     0.00002427     -8104.5265538949 -2.70E-04
   116 OT LS       0.23E+00    9.7                    -8104.5267731879
   117 OT LS       0.20E+00    9.7                    -8104.5267789629
   118 OT CG       0.16E+00   18.4     0.00002232     -8104.5267822852 -2.28E-04
   119 OT LS       0.23E+00    9.7                    -8104.5269685406
   120 OT LS       0.20E+00    9.7                    -8104.5269742416
   121 OT CG       0.16E+00   18.4     0.00002102     -8104.5269767187 -1.94E-04
   122 OT LS       0.23E+00    9.7                    -8104.5271430582
   123 OT LS       0.21E+00    9.7                    -8104.5271481918
   124 OT CG       0.16E+00   18.4     0.00001966     -8104.5271503863 -1.74E-04
   125 OT LS       0.23E+00    9.7                    -8104.5272951264
   126 OT LS       0.20E+00    9.7                    -8104.5272979284
   127 OT CG       0.16E+00   18.5     0.00001834     -8104.5273005879 -1.50E-04
   128 OT LS       0.23E+00    9.7                    -8104.5274274071
   129 OT LS       0.21E+00    9.7                    -8104.5274320380
   130 OT CG       0.17E+00   18.4     0.00001723     -8104.5274334232 -1.33E-04
   131 OT LS       0.23E+00    9.7                    -8104.5275468052
   132 OT LS       0.21E+00    9.7                    -8104.5275506078
   133 OT CG       0.17E+00   18.4     0.00001624     -8104.5275519797 -1.19E-04
   134 OT LS       0.23E+00    9.7                    -8104.5276527095
   135 OT LS       0.21E+00    9.7                    -8104.5276550648
   136 OT CG       0.17E+00   18.4     0.00001529     -8104.5276567252 -1.05E-04
   137 OT LS       0.23E+00    9.7                    -8104.5277458868
   138 OT LS       0.21E+00    9.7                    -8104.5277483527
   139 OT CG       0.17E+00   18.4     0.00001447     -8104.5277496512 -9.29E-05
   140 OT LS       0.23E+00    9.7                    -8104.5278285122
   141 OT LS       0.20E+00    9.7                    -8104.5278296396
   142 OT CG       0.16E+00   18.5     0.00001360     -8104.5278312849 -8.16E-05
   143 OT LS       0.23E+00    9.7                    -8104.5279008448
   144 OT LS       0.21E+00    9.7                    -8104.5279029650
   145 OT CG       0.16E+00   18.4     0.00001284     -8104.5279038939 -7.26E-05
   146 OT LS       0.23E+00    9.7                    -8104.5279659613
   147 OT LS       0.21E+00    9.7                    -8104.5279675740
   148 OT CG       0.16E+00   18.4     0.00001204     -8104.5279685241 -6.46E-05
   149 OT LS       0.23E+00    9.7                    -8104.5280238694
   150 OT LS       0.21E+00    9.7                    -8104.5280260449
   151 OT CG       0.17E+00   18.4     0.00001146     -8104.5280265907 -5.81E-05
   152 OT LS       0.23E+00    9.7                    -8104.5280772355
   153 OT LS       0.21E+00    9.7                    -8104.5280787598
   154 OT CG       0.17E+00   18.4     0.00001083     -8104.5280794444 -5.29E-05
   155 OT LS       0.24E+00    9.7                    -8104.5281241601
   156 OT LS       0.21E+00    9.7                    -8104.5281248071
   157 OT CG       0.17E+00   18.4     0.00001020     -8104.5281257362 -4.63E-05
   158 OT LS       0.23E+00    9.7                    -8104.5281656242
   159 OT LS       0.21E+00    9.7                    -8104.5281670890
   160 OT CG       0.17E+00   18.4     0.00000972     -8104.5281675212 -4.18E-05

  *** SCF run converged in   160 steps ***


  Electronic density on regular grids:      -1423.9999923637        0.0000076363
  Core density on regular grids:             1423.9999996426       -0.0000003574
  Total charge density on r-space grids:        0.0000072789
  Total charge density g-space grids:           0.0000072789

  Overlap energy of the core charge distribution:               0.00000189619022
  Self energy of the core charge distribution:             -14544.97670297458353
  Core Hamiltonian energy:                                   4078.58433621095082
  Hartree energy:                                            3395.00101434235057
  Exchange-correlation energy:                              -1034.07682302089825
  Dispersion energy:                                           -0.55054146091403

  DFT+U energy:                                                 1.49054748574110

  Total energy:                                             -8104.52816752116360

  outer SCF iter =    1 RMS gradient =   0.97E-05 energy =      -8104.5281675212
  outer SCF loop converged in   1 iterations or  160 steps


  Integrated absolute spin density  :                             232.1667574241
  Ideal and single determinant S**2 :                    0.000000     127.230741

 ENERGY| Total FORCE_EVAL ( QS ) energy (a.u.):            -8104.528203735609168


 --------  Informations at step =     0 ------------
  Optimization Method        =                 BFGS
  Total Energy               =     -8104.5282037356
  Used time                  =             2080.681
 ---------------------------------------------------

 --------------------------
 OPTIMIZATION STEP:      1
 --------------------------

 Spin 1

 Number of electrons:                                                        712
 Number of occupied orbitals:                                                712
 Number of molecular orbitals:                                               712

 Spin 2

 Number of electrons:                                                        712
 Number of occupied orbitals:                                                712
 Number of molecular orbitals:                                               712

 Number of orbital functions:                                               2683
 Number of independent orbital functions:                                   2683

 Extrapolation method: PS Nth order


 SCF WAVEFUNCTION OPTIMIZATION

  ----------------------------------- OT ---------------------------------------
  Minimizer      : CG                  : conjugate gradient
  Preconditioner : FULL_ALL            : diagonalization, state selective
  Precond_solver : DEFAULT
  Line search    : 3PNT                : 3 energies
  stepsize       :    0.15000000                  energy_gap     :    0.08000000
  eps_taylor     :   0.10000E-15                  max_taylor     :             4
  ----------------------------------- OT ---------------------------------------

  Step     Update method      Time    Convergence         Total energy    Change
  ------------------------------------------------------------------------------
     1 OT CG       0.12E+00   20.4     0.00010029     -8104.5270430262 -8.10E+03
     2 OT LS       0.17E+00    8.8                    -8104.5305913220
     3 OT LS       0.26E+00    8.7                    -8104.5314151126
     4 OT CG       0.21E+00   17.5     0.00008891     -8104.5320420571 -5.00E-03
     5 OT LS       0.29E+00    8.7                    -8104.5342472762
     6 OT LS       0.16E+00    8.8                    -8104.5328452756
     7 OT CG       0.13E+00   17.5     0.00003395     -8104.5344621840 -2.42E-03
     8 OT LS       0.18E+00    8.7                    -8104.5346302241
     9 OT LS       0.91E-01    8.7                    -8104.5344744873
    10 OT CG       0.73E-01   17.4     0.00001522     -8104.5346633631 -2.01E-04
    11 OT LS       0.10E+00    8.7                    -8104.5347109936
    12 OT LS       0.14E+00    8.7                    -8104.5347205338
    13 OT CG       0.11E+00   17.4     0.00000809     -8104.5347248189 -6.15E-05

  *** SCF run converged in    13 steps ***


  Electronic density on regular grids:      -1423.9999923180        0.0000076820
  Core density on regular grids:             1423.9999996424       -0.0000003576
  Total charge density on r-space grids:        0.0000073244
  Total charge density g-space grids:           0.0000073244

  Overlap energy of the core charge distribution:               0.00000189938079
  Self energy of the core charge distribution:             -14544.97670297458353
  Core Hamiltonian energy:                                   4078.47036878272684
  Hartree energy:                                            3395.07821660665513
  Exchange-correlation energy:                              -1034.04787440034534
  Dispersion energy:                                           -0.55084633421180

  DFT+U energy:                                                 1.49211160144890

  Total energy:                                             -8104.53472481892913

  outer SCF iter =    1 RMS gradient =   0.81E-05 energy =      -8104.5347248189
  outer SCF loop converged in   1 iterations or   13 steps


  Integrated absolute spin density  :                             232.1622469846
  Ideal and single determinant S**2 :                    0.000000     127.240803

 ENERGY| Total FORCE_EVAL ( QS ) energy (a.u.):            -8104.534739704525236


 --------  Informations at step =     1 ------------
  Optimization Method        =                 BFGS
  Total Energy               =     -8104.5347397045
  Real energy change         =        -0.0065359689
  Predicted change in energy =        -0.0043160910
  Scaling factor             =         0.0000000000
  Step size                  =         0.1656541593
  Trust radius               =         0.4724315332
  Decrease in energy         =                  YES
  Used time                  =              210.278

  Convergence check :
  Max. step size             =         0.1656541593
  Conv. limit for step size  =         1.0000000000
  Convergence in step size   =                  YES
  RMS step size              =         0.0126060932
  Conv. limit for RMS step   =         1.0000000000
  Convergence in RMS step    =                  YES
  Max. gradient              =         0.0142827717
  Conv. limit for gradients  =         0.0100000000
  Conv. for gradients        =                   NO
  RMS gradient               =         0.0013362342
  Conv. limit for RMS grad.  =         1.0000000000
  Conv. in RMS gradients     =                  YES
 ---------------------------------------------------

 --------------------------
 OPTIMIZATION STEP:      2
 --------------------------

 Spin 1

 Number of electrons:                                                        712
 Number of occupied orbitals:                                                712
 Number of molecular orbitals:                                               712

 Spin 2

 Number of electrons:                                                        712
 Number of occupied orbitals:                                                712
 Number of molecular orbitals:                                               712

 Number of orbital functions:                                               2683
 Number of independent orbital functions:                                   2683

 Extrapolation method: PS Nth order


 SCF WAVEFUNCTION OPTIMIZATION

  ----------------------------------- OT ---------------------------------------
  Minimizer      : CG                  : conjugate gradient
  Preconditioner : FULL_ALL            : diagonalization, state selective
  Precond_solver : DEFAULT
  Line search    : 3PNT                : 3 energies
  stepsize       :    0.15000000                  energy_gap     :    0.08000000
  eps_taylor     :   0.10000E-15                  max_taylor     :             4
  ----------------------------------- OT ---------------------------------------

  Step     Update method      Time    Convergence         Total energy    Change
  ------------------------------------------------------------------------------
     1 OT CG       0.12E+00   20.3     0.00013171     -8104.5235297077 -8.10E+03
     2 OT LS       0.17E+00    8.8                    -8104.5300243510
     3 OT LS       0.33E+00    8.7                    -8104.5318134912
     4 OT CG       0.26E+00   17.5     0.00010914     -8104.5345043627 -1.10E-02
     5 OT LS       0.13E+00    8.7                    -8104.5339710109
     6 OT LS       0.13E+00    8.8                    -8104.5374583049
     7 OT CG       0.10E+00   17.5     0.00004280     -8104.5374619379 -2.96E-03
     8 OT LS       0.14E+00    8.8                    -8104.5379000640
     9 OT LS       0.13E+00    8.7                    -8104.5379210055
    10 OT CG       0.10E+00   17.5     0.00001895     -8104.5379240435 -4.62E-04
    11 OT LS       0.15E+00    8.7                    -8104.5379947111
    12 OT LS       0.10E+00    8.8                    -8104.5379820475
    13 OT CG       0.82E-01   17.5     0.00000899     -8104.5379947317 -7.07E-05

  *** SCF run converged in    13 steps ***


  Electronic density on regular grids:      -1423.9999923354        0.0000076646
  Core density on regular grids:             1423.9999996433       -0.0000003567
  Total charge density on r-space grids:        0.0000073079
  Total charge density g-space grids:           0.0000073079

  Overlap energy of the core charge distribution:               0.00000190374648
  Self energy of the core charge distribution:             -14544.97670297458353
  Core Hamiltonian energy:                                   4078.12896493191329
  Hartree energy:                                            3395.32230471650291
  Exchange-correlation energy:                              -1033.96010734829906
  Dispersion energy:                                           -0.55127573746210

  DFT+U energy:                                                 1.49881977649134

  Total energy:                                             -8104.53799473169056

  outer SCF iter =    1 RMS gradient =   0.90E-05 energy =      -8104.5379947317
  outer SCF loop converged in   1 iterations or   13 steps


  Integrated absolute spin density  :                             232.2003884751
  Ideal and single determinant S**2 :                    0.000000     127.271153

 ENERGY| Total FORCE_EVAL ( QS ) energy (a.u.):            -8104.538012675474420


 --------  Informations at step =     2 ------------
  Optimization Method        =                 BFGS
  Total Energy               =     -8104.5380126755
  Real energy change         =        -0.0032729709
  Predicted change in energy =        -0.0067837421
  Scaling factor             =         0.0000000000
  Step size                  =         0.4414226102
  Trust radius               =         0.4724315332
  Decrease in energy         =                  YES
  Used time                  =              210.762

  Convergence check :
  Max. step size             =         0.4414226102
  Conv. limit for step size  =         1.0000000000
  Convergence in step size   =                  YES
  RMS step size              =         0.0290430244
  Conv. limit for RMS step   =         1.0000000000
  Convergence in RMS step    =                  YES
  Max. gradient              =         0.0209220797
  Conv. limit for gradients  =         0.0100000000
  Conv. for gradients        =                   NO
  RMS gradient               =         0.0023163612
  Conv. limit for RMS grad.  =         1.0000000000
  Conv. in RMS gradients     =                  YES
 ---------------------------------------------------

 --------------------------
 OPTIMIZATION STEP:      3
 --------------------------

 Spin 1

 Number of electrons:                                                        712
 Number of occupied orbitals:                                                712
 Number of molecular orbitals:                                               712

 Spin 2

 Number of electrons:                                                        712
 Number of occupied orbitals:                                                712
 Number of molecular orbitals:                                               712

 Number of orbital functions:                                               2683
 Number of independent orbital functions:                                   2683

 Extrapolation method: PS Nth order


 SCF WAVEFUNCTION OPTIMIZATION

  ----------------------------------- OT ---------------------------------------
  Minimizer      : CG                  : conjugate gradient
  Preconditioner : FULL_ALL            : diagonalization, state selective
  Precond_solver : DEFAULT
  Line search    : 3PNT                : 3 energies
  stepsize       :    0.15000000                  energy_gap     :    0.08000000
  eps_taylor     :   0.10000E-15                  max_taylor     :             4
  ----------------------------------- OT ---------------------------------------

  Step     Update method      Time    Convergence         Total energy    Change
  ------------------------------------------------------------------------------
     1 OT CG       0.12E+00   20.2     0.00046414     -8104.4091788670 -8.10E+03
     2 OT LS       0.17E+00    8.7                    -8104.4725257286
     3 OT LS       0.17E+00    8.7                    -8104.4792969308
     4 OT CG       0.14E+00   17.4     0.00034500     -8104.4794595996 -7.03E-02
     5 OT LS       0.20E+00    9.2                    -8104.5252041220
     6 OT LS       0.23E+00    9.2                    -8104.5326378005
     7 OT CG       0.19E+00   17.9     0.00015154     -8104.5339620774 -5.45E-02
     8 OT LS       0.26E+00    9.2                    -8104.5368744318
     9 OT LS       0.11E+00    9.2                    -8104.5306770582
    10 OT CG       0.92E-01   17.8     0.00008831     -8104.5388722725 -4.91E-03
    11 OT LS       0.13E+00    9.1                    -8104.5406523850
    12 OT LS       0.13E+00    9.2                    -8104.5408346048
    13 OT CG       0.11E+00   17.8     0.00004913     -8104.5408362456 -1.96E-03
    14 OT LS       0.15E+00    9.1                    -8104.5414360102
    15 OT LS       0.14E+00    9.2                    -8104.5414659832
    16 OT CG       0.11E+00   17.9     0.00002636     -8104.5414697178 -6.33E-04
    17 OT LS       0.15E+00    9.1                    -8104.5416656728
    18 OT LS       0.17E+00    9.2                    -8104.5416901566
    19 OT CG       0.13E+00   17.8     0.00001647     -8104.5416914754 -2.22E-04
    20 OT LS       0.19E+00    9.1                    -8104.5417751328
    21 OT LS       0.17E+00    9.1                    -8104.5417780628
    22 OT CG       0.14E+00   17.9     0.00001132     -8104.5417790228 -8.75E-05
    23 OT LS       0.19E+00    9.2                    -8104.5418112621
    24 OT LS       0.13E+00    9.1                    -8104.5418051458
    25 OT CG       0.11E+00   17.8     0.00000693     -8104.5418112837 -3.23E-05

  *** SCF run converged in    25 steps ***


  Electronic density on regular grids:      -1423.9999923181        0.0000076819
  Core density on regular grids:             1423.9999996424       -0.0000003576
  Total charge density on r-space grids:        0.0000073243
  Total charge density g-space grids:           0.0000073243

  Overlap energy of the core charge distribution:               0.00000191283076
  Self energy of the core charge distribution:             -14544.97670297458353
  Core Hamiltonian energy:                                   4078.26731179411945
  Hartree energy:                                            3395.21542578815206
  Exchange-correlation energy:                              -1033.99321701750387
  Dispersion energy:                                           -0.55133522168820

  DFT+U energy:                                                 1.49670443497647

  Total energy:                                             -8104.54181128369601

  outer SCF iter =    1 RMS gradient =   0.69E-05 energy =      -8104.5418112837
  outer SCF loop converged in   1 iterations or   25 steps


  Integrated absolute spin density  :                             232.2008414160
  Ideal and single determinant S**2 :                    0.000000     127.263705

 ENERGY| Total FORCE_EVAL ( QS ) energy (a.u.):            -8104.541823641372503


 --------  Informations at step =     3 ------------
  Optimization Method        =                 BFGS
  Total Energy               =     -8104.5418236414
  Real energy change         =        -0.0038109659
  Predicted change in energy =        -0.0042587977
  Scaling factor             =         0.0000000000
  Step size                  =         0.1361325088
  Trust radius               =         0.4724315332
  Decrease in energy         =                  YES
  Used time                  =              358.674

  Convergence check :
  Max. step size             =         0.1361325088
  Conv. limit for step size  =         1.0000000000
  Convergence in step size   =                  YES
  RMS step size              =         0.0100549106
  Conv. limit for RMS step   =         1.0000000000
  Convergence in RMS step    =                  YES
  Max. gradient              =         0.0087663418
  Conv. limit for gradients  =         0.0100000000
  Conv. in gradients         =                  YES
  RMS gradient               =         0.0009874487
  Conv. limit for RMS grad.  =         1.0000000000
  Conv. in RMS gradients     =                  YES
 ---------------------------------------------------

 *******************************************************************************
 ***                    GEOMETRY OPTIMIZATION COMPLETED                      ***
 *******************************************************************************

                    Reevaluating energy at the minimum

 Spin 1

 Number of electrons:                                                        712
 Number of occupied orbitals:                                                712
 Number of molecular orbitals:                                               712

 Spin 2

 Number of electrons:                                                        712
 Number of occupied orbitals:                                                712
 Number of molecular orbitals:                                               712

 Number of orbital functions:                                               2683
 Number of independent orbital functions:                                   2683

 Extrapolation method: PS Nth order


 SCF WAVEFUNCTION OPTIMIZATION

  ----------------------------------- OT ---------------------------------------
  Minimizer      : CG                  : conjugate gradient
  Preconditioner : FULL_ALL            : diagonalization, state selective
  Precond_solver : DEFAULT
  Line search    : 3PNT                : 3 energies
  stepsize       :    0.15000000                  energy_gap     :    0.08000000
  eps_taylor     :   0.10000E-15                  max_taylor     :             4
  ----------------------------------- OT ---------------------------------------

  Step     Update method      Time    Convergence         Total energy    Change
  ------------------------------------------------------------------------------
     1 OT CG       0.12E+00   20.2     0.00037948     -8104.4434439911 -8.10E+03
     2 OT LS       0.17E+00    8.7                    -8104.4898554539
     3 OT LS       0.21E+00    8.7                    -8104.4978530767
     4 OT CG       0.17E+00   17.8     0.00031443     -8104.5001249207 -5.67E-02
     5 OT LS       0.23E+00    9.1                    -8104.5357026004
     6 OT LS       0.18E+00    9.1                    -8104.5331923782
     7 OT CG       0.15E+00   17.8     0.00013525     -8104.5360127111 -3.59E-02
     8 OT LS       0.20E+00    9.1                    -8104.5400510859
     9 OT LS       0.12E+00    9.2                    -8104.5381823036
    10 OT CG       0.96E-01   17.8     0.00007392     -8104.5402406394 -4.23E-03
    11 OT LS       0.13E+00    9.1                    -8104.5413750521
    12 OT LS       0.11E+00    9.2                    -8104.5413442735
    13 OT CG       0.89E-01   17.8     0.00003530     -8104.5413958012 -1.16E-03
    14 OT LS       0.12E+00    9.1                    -8104.5416806460
    15 OT LS       0.14E+00    9.1                    -8104.5417176503
    16 OT CG       0.11E+00   17.8     0.00001500     -8104.5417202064 -3.24E-04
    17 OT LS       0.15E+00    9.1                    -8104.5417825577
    18 OT LS       0.16E+00    9.1                    -8104.5417898988
    19 OT CG       0.13E+00   17.8     0.00000939     -8104.5417901637 -7.00E-05

  *** SCF run converged in    19 steps ***


  Electronic density on regular grids:      -1423.9999923183        0.0000076817
  Core density on regular grids:             1423.9999996424       -0.0000003576
  Total charge density on r-space grids:        0.0000073241
  Total charge density g-space grids:           0.0000073241

  Overlap energy of the core charge distribution:               0.00000191283076
  Self energy of the core charge distribution:             -14544.97670297458353
  Core Hamiltonian energy:                                   4078.25308465140824
  Hartree energy:                                            3395.22999617195819
  Exchange-correlation energy:                              -1033.99282494671797
  Dispersion energy:                                           -0.55133522168820

  DFT+U energy:                                                 1.49599024305005

  Total energy:                                             -8104.54179016374292

  outer SCF iter =    1 RMS gradient =   0.94E-05 energy =      -8104.5417901637
  outer SCF loop converged in   1 iterations or   19 steps


  Integrated absolute spin density  :                             232.1920400450
  Ideal and single determinant S**2 :                    0.000000     127.262539

 ENERGY| Total FORCE_EVAL ( QS ) energy (a.u.):            -8104.541790163742917


 -------------------------------------------------------------------------------
 -                                                                             -
 -                                DBCSR STATISTICS                             -
 -                                                                             -
 -------------------------------------------------------------------------------
 COUNTER                                    TOTAL       BLAS       SMM       ACC
 flops     5 x     8 x     8                89600       0.0%    100.0%      0.0%
 flops    13 x     8 x     8              1547520       0.0%    100.0%      0.0%
 flops    26 x     8 x     8              1797120       0.0%    100.0%      0.0%
 flops     5 x    32 x    32             31539200       0.0%    100.0%      0.0%
 flops     5 x     8 x     5             55428800       0.0%    100.0%      0.0%
 flops     5 x     5 x    64            160608000       0.0%    100.0%      0.0%
 flops     5 x     5 x    72            180684000       0.0%    100.0%      0.0%
 flops    13 x    32 x    32            544727040       0.0%    100.0%      0.0%
 flops    26 x    32 x    32            632586240       0.0%    100.0%      0.0%
 flops     5 x     8 x    13            957334560       0.0%    100.0%      0.0%
 flops    13 x     8 x     5            957334560       0.0%    100.0%      0.0%
 flops    64 x    64 x    64           1013972992       0.0%    100.0%      0.0%
 flops     5 x     8 x    26           1111743360       0.0%    100.0%      0.0%
 flops    26 x     8 x     5           1111743360       0.0%    100.0%      0.0%
 flops    64 x    64 x    72           1140719616       0.0%    100.0%      0.0%
 flops    64 x    72 x    64           1140719616       0.0%    100.0%      0.0%
 flops    72 x    64 x    64           1140719616       0.0%    100.0%      0.0%
 flops    64 x    72 x    72           1283309568       0.0%    100.0%      0.0%
 flops    72 x    64 x    72           1283309568       0.0%    100.0%      0.0%
 flops    72 x    72 x    64           1283309568       0.0%    100.0%      0.0%
 flops    72 x    72 x    72           1443723264       0.0%    100.0%      0.0%
 flops     5 x     5 x    96           1445472000       0.0%    100.0%      0.0%
 flops     5 x    13 x    64           2573093120       0.0%    100.0%      0.0%
 flops    13 x     5 x    64           2604908800       0.0%    100.0%      0.0%
 flops    64 x    64 x   338           2630451200       0.0%    100.0%      0.0%
 flops     5 x    13 x    72           2894729760       0.0%    100.0%      0.0%
 flops    13 x     5 x    72           2930522400       0.0%    100.0%      0.0%
 flops    64 x    72 x   338           2959257600       0.0%    100.0%      0.0%
 flops    72 x    64 x   338           2959257600       0.0%    100.0%      0.0%
 flops    26 x     5 x    64           2974766080       0.0%    100.0%      0.0%
 flops     5 x    26 x    64           3038397440       0.0%    100.0%      0.0%
 flops    72 x    72 x   338           3329164800       0.0%    100.0%      0.0%
 flops    26 x     5 x    72           3346611840       0.0%    100.0%      0.0%
 flops     5 x    26 x    72           3418197120       0.0%    100.0%      0.0%
 flops   338 x    64 x    64           3876454400       0.0%    100.0%      0.0%
 flops   338 x    64 x    72           4361011200       0.0%    100.0%      0.0%
 flops   338 x    72 x    64           4361011200       0.0%    100.0%      0.0%
 flops     5 x    32 x     5           4877734400       0.0%    100.0%      0.0%
 flops   338 x    72 x    72           4906137600       0.0%    100.0%      0.0%
 flops   338 x    64 x   338           4971898880     100.0%      0.0%      0.0%
 flops   338 x    72 x   338           5593386240     100.0%      0.0%      0.0%
 flops    64 x    64 x    96           9125756928       0.0%    100.0%      0.0%
 flops    64 x    96 x    64           9125756928       0.0%    100.0%      0.0%
 flops    96 x    64 x    64           9125756928       0.0%    100.0%      0.0%
 flops    64 x    72 x    96          10266476544       0.0%    100.0%      0.0%
 flops    64 x    96 x    72          10266476544       0.0%    100.0%      0.0%
 flops    72 x    64 x    96          10266476544       0.0%    100.0%      0.0%
 flops    72 x    96 x    64          10266476544       0.0%    100.0%      0.0%
 flops    96 x    64 x    72          10266476544       0.0%    100.0%      0.0%
 flops    96 x    72 x    64          10266476544       0.0%    100.0%      0.0%
 flops    72 x    72 x    96          11549786112       0.0%    100.0%      0.0%
 flops    72 x    96 x    72          11549786112       0.0%    100.0%      0.0%
 flops    96 x    72 x    72          11549786112       0.0%    100.0%      0.0%
 flops    13 x     8 x    13          16378060400       0.0%    100.0%      0.0%
 flops    64 x    64 x   335          18249728000       0.0%    100.0%      0.0%
 flops    26 x     8 x    13          19113456544       0.0%    100.0%      0.0%
 flops    13 x     8 x    26          19113456544       0.0%    100.0%      0.0%
 flops    64 x    72 x   335          20530944000       0.0%    100.0%      0.0%
 flops    72 x    64 x   335          20530944000       0.0%    100.0%      0.0%
 flops    26 x     8 x    26          22298395392       0.0%    100.0%      0.0%
 flops    72 x    72 x   335          23097312000       0.0%    100.0%      0.0%
 flops     5 x    13 x    96          23157838080       0.0%    100.0%      0.0%
 flops    13 x     5 x    96          23444179200       0.0%    100.0%      0.0%
 flops    64 x    96 x   338          23674060800       0.0%    100.0%      0.0%
 flops    96 x    64 x   338          23674060800       0.0%    100.0%      0.0%
 flops    72 x    96 x   338          26633318400     100.0%      0.0%      0.0%
 flops    96 x    72 x   338          26633318400     100.0%      0.0%      0.0%
 flops    26 x     5 x    96          26772894720       0.0%    100.0%      0.0%
 flops   335 x    64 x    64          26894336000       0.0%    100.0%      0.0%
 flops     5 x    26 x    96          27345576960       0.0%    100.0%      0.0%
 flops   335 x    64 x    72          30256128000       0.0%    100.0%      0.0%
 flops   335 x    72 x    64          30256128000       0.0%    100.0%      0.0%
 flops   335 x    72 x    72          34038144000       0.0%    100.0%      0.0%
 flops   335 x    64 x   338          34494387200     100.0%      0.0%      0.0%
 flops   338 x    64 x   335          34494387200     100.0%      0.0%      0.0%
 flops   338 x    64 x    96          34888089600       0.0%    100.0%      0.0%
 flops   338 x    96 x    64          34888089600       0.0%    100.0%      0.0%
 flops   335 x    72 x   338          38806185600     100.0%      0.0%      0.0%
 flops   338 x    72 x   335          38806185600     100.0%      0.0%      0.0%
 flops   338 x    72 x    96          39249100800     100.0%      0.0%      0.0%
 flops   338 x    96 x    72          39249100800     100.0%      0.0%      0.0%
 flops   338 x    96 x   338          44747089920     100.0%      0.0%      0.0%
 flops    13 x    13 x    64          44773264640       0.0%    100.0%      0.0%
 flops    13 x    13 x    72          50369922720       0.0%    100.0%      0.0%
 flops    13 x    26 x    64          51617759232       0.0%    100.0%      0.0%
 flops    26 x    13 x    64          51762520576       0.0%    100.0%      0.0%
 flops    13 x    26 x    72          58069979136       0.0%    100.0%      0.0%
 flops    26 x    13 x    72          58232835648       0.0%    100.0%      0.0%
 flops    26 x    26 x    64          61420170240       0.0%    100.0%      0.0%
 flops    26 x    26 x    72          69097691520       0.0%    100.0%      0.0%
 flops    96 x    96 x    64          82131812352       0.0%    100.0%      0.0%
 flops    64 x    96 x    96          82131812352       0.0%    100.0%      0.0%
 flops    96 x    64 x    96          82131812352       0.0%    100.0%      0.0%
 flops     5 x    32 x    13          84245441280       0.0%    100.0%      0.0%
 flops    13 x    32 x     5          84245441280       0.0%    100.0%      0.0%
 flops    96 x    96 x    72          92398288896       0.0%    100.0%      0.0%
 flops    72 x    96 x    96          92398288896       0.0%    100.0%      0.0%
 flops    96 x    72 x    96          92398288896       0.0%    100.0%      0.0%
 flops     5 x    32 x    26          97833415680       0.0%    100.0%      0.0%
 flops    26 x    32 x     5          97833415680       0.0%    100.0%      0.0%
 flops    64 x    96 x   335         164247552000       0.0%    100.0%      0.0%
 flops    96 x    64 x   335         164247552000       0.0%    100.0%      0.0%
 flops    72 x    96 x   335         184778496000     100.0%      0.0%      0.0%
 flops    96 x    72 x   335         184778496000     100.0%      0.0%      0.0%
 flops    96 x    96 x   338         213066547200     100.0%      0.0%      0.0%
 flops   335 x    64 x   335         239317568000     100.0%      0.0%      0.0%
 flops   335 x    96 x    64         242049024000       0.0%    100.0%      0.0%
 flops   335 x    64 x    96         242049024000       0.0%    100.0%      0.0%
 flops   335 x    72 x   335         269232264000     100.0%      0.0%      0.0%
 flops   335 x    96 x    72         272305152000     100.0%      0.0%      0.0%
 flops   335 x    72 x    96         272305152000     100.0%      0.0%      0.0%
 flops   335 x    96 x   338         310449484800     100.0%      0.0%      0.0%
 flops   338 x    96 x   335         310449484800     100.0%      0.0%      0.0%
 flops   338 x    96 x    96         313992806400     100.0%      0.0%      0.0%
 flops    13 x    13 x    96         402959381760       0.0%    100.0%      0.0%
 flops    13 x    26 x    96         464559833088       0.0%    100.0%      0.0%
 flops    26 x    13 x    96         465862685184       0.0%    100.0%      0.0%
 flops    26 x    26 x    96         552781532160       0.0%    100.0%      0.0%
 flops    96 x    96 x    96         739186311168       0.0%    100.0%      0.0%
 flops    13 x    32 x    13        1441269315200       0.0%    100.0%      0.0%
 flops    96 x    96 x   335        1478227968000     100.0%      0.0%      0.0%
 flops    26 x    32 x    13        1681984175872       0.0%    100.0%      0.0%
 flops    13 x    32 x    26        1681984175872       0.0%    100.0%      0.0%
 flops    26 x    32 x    26        1962258794496       0.0%    100.0%      0.0%
 flops   335 x    96 x   335        2153858112000     100.0%      0.0%      0.0%
 flops   335 x    96 x    96        2178441216000     100.0%      0.0%      0.0%
 flops inhomo. stacks                           0       0.0%      0.0%      0.0%
 flops total                        20.950604E+12      41.6%     58.4%      0.0%
 flops max/rank                    378.744031E+09      43.6%     56.4%      0.0%
 matmuls inhomo. stacks                         0       0.0%      0.0%      0.0%
 matmuls total                          471451217       0.2%     99.8%      0.0%
 number of processed stacks               7758481      13.9%     86.1%      0.0%
 average stack size                                     1.0      70.4       0.0
 marketing flops                    23.474674E+12
 -------------------------------------------------------------------------------
 # multiplications                           5829
 max memory usage/rank             789.901312E+06
 # max total images/rank                        1
 # max 3D layers                                1
 # MPI messages exchanged                 5222784
 MPI messages size (bytes):
  total size                         1.138703E+12
  min size                           0.000000E+00
  max size                         913.952000E+03
  average size                     218.026000E+03
 MPI breakdown and total messages size (bytes):
             size <=      128               12880                        0
       128 < size <=     8192                   0                        0
      8192 < size <=    32768               37436               1221004288
     32768 < size <=   131072             2323188             148344182784
    131072 < size <=  4194304             2849280             989265116168
   4194304 < size <= 16777216                   0                        0
  16777216 < size                               0                        0
 -------------------------------------------------------------------------------
 
 MEMORY| Estimated peak process memory [MiB]                                 754

 -------------------------------------------------------------------------------
 -                                                                             -
 -                         MESSAGE PASSING PERFORMANCE                         -
 -                                                                             -
 -------------------------------------------------------------------------------

 ROUTINE             CALLS      AVE VOLUME [Bytes]
 MP_Group              510
 MP_Bcast            22616                  49890.
 MP_Allreduce        88654                    418.
 MP_Sync               396
 MP_Alltoall         26988                 783512.
 MP_SendRecv          6096                 462009.
 MP_ISendRecv       120582                  29184.
 MP_Wait            685820
 MP_comm_split         391
 MP_ISend           278990                 123897.
 MP_IRecv           278990                 122683.
 MP_Recv                45                 123648.
 MP_Memory          235300
 -------------------------------------------------------------------------------


 -------------------------------------------------------------------------------
 -                                                                             -
 -                           R E F E R E N C E S                               -
 -                                                                             -
 -------------------------------------------------------------------------------
 
 CP2K version 6.1, the CP2K developers group (2018).
 CP2K is freely available from https://www.cp2k.org/ .

 Schuett, Ole; Messmer, Peter; Hutter, Juerg; VandeVondele, Joost. 
 Electronic Structure Calculations on Graphics Processing Units, John Wiley & Sons, Ltd, 173-190 (2016). 
 GPU-Accelerated Sparse Matrix-Matrix Multiplication for Linear Scaling Density Functional Theory.
 http://dx.doi.org/10.1002/9781118670712.ch8


 Borstnik, U; VandeVondele, J; Weber, V; Hutter, J. 
 PARALLEL COMPUTING, 40 (5-6), 47-58 (2014). 
 Sparse matrix multiplication: The distributed block-compressed sparse
 row library.
 http://dx.doi.org/10.1016/j.parco.2014.03.012


 Hutter, J; Iannuzzi, M; Schiffmann, F; VandeVondele, J. 
 WILEY INTERDISCIPLINARY REVIEWS-COMPUTATIONAL MOLECULAR SCIENCE, 4 (1), 15-25 (2014). 
 CP2K: atomistic simulations of condensed matter systems.
 http://dx.doi.org/10.1002/wcms.1159


 Grimme, S; Ehrlich, S; Goerigk, L. 
 JOURNAL OF COMPUTATIONAL CHEMISTRY, 32, 1456 (2011). 
 Effect of the damping function in dispersion corrected density functional theory.
 http://dx.doi.org/10.1002/jcc.21759


 Grimme, S; Antony, J; Ehrlich, S; Krieg, H. 
 JOURNAL OF CHEMICAL PHYSICS, 132 (15), 154104 (2010). 
 A consistent and accurate ab initio parametrization of density
 functional dispersion correction (DFT-D) for the 94 elements H-Pu.
 http://dx.doi.org/10.1063/1.3382344


 VandeVondele, J; Hutter, J. 
 JOURNAL OF CHEMICAL PHYSICS, 127 (11), 114105 (2007). 
 Gaussian basis sets for accurate calculations on molecular systems in
 gas and condensed phases.
 http://dx.doi.org/10.1063/1.2770708


 Krack, M. 
 THEORETICAL CHEMISTRY ACCOUNTS, 114 (1-3), 145-152 (2005). 
 Pseudopotentials for H to Kr optimized for gradient-corrected
 exchange-correlation functionals.
 http://dx.doi.org/10.1007/s00214-005-0655-y


 VandeVondele, J; Krack, M; Mohamed, F; Parrinello, M; Chassaing, T;
 Hutter, J. COMPUTER PHYSICS COMMUNICATIONS, 167 (2), 103-128 (2005). 
 QUICKSTEP: Fast and accurate density functional calculations using a
 mixed Gaussian and plane waves approach.
 http://dx.doi.org/10.1016/j.cpc.2004.12.014


 Frigo, M; Johnson, SG. 
 PROCEEDINGS OF THE IEEE, 93 (2), 216-231 (2005). 
 The design and implementation of FFTW3.
 http://dx.doi.org/10.1109/JPROC.2004.840301


 VandeVondele, J; Hutter, J. 
 JOURNAL OF CHEMICAL PHYSICS, 118 (10), 4365-4369 (2003). 
 An efficient orbital transformation method for electronic structure
 calculations.
 http://dx.doi.org/10.1063/1.1543154


 Hartwigsen, C; Goedecker, S; Hutter, J. 
 PHYSICAL REVIEW B, 58 (7), 3641-3662 (1998). 
 Relativistic separable dual-space Gaussian pseudopotentials from H to Rn.
 http://dx.doi.org/10.1103/PhysRevB.58.3641


 Dudarev, SL; Botton, GA; Savrasov, SY; Humphreys, CJ; Sutton, AP. 
 PHYSICAL REVIEW B, 57 (3), 1505-1509 (1998). 
 Electron-energy-loss spectra and the structural stability of
 nickel oxide: An LSDA+U study.
 http://dx.doi.org/10.1103/PhysRevB.57.1505


 Lippert, G; Hutter, J; Parrinello, M. 
 MOLECULAR PHYSICS, 92 (3), 477-487 (1997). 
 A hybrid Gaussian and plane wave density functional scheme.
 http://dx.doi.org/10.1080/002689797170220


 Dudarev, SL; Manh, DN; Sutton, AP. 
 PHILOSOPHICAL MAGAZINE B, 75 (5), 613-628 (1997). 
 Effect of Mott-Hubbard correlations on the electronic
 structure and structural stability of uranium dioxide.
 http://dx.doi.org/10.1080/13642819708202343


 Perdew, JP; Burke, K; Ernzerhof, M. 
 PHYSICAL REVIEW LETTERS, 77 (18), 3865-3868 (1996). 
 Generalized gradient approximation made simple.
 http://dx.doi.org/10.1103/PhysRevLett.77.3865


 Goedecker, S; Teter, M; Hutter, J. 
 PHYSICAL REVIEW B, 54 (3), 1703-1710 (1996). 
 Separable dual-space Gaussian pseudopotentials.
 http://dx.doi.org/10.1103/PhysRevB.54.1703


 -------------------------------------------------------------------------------
 -                                                                             -
 -                                T I M I N G                                  -
 -                                                                             -
 -------------------------------------------------------------------------------
 SUBROUTINE                       CALLS  ASD         SELF TIME        TOTAL TIME
                                MAXIMUM       AVERAGE  MAXIMUM  AVERAGE  MAXIMUM
 CP2K                                 1  1.0    0.252    0.352 3117.616 3117.771
 cp_geo_opt                           1  2.0    0.012    0.012 3114.060 3114.215
 geoopt_bfgs                          1  3.0    0.106    0.153 3114.048 3114.203
 cp_eval_at                           5  4.0    0.017    0.019 3112.390 3112.549
 qs_energies                          5  5.8    0.023    0.026 3006.225 3006.380
 scf_env_do_scf                       5  6.8    0.007    0.008 2930.658 2930.804
 qs_forces                            4  5.0    0.013    0.015 2858.736 2858.879
 scf_env_do_scf_inner_loop          230  7.9    0.047    0.100 2832.332 2832.474
 qs_rho_update_rho                  235  8.9    0.010    0.012 1805.357 1805.447
 calculate_rho_elec                 470  9.9 1511.841 1679.009 1805.347 1805.437
 rebuild_ks_matrix                  234  9.9    0.011    0.012  952.388  952.481
 qs_ks_build_kohn_sham_matrix       234 10.9    0.125    0.131  952.377  952.469
 qs_ks_update_qs_env                235  8.9    0.015    0.017  856.609  856.694
 sum_up_and_integrate                84 11.8    0.921    0.927  696.865  696.952
 integrate_v_rspace                 168 12.8  564.778  649.006  695.943  696.031
 density_rs2pw                      470 10.9    0.087    0.092  281.646  593.975
 rs_pw_transfer                    3199 12.7    0.119    0.129  274.099  586.437
 rs_pw_transfer_RS2PW_200           475 12.9   22.058   25.534  198.797  510.588
 mp_waitany                       92502 14.7  194.993  504.893  194.993  504.893
 qs_scf_new_mos                     230  8.9    0.007    0.007  254.301  254.559
 qs_scf_loop_do_ot                  230  9.9    0.009    0.011  254.294  254.553
 ot_scf_mini                        230 10.9    0.054    0.057  244.474  244.933
 qs_vxc_create                      234 11.9    0.015    0.018  240.387  240.413
 rs_distribute_matrix               646 11.7    2.163    4.156   92.482  220.108
 mp_alltoall_d11v                  5733 16.0   89.886  218.519   89.886  218.519
 xc_rho_set_and_dset_create         234 13.9    6.822    6.845  192.444  194.672
 cp_fm_syevd                        391 14.6    0.013    0.019  190.761  190.879
 cp_fm_redistribute_end             391 15.6  137.794  188.653  138.143  188.777
 cp_fm_syevd_base                   391 15.4   50.465  186.914   50.465  186.914
 qs_ot_get_p                        470 11.9    0.014    0.016  177.338  178.409
 cp_dbcsr_syevd                     377 13.8    0.154    0.169  163.631  163.656
 qs_ot_p2m_diag                     357 13.0    1.331    1.584  162.894  163.231
 pw_nn_compose_r                   2544 14.6  125.932  126.923  130.023  131.254
 xc_exc_calc                        150 12.9    0.571    0.573  124.921  124.930
 xc_vxc_pw_create                    84 12.8    8.128    8.200  115.452  115.472
 dbcsr_multiply_generic            5829 13.6    1.273    1.310   99.657  101.043
 init_scf_loop                        5  7.8    0.006    0.007   98.254   98.259
 qs_ks_update_qs_env_forces           4  6.0    0.000    0.000   96.214   96.220
 xc_functional_eval                 234 14.9    0.005    0.007   87.617   90.143
 pbe_lsd_eval                       234 15.9   87.612   90.138   87.612   90.138
 multiply_cannon                   5829 14.6    4.822    5.023   66.184   71.245
 -------------------------------------------------------------------------------

 The number of warnings for this run is : 4
 
 -------------------------------------------------------------------------------
  **** **** ******  **  PROGRAM ENDED AT                 2020-10-29 20:01:24.971
 ***** ** ***  *** **   PROGRAM RAN ON                                 irene3036
 **    ****   ******    PROGRAM RAN BY                                  marticar
 ***** **    ** ** **   PROGRAM PROCESS ID                                136329
  **** **  *******  **  PROGRAM STOPPED IN /ccc/scratch/cont003/gen0609/marticar
                                           /5728937
