40
Properties=species:S:1:pos:R:3 energy=-34953.30323597288 pbc="F F F"
Au      15.02649412      14.84836405      16.41839945
Au      17.29369575      11.34652209      14.36216772
Au      14.44033771      12.06037322      17.38474210
Au      18.07800995      15.32261873      17.16692575
Au      12.42364006      14.01144110      17.34784624
Au      11.24601728      14.85175953      15.00967347
Au      12.94723132      18.06676308      13.33904785
Au      15.32090634      18.88840476      14.55246749
Au      14.84542689      15.99571906      13.88133150
Au      14.23762583      13.85328269      19.46441314
Au      14.90088218      12.29683893      13.15844217
Au      12.84005302      14.19236209      12.78407431
Au      15.17848611      14.32798809      11.28361848
Au      16.83719014      14.17299823      14.43666715
Au      12.80517052      12.49318932      15.01612889
Au      14.71385980      10.40642730      15.19876838
Au      17.67130957      16.87713385      14.89089076
Au      19.64430988      14.72423817      14.77863465
Au      15.98730211      17.56962867      17.05874624
Au      18.98709457      16.21982966      12.55261847
Au      13.26699812      17.94522878      16.20076425
Au      16.86843787      10.65110583      17.06477381
Au      10.90693981      16.25378461      12.59324199
Au      15.29708263      18.05250328      11.82166021
Au      11.18059951      16.45895121      17.40669226
Au      10.70610946      17.70079872      14.97550404
Au      16.87827425      13.12193582      18.45677472
Au      15.58640026      16.46082832       9.48529588
Au      18.74065551      12.66429070      16.35259414
Au      16.46278956      15.85344538      19.29255970
Au      17.78791288      14.95073391      10.41363478
Au      14.47297576      15.91027409      21.23302392
Au      13.74727989      16.65253993      18.60534268
Au      13.07835110      16.34978681      10.80265123
Au      17.56656440      12.81913740      12.05678187
Au      17.81408497      17.80028140      10.47548140
Au      17.78004730      18.91701591      12.99418207
Au      17.67169095      19.55269688      15.81843920
C       11.97901347      16.61030192       9.07137441
O       11.34535066      16.74064969       8.12332527
