 DBCSR| Multiplication driver                                               XSMM
 DBCSR| Multrec recursion limit                                              512
 DBCSR| Multiplication stack size                                           1000
 DBCSR| Maximum elements for images                                    UNLIMITED
 DBCSR| Multiplicative factor virtual images                                   1
 DBCSR| Multiplication size stacks                                             3
 DBCSR| Number of 3D layers                                               SINGLE
 DBCSR| Use MPI memory allocation                                              T
 DBCSR| Use RMA algorithm                                                      F
 DBCSR| Use Communication thread                                               T
 DBCSR| Communication thread load                                             87


  **** **** ******  **  PROGRAM STARTED AT               2020-10-07 12:23:55.136
 ***** ** ***  *** **   PROGRAM STARTED ON                             irene6282
 **    ****   ******    PROGRAM STARTED BY                              marticar
 ***** **    ** ** **   PROGRAM PROCESS ID                                 40289
  **** **  *******  **  PROGRAM STARTED IN /ccc/scratch/cont003/gen0609/marticar
                                           /684156

 CP2K| version string:                                          CP2K version 6.1
 CP2K| source code revision number:                                    svn:18464
 CP2K| cp2kflags: libint fftw3 parallel mpi3 scalapack xsmm mkl                 
 CP2K| is freely available from                            https://www.cp2k.org/
 CP2K| Program compiled at                          Thu Dec 12 15:40:57 CET 2019
 CP2K| Program compiled on                                             cobalt175
 CP2K| Program compiled for                                   Linux-x86-64-iomkl
 CP2K| Data directory path          /tmp/cp2k/6.1/iomkl-195281.401/cp2k-6.1/data
 CP2K| Input file name                                             screening.inp
 
 GLOBAL| Force Environment number                                              1
 GLOBAL| Basis set file name            /ccc/work/cont003/gen0609/marticar/data/
 GLOBAL| Potential file name            /ccc/work/cont003/gen0609/marticar/data/
 GLOBAL| MM Potential file name                                     MM_POTENTIAL
 GLOBAL| Coordinate file name                                          coord.xyz
 GLOBAL| Method name                                                        CP2K
 GLOBAL| Project name                                                    PROJECT
 GLOBAL| Preferred FFT library                                             FFTW3
 GLOBAL| Preferred diagonalization lib.                                       SL
 GLOBAL| Run type                                                        GEO_OPT
 GLOBAL| All-to-all communication in single precision                          F
 GLOBAL| FFTs using library dependent lengths                                  F
 GLOBAL| Global print level                                                  LOW
 GLOBAL| Total number of message passing processes                            16
 GLOBAL| Number of threads for this process                                    1
 GLOBAL| This output is from process                                           0
 GLOBAL| CPU model name :  AMD EPYC 7H12 64-Core Processor

 MEMORY| system memory details [Kb]
 MEMORY|                        rank 0           min           max       average
 MEMORY| MemTotal            263246932     263246932     263246932     263246932
 MEMORY| MemFree             248283276     248283276     248314168     248312237
 MEMORY| Buffers                     0             0             0             0
 MEMORY| Cached                2762192       2762192       2762192       2762192
 MEMORY| Slab                  2094152       2094152       2094152       2094152
 MEMORY| SReclaimable           289440        289440        289440        289440
 MEMORY| MemLikelyFree       251334908     251334908     251365800     251363869

 
 GENERATE|  Preliminary Number of Bonds generated:                             0
 GENERATE|  Achieved consistency in connectivity generation.

 *******************************************************************************
 *******************************************************************************
 **                                                                           **
 **     #####                         ##              ##                      **
 **    ##   ##            ##          ##              ##                      **
 **   ##     ##                       ##            ######                    **
 **   ##     ##  ##   ##  ##   #####  ##  ##   ####   ##    #####    #####    **
 **   ##     ##  ##   ##  ##  ##      ## ##   ##      ##   ##   ##  ##   ##   **
 **   ##  ## ##  ##   ##  ##  ##      ####     ###    ##   ######   ######    **
 **    ##  ###   ##   ##  ##  ##      ## ##      ##   ##   ##       ##        **
 **     #######   #####   ##   #####  ##  ##  ####    ##    #####   ##        **
 **           ##                                                    ##        **
 **                                                                           **
 **                                                ... make the atoms dance   **
 **                                                                           **
 **            Copyright (C) by CP2K developers group (2000 - 2018)           **
 **                                                                           **
 *******************************************************************************


 TOTAL NUMBERS AND MAXIMUM NUMBERS

  Total number of            - Atomic kinds:                                   7
                             - Atoms:                                        168
                             - Shell sets:                                   168
                             - Shells:                                       960
                             - Primitive Cartesian functions:               1122
                             - Cartesian basis functions:                   3081
                             - Spherical basis functions:                   2718

  Maximum angular momentum of- Orbital basis functions:                        3
                             - Local part of the GTH pseudopotential:          2
                             - Non-local part of the GTH pseudopotential:      3


 SCF PARAMETERS         Density guess:                                   RESTART
                        --------------------------------------------------------
                        max_scf:                                             500
                        max_scf_history:                                       0
                        max_diis:                                              4
                        --------------------------------------------------------
                        eps_scf:                                        1.00E-05
                        eps_scf_history:                                0.00E+00
                        eps_diis:                                       1.00E-01
                        eps_eigval:                                     1.00E-05
                        --------------------------------------------------------
                        level_shift [a.u.]:                                 0.00
                        --------------------------------------------------------
                        Outer loop SCF in use 
                        No variables optimised in outer loop
                        eps_scf                                         1.00E-05
                        max_scf                                               10
                        No outer loop optimization
                        step_size                                       5.00E-01

 BFGS| Use rational function optimization for step estimation:                NO
 BFGS| Use model Hessian for initial guess:                                  YES
 BFGS| Restart Hessian:                                                       NO
 BFGS| Trust radius:                                                       0.472

 *******************************************************************************
 ***                     STARTING GEOMETRY OPTIMIZATION                      ***
 ***                                   BFGS                                  ***
 *******************************************************************************

 Spin 1

 Number of electrons:                                                        719
 Number of occupied orbitals:                                                719
 Number of molecular orbitals:                                               719

 Spin 2

 Number of electrons:                                                        719
 Number of occupied orbitals:                                                719
 Number of molecular orbitals:                                               719

 Number of orbital functions:                                               2718
 Number of independent orbital functions:                                   2718

 Extrapolation method: initial_guess

 *** WARNING in qs_initial_guess.F:263 :: User requested to restart the    ***
 *** wavefunction from the file named: PROJECT-RESTART.wfn. This file does ***
 *** not exist. Please check the existence of the file or change properly  ***
 *** the value of the keyword WFN_RESTART_FILE_NAME. Calculation continues ***
 *** using ATOMIC GUESS.                                                   ***



 SCF WAVEFUNCTION OPTIMIZATION

  ----------------------------------- OT ---------------------------------------
  Minimizer      : CG                  : conjugate gradient
  Preconditioner : FULL_ALL            : diagonalization, state selective
  Precond_solver : DEFAULT
  Line search    : 3PNT                : 3 energies
  stepsize       :    0.15000000                  energy_gap     :    0.08000000
  eps_taylor     :   0.10000E-15                  max_taylor     :             4
  ----------------------------------- OT ---------------------------------------

  Step     Update method      Time    Convergence         Total energy    Change
  ------------------------------------------------------------------------------
     1 OT CG       0.12E+00   12.3     0.01710825     -8060.2631421951 -8.06E+03
     2 OT LS       0.17E+00    7.8                    -8119.8017604154
     3 OT LS       0.13E+00    7.8                    -8113.7371321850
     4 OT CG       0.10E+00   14.8     0.00588658     -8119.4903549860 -5.92E+01
     5 OT LS       0.14E+00    7.8                    -8128.1215568042
     6 OT LS       0.16E+00    7.8                    -8129.2398780083
     7 OT CG       0.12E+00   14.8     0.00482094     -8129.3188414847 -9.83E+00
     8 OT LS       0.17E+00    7.7                    -8136.7999826737
     9 OT LS       0.19E+00    7.8                    -8137.6991946861
    10 OT CG       0.15E+00   14.7     0.00259901     -8137.7484686775 -8.43E+00
    11 OT LS       0.21E+00    7.7                    -8140.3455493661
    12 OT LS       0.21E+00    7.7                    -8140.5959544557
    13 OT CG       0.17E+00   14.7     0.00228858     -8140.5966181046 -2.85E+00
    14 OT LS       0.24E+00    7.7                    -8141.5635422186
    15 OT LS       0.12E+00    7.7                    -8140.5576191979
    16 OT CG       0.95E-01   14.7     0.00167927     -8141.7981855380 -1.20E+00
    17 OT LS       0.13E+00    7.7                    -8142.5359880705
    18 OT LS       0.16E+00    7.7                    -8142.6599723348
    19 OT CG       0.13E+00   14.7     0.00127349     -8142.6880991460 -8.90E-01
    20 OT LS       0.18E+00    7.7                    -8143.1178427031
    21 OT LS       0.13E+00    7.7                    -8143.0682540956
    22 OT CG       0.11E+00   14.7     0.00108907     -8143.1186803877 -4.31E-01
    23 OT LS       0.15E+00    7.7                    -8143.4232849141
    24 OT LS       0.14E+00    7.7                    -8143.4329752472
    25 OT CG       0.11E+00   14.7     0.00084198     -8143.4369815238 -3.18E-01
    26 OT LS       0.15E+00    7.7                    -8143.6262136082
    27 OT LS       0.15E+00    7.7                    -8143.6386984106
    28 OT CG       0.12E+00   14.7     0.00078747     -8143.6391450172 -2.02E-01
    29 OT LS       0.16E+00    7.7                    -8143.8090087598
    30 OT LS       0.15E+00    7.7                    -8143.8135771537
    31 OT CG       0.12E+00   14.6     0.00063689     -8143.8161449903 -1.77E-01
    32 OT LS       0.16E+00    7.7                    -8143.9303917121
    33 OT LS       0.15E+00    7.7                    -8143.9361218091
    34 OT CG       0.12E+00   14.6     0.00057576     -8143.9368596640 -1.21E-01
    35 OT LS       0.17E+00    7.7                    -8144.0278621764
    36 OT LS       0.14E+00    7.7                    -8144.0266575092
    37 OT CG       0.11E+00   14.6     0.00047265     -8144.0300245818 -9.32E-02
    38 OT LS       0.16E+00    7.7                    -8144.0937868780
    39 OT LS       0.16E+00    7.7                    -8144.0989833652
    40 OT CG       0.13E+00   14.6     0.00043481     -8144.0990015547 -6.90E-02
    41 OT LS       0.18E+00    7.7                    -8144.1499138380
    42 OT LS       0.14E+00    7.7                    -8144.1466145338
    43 OT CG       0.11E+00   14.7     0.00035725     -8144.1503621296 -5.14E-02
    44 OT LS       0.16E+00    7.7                    -8144.1855924155
    45 OT LS       0.15E+00    7.7                    -8144.1883293356
    46 OT CG       0.12E+00   14.7     0.00032560     -8144.1883499874 -3.80E-02
    47 OT LS       0.17E+00    7.7                    -8144.2171069723
    48 OT LS       0.14E+00    7.7                    -8144.2164132260
    49 OT CG       0.11E+00   14.7     0.00027497     -8144.2176708817 -2.93E-02
    50 OT LS       0.16E+00    7.7                    -8144.2389039950
    51 OT LS       0.15E+00    7.7                    -8144.2405615135
    52 OT CG       0.12E+00   14.7     0.00025507     -8144.2405734038 -2.29E-02
    53 OT LS       0.17E+00    7.7                    -8144.2586938770
    54 OT LS       0.15E+00    7.7                    -8144.2584597189
    55 OT CG       0.12E+00   14.7     0.00022054     -8144.2591191277 -1.85E-02
    56 OT LS       0.16E+00    7.7                    -8144.2727799662
    57 OT LS       0.15E+00    7.7                    -8144.2734765518
    58 OT CG       0.12E+00   14.7     0.00019685     -8144.2735580142 -1.44E-02
    59 OT LS       0.17E+00    7.7                    -8144.2843521249
    60 OT LS       0.15E+00    7.7                    -8144.2844018578
    61 OT CG       0.12E+00   14.7     0.00017289     -8144.2846829422 -1.11E-02
    62 OT LS       0.16E+00    7.7                    -8144.2931048766
    63 OT LS       0.15E+00    7.7                    -8144.2934964412
    64 OT CG       0.12E+00   14.7     0.00015561     -8144.2935589682 -8.88E-03
    65 OT LS       0.17E+00    7.7                    -8144.3003066340
    66 OT LS       0.15E+00    7.7                    -8144.3003443994
    67 OT CG       0.12E+00   14.7     0.00013570     -8144.3005165716 -6.96E-03
    68 OT LS       0.16E+00    7.7                    -8144.3057031669
    69 OT LS       0.15E+00    7.7                    -8144.3059455305
    70 OT CG       0.12E+00   14.7     0.00012037     -8144.3059833190 -5.47E-03
    71 OT LS       0.17E+00    7.7                    -8144.3100463980
    72 OT LS       0.15E+00    7.7                    -8144.3100943794
    73 OT CG       0.12E+00   14.7     0.00010466     -8144.3101842971 -4.20E-03
    74 OT LS       0.17E+00    7.7                    -8144.3132546465
    75 OT LS       0.15E+00    7.7                    -8144.3133553129
    76 OT CG       0.12E+00   14.7     0.00009229     -8144.3133934049 -3.21E-03
    77 OT LS       0.17E+00    7.7                    -8144.3157284263
    78 OT LS       0.14E+00    7.7                    -8144.3157338282
    79 OT CG       0.12E+00   14.7     0.00007993     -8144.3157975350 -2.40E-03
    80 OT LS       0.16E+00    7.7                    -8144.3175383359
    81 OT LS       0.15E+00    7.7                    -8144.3175940232
    82 OT CG       0.12E+00   14.7     0.00006975     -8144.3176161919 -1.82E-03
    83 OT LS       0.16E+00    7.7                    -8144.3189527627
    84 OT LS       0.15E+00    7.7                    -8144.3189954372
    85 OT CG       0.12E+00   14.7     0.00006017     -8144.3190124770 -1.40E-03
    86 OT LS       0.16E+00    7.7                    -8144.3200004658
    87 OT LS       0.14E+00    7.7                    -8144.3200178143
    88 OT CG       0.12E+00   14.7     0.00005156     -8144.3200368231 -1.02E-03
    89 OT LS       0.16E+00    7.7                    -8144.3207655058
    90 OT LS       0.15E+00    7.7                    -8144.3207911186
    91 OT CG       0.12E+00   14.7     0.00004503     -8144.3207994624 -7.63E-04
    92 OT LS       0.16E+00    7.7                    -8144.3213510481
    93 OT LS       0.14E+00    7.7                    -8144.3213593610
    94 OT CG       0.12E+00   14.7     0.00003824     -8144.3213706573 -5.71E-04
    95 OT LS       0.16E+00    7.7                    -8144.3217703932
    96 OT LS       0.15E+00    7.7                    -8144.3217850121
    97 OT CG       0.12E+00   14.7     0.00003339     -8144.3217893673 -4.19E-04
    98 OT LS       0.16E+00    7.7                    -8144.3220972896
    99 OT LS       0.15E+00    7.7                    -8144.3221069294
   100 OT CG       0.12E+00   14.7     0.00002859     -8144.3221109349 -3.22E-04
   101 OT LS       0.17E+00    7.7                    -8144.3223377063
   102 OT LS       0.15E+00    7.7                    -8144.3223441067
   103 OT CG       0.12E+00   14.7     0.00002492     -8144.3223473538 -2.36E-04
   104 OT LS       0.17E+00    7.7                    -8144.3225220480
   105 OT LS       0.15E+00    7.7                    -8144.3225288373
   106 OT CG       0.12E+00   14.7     0.00002173     -8144.3225305885 -1.83E-04
   107 OT LS       0.17E+00    7.7                    -8144.3226632537
   108 OT LS       0.15E+00    7.7                    -8144.3226658273
   109 OT CG       0.12E+00   14.8     0.00001920     -8144.3226682620 -1.38E-04
   110 OT LS       0.17E+00    7.7                    -8144.3227731035
   111 OT LS       0.15E+00    7.7                    -8144.3227774161
   112 OT CG       0.12E+00   14.8     0.00001724     -8144.3227783798 -1.10E-04
   113 OT LS       0.17E+00    7.7                    -8144.3228624421
   114 OT LS       0.15E+00    7.7                    -8144.3228636108
   115 OT CG       0.12E+00   14.8     0.00001542     -8144.3228653817 -8.70E-05
   116 OT LS       0.17E+00    7.6                    -8144.3229332914
   117 OT LS       0.15E+00    7.7                    -8144.3229361301
   118 OT CG       0.12E+00   14.7     0.00001401     -8144.3229367382 -7.14E-05
   119 OT LS       0.17E+00    7.6                    -8144.3229930976
   120 OT LS       0.15E+00    7.7                    -8144.3229944315
   121 OT CG       0.12E+00   14.7     0.00001259     -8144.3229953530 -5.86E-05
   122 OT LS       0.17E+00    7.6                    -8144.3230412745
   123 OT LS       0.16E+00    7.7                    -8144.3230429420
   124 OT CG       0.12E+00   14.7     0.00001148     -8144.3230434468 -4.81E-05
   125 OT LS       0.17E+00    7.6                    -8144.3230815992
   126 OT LS       0.15E+00    7.7                    -8144.3230823670
   127 OT CG       0.12E+00   14.8     0.00001048     -8144.3230830539 -3.96E-05
   128 OT LS       0.17E+00    7.6                    -8144.3231148678
   129 OT LS       0.15E+00    7.7                    -8144.3231158443
   130 OT CG       0.12E+00   14.7     0.00000964     -8144.3231162663 -3.32E-05

  *** SCF run converged in   130 steps ***


  Electronic density on regular grids:      -1437.9999923212        0.0000076788
  Core density on regular grids:             1437.9999996447       -0.0000003553
  Total charge density on r-space grids:        0.0000073234
  Total charge density g-space grids:           0.0000073234

  Overlap energy of the core charge distribution:               0.00000638850538
  Self energy of the core charge distribution:             -14650.93922905635191
  Core Hamiltonian energy:                                   4107.84398784499899
  Hartree energy:                                            3440.49295910498222
  Exchange-correlation energy:                              -1042.58410654588170
  Dispersion energy:                                           -0.58844866518062

  DFT+U energy:                                                 1.45171466262412

  Total energy:                                             -8144.32311626630326

  outer SCF iter =    1 RMS gradient =   0.96E-05 energy =      -8144.3231162663
  outer SCF loop converged in   1 iterations or  130 steps


  Integrated absolute spin density  :                             235.0021890375
  Ideal and single determinant S**2 :                    0.000000     127.894354

 ENERGY| Total FORCE_EVAL ( QS ) energy (a.u.):            -8144.323143269127286


 --------  Informations at step =     0 ------------
  Optimization Method        =                 BFGS
  Total Energy               =     -8144.3231432691
  Used time                  =             1344.622
 ---------------------------------------------------

 --------------------------
 OPTIMIZATION STEP:      1
 --------------------------

 Spin 1

 Number of electrons:                                                        719
 Number of occupied orbitals:                                                719
 Number of molecular orbitals:                                               719

 Spin 2

 Number of electrons:                                                        719
 Number of occupied orbitals:                                                719
 Number of molecular orbitals:                                               719

 Number of orbital functions:                                               2718
 Number of independent orbital functions:                                   2718

 Extrapolation method: PS Nth order


 SCF WAVEFUNCTION OPTIMIZATION

  ----------------------------------- OT ---------------------------------------
  Minimizer      : CG                  : conjugate gradient
  Preconditioner : FULL_ALL            : diagonalization, state selective
  Precond_solver : DEFAULT
  Line search    : 3PNT                : 3 energies
  stepsize       :    0.15000000                  energy_gap     :    0.08000000
  eps_taylor     :   0.10000E-15                  max_taylor     :             4
  ----------------------------------- OT ---------------------------------------

  Step     Update method      Time    Convergence         Total energy    Change
  ------------------------------------------------------------------------------
     1 OT CG       0.12E+00   12.4     0.00012592     -8144.3320586797 -8.14E+03
     2 OT LS       0.17E+00    7.5                    -8144.3383894782
     3 OT LS       0.40E+00    7.4                    -8144.3403020709
     4 OT CG       0.32E+00   14.9     0.00008343     -8144.3445458974 -1.25E-02
     5 OT LS       0.16E+00    7.5                    -8144.3420691149
     6 OT LS       0.13E+00    7.4                    -8144.3461113620
     7 OT CG       0.10E+00   14.8     0.00002638     -8144.3462493351 -1.70E-03
     8 OT LS       0.14E+00    7.6                    -8144.3464211539
     9 OT LS       0.14E+00    7.4                    -8144.3464331395
    10 OT CG       0.11E+00   14.8     0.00001236     -8144.3464334164 -1.84E-04
    11 OT LS       0.15E+00    7.5                    -8144.3464696406
    12 OT LS       0.12E+00    7.5                    -8144.3464681507
    13 OT CG       0.98E-01   14.9     0.00000635     -8144.3464701589 -3.67E-05

  *** SCF run converged in    13 steps ***


  Electronic density on regular grids:      -1437.9999923109        0.0000076891
  Core density on regular grids:             1437.9999996449       -0.0000003551
  Total charge density on r-space grids:        0.0000073339
  Total charge density g-space grids:           0.0000073339

  Overlap energy of the core charge distribution:               0.00000687437961
  Self energy of the core charge distribution:             -14650.93922905635191
  Core Hamiltonian energy:                                   4107.76446528708220
  Hartree energy:                                            3440.53081176337446
  Exchange-correlation energy:                              -1042.56330762254242
  Dispersion energy:                                           -0.58842616381192

  DFT+U energy:                                                 1.44920875895441

  Total energy:                                             -8144.34647015891642

  outer SCF iter =    1 RMS gradient =   0.64E-05 energy =      -8144.3464701589
  outer SCF loop converged in   1 iterations or   13 steps


  Integrated absolute spin density  :                             234.9906308046
  Ideal and single determinant S**2 :                    0.000000     127.889661

 ENERGY| Total FORCE_EVAL ( QS ) energy (a.u.):            -8144.346478675498474


 --------  Informations at step =     1 ------------
  Optimization Method        =                 BFGS
  Total Energy               =     -8144.3464786755
  Real energy change         =        -0.0233354064
  Predicted change in energy =        -0.0174240169
  Scaling factor             =         0.0000000000
  Step size                  =         0.2564679614
  Trust radius               =         0.4724315332
  Decrease in energy         =                  YES
  Used time                  =              168.085

  Convergence check :
  Max. step size             =         0.2564679614
  Conv. limit for step size  =         1.0000000000
  Convergence in step size   =                  YES
  RMS step size              =         0.0237109123
  Conv. limit for RMS step   =         1.0000000000
  Convergence in RMS step    =                  YES
  Max. gradient              =         0.0153922182
  Conv. limit for gradients  =         0.0100000000
  Conv. for gradients        =                   NO
  RMS gradient               =         0.0016558773
  Conv. limit for RMS grad.  =         1.0000000000
  Conv. in RMS gradients     =                  YES
 ---------------------------------------------------

 --------------------------
 OPTIMIZATION STEP:      2
 --------------------------

 Spin 1

 Number of electrons:                                                        719
 Number of occupied orbitals:                                                719
 Number of molecular orbitals:                                               719

 Spin 2

 Number of electrons:                                                        719
 Number of occupied orbitals:                                                719
 Number of molecular orbitals:                                               719

 Number of orbital functions:                                               2718
 Number of independent orbital functions:                                   2718

 Extrapolation method: PS Nth order


 SCF WAVEFUNCTION OPTIMIZATION

  ----------------------------------- OT ---------------------------------------
  Minimizer      : CG                  : conjugate gradient
  Preconditioner : FULL_ALL            : diagonalization, state selective
  Precond_solver : DEFAULT
  Line search    : 3PNT                : 3 energies
  stepsize       :    0.15000000                  energy_gap     :    0.08000000
  eps_taylor     :   0.10000E-15                  max_taylor     :             4
  ----------------------------------- OT ---------------------------------------

  Step     Update method      Time    Convergence         Total energy    Change
  ------------------------------------------------------------------------------
     1 OT CG       0.12E+00   12.4     0.00010453     -8144.3442324273 -8.14E+03
     2 OT LS       0.17E+00    7.5                    -8144.3482718956
     3 OT LS       0.28E+00    7.4                    -8144.3492819477
     4 OT CG       0.23E+00   14.9     0.00009345     -8144.3503012675 -6.07E-03
     5 OT LS       0.32E+00    7.5                    -8144.3524586551
     6 OT LS       0.16E+00    7.4                    -8144.3501521816
     7 OT CG       0.13E+00   14.9     0.00002700     -8144.3529966558 -2.70E-03
     8 OT LS       0.18E+00    7.5                    -8144.3531352981
     9 OT LS       0.10E+00    7.4                    -8144.3530675696
    10 OT CG       0.82E-01   14.9     0.00001220     -8144.3531428019 -1.46E-04
    11 OT LS       0.11E+00    7.5                    -8144.3531736612
    12 OT LS       0.12E+00    7.4                    -8144.3531765907
    13 OT CG       0.93E-01   14.9     0.00000655     -8144.3531765961 -3.38E-05

  *** SCF run converged in    13 steps ***


  Electronic density on regular grids:      -1437.9999923040        0.0000076960
  Core density on regular grids:             1437.9999996448       -0.0000003552
  Total charge density on r-space grids:        0.0000073408
  Total charge density g-space grids:           0.0000073408

  Overlap energy of the core charge distribution:               0.00000690792008
  Self energy of the core charge distribution:             -14650.93922905635191
  Core Hamiltonian energy:                                   4107.68498298964369
  Hartree energy:                                            3440.58187577685248
  Exchange-correlation energy:                              -1042.54151537692610
  Dispersion energy:                                           -0.58589747334445

  DFT+U energy:                                                 1.44659963605886

  Total energy:                                             -8144.35317659614884

  outer SCF iter =    1 RMS gradient =   0.66E-05 energy =      -8144.3531765961
  outer SCF loop converged in   1 iterations or   13 steps


  Integrated absolute spin density  :                             234.9679963623
  Ideal and single determinant S**2 :                    0.000000     127.881078

 ENERGY| Total FORCE_EVAL ( QS ) energy (a.u.):            -8144.353187192655241


 --------  Informations at step =     2 ------------
  Optimization Method        =                 BFGS
  Total Energy               =     -8144.3531871927
  Real energy change         =        -0.0067085172
  Predicted change in energy =        -0.0089703202
  Scaling factor             =         0.0000000000
  Step size                  =         0.3226356795
  Trust radius               =         0.4724315332
  Decrease in energy         =                  YES
  Used time                  =              168.219

  Convergence check :
  Max. step size             =         0.3226356795
  Conv. limit for step size  =         1.0000000000
  Convergence in step size   =                  YES
  RMS step size              =         0.0258237186
  Conv. limit for RMS step   =         1.0000000000
  Convergence in RMS step    =                  YES
  Max. gradient              =         0.0336701249
  Conv. limit for gradients  =         0.0100000000
  Conv. for gradients        =                   NO
  RMS gradient               =         0.0051372286
  Conv. limit for RMS grad.  =         1.0000000000
  Conv. in RMS gradients     =                  YES
 ---------------------------------------------------

 --------------------------
 OPTIMIZATION STEP:      3
 --------------------------

  Step is scaled; Scaling factor =  0.46941

 Spin 1

 Number of electrons:                                                        719
 Number of occupied orbitals:                                                719
 Number of molecular orbitals:                                               719

 Spin 2

 Number of electrons:                                                        719
 Number of occupied orbitals:                                                719
 Number of molecular orbitals:                                               719

 Number of orbital functions:                                               2718
 Number of independent orbital functions:                                   2718

 Extrapolation method: PS Nth order


 SCF WAVEFUNCTION OPTIMIZATION

  ----------------------------------- OT ---------------------------------------
  Minimizer      : CG                  : conjugate gradient
  Preconditioner : FULL_ALL            : diagonalization, state selective
  Precond_solver : DEFAULT
  Line search    : 3PNT                : 3 energies
  stepsize       :    0.15000000                  energy_gap     :    0.08000000
  eps_taylor     :   0.10000E-15                  max_taylor     :             4
  ----------------------------------- OT ---------------------------------------

  Step     Update method      Time    Convergence         Total energy    Change
  ------------------------------------------------------------------------------
     1 OT CG       0.12E+00   12.3     0.00013868     -8144.3342019348 -8.14E+03
     2 OT LS       0.17E+00    7.5                    -8144.3410844516
     3 OT LS       0.25E+00    7.5                    -8144.3426394921
     4 OT CG       0.20E+00   14.9     0.00012123     -8144.3437119087 -9.51E-03
     5 OT LS       0.28E+00    7.5                    -8144.3484634089
     6 OT LS       0.17E+00    7.5                    -8144.3465436296
     7 OT CG       0.14E+00   14.9     0.00003833     -8144.3486229406 -4.91E-03
     8 OT LS       0.19E+00    7.5                    -8144.3489216163
     9 OT LS       0.11E+00    7.4                    -8144.3487673377
    10 OT CG       0.89E-01   15.0     0.00001639     -8144.3489401037 -3.17E-04
    11 OT LS       0.12E+00    7.5                    -8144.3490022291
    12 OT LS       0.13E+00    7.4                    -8144.3490098037
    13 OT CG       0.11E+00   14.9     0.00001000     -8144.3490101556 -7.01E-05

  *** SCF run converged in    13 steps ***


  Electronic density on regular grids:      -1437.9999922991        0.0000077009
  Core density on regular grids:             1437.9999996441       -0.0000003559
  Total charge density on r-space grids:        0.0000073450
  Total charge density g-space grids:           0.0000073450

  Overlap energy of the core charge distribution:               0.00000652672326
  Self energy of the core charge distribution:             -14650.93922905635191
  Core Hamiltonian energy:                                   4107.61560392815227
  Hartree energy:                                            3440.62254372987172
  Exchange-correlation energy:                              -1042.50431802055755
  Dispersion energy:                                           -0.58826602605280

  DFT+U energy:                                                 1.44464876266008

  Total energy:                                             -8144.34901015555533

  outer SCF iter =    1 RMS gradient =   0.10E-04 energy =      -8144.3490101556
  outer SCF loop converged in   1 iterations or   13 steps


  Integrated absolute spin density  :                             234.9072131301
  Ideal and single determinant S**2 :                    0.000000     127.858119

 ENERGY| Total FORCE_EVAL ( QS ) energy (a.u.):            -8144.349033357958433


 --------  Informations at step =     3 ------------
  Optimization Method        =                 BFGS
  Total Energy               =     -8144.3490333580
  Real energy change         =         0.0041538347
  Predicted change in energy =        -0.0199552918
  Scaling factor             =         0.4694119778
  Step size                  =         0.4724315332
  Trust radius               =         0.4724315332
  Decrease in energy         =                   NO
  Used time                  =              168.511

  Convergence check :
  Max. step size             =         0.4724315332
  Conv. limit for step size  =         1.0000000000
  Convergence in step size   =                  YES
  RMS step size              =         0.0382458448
  Conv. limit for RMS step   =         1.0000000000
  Convergence in RMS step    =                  YES
  Max. gradient              =         0.0425775183
  Conv. limit for gradients  =         0.0100000000
  Conv. for gradients        =                   NO
  RMS gradient               =         0.0044046519
  Conv. limit for RMS grad.  =         1.0000000000
  Conv. in RMS gradients     =                  YES
 ---------------------------------------------------

 --------------------------
 OPTIMIZATION STEP:      4
 --------------------------

 Spin 1

 Number of electrons:                                                        719
 Number of occupied orbitals:                                                719
 Number of molecular orbitals:                                               719

 Spin 2

 Number of electrons:                                                        719
 Number of occupied orbitals:                                                719
 Number of molecular orbitals:                                               719

 Number of orbital functions:                                               2718
 Number of independent orbital functions:                                   2718

 Extrapolation method: PS Nth order


 SCF WAVEFUNCTION OPTIMIZATION

  ----------------------------------- OT ---------------------------------------
  Minimizer      : CG                  : conjugate gradient
  Preconditioner : FULL_ALL            : diagonalization, state selective
  Precond_solver : DEFAULT
  Line search    : 3PNT                : 3 energies
  stepsize       :    0.15000000                  energy_gap     :    0.08000000
  eps_taylor     :   0.10000E-15                  max_taylor     :             4
  ----------------------------------- OT ---------------------------------------

  Step     Update method      Time    Convergence         Total energy    Change
  ------------------------------------------------------------------------------
     1 OT CG       0.12E+00   12.4     0.00031727     -8144.2813083498 -8.14E+03
     2 OT LS       0.17E+00    7.4                    -8144.3180002340
     3 OT LS       0.27E+00    7.5                    -8144.3268702081
     4 OT CG       0.22E+00   14.9     0.00027881     -8144.3349747688 -5.37E-02
     5 OT LS       0.30E+00    7.5                    -8144.3572233612
     6 OT LS       0.16E+00    7.5                    -8144.3400040077
     7 OT CG       0.13E+00   14.9     0.00008565     -8144.3602463337 -2.53E-02
     8 OT LS       0.18E+00    7.5                    -8144.3618655157
     9 OT LS       0.11E+00    7.5                    -8144.3613286651
    10 OT CG       0.91E-01   14.9     0.00003527     -8144.3618944530 -1.65E-03
    11 OT LS       0.13E+00    7.5                    -8144.3621554387
    12 OT LS       0.11E+00    7.5                    -8144.3621586807
    13 OT CG       0.89E-01   14.9     0.00002061     -8144.3621643617 -2.70E-04
    14 OT LS       0.12E+00    7.4                    -8144.3622722924
    15 OT LS       0.17E+00    7.5                    -8144.3622932907
    16 OT CG       0.13E+00   14.9     0.00000960     -8144.3623017717 -1.37E-04

  *** SCF run converged in    16 steps ***


  Electronic density on regular grids:      -1437.9999923088        0.0000076912
  Core density on regular grids:             1437.9999996446       -0.0000003554
  Total charge density on r-space grids:        0.0000073358
  Total charge density g-space grids:           0.0000073358

  Overlap energy of the core charge distribution:               0.00000630750970
  Self energy of the core charge distribution:             -14650.93922905635191
  Core Hamiltonian energy:                                   4107.61580069313823
  Hartree energy:                                            3440.62227112566688
  Exchange-correlation energy:                              -1042.52218099985089
  Dispersion energy:                                           -0.58752523628276

  DFT+U energy:                                                 1.44855539444673

  Total energy:                                             -8144.36230177172456

  outer SCF iter =    1 RMS gradient =   0.96E-05 energy =      -8144.3623017717
  outer SCF loop converged in   1 iterations or   16 steps


  Integrated absolute spin density  :                             234.9591103008
  Ideal and single determinant S**2 :                    0.000000     127.878811

 ENERGY| Total FORCE_EVAL ( QS ) energy (a.u.):            -8144.362327155703497


 --------  Informations at step =     4 ------------
  Optimization Method        =                 BFGS
  Total Energy               =     -8144.3623271557
  Real energy change         =        -0.0132937977
  Predicted change in energy =        -0.0112435214
  Scaling factor             =         0.4694119778
  Step size                  =         0.1154647249
  Trust radius               =         0.4724315332
  Decrease in energy         =                  YES
  Used time                  =              198.492

  Convergence check :
  Max. step size             =         0.1154647249
  Conv. limit for step size  =         1.0000000000
  Convergence in step size   =                  YES
  RMS step size              =         0.0154510944
  Conv. limit for RMS step   =         1.0000000000
  Convergence in RMS step    =                  YES
  Max. gradient              =         0.0192765147
  Conv. limit for gradients  =         0.0100000000
  Conv. for gradients        =                   NO
  RMS gradient               =         0.0028141428
  Conv. limit for RMS grad.  =         1.0000000000
  Conv. in RMS gradients     =                  YES
 ---------------------------------------------------

 --------------------------
 OPTIMIZATION STEP:      5
 --------------------------

 Spin 1

 Number of electrons:                                                        719
 Number of occupied orbitals:                                                719
 Number of molecular orbitals:                                               719

 Spin 2

 Number of electrons:                                                        719
 Number of occupied orbitals:                                                719
 Number of molecular orbitals:                                               719

 Number of orbital functions:                                               2718
 Number of independent orbital functions:                                   2718

 Extrapolation method: PS Nth order


 SCF WAVEFUNCTION OPTIMIZATION

  ----------------------------------- OT ---------------------------------------
  Minimizer      : CG                  : conjugate gradient
  Preconditioner : FULL_ALL            : diagonalization, state selective
  Precond_solver : DEFAULT
  Line search    : 3PNT                : 3 energies
  stepsize       :    0.15000000                  energy_gap     :    0.08000000
  eps_taylor     :   0.10000E-15                  max_taylor     :             4
  ----------------------------------- OT ---------------------------------------

  Step     Update method      Time    Convergence         Total energy    Change
  ------------------------------------------------------------------------------
     1 OT CG       0.12E+00   12.5     0.00027386     -8144.2896825925 -8.14E+03
     2 OT LS       0.17E+00    7.5                    -8144.3172741499
     3 OT LS       0.28E+00    7.4                    -8144.3240864039
     4 OT CG       0.22E+00   15.0     0.00024295     -8144.3306801852 -4.10E-02
     5 OT LS       0.31E+00    7.6                    -8144.3454968190
     6 OT LS       0.16E+00    7.4                    -8144.3306328364
     7 OT CG       0.13E+00   15.0     0.00007414     -8144.3488387502 -1.82E-02
     8 OT LS       0.18E+00    7.5                    -8144.3498307063
     9 OT LS       0.99E-01    7.4                    -8144.3492725795
    10 OT CG       0.79E-01   15.0     0.00003132     -8144.3499047489 -1.07E-03
    11 OT LS       0.11E+00    7.5                    -8144.3501030145
    12 OT LS       0.11E+00    7.4                    -8144.3501232658
    13 OT CG       0.91E-01   15.0     0.00001793     -8144.3501234366 -2.19E-04
    14 OT LS       0.13E+00    7.5                    -8144.3502073615
    15 OT LS       0.17E+00    7.4                    -8144.3502237240
    16 OT CG       0.14E+00   14.9     0.00000785     -8144.3502303861 -1.07E-04

  *** SCF run converged in    16 steps ***


  Electronic density on regular grids:      -1437.9999923127        0.0000076873
  Core density on regular grids:             1437.9999996447       -0.0000003553
  Total charge density on r-space grids:        0.0000073320
  Total charge density g-space grids:           0.0000073320

  Overlap energy of the core charge distribution:               0.00000590818674
  Self energy of the core charge distribution:             -14650.93922905635191
  Core Hamiltonian energy:                                   4107.68609430022480
  Hartree energy:                                            3440.57026982747266
  Exchange-correlation energy:                              -1042.53921856787042
  Dispersion energy:                                           -0.58131077139534

  DFT+U energy:                                                 1.45315797365733

  Total energy:                                             -8144.35023038607596

  outer SCF iter =    1 RMS gradient =   0.78E-05 energy =      -8144.3502303861
  outer SCF loop converged in   1 iterations or   16 steps


  Integrated absolute spin density  :                             235.0001776046
  Ideal and single determinant S**2 :                    0.000000     127.888833

 ENERGY| Total FORCE_EVAL ( QS ) energy (a.u.):            -8144.350246232500467


 --------  Informations at step =     5 ------------
  Optimization Method        =                 BFGS
  Total Energy               =     -8144.3502462325
  Real energy change         =         0.0120809232
  Predicted change in energy =        -0.0108912453
  Scaling factor             =         0.4694119778
  Step size                  =         0.1395741126
  Trust radius               =         0.4724315332
  Decrease in energy         =                   NO
  Used time                  =              198.701

  Convergence check :
  Max. step size             =         0.1395741126
  Conv. limit for step size  =         1.0000000000
  Convergence in step size   =                  YES
  RMS step size              =         0.0241577894
  Conv. limit for RMS step   =         1.0000000000
  Convergence in RMS step    =                  YES
  Max. gradient              =         0.0244564522
  Conv. limit for gradients  =         0.0100000000
  Conv. for gradients        =                   NO
  RMS gradient               =         0.0036141736
  Conv. limit for RMS grad.  =         1.0000000000
  Conv. in RMS gradients     =                  YES
 ---------------------------------------------------

 --------------------------
 OPTIMIZATION STEP:      6
 --------------------------

 Spin 1

 Number of electrons:                                                        719
 Number of occupied orbitals:                                                719
 Number of molecular orbitals:                                               719

 Spin 2

 Number of electrons:                                                        719
 Number of occupied orbitals:                                                719
 Number of molecular orbitals:                                               719

 Number of orbital functions:                                               2718
 Number of independent orbital functions:                                   2718

 Extrapolation method: PS Nth order


 SCF WAVEFUNCTION OPTIMIZATION

  ----------------------------------- OT ---------------------------------------
  Minimizer      : CG                  : conjugate gradient
  Preconditioner : FULL_ALL            : diagonalization, state selective
  Precond_solver : DEFAULT
  Line search    : 3PNT                : 3 energies
  stepsize       :    0.15000000                  energy_gap     :    0.08000000
  eps_taylor     :   0.10000E-15                  max_taylor     :             4
  ----------------------------------- OT ---------------------------------------

  Step     Update method      Time    Convergence         Total energy    Change
  ------------------------------------------------------------------------------
     1 OT CG       0.12E+00   12.3     0.00032842     -8144.2770197876 -8.14E+03
     2 OT LS       0.17E+00    7.5                    -8144.3153582019
     3 OT LS       0.25E+00    7.5                    -8144.3238487038
     4 OT CG       0.20E+00   14.9     0.00027777     -8144.3293373953 -5.23E-02
     5 OT LS       0.28E+00    7.5                    -8144.3559978202
     6 OT LS       0.18E+00    7.4                    -8144.3479824514
     7 OT CG       0.14E+00   15.0     0.00010097     -8144.3563325119 -2.70E-02
     8 OT LS       0.20E+00    7.5                    -8144.3583281803
     9 OT LS       0.11E+00    7.7                    -8144.3570503965
    10 OT CG       0.88E-01   15.0     0.00004311     -8144.3585251751 -2.19E-03
    11 OT LS       0.12E+00    7.5                    -8144.3589465473
    12 OT LS       0.13E+00    7.5                    -8144.3589932410
    13 OT CG       0.10E+00   15.0     0.00002576     -8144.3589942528 -4.69E-04
    14 OT LS       0.14E+00    7.5                    -8144.3591564965
    15 OT LS       0.13E+00    7.5                    -8144.3591622351
    16 OT CG       0.10E+00   14.9     0.00001093     -8144.3591640775 -1.70E-04
    17 OT LS       0.15E+00    7.5                    -8144.3591974297
    18 OT LS       0.16E+00    7.4                    -8144.3592020461
    19 OT CG       0.13E+00   14.9     0.00000691     -8144.3592024978 -3.84E-05

  *** SCF run converged in    19 steps ***


  Electronic density on regular grids:      -1437.9999922928        0.0000077072
  Core density on regular grids:             1437.9999996444       -0.0000003556
  Total charge density on r-space grids:        0.0000073516
  Total charge density g-space grids:           0.0000073516

  Overlap energy of the core charge distribution:               0.00000667914121
  Self energy of the core charge distribution:             -14650.93922905635191
  Core Hamiltonian energy:                                   4107.62665657404068
  Hartree energy:                                            3440.60461475689044
  Exchange-correlation energy:                              -1042.52201037145733
  Dispersion energy:                                           -0.58149579582802

  DFT+U energy:                                                 1.45225471573220

  Total energy:                                             -8144.35920249783248

  outer SCF iter =    1 RMS gradient =   0.69E-05 energy =      -8144.3592024978
  outer SCF loop converged in   1 iterations or   19 steps


  Integrated absolute spin density  :                             234.9913226751
  Ideal and single determinant S**2 :                    0.000000     127.886521

 ENERGY| Total FORCE_EVAL ( QS ) energy (a.u.):            -8144.359220047938834


 --------  Informations at step =     6 ------------
  Optimization Method        =                 BFGS
  Total Energy               =     -8144.3592200479
  Real energy change         =        -0.0089738154
  Predicted change in energy =        -0.0076565423
  Scaling factor             =         0.4694119778
  Step size                  =         0.1228446327
  Trust radius               =         0.4724315332
  Decrease in energy         =                   NO
  Used time                  =              229.014

  Convergence check :
  Max. step size             =         0.1228446327
  Conv. limit for step size  =         1.0000000000
  Convergence in step size   =                  YES
  RMS step size              =         0.0136789328
  Conv. limit for RMS step   =         1.0000000000
  Convergence in RMS step    =                  YES
  Max. gradient              =         0.0076834353
  Conv. limit for gradients  =         0.0100000000
  Conv. in gradients         =                  YES
  RMS gradient               =         0.0016426206
  Conv. limit for RMS grad.  =         1.0000000000
  Conv. in RMS gradients     =                  YES
 ---------------------------------------------------

 *******************************************************************************
 ***                    GEOMETRY OPTIMIZATION COMPLETED                      ***
 *******************************************************************************

                    Reevaluating energy at the minimum

 Spin 1

 Number of electrons:                                                        719
 Number of occupied orbitals:                                                719
 Number of molecular orbitals:                                               719

 Spin 2

 Number of electrons:                                                        719
 Number of occupied orbitals:                                                719
 Number of molecular orbitals:                                               719

 Number of orbital functions:                                               2718
 Number of independent orbital functions:                                   2718

 Extrapolation method: PS Nth order


 SCF WAVEFUNCTION OPTIMIZATION

  ----------------------------------- OT ---------------------------------------
  Minimizer      : CG                  : conjugate gradient
  Preconditioner : FULL_ALL            : diagonalization, state selective
  Precond_solver : DEFAULT
  Line search    : 3PNT                : 3 energies
  stepsize       :    0.15000000                  energy_gap     :    0.08000000
  eps_taylor     :   0.10000E-15                  max_taylor     :             4
  ----------------------------------- OT ---------------------------------------

  Step     Update method      Time    Convergence         Total energy    Change
  ------------------------------------------------------------------------------
     1 OT CG       0.12E+00   12.4     0.00032847     -8144.2742724086 -8.14E+03
     2 OT LS       0.17E+00    7.4                    -8144.3133215843
     3 OT LS       0.26E+00    7.3                    -8144.3225020423
     4 OT CG       0.21E+00   15.1     0.00028529     -8144.3299110829 -5.56E-02
     5 OT LS       0.30E+00    7.4                    -8144.3549373195
     6 OT LS       0.17E+00    7.4                    -8144.3411206407
     7 OT CG       0.13E+00   15.0     0.00009389     -8144.3567304990 -2.68E-02
     8 OT LS       0.19E+00    7.5                    -8144.3586195012
     9 OT LS       0.11E+00    7.4                    -8144.3578398418
    10 OT CG       0.91E-01   15.0     0.00003990     -8144.3586853474 -1.95E-03
    11 OT LS       0.13E+00    7.5                    -8144.3590383243
    12 OT LS       0.12E+00    7.4                    -8144.3590615139
    13 OT CG       0.97E-01   15.0     0.00002217     -8144.3590623323 -3.77E-04
    14 OT LS       0.14E+00    7.5                    -8144.3591768684
    15 OT LS       0.13E+00    7.4                    -8144.3591825293
    16 OT CG       0.10E+00   15.0     0.00001019     -8144.3591832654 -1.21E-04
    17 OT LS       0.14E+00    7.5                    -8144.3592102753
    18 OT LS       0.15E+00    7.5                    -8144.3592133154
    19 OT CG       0.12E+00   14.9     0.00000571     -8144.3592133915 -3.01E-05

  *** SCF run converged in    19 steps ***


  Electronic density on regular grids:      -1437.9999922929        0.0000077071
  Core density on regular grids:             1437.9999996444       -0.0000003556
  Total charge density on r-space grids:        0.0000073514
  Total charge density g-space grids:           0.0000073514

  Overlap energy of the core charge distribution:               0.00000667914121
  Self energy of the core charge distribution:             -14650.93922905635191
  Core Hamiltonian energy:                                   4107.60053604879613
  Hartree energy:                                            3440.62811813928420
  Exchange-correlation energy:                              -1042.51883647931618
  Dispersion energy:                                           -0.58149579582802

  DFT+U energy:                                                 1.45168707275767

  Total energy:                                             -8144.35921339151628

  outer SCF iter =    1 RMS gradient =   0.57E-05 energy =      -8144.3592133915
  outer SCF loop converged in   1 iterations or   19 steps


  Integrated absolute spin density  :                             234.9819532241
  Ideal and single determinant S**2 :                    0.000000     127.884798

 ENERGY| Total FORCE_EVAL ( QS ) energy (a.u.):            -8144.359213391516278


 -------------------------------------------------------------------------------
 -                                                                             -
 -                                DBCSR STATISTICS                             -
 -                                                                             -
 -------------------------------------------------------------------------------
 COUNTER                                    TOTAL       BLAS       SMM       ACC
 flops     5 x    15 x    15               756000       0.0%    100.0%      0.0%
 flops    13 x    15 x    15              8704800       0.0%    100.0%      0.0%
 flops    26 x    15 x    15             10108800       0.0%    100.0%      0.0%
 flops     5 x    32 x    32             75694080       0.0%    100.0%      0.0%
 flops     5 x    15 x     5            261954000       0.0%    100.0%      0.0%
 flops    13 x    32 x    32            871563264       0.0%    100.0%      0.0%
 flops     5 x     5 x   160            938784000       0.0%    100.0%      0.0%
 flops    26 x    32 x    32           1012137984       0.0%    100.0%      0.0%
 flops     5 x     5 x   175           1026795000       0.0%    100.0%      0.0%
 flops     5 x     5 x   192           2253081600       0.0%    100.0%      0.0%
 flops     5 x    15 x    13           3016213200       0.0%    100.0%      0.0%
 flops    13 x    15 x     5           3016213200       0.0%    100.0%      0.0%
 flops     5 x    15 x    26           3502699200       0.0%    100.0%      0.0%
 flops    26 x    15 x     5           3502699200       0.0%    100.0%      0.0%
 flops    13 x     5 x   160          10312806400       0.0%    100.0%      0.0%
 flops     5 x    13 x   160          10323372800       0.0%    100.0%      0.0%
 flops    13 x     5 x   175          11279632000       0.0%    100.0%      0.0%
 flops     5 x    13 x   175          11291189000       0.0%    100.0%      0.0%
 flops     5 x    26 x   160          11961164800       0.0%    100.0%      0.0%
 flops    26 x     5 x   160          12003430400       0.0%    100.0%      0.0%
 flops     5 x    32 x     5          12294374400       0.0%    100.0%      0.0%
 flops     5 x    26 x   175          13082524000       0.0%    100.0%      0.0%
 flops    26 x     5 x   175          13128752000       0.0%    100.0%      0.0%
 flops   160 x   160 x   160          16236544000     100.0%      0.0%      0.0%
 flops   160 x   160 x   175          17758720000     100.0%      0.0%      0.0%
 flops   160 x   175 x   160          17758720000     100.0%      0.0%      0.0%
 flops   175 x   160 x   160          17758720000     100.0%      0.0%      0.0%
 flops   160 x   175 x   175          19423600000     100.0%      0.0%      0.0%
 flops   175 x   160 x   175          19423600000     100.0%      0.0%      0.0%
 flops   175 x   175 x   160          19423600000     100.0%      0.0%      0.0%
 flops   175 x   175 x   175          21244562500     100.0%      0.0%      0.0%
 flops    13 x     5 x   192          24750735360       0.0%    100.0%      0.0%
 flops     5 x    13 x   192          24776094720       0.0%    100.0%      0.0%
 flops     5 x    26 x   192          28706795520       0.0%    100.0%      0.0%
 flops    26 x     5 x   192          28808232960       0.0%    100.0%      0.0%
 flops    13 x    15 x    13          34729540560       0.0%    100.0%      0.0%
 flops   160 x   160 x   678          34852454400     100.0%      0.0%      0.0%
 flops   160 x   175 x   678          38119872000     100.0%      0.0%      0.0%
 flops   175 x   160 x   678          38119872000     100.0%      0.0%      0.0%
 flops   160 x   160 x   192          38967705600     100.0%      0.0%      0.0%
 flops   160 x   192 x   160          38967705600     100.0%      0.0%      0.0%
 flops   192 x   160 x   160          38967705600     100.0%      0.0%      0.0%
 flops    26 x    15 x    13          40331079360       0.0%    100.0%      0.0%
 flops    13 x    15 x    26          40331079360       0.0%    100.0%      0.0%
 flops   175 x   175 x   678          41693610000     100.0%      0.0%      0.0%
 flops   160 x   175 x   192          42620928000     100.0%      0.0%      0.0%
 flops   160 x   192 x   175          42620928000     100.0%      0.0%      0.0%
 flops   175 x   160 x   192          42620928000     100.0%      0.0%      0.0%
 flops   175 x   192 x   160          42620928000     100.0%      0.0%      0.0%
 flops   192 x   160 x   175          42620928000     100.0%      0.0%      0.0%
 flops   192 x   175 x   160          42620928000     100.0%      0.0%      0.0%
 flops   175 x   175 x   192          46616640000     100.0%      0.0%      0.0%
 flops   175 x   192 x   175          46616640000     100.0%      0.0%      0.0%
 flops   192 x   175 x   175          46616640000     100.0%      0.0%      0.0%
 flops    26 x    15 x    26          46836092160       0.0%    100.0%      0.0%
 flops   678 x   160 x   160          50890137600     100.0%      0.0%      0.0%
 flops   678 x   160 x   678          54720783360     100.0%      0.0%      0.0%
 flops   678 x   160 x   175          55661088000     100.0%      0.0%      0.0%
 flops   678 x   175 x   160          55661088000     100.0%      0.0%      0.0%
 flops   678 x   175 x   678          59850856800     100.0%      0.0%      0.0%
 flops   678 x   175 x   175          60879315000     100.0%      0.0%      0.0%
 flops   160 x   192 x   678          83645890560     100.0%      0.0%      0.0%
 flops   192 x   160 x   678          83645890560     100.0%      0.0%      0.0%
 flops   175 x   192 x   678          91487692800     100.0%      0.0%      0.0%
 flops   192 x   175 x   678          91487692800     100.0%      0.0%      0.0%
 flops   192 x   192 x   160          93522493440     100.0%      0.0%      0.0%
 flops   160 x   192 x   192          93522493440     100.0%      0.0%      0.0%
 flops   192 x   160 x   192          93522493440     100.0%      0.0%      0.0%
 flops   192 x   192 x   175         102290227200     100.0%      0.0%      0.0%
 flops   175 x   192 x   192         102290227200     100.0%      0.0%      0.0%
 flops   192 x   175 x   192         102290227200     100.0%      0.0%      0.0%
 flops   160 x   160 x   680         104865792000     100.0%      0.0%      0.0%
 flops   160 x   175 x   680         114696960000     100.0%      0.0%      0.0%
 flops   175 x   160 x   680         114696960000     100.0%      0.0%      0.0%
 flops    13 x    13 x   160         120082909440       0.0%    100.0%      0.0%
 flops   678 x   160 x   192         122136330240     100.0%      0.0%      0.0%
 flops   678 x   192 x   160         122136330240     100.0%      0.0%      0.0%
 flops   175 x   175 x   680         125449800000     100.0%      0.0%      0.0%
 flops   678 x   192 x   678         131329880064     100.0%      0.0%      0.0%
 flops    13 x    13 x   175         131340682200       0.0%    100.0%      0.0%
 flops   678 x   175 x   192         133586611200     100.0%      0.0%      0.0%
 flops   678 x   192 x   175         133586611200     100.0%      0.0%      0.0%
 flops    26 x    13 x   160         137857707520       0.0%    100.0%      0.0%
 flops    13 x    26 x   160         138077488640       0.0%    100.0%      0.0%
 flops     5 x    32 x    13         141560939520       0.0%    100.0%      0.0%
 flops    13 x    32 x     5         141560939520       0.0%    100.0%      0.0%
 flops    26 x    13 x   175         150781867600       0.0%    100.0%      0.0%
 flops    13 x    26 x   175         151022253200       0.0%    100.0%      0.0%
 flops   680 x   160 x   160         153120768000     100.0%      0.0%      0.0%
 flops    26 x    26 x   160         163187481600       0.0%    100.0%      0.0%
 flops     5 x    32 x    26         164393349120       0.0%    100.0%      0.0%
 flops    26 x    32 x     5         164393349120       0.0%    100.0%      0.0%
 flops   678 x   160 x   680         164646604800     100.0%      0.0%      0.0%
 flops   680 x   160 x   678         164646604800     100.0%      0.0%      0.0%
 flops   680 x   160 x   175         167475840000     100.0%      0.0%      0.0%
 flops   680 x   175 x   160         167475840000     100.0%      0.0%      0.0%
 flops    26 x    26 x   175         178486308000       0.0%    100.0%      0.0%
 flops   678 x   175 x   680         180082224000     100.0%      0.0%      0.0%
 flops   680 x   175 x   678         180082224000     100.0%      0.0%      0.0%
 flops   680 x   175 x   175         183176700000     100.0%      0.0%      0.0%
 flops   192 x   192 x   678         200750137344     100.0%      0.0%      0.0%
 flops   192 x   192 x   192         224453984256     100.0%      0.0%      0.0%
 flops   160 x   192 x   680         251677900800     100.0%      0.0%      0.0%
 flops   192 x   160 x   680         251677900800     100.0%      0.0%      0.0%
 flops   175 x   192 x   680         275272704000     100.0%      0.0%      0.0%
 flops   192 x   175 x   680         275272704000     100.0%      0.0%      0.0%
 flops    13 x    13 x   192         288198982656       0.0%    100.0%      0.0%
 flops   678 x   192 x   192         293127192576     100.0%      0.0%      0.0%
 flops    26 x    13 x   192         330858498048       0.0%    100.0%      0.0%
 flops    13 x    26 x   192         331385972736       0.0%    100.0%      0.0%
 flops   680 x   192 x   160         367489843200     100.0%      0.0%      0.0%
 flops   680 x   160 x   192         367489843200     100.0%      0.0%      0.0%
 flops    26 x    26 x   192         391649955840       0.0%    100.0%      0.0%
 flops   680 x   192 x   678         395151851520     100.0%      0.0%      0.0%
 flops   678 x   192 x   680         395151851520     100.0%      0.0%      0.0%
 flops   680 x   192 x   175         401942016000     100.0%      0.0%      0.0%
 flops   680 x   175 x   192         401942016000     100.0%      0.0%      0.0%
 flops   680 x   160 x   680         495396864000     100.0%      0.0%      0.0%
 flops   680 x   175 x   680         541840320000     100.0%      0.0%      0.0%
 flops   192 x   192 x   680         604026961920     100.0%      0.0%      0.0%
 flops   680 x   192 x   192         881975623680     100.0%      0.0%      0.0%
 flops   680 x   192 x   680        1188952473600     100.0%      0.0%      0.0%
 flops    13 x    32 x    13        1629973103616       0.0%    100.0%      0.0%
 flops    26 x    32 x    13        1892871991296       0.0%    100.0%      0.0%
 flops    13 x    32 x    26        1892871991296       0.0%    100.0%      0.0%
 flops    26 x    32 x    26        2198173925376       0.0%    100.0%      0.0%
 flops inhomo. stacks                           0       0.0%      0.0%      0.0%
 flops total                        23.499619E+12      52.6%     47.4%      0.0%
 flops max/rank                      1.582871E+12      53.4%     46.6%      0.0%
 matmuls inhomo. stacks                         0       0.0%      0.0%      0.0%
 matmuls total                          543345216       0.1%     99.9%      0.0%
 number of processed stacks               1457664      21.2%     78.8%      0.0%
 average stack size                                     1.0     472.6       0.0
 marketing flops                    26.266378E+12
 -------------------------------------------------------------------------------
 # multiplications                           6156
 max memory usage/rank             968.933376E+06
 # max total images/rank                        1
 # max 3D layers                                1
 # MPI messages exchanged                  590976
 MPI messages size (bytes):
  total size                       539.684176E+09
  min size                           0.000000E+00
  max size                           3.699200E+06
  average size                     913.208250E+03
 MPI breakdown and total messages size (bytes):
             size <=      128                2112                        0
       128 < size <=     8192                   0                        0
      8192 < size <=    32768                   0                        0
     32768 < size <=   131072                 192                  8737152
    131072 < size <=  4194304              588672             539681479344
   4194304 < size <= 16777216                   0                        0
  16777216 < size                               0                        0
 -------------------------------------------------------------------------------
 
 MEMORY| Estimated peak process memory [MiB]                                 932

 -------------------------------------------------------------------------------
 -                                                                             -
 -                         MESSAGE PASSING PERFORMANCE                         -
 -                                                                             -
 -------------------------------------------------------------------------------

 ROUTINE             CALLS      AVE VOLUME [Bytes]
 MP_Group              537
 MP_Bcast            18293                  71995.
 MP_Allreduce        79684                    598.
 MP_Sync               307
 MP_Alltoall         28571                3084260.
 MP_SendRecv          5828                 513778.
 MP_ISendRecv        30510                 105472.
 MP_Wait            361599
 MP_comm_split         302
 MP_ISend           128564                 468894.
 MP_IRecv           128564                 464418.
 MP_Recv               678                 620571.
 MP_Memory          268664
 -------------------------------------------------------------------------------


 -------------------------------------------------------------------------------
 -                                                                             -
 -                           R E F E R E N C E S                               -
 -                                                                             -
 -------------------------------------------------------------------------------
 
 CP2K version 6.1, the CP2K developers group (2018).
 CP2K is freely available from https://www.cp2k.org/ .

 Schuett, Ole; Messmer, Peter; Hutter, Juerg; VandeVondele, Joost. 
 Electronic Structure Calculations on Graphics Processing Units, John Wiley & Sons, Ltd, 173-190 (2016). 
 GPU-Accelerated Sparse Matrix-Matrix Multiplication for Linear Scaling Density Functional Theory.
 http://dx.doi.org/10.1002/9781118670712.ch8


 Borstnik, U; VandeVondele, J; Weber, V; Hutter, J. 
 PARALLEL COMPUTING, 40 (5-6), 47-58 (2014). 
 Sparse matrix multiplication: The distributed block-compressed sparse
 row library.
 http://dx.doi.org/10.1016/j.parco.2014.03.012


 Hutter, J; Iannuzzi, M; Schiffmann, F; VandeVondele, J. 
 WILEY INTERDISCIPLINARY REVIEWS-COMPUTATIONAL MOLECULAR SCIENCE, 4 (1), 15-25 (2014). 
 CP2K: atomistic simulations of condensed matter systems.
 http://dx.doi.org/10.1002/wcms.1159


 Grimme, S; Ehrlich, S; Goerigk, L. 
 JOURNAL OF COMPUTATIONAL CHEMISTRY, 32, 1456 (2011). 
 Effect of the damping function in dispersion corrected density functional theory.
 http://dx.doi.org/10.1002/jcc.21759


 Grimme, S; Antony, J; Ehrlich, S; Krieg, H. 
 JOURNAL OF CHEMICAL PHYSICS, 132 (15), 154104 (2010). 
 A consistent and accurate ab initio parametrization of density
 functional dispersion correction (DFT-D) for the 94 elements H-Pu.
 http://dx.doi.org/10.1063/1.3382344


 VandeVondele, J; Hutter, J. 
 JOURNAL OF CHEMICAL PHYSICS, 127 (11), 114105 (2007). 
 Gaussian basis sets for accurate calculations on molecular systems in
 gas and condensed phases.
 http://dx.doi.org/10.1063/1.2770708


 Krack, M. 
 THEORETICAL CHEMISTRY ACCOUNTS, 114 (1-3), 145-152 (2005). 
 Pseudopotentials for H to Kr optimized for gradient-corrected
 exchange-correlation functionals.
 http://dx.doi.org/10.1007/s00214-005-0655-y


 VandeVondele, J; Krack, M; Mohamed, F; Parrinello, M; Chassaing, T;
 Hutter, J. COMPUTER PHYSICS COMMUNICATIONS, 167 (2), 103-128 (2005). 
 QUICKSTEP: Fast and accurate density functional calculations using a
 mixed Gaussian and plane waves approach.
 http://dx.doi.org/10.1016/j.cpc.2004.12.014


 Frigo, M; Johnson, SG. 
 PROCEEDINGS OF THE IEEE, 93 (2), 216-231 (2005). 
 The design and implementation of FFTW3.
 http://dx.doi.org/10.1109/JPROC.2004.840301


 VandeVondele, J; Hutter, J. 
 JOURNAL OF CHEMICAL PHYSICS, 118 (10), 4365-4369 (2003). 
 An efficient orbital transformation method for electronic structure
 calculations.
 http://dx.doi.org/10.1063/1.1543154


 Hartwigsen, C; Goedecker, S; Hutter, J. 
 PHYSICAL REVIEW B, 58 (7), 3641-3662 (1998). 
 Relativistic separable dual-space Gaussian pseudopotentials from H to Rn.
 http://dx.doi.org/10.1103/PhysRevB.58.3641


 Dudarev, SL; Botton, GA; Savrasov, SY; Humphreys, CJ; Sutton, AP. 
 PHYSICAL REVIEW B, 57 (3), 1505-1509 (1998). 
 Electron-energy-loss spectra and the structural stability of
 nickel oxide: An LSDA+U study.
 http://dx.doi.org/10.1103/PhysRevB.57.1505


 Lippert, G; Hutter, J; Parrinello, M. 
 MOLECULAR PHYSICS, 92 (3), 477-487 (1997). 
 A hybrid Gaussian and plane wave density functional scheme.
 http://dx.doi.org/10.1080/002689797170220


 Dudarev, SL; Manh, DN; Sutton, AP. 
 PHILOSOPHICAL MAGAZINE B, 75 (5), 613-628 (1997). 
 Effect of Mott-Hubbard correlations on the electronic
 structure and structural stability of uranium dioxide.
 http://dx.doi.org/10.1080/13642819708202343


 Perdew, JP; Burke, K; Ernzerhof, M. 
 PHYSICAL REVIEW LETTERS, 77 (18), 3865-3868 (1996). 
 Generalized gradient approximation made simple.
 http://dx.doi.org/10.1103/PhysRevLett.77.3865


 Goedecker, S; Teter, M; Hutter, J. 
 PHYSICAL REVIEW B, 54 (3), 1703-1710 (1996). 
 Separable dual-space Gaussian pseudopotentials.
 http://dx.doi.org/10.1103/PhysRevB.54.1703


 -------------------------------------------------------------------------------
 -                                                                             -
 -                                T I M I N G                                  -
 -                                                                             -
 -------------------------------------------------------------------------------
 SUBROUTINE                       CALLS  ASD         SELF TIME        TOTAL TIME
                                MAXIMUM       AVERAGE  MAXIMUM  AVERAGE  MAXIMUM
 CP2K                                 1  1.0    0.041    0.057 2683.976 2683.985
 cp_geo_opt                           1  2.0    0.000    0.000 2682.900 2682.909
 geoopt_bfgs                          1  3.0    0.023    0.025 2682.900 2682.909
 cp_eval_at                           8  4.0    0.002    0.005 2682.288 2682.298
 qs_energies                          8  5.9    0.003    0.005 2559.897 2559.916
 qs_forces                            7  5.0    0.002    0.002 2475.042 2475.051
 scf_env_do_scf                       8  6.9    0.003    0.005 2463.474 2463.484
 scf_env_do_scf_inner_loop          239  7.9    0.022    0.095 2372.727 2372.791
 qs_rho_update_rho                  247  8.9    0.004    0.004 1605.659 1605.781
 calculate_rho_elec                 494  9.9 1219.157 1302.219 1605.656 1605.777
 rebuild_ks_matrix                  246  9.8    0.002    0.002  827.315  827.525
 qs_ks_build_kohn_sham_matrix       246 10.8    0.058    0.062  827.313  827.523
 qs_ks_update_qs_env                247  8.9    0.004    0.006  719.067  719.276
 sum_up_and_integrate                92 11.7    3.614    3.658  579.707  579.780
 integrate_v_rspace                 184 12.7  439.628  486.487  576.091  576.166
 density_rs2pw                      494 10.9    0.042    0.047  355.201  424.095
 pw_transfer                       4476 12.6    0.546    0.583  281.327  282.908
 fft_wrap_pw1pw2                   3984 13.6    0.047    0.050  272.393  273.986
 fft_wrap_pw1pw2_200               1272 14.3   34.286   35.278  254.193  256.619
 rs_pw_transfer                    3405 12.7    0.049    0.059  174.713  242.929
 fft3d_ps                          3984 15.6  112.309  113.753  193.412  195.734
 rs_pw_transfer_RS2PW_200           502 12.9   23.915   30.064  114.057  181.607
 qs_vxc_create                      246 11.8    0.006    0.006  175.012  175.408
 mp_waitany                       30132 14.7  100.862  166.191  100.862  166.191
 qs_scf_new_mos                     239  8.9    0.003    0.005  157.927  158.551
 qs_scf_loop_do_ot                  239  9.9    0.008    0.012  157.924  158.548
 dbcsr_multiply_generic            6156 13.6    0.392    0.425  150.580  151.633
 ot_scf_mini                        239 10.9    0.034    0.040  139.871  140.316
 xc_rho_set_and_dset_create         246 13.8   13.411   13.535  120.797  122.337
 qs_ks_update_qs_env_forces           7  6.0    0.000    0.000  109.492  109.509
 multiply_cannon                   6156 14.6    0.911    1.209  103.263  109.166
 xc_vxc_pw_create                    92 12.7   29.669   30.266   99.810  100.206
 init_scf_loop                        8  7.9    0.001    0.003   90.549   90.554
 potential_pw2rs                    184 13.7    0.226    0.238   85.686   85.951
 rs_distribute_matrix               692 11.7    5.893    9.252   61.361   78.981
 multiply_cannon_multrec          24624 15.6   72.515   75.963   72.575   76.028
 xc_exc_calc                        154 12.9    0.512    0.514   75.196   75.197
 mp_alltoall_d11v                  6061 15.5   53.337   71.992   53.337   71.992
 init_scf_run                         8  6.9    0.000    0.003   56.940   56.941
 scf_env_initial_rho_setup            8  7.9    0.001    0.003   56.940   56.941
 pw_nn_compose_r                   2704 14.5   48.126   49.908   53.962   56.454
 -------------------------------------------------------------------------------

 The number of warnings for this run is : 1
 
 -------------------------------------------------------------------------------
  **** **** ******  **  PROGRAM ENDED AT                 2020-10-07 13:08:47.036
 ***** ** ***  *** **   PROGRAM RAN ON                                 irene6282
 **    ****   ******    PROGRAM RAN BY                                  marticar
 ***** **    ** ** **   PROGRAM PROCESS ID                                 40289
  **** **  *******  **  PROGRAM STOPPED IN /ccc/scratch/cont003/gen0609/marticar
                                           /684156
