40
Properties=species:S:1:pos:R:3 energy=-34953.54073809303 pbc="F F F"
Au      15.02826362      14.85267779      16.42511216
Au      17.28653653      11.34628994      14.36235434
Au      14.44695211      12.07687292      17.37629782
Au      18.06788795      15.31116712      17.16555634
Au      12.42630009      14.01082455      17.35026675
Au      11.26423197      14.86227153      15.01085111
Au      12.95691664      18.08478668      13.34523797
Au      15.31251284      18.87349600      14.53517257
Au      14.86875257      15.99779780      13.91230475
Au      14.24939661      13.85443446      19.45629762
Au      14.91169664      12.32445788      13.15395979
Au      12.83191475      14.15835390      12.78354126
Au      15.20899807      14.36929690      11.28267598
Au      16.82744246      14.18243001      14.43522257
Au      12.81800882      12.50302486      15.01394101
Au      14.71493676      10.42002878      15.20507628
Au      17.66782636      16.86954442      14.89119349
Au      19.61101577      14.72386357      14.77283415
Au      15.98328304      17.55613047      17.04862901
Au      18.99724688      16.22320817      12.55773614
Au      13.27091856      17.92695999      16.19433853
Au      16.87187678      10.66557873      17.05865991
Au      10.92852363      16.26521992      12.56721566
Au      15.33534176      18.00360875      11.79556350
Au      11.18766177      16.46015861      17.39755459
Au      10.70868191      17.68978495      14.96632452
Au      16.86832250      13.12476512      18.44767706
Au      15.52159092      16.47398461       9.27755041
Au      18.74515708      12.67110128      16.35527176
Au      16.46099776      15.84049011      19.28735112
Au      17.74106276      14.98679004      10.41291854
Au      14.45086497      15.91389164      21.22066672
Au      13.75433452      16.65501631      18.59717503
Au      13.22618230      16.34071082      11.01566838
Au      17.55966965      12.83026217      12.06057863
Au      17.77802196      17.76970174      10.47208919
Au      17.77045532      18.90005231      12.99583607
Au      17.65404250      19.53348550      15.82146076
C       15.09381607      16.67647963       7.28828348
O       14.92686313      16.80235055       6.15848113
