40
Properties=species:S:1:pos:R:3 energy=-34953.49235529269 pbc="F F F"
Au      15.02631938      14.84953889      16.41406165
Au      17.28515769      11.35029879      14.36470922
Au      14.44231902      12.07428064      17.37891496
Au      18.05944799      15.30386582      17.14676164
Au      12.42290301      14.00807602      17.34590855
Au      11.25291533      14.86356548      15.01213935
Au      12.94777783      18.08607895      13.34909266
Au      15.31796697      18.86680748      14.54392196
Au      14.86338630      15.97662756      13.91074953
Au      14.24760140      13.85608799      19.45736039
Au      14.90929836      12.32062055      13.16733595
Au      12.82709384      14.15715234      12.78722669
Au      15.18984114      14.30429826      11.28267562
Au      16.93257010      14.21354218      14.45006209
Au      12.80906101      12.49495434      15.01604869
Au      14.71737226      10.42155668      15.19813178
Au      17.69772375      16.85454774      14.89281026
Au      19.84548327      14.72534088      14.78655194
Au      15.98214861      17.55892753      17.04853157
Au      18.96625519      16.21410012      12.54994274
Au      13.26891569      17.93787584      16.19839458
Au      16.86504456      10.65486391      17.05960173
Au      10.92752072      16.26127577      12.56863407
Au      15.30808155      18.07429360      11.82620147
Au      11.19008008      16.45820912      17.40019905
Au      10.70895436      17.68271452      14.96689193
Au      16.86400950      13.12355224      18.44677862
Au      15.55853567      16.45587467       9.50586297
Au      18.71888388      12.69521084      16.34141021
Au      16.46351025      15.84917190      19.28137845
Au      17.77829988      14.95919212      10.41234390
Au      14.45958869      15.91043915      21.22199637
Au      13.74769824      16.65751806      18.60183150
Au      13.20376739      16.34173715      11.00442927
Au      17.56330024      12.83155306      12.07054700
Au      17.80734429      17.79901339      10.47548818
Au      17.77433652      18.90408334      12.99669492
Au      17.66268156      19.53132511      15.80614267
C       21.91786717      14.67445691      14.66491121
O       23.06603054      14.66308951      14.64981731
