      40
 i =        1, E =     -1284.4945316018
 Au        15.0866920281       14.8590333405       16.4534593707
 Au        17.2671733627       11.3843997468       14.3515738465
 Au        14.4300099546       12.0765391775       17.3838488244
 Au        18.0811113647       15.3235358992       17.1713968286
 Au        12.4407906359       14.0120620836       17.3172637716
 Au        11.2579950432       14.8403872271       14.9989110590
 Au        12.9618944621       18.0771006830       13.3644360779
 Au        15.3173972481       18.8374575654       14.5365673027
 Au        14.8866246427       15.9883526789       13.9279469087
 Au        14.2438219892       13.8703887227       19.4124495395
 Au        14.8916487090       12.3241061132       13.1635762342
 Au        12.8405506917       14.1594115958       12.8012980491
 Au        15.1774761294       14.2889981008       11.2920868263
 Au        16.8306341636       14.2106326727       14.4341240715
 Au        12.8390024685       12.5250622565       15.0107253562
 Au        14.7146499008       10.4613031044       15.2103813687
 Au        17.6770600444       16.8749935188       14.9011516900
 Au        19.6093640837       14.7385007816       14.7764128273
 Au        15.9799193754       17.5617247312       17.0410635563
 Au        18.9856678487       16.2163273753       12.5702712065
 Au        13.2942179253       17.9280156284       16.1871094316
 Au        16.8610956290       10.6882567196       17.0514863691
 Au        10.9645759721       16.2604066925       12.5774909696
 Au        15.2931369065       18.0919055660       11.8265766215
 Au        11.2182201827       16.4433679180       17.3836140500
 Au        10.7303223341       17.6702549679       14.9753355253
 Au        16.8590394281       13.1213413329       18.4399606642
 Au        15.5428830440       16.4432873497        9.5411874472
 Au        18.7216687809       12.6732200149       16.3379154135
 Au        16.4174663936       15.8374004710       19.2530113413
 Au        17.7698272043       14.9580741320       10.4435705059
 Au        14.4637372251       15.8945421806       21.2062103389
 Au        13.7455029144       16.6439734639       18.5685086249
 Au        13.2330844264       16.3275283299       11.0478277107
 Au        17.5254554496       12.8351668134       12.0631816291
 Au        17.8028481250       17.7722513873       10.5029231925
 Au        17.7523879700       18.8754160338       12.9977101041
 Au        17.6491992275       19.5376330801       15.7931652054
  C        19.9384389289       16.0772030901       18.4646225976
  O        20.8030487967       16.4263668984       19.1236781246
      40
 i =        2, E =     -1284.5040616444
 Au        15.0805735557       14.8540692146       16.4539001082
 Au        17.2912734965       11.3424259265       14.3587687963
 Au        14.4350710573       12.0610709472       17.3835191596
 Au        18.2121779091       15.3628052302       17.2630595448
 Au        12.4260300230       14.0133188841       17.3429734567
 Au        11.2467552139       14.8572913047       15.0072318039
 Au        12.9403124677       18.0859340909       13.3489304272
 Au        15.3244188346       18.8743648709       14.5426825238
 Au        14.8437225176       15.9933181220       13.9107279219
 Au        14.2328218615       13.8530062247       19.4643348431
 Au        14.9002257316       12.3074480121       13.1623117336
 Au        12.8235661606       14.1647928884       12.7866091178
 Au        15.1922035678       14.3025284800       11.2769597348
 Au        16.8475364583       14.1808009403       14.4382800242
 Au        12.8078753135       12.4951069306       15.0151136156
 Au        14.7127057720       10.4150286859       15.1987079929
 Au        17.6629336025       16.8683606042       14.8877173154
 Au        19.6327414467       14.7154892306       14.7577584691
 Au        15.9806842058       17.5666218532       17.0543240311
 Au        18.9970772676       16.2175249457       12.5462730123
 Au        13.2666096235       17.9323206497       16.1934505695
 Au        16.8687594825       10.6493058827       17.0597545190
 Au        10.9224520187       16.2605767414       12.5643267295
 Au        15.3079191992       18.0886932650       11.8132033712
 Au        11.1803077121       16.4590144508       17.4042476642
 Au        10.7034606781       17.6886980001       14.9714757027
 Au        16.8651319461       13.1272570172       18.4444800813
 Au        15.5531975832       16.4585337174        9.5034158836
 Au        18.7395548996       12.6613024788       16.3473297131
 Au        16.4177431717       15.8457416866       19.2958610812
 Au        17.7820004268       14.9621698242       10.4122409311
 Au        14.4416102215       15.9087712685       21.2378683024
 Au        13.7421688771       16.6585100258       18.6041030957
 Au        13.2073727914       16.3408831698       11.0039472168
 Au        17.5645311105       12.8244799591       12.0642239976
 Au        17.8202784979       17.7906411012       10.4726813140
 Au        17.7775849676       18.9127231075       12.9897114900
 Au        17.6681507716       19.5511795932       15.8152013221
  C        19.9316267795       16.0774189971       18.3855064168
  O        20.7553722010       16.4037041747       19.1222198115
      40
 i =        3, E =     -1284.5024160813
 Au        15.0847010557       14.8555509850       16.4488798408
 Au        17.3072667733       11.3070843116       14.3608304494
 Au        14.4420826614       12.0622545359       17.3813114196
 Au        18.3804763430       15.4124587034       17.3880428464
 Au        12.4264730426       14.0178687494       17.3618528421
 Au        11.2512812444       14.8736718093       15.0228249561
 Au        12.9363812960       18.0882477657       13.3365167421
 Au        15.3181616183       18.8891661036       14.5436588452
 Au        14.8272160980       15.9784032197       13.9101859038
 Au        14.2244961491       13.8360611782       19.4993895803
 Au        14.9084580684       12.3107161915       13.1682048438
 Au        12.8188426819       14.1660629440       12.7795001015
 Au        15.2043260876       14.3193962216       11.2800656898
 Au        16.8439849550       14.1770961537       14.4496513696
 Au        12.7851041050       12.4762856200       15.0134175878
 Au        14.7129939305       10.3892742104       15.1938913741
 Au        17.6373166408       16.8415276909       14.8822164406
 Au        19.6307261734       14.6952313443       14.7327534243
 Au        15.9753351884       17.5575718209       17.0579840326
 Au        18.9996568178       16.2205874690       12.5309366796
 Au        13.2518119433       17.9279460215       16.1989495749
 Au        16.8723591318       10.6243804353       17.0659617598
 Au        10.8976936945       16.2640921117       12.5549752607
 Au        15.3206568808       18.0728793443       11.8143203490
 Au        11.1548941194       16.4718622615       17.4176912376
 Au        10.6806541076       17.6992119153       14.9663986438
 Au        16.8657898841       13.1525707289       18.4206676007
 Au        15.5623348561       16.4760417534        9.4786475731
 Au        18.7407365130       12.6609241990       16.3608280181
 Au        16.4130468465       15.8396164460       19.3205174662
 Au        17.7884803335       14.9626303577       10.3864261602
 Au        14.4142777989       15.9185623216       21.2646669945
 Au        13.7329221806       16.6707897631       18.6262470804
 Au        13.1877483899       16.3531604877       10.9660885436
 Au        17.5979935970       12.8283206240       12.0749861709
 Au        17.8343619931       17.8098636266       10.4562909398
 Au        17.7972923934       18.9337984912       12.9833539677
 Au        17.6782628372       19.5393231613       15.8251445585
  C        19.9185813920       16.0822591597       18.2711079400
  O        20.6799725370       16.3701847850       19.1117298092
      40
 i =        4, E =     -1284.5087563406
 Au        15.0852295689       14.8573117284       16.4556572245
 Au        17.2943400498       11.3277777000       14.3595028546
 Au        14.4410053947       12.0709884664       17.3807778676
 Au        18.2691376856       15.3682761512       17.3206663372
 Au        12.4354433079       14.0192687568       17.3497267888
 Au        11.2585067173       14.8688029829       15.0193315096
 Au        12.9451026697       18.0800927313       13.3448980704
 Au        15.3172878500       18.8704436989       14.5409685943
 Au        14.8431432052       15.9812056879       13.9147448105
 Au        14.2303126277       13.8470740435       19.4758122165
 Au        14.9077432404       12.3191270281       13.1703541037
 Au        12.8257548160       14.1664877179       12.7857886178
 Au        15.1997291143       14.3160685946       11.2878468134
 Au        16.8430437892       14.1842538071       14.4468889018
 Au        12.7995742566       12.4906369169       15.0125457988
 Au        14.7159051620       10.4136573787       15.2001122938
 Au        17.6424698324       16.8443092963       14.8884571234
 Au        19.6146103404       14.7039677111       14.7402707590
 Au        15.9744617967       17.5538691396       17.0514833965
 Au        18.9916431942       16.2212920363       12.5408611920
 Au        13.2624898665       17.9241545621       16.1950077244
 Au        16.8678407647       10.6452057793       17.0603555316
 Au        10.9206380781       16.2647020995       12.5641112157
 Au        15.3154689942       18.0703284848       11.8210188587
 Au        11.1736407395       16.4642999695       17.4056147321
 Au        10.6959184407       17.6881769331       14.9671225622
 Au        16.8624084207       13.1557045559       18.4119325901
 Au        15.5596250912       16.4694055886        9.4999804204
 Au        18.7288268378       12.6689509037       16.3554495138
 Au        16.4102934800       15.8327536033       19.2977041542
 Au        17.7804556484       14.9634208387       10.4011197165
 Au        14.4238512855       15.9098431258       21.2450672196
 Au        13.7350962342       16.6620383280       18.6112522703
 Au        13.2010736045       16.3465687598       10.9868481746
 Au        17.5789969394       12.8364874374       12.0772802904
 Au        17.8245390420       17.7991212456       10.4719895867
 Au        17.7847986212       18.9134883340       12.9890490853
 Au        17.6669976080       19.5267963971       15.8119847257
  C        19.9477002559       16.0957485615       18.3251510748
  O        20.7298524675       16.3909304660       19.1210469646
      40
 i =        5, E =     -1284.5107377362
 Au        15.0856165429       14.8586653669       16.4612760592
 Au        17.2953439869       11.3259891756       14.3587585143
 Au        14.4428374473       12.0767334242       17.3771618735
 Au        18.2927624869       15.3702653351       17.3431492541
 Au        12.4427186050       14.0242496721       17.3504285716
 Au        11.2696028076       14.8733796077       15.0223255549
 Au        12.9471526724       18.0726071982       13.3455090699
 Au        15.3135375324       18.8638219436       14.5402277274
 Au        14.8427211577       15.9768491051       13.9163116525
 Au        14.2288868333       13.8442457517       19.4797043873
 Au        14.9124978647       12.3281731127       13.1778983410
 Au        12.8270540326       14.1702858410       12.7868460346
 Au        15.2030013930       14.3262558638       11.2968270526
 Au        16.8397882124       14.1779068998       14.4513415017
 Au        12.7983380708       12.4920038693       15.0121793545
 Au        14.7161247643       10.4205222364       15.2020540073
 Au        17.6318709095       16.8312829918       14.8901794833
 Au        19.6020271589       14.6979433430       14.7299694827
 Au        15.9687229052       17.5452892045       17.0509499198
 Au        18.9849847220       16.2244879532       12.5390311675
 Au        13.2617004043       17.9184096768       16.1937217140
 Au        16.8665550975       10.6475201445       17.0614117783
 Au        10.9264972743       16.2652652603       12.5651741155
 Au        15.3204419054       18.0567857292       11.8276580953
 Au        11.1727760718       16.4657789818       17.4058324388
 Au        10.6954084621       17.6877639234       14.9646375693
 Au        16.8552349752       13.1710596308       18.3897348811
 Au        15.5610289739       16.4744837436        9.5012575277
 Au        18.7213712481       12.6728740702       16.3538601290
 Au        16.4025420651       15.8266827491       19.2962861245
 Au        17.7793472880       14.9636564505       10.3981181679
 Au        14.4150798154       15.9088189016       21.2437624303
 Au        13.7302883865       16.6624466844       18.6131082821
 Au        13.1999450866       16.3467801114       10.9810533373
 Au        17.5849993762       12.8475321009       12.0869047167
 Au        17.8263103897       17.8032212730       10.4739186518
 Au        17.7867178948       18.9065370125       12.9936622749
 Au        17.6653586312       19.5071337290       15.8071553911
  C        19.9632890314       16.1136292682       18.2950554030
  O        20.7236895641       16.3855711173       19.1210447109
      40
 i =        6, E =     -1284.5107173621
 Au        15.0856165429       14.8586653669       16.4612760592
 Au        17.2953439869       11.3259891756       14.3587585143
 Au        14.4428374473       12.0767334242       17.3771618735
 Au        18.2927624869       15.3702653351       17.3431492541
 Au        12.4427186050       14.0242496721       17.3504285716
 Au        11.2696028076       14.8733796077       15.0223255549
 Au        12.9471526724       18.0726071982       13.3455090699
 Au        15.3135375324       18.8638219436       14.5402277274
 Au        14.8427211577       15.9768491051       13.9163116525
 Au        14.2288868333       13.8442457517       19.4797043873
 Au        14.9124978647       12.3281731127       13.1778983410
 Au        12.8270540326       14.1702858410       12.7868460346
 Au        15.2030013930       14.3262558638       11.2968270526
 Au        16.8397882124       14.1779068998       14.4513415017
 Au        12.7983380708       12.4920038693       15.0121793545
 Au        14.7161247643       10.4205222364       15.2020540073
 Au        17.6318709095       16.8312829918       14.8901794833
 Au        19.6020271589       14.6979433430       14.7299694827
 Au        15.9687229052       17.5452892045       17.0509499198
 Au        18.9849847220       16.2244879532       12.5390311675
 Au        13.2617004043       17.9184096768       16.1937217140
 Au        16.8665550975       10.6475201445       17.0614117783
 Au        10.9264972743       16.2652652603       12.5651741155
 Au        15.3204419054       18.0567857292       11.8276580953
 Au        11.1727760718       16.4657789818       17.4058324388
 Au        10.6954084621       17.6877639234       14.9646375693
 Au        16.8552349752       13.1710596308       18.3897348811
 Au        15.5610289739       16.4744837436        9.5012575277
 Au        18.7213712481       12.6728740702       16.3538601290
 Au        16.4025420651       15.8266827491       19.2962861245
 Au        17.7793472880       14.9636564505       10.3981181679
 Au        14.4150798154       15.9088189016       21.2437624303
 Au        13.7302883865       16.6624466844       18.6131082821
 Au        13.1999450866       16.3467801114       10.9810533373
 Au        17.5849993762       12.8475321009       12.0869047167
 Au        17.8263103897       17.8032212730       10.4739186518
 Au        17.7867178948       18.9065370125       12.9936622749
 Au        17.6653586312       19.5071337290       15.8071553911
  C        19.9632890314       16.1136292682       18.2950554030
  O        20.7236895641       16.3855711173       19.1210447109
