12

C      -1.306081045949597     -0.015390006512150      0.502395503059920
C      -0.141451359192731      0.649157739119203     -0.217434705114446
C       0.913380994333348     -0.356017951248614     -0.662628825100973
O       1.491570405681800     -1.013050933358266      0.456482045938440
H      -2.053679538588318      0.733704892273054      0.781916579206011
H      -0.974693772203641     -0.517452674017301      1.416752299769745
H      -1.792034241579320     -0.756277869695585     -0.140436670087195
H      -0.518494318038473      1.190827905994537     -1.091844667681323
H       0.311098065990728      1.383196778505577      0.459265161618877
H       0.476636877418785     -1.116648879017588     -1.317301029769278
H       1.712839465147329      0.147569028700074     -1.215362997948859
H       1.880908466980117     -0.329618030742957      1.028197306109079
