12

C      -1.213100000000000     -0.688400000000000      0.000000000000000
C      -1.202800000000000      0.706400000000000      0.000100000000000
C      -0.010300000000000     -1.394800000000000      0.000000000000000
C       0.010400000000000      1.394800000000000     -0.000100000000000
C       1.202800000000000     -0.706300000000000      0.000000000000000
C       1.213100000000000      0.688400000000000      0.000000000000000
H      -2.157700000000000     -1.224400000000000      0.000000000000000
H      -2.139300000000000      1.256400000000000      0.000100000000000
H      -0.018400000000000     -2.480900000000000     -0.000100000000000
H       0.018400000000000      2.480800000000000      0.000000000000000
H       2.139400000000000     -1.256300000000000      0.000100000000000
H       2.157700000000000      1.224500000000000      0.000000000000000
