40
Properties=species:S:1:pos:R:3 energy=-34953.25761122292 pbc="F F F"
Au      15.02008513      14.84375360      16.41149964
Au      17.29212426      11.34390986      14.36303216
Au      14.44743588      12.06860896      17.37883917
Au      18.07445688      15.33470971      17.16344941
Au      12.42850461      14.01259484      17.35498759
Au      11.26116291      14.87504900      15.01668579
Au      12.94191778      18.07965626      13.35343532
Au      15.31878773      18.87754473      14.54349719
Au      14.85246011      15.99605165      13.90039606
Au      14.24900420      13.84599434      19.46895536
Au      14.91011651      12.31311633      13.17020767
Au      12.82151774      14.16182065      12.78284438
Au      15.19768427      14.31391419      11.28889704
Au      16.83021291      14.18468266      14.41965017
Au      12.80735935      12.49585715      15.01553665
Au      14.71508708      10.40574423      15.20399382
Au      17.66383946      16.83874753      14.79558945
Au      19.60957090      14.70805617      14.81297905
Au      15.98706164      17.55914979      17.04212967
Au      19.25353657      16.30450694      12.52602595
Au      13.26764888      17.93341654      16.20843003
Au      16.86405153      10.65200839      17.06351914
Au      10.91806129      16.25699011      12.55406954
Au      15.31098828      18.05398272      11.82950336
Au      11.18008314      16.45889510      17.40006245
Au      10.70368871      17.69142034      14.96457990
Au      16.86628537      13.13077753      18.44206973
Au      15.54501333      16.46774062       9.48403825
Au      18.73338354      12.64737638      16.37182513
Au      16.46515469      15.84546743      19.28952023
Au      17.77672096      14.97599811      10.43931099
Au      14.47336694      15.90834182      21.22733914
Au      13.75460628      16.66764198      18.60683352
Au      13.19521937      16.34210026      10.99034050
Au      17.58617769      12.84111089      12.06763129
Au      17.79514304      17.79225051      10.48330840
Au      17.78644661      18.90958529      12.98227523
Au      17.66245439      19.52435974      15.82107491
C       21.24102832      16.40044764      11.89839956
O       22.34344588      16.52384476      11.60693333
