     168
 i =        1, E =     -8144.3597650204
 Fe         5.0938794100       11.8196869300        0.3885799900
 Fe         7.6575796300        7.3792284900        0.3885799900
 Fe        10.2212798400        2.9387700600        0.3885799900
 Fe        -0.0335205200       11.8196869300        0.3885799900
 Fe         2.5301797000        7.3792284900        0.3885799900
 Fe         5.0938799200        2.9387700600        0.3885799900
 Fe        -5.1609204400       11.8196869300        0.3885799900
 Fe        -2.5972202200        7.3792284900        0.3885799900
 Fe        -0.0335200000        2.9387700600        0.3885799900
  O         8.4519195100        8.9577468800        1.1642700400
  O        11.0156197300        4.5172884400        1.1642700400
  O        13.5793199500        0.0768300000        1.1642700400
  O         3.3245195900        8.9577468800        1.1642700400
  O         5.8882198100        4.5172884400        1.1642700400
  O         8.4519200300        0.0768300000        1.1642700400
  O        -1.8028803300        8.9577468800        1.1642700400
  O         0.7608198900        4.5172884400        1.1642700400
  O         3.3245201100        0.0768300000        1.1642700400
  O         8.4568493000       11.7183869300        1.1650400200
  O        11.0205495200        7.2779284900        1.1650400200
  O        13.5842497300        2.8374700500        1.1650400200
  O         3.3294493700       11.7183869300        1.1650400200
  O         5.8931495900        7.2779284900        1.1650400200
  O         8.4568498100        2.8374700500        1.1650400200
  O        -1.7979505500       11.7183869300        1.1650400200
  O         0.7657496700        7.2779284900        1.1650400200
  O         3.3294498900        2.8374700500        1.1650400200
  O         6.0627194200       10.3425368500        1.1660399400
  O         8.6264196400        5.9020784100        1.1660399400
  O        11.1901198600        1.4616199700        1.1660399400
  O         0.9353195000       10.3425368500        1.1660399400
  O         3.4990197200        5.9020784100        1.1660399400
  O         6.0627199400        1.4616199700        1.1660399400
  O        -4.1920804200       10.3425368500        1.1660399400
  O        -1.6283802000        5.9020784100        1.1660399400
  O         0.9353200200        1.4616199700        1.1660399400
 Fe         7.6576695000       13.2997167500        1.9292099500
 Fe        10.2213697200        8.8592583200        1.9292099500
 Fe        12.7850699400        4.4187998800        1.9292099500
 Fe         2.5302695800       13.2997167500        1.9292099500
 Fe         5.0939698000        8.8592583200        1.9292099500
 Fe         7.6576700200        4.4187998800        1.9292099500
 Fe        -2.5971303400       13.2997167500        1.9292099500
 Fe        -0.0334301200        8.8592583200        1.9292099500
 Fe         2.5302701000        4.4187998800        1.9292099500
 Fe         7.6573893600       10.3392168700        2.7128999200
 Fe        10.2210895800        5.8987584300        2.7128999200
 Fe        12.7847898000        1.4582999900        2.7128999200
 Fe         2.5299894400       10.3392168700        2.7128999200
 Fe         5.0936896600        5.8987584300        2.7128999200
 Fe         7.6573898800        1.4582999900        2.7128999200
 Fe        -2.5974104800       10.3392168700        2.7128999200
 Fe        -0.0337102600        5.8987584300        2.7128999200
 Fe         2.5299899600        1.4582999900        2.7128999200
  O         4.0923972881       13.3154914251        3.5122309894
  O         6.6569314022        8.8763037604        3.5125658686
  O         9.2192110962        4.4340226731        3.5121843302
  O        -1.0342099401       13.3151147846        3.5131008502
  O         1.5351178978        8.8719627121        3.5132403258
  O         4.0926331285        4.4280237845        3.5012313233
  O        -6.1623473209       13.3149706939        3.5121208962
  O        -3.5983490352        8.8747961059        3.5124810205
  O        -1.0359429672        4.4338668839        3.5112356502
  O         6.8120983436       11.8718589418        3.4951351349
  O         9.3746675659        7.4315565234        3.4950060414
  O        11.9393545938        2.9911175451        3.4951929406
  O         1.6845906953       11.8726857351        3.4942442105
  O         4.2486808703        7.4361478143        3.4876279013
  O         6.8123237141        2.9906159502        3.4945819062
  O        -3.4428581715       11.8713075538        3.4955282283
  O        -0.8806652146        7.4319124440        3.4927846665
  O         1.6889281945        2.9882598485        3.4986856593
  O         9.4281086227       10.2244105298        3.4869764037
  O        11.9915602689        5.7834797325        3.4867380291
  O        14.5549248238        1.3431937454        3.4871647334
  O         4.3022132960       10.2244314313        3.4859053905
  O         6.8658333070        5.7834948434        3.4849847561
  O         9.4281838922        1.3431930484        3.4867148259
  O        -0.8284841766       10.2248275739        3.4870411326
  O         1.7358327333        5.7826118430        3.4804571206
  O         4.3014186672        1.3445596623        3.4879654936
 Fe         5.0352456707       11.8361181510        4.4199500059
 Fe         7.5966329303        7.3954940961        4.4211369382
 Fe        10.1625804907        2.9554594369        4.4197210722
 Fe        -0.0914669299       11.8352196142        4.4196618228
 Fe         2.4734620425        7.3915714151        4.4226269811
 Fe         5.0360951640        2.9599218203        4.4219159040
 Fe        -5.2192987671       11.8365119358        4.4199089662
 Fe        -2.6545682736        7.3952984242        4.4203775284
 Fe        -0.0895510477        2.9559935601        4.4182378535
 Fe         7.6084091011       13.1854850865        4.8062612325
 Fe        10.1722697561        8.7445803240        4.8062249543
 Fe        12.7367803488        4.3049670876        4.8074418509
 Fe         2.4810285180       13.1848730083        4.8065615868
 Fe         5.0465161716        8.7400723729        4.8078516675
 Fe         7.6056012026        4.3047381092        4.8081233678
 Fe        -2.6466079594       13.1853591358        4.8067096163
 Fe        -0.0815971840        8.7461419912        4.8032840786
 Fe         2.4820151394        4.3058966825        4.8068184312
  O         5.8556420273       10.3471230114        5.8709369950
  O         8.4198459959        5.9068065175        5.8709451946
  O        10.9829145377        1.4650223900        5.8714807275
  O         0.7279364115       10.3472678278        5.8712045615
  O         3.3055642381        5.9211240373        5.7582655629
  O         5.8559298743        1.4640129643        5.8715478055
  O        -4.3993371824       10.3464162367        5.8712579323
  O        -1.8314913812        5.9057216006        5.8718396635
  O         0.7279681012        1.4638330425        5.8715754514
  O         5.9252502882       13.1743576023        5.6864583256
  O         8.4895055459        8.7340760553        5.6862935155
  O        11.0524800432        4.2932252838        5.6860970954
  O         0.7972525009       13.1743840193        5.6857643464
  O         3.3631301636        8.7403539806        5.6827415171
  O         5.9242361144        4.2987506009        5.6893177473
  O        -4.3298177627       13.1740678659        5.6870585540
  O        -1.7647879777        8.7344457406        5.6857037947
  O         0.7945646896        4.2908722342        5.6841641727
  O         3.4665136548       11.7741693545        5.6697546414
  O         6.0310677513        7.3288641855        5.6723688064
  O         8.5944850418        2.8938515747        5.6690509247
  O        -1.6600745150       11.7741620961        5.6691308672
  O         0.8954782128        7.3361915152        5.6642209920
  O         3.4669770914        2.8893244889        5.6663622547
  O        -6.7881517054       11.7744562274        5.6689812273
  O        -4.2239464195        7.3338128812        5.6687143523
  O        -1.6594760008        2.8923185947        5.6671280117
 Fe         7.7822740493       10.2718360841        6.4327932063
 Fe        10.3462108432        5.8315453032        6.4329047308
 Fe        12.9102229384        1.3916411456        6.4327444621
 Fe         2.6542284027       10.2716794360        6.4351284148
 Fe         5.1870956083        5.8327915253        6.4213825551
 Fe         7.7825000686        1.3914916331        6.4329044495
 Fe        -2.4721021842       10.2716898976        6.4330210890
 Fe         0.0987524761        5.8313923558        6.4383772169
 Fe         2.6548956489        1.3916968941        6.4339726535
  O         7.8380210704       10.3823768731        8.2633760362
  H         7.8876400522        9.5546353760        8.7742559274
  H         5.3478960713       10.6136795955        6.6701219986
  O        10.4036525530        5.9421951009        8.2632657132
  H        10.4520601384        5.1143611714        8.7742079326
  H         7.9107994482        6.1740431686        6.6693134987
  O        12.9673270081        1.5017454827        8.2633015801
  H        13.0137545997        0.6740087151        8.7746170073
  H        10.4753901465        1.7321388190        6.6705143942
  O         2.7114222852       10.3844639992        8.2664818583
  H         2.7601069760        9.5520216146        8.7690764044
  H         0.2206385674       10.6135770528        6.6705536597
  O         5.3824659218        5.9360755583        8.2509785665
  H         5.3325208479        5.1053356532        8.7652994685
  H         2.8638499551        6.1321640279        6.6537267039
  O         7.8401155360        1.5021117428        8.2633640075
  H         7.8866899194        0.6744351852        8.7747621058
  H         5.3475294868        1.7320634833        6.6697752486
  O        -2.4155711724       10.3826260721        8.2636489376
  H        -2.3683701028        9.5545464351        8.7742266943
  H        -4.9070114222       10.6126935756        6.6705479881
  O         0.0690536914        5.9406719066        8.2707566882
  H         0.1903024615        5.1076262836        8.7652506819
  H        -2.3421439333        6.1729198154        6.6692698450
  O         2.7119738813        1.5032543072        8.2653764416
  H         2.7586651528        0.6736786100        8.7737245719
  H         0.2207679984        1.7327028600        6.6701766854
  C         2.7895069541        6.1710671566       10.8320656816
  C         2.7637921734        6.1870077929        9.3901467117
  H         2.3861541007        7.1353982814       11.1725519543
  H         2.1470255237        5.3473155677       11.1744358255
  H         3.8252690967        6.0350036652       11.1738538527
  N         2.6977860435        6.2118959820        8.2345546754
     168
 i =        2, E =     -8144.3621674976
 Fe         5.0938794100       11.8196869300        0.3885799900
 Fe         7.6575796300        7.3792284900        0.3885799900
 Fe        10.2212798400        2.9387700600        0.3885799900
 Fe        -0.0335205200       11.8196869300        0.3885799900
 Fe         2.5301797000        7.3792284900        0.3885799900
 Fe         5.0938799200        2.9387700600        0.3885799900
 Fe        -5.1609204400       11.8196869300        0.3885799900
 Fe        -2.5972202200        7.3792284900        0.3885799900
 Fe        -0.0335200000        2.9387700600        0.3885799900
  O         8.4519195100        8.9577468800        1.1642700400
  O        11.0156197300        4.5172884400        1.1642700400
  O        13.5793199500        0.0768300000        1.1642700400
  O         3.3245195900        8.9577468800        1.1642700400
  O         5.8882198100        4.5172884400        1.1642700400
  O         8.4519200300        0.0768300000        1.1642700400
  O        -1.8028803300        8.9577468800        1.1642700400
  O         0.7608198900        4.5172884400        1.1642700400
  O         3.3245201100        0.0768300000        1.1642700400
  O         8.4568493000       11.7183869300        1.1650400200
  O        11.0205495200        7.2779284900        1.1650400200
  O        13.5842497300        2.8374700500        1.1650400200
  O         3.3294493700       11.7183869300        1.1650400200
  O         5.8931495900        7.2779284900        1.1650400200
  O         8.4568498100        2.8374700500        1.1650400200
  O        -1.7979505500       11.7183869300        1.1650400200
  O         0.7657496700        7.2779284900        1.1650400200
  O         3.3294498900        2.8374700500        1.1650400200
  O         6.0627194200       10.3425368500        1.1660399400
  O         8.6264196400        5.9020784100        1.1660399400
  O        11.1901198600        1.4616199700        1.1660399400
  O         0.9353195000       10.3425368500        1.1660399400
  O         3.4990197200        5.9020784100        1.1660399400
  O         6.0627199400        1.4616199700        1.1660399400
  O        -4.1920804200       10.3425368500        1.1660399400
  O        -1.6283802000        5.9020784100        1.1660399400
  O         0.9353200200        1.4616199700        1.1660399400
 Fe         7.6576695000       13.2997167500        1.9292099500
 Fe        10.2213697200        8.8592583200        1.9292099500
 Fe        12.7850699400        4.4187998800        1.9292099500
 Fe         2.5302695800       13.2997167500        1.9292099500
 Fe         5.0939698000        8.8592583200        1.9292099500
 Fe         7.6576700200        4.4187998800        1.9292099500
 Fe        -2.5971303400       13.2997167500        1.9292099500
 Fe        -0.0334301200        8.8592583200        1.9292099500
 Fe         2.5302701000        4.4187998800        1.9292099500
 Fe         7.6573893600       10.3392168700        2.7128999200
 Fe        10.2210895800        5.8987584300        2.7128999200
 Fe        12.7847898000        1.4582999900        2.7128999200
 Fe         2.5299894400       10.3392168700        2.7128999200
 Fe         5.0936896600        5.8987584300        2.7128999200
 Fe         7.6573898800        1.4582999900        2.7128999200
 Fe        -2.5974104800       10.3392168700        2.7128999200
 Fe        -0.0337102600        5.8987584300        2.7128999200
 Fe         2.5299899600        1.4582999900        2.7128999200
  O         4.0936435457       13.3157187994        3.5143707053
  O         6.6683934039        8.8801626735        3.5310572070
  O         9.2208709898        4.4343888513        3.5147806969
  O        -1.0369463707       13.3131060250        3.5073013008
  O         1.5306119890        8.8717533105        3.5093888364
  O         4.1126828607        4.4281035852        3.5186384829
  O        -6.1628678151       13.3146546778        3.5122939106
  O        -3.5990411088        8.8739338380        3.5112658081
  O        -1.0360264265        4.4336166132        3.5110362594
  O         6.8123105576       11.8727892991        3.4944306619
  O         9.3758627643        7.4326539048        3.4928531742
  O        11.9393220682        2.9900761957        3.4969201354
  O         1.6842007484       11.8719292753        3.4965489188
  O         4.2523333170        7.4324908131        3.4948776997
  O         6.8144946174        2.9894303671        3.4993677597
  O        -3.4424197469       11.8750462849        3.4912593053
  O        -0.8817653790        7.4368546054        3.4850716395
  O         1.6852726868        2.9711507565        3.5244327651
  O         9.4291857804       10.2241504349        3.4856278936
  O        11.9899493550        5.7835451664        3.4891059951
  O        14.5559359848        1.3437414681        3.4869171668
  O         4.2935124436       10.2326841080        3.4999447031
  O         6.8639281183        5.7830390769        3.4879768262
  O         9.4271987278        1.3438723615        3.4890765760
  O        -0.8253557543       10.2238197775        3.4829201668
  O         1.7175883405        5.7898687874        3.5002870138
  O         4.3029783628        1.3377627345        3.4810422350
 Fe         5.0372756024       11.8382863091        4.4232521823
 Fe         7.6017025776        7.3900394031        4.4245286943
 Fe        10.1630135338        2.9559258705        4.4214703407
 Fe        -0.0933082339       11.8359256121        4.4190510928
 Fe         2.4755634193        7.3906144242        4.4282252887
 Fe         5.0365581029        2.9486541090        4.4221470491
 Fe        -5.2183978961       11.8364593574        4.4190536089
 Fe        -2.6525553274        7.3953824531        4.4198111086
 Fe        -0.0950357492        2.9577384102        4.4259819091
 Fe         7.6082668571       13.1854718064        4.8061292032
 Fe        10.1720678361        8.7436138359        4.8055535958
 Fe        12.7374524685        4.3055794146        4.8078272333
 Fe         2.4807705344       13.1852134972        4.8072588531
 Fe         5.0441020264        8.7432889242        4.8107451312
 Fe         7.6056017832        4.3068218998        4.8114638702
 Fe        -2.6466289392       13.1868942699        4.8042217932
 Fe        -0.0821681352        8.7450800834        4.8025441425
 Fe         2.4858025397        4.3128776673        4.8138765826
  O         5.8568911572       10.3467004004        5.8717199275
  O         8.4208182855        5.9072526693        5.8724317085
  O        10.9834108037        1.4645076541        5.8717240780
  O         0.7287488433       10.3481969197        5.8713521388
  O         3.3298684120        5.9178180884        5.7378520745
  O         5.8569093024        1.4636195045        5.8721575636
  O        -4.3992751727       10.3457789267        5.8713733862
  O        -1.8320218283        5.9065751584        5.8669733670
  O         0.7290072138        1.4625564911        5.8728744877
  O         5.9261036251       13.1754443499        5.6880722085
  O         8.4896599349        8.7348567417        5.6875843461
  O        11.0534171964        4.2940272608        5.6869793773
  O         0.7971518388       13.1747073260        5.6869406368
  O         3.3620590028        8.7438568483        5.6807945460
  O         5.9211289586        4.2896387276        5.6852726781
  O        -4.3291086514       13.1742171281        5.6883017560
  O        -1.7661217804        8.7353223106        5.6860607297
  O         0.7962788015        4.2937045557        5.6880844535
  O         3.4661592656       11.7749752639        5.6707743451
  O         6.0322483642        7.3343567928        5.6676480212
  O         8.5938224963        2.8932351177        5.6691103386
  O        -1.6618264471       11.7756783851        5.6693565219
  O         0.8914952501        7.3371004222        5.6614129548
  O         3.4680154367        2.8924673631        5.6711169274
  O        -6.7876011397       11.7744615948        5.6695847804
  O        -4.2234491078        7.3334053654        5.6688198074
  O        -1.6638912464        2.8917282872        5.6698654679
 Fe         7.7820656105       10.2724051731        6.4331003461
 Fe        10.3453379990        5.8318437343        6.4330892633
 Fe        12.9090789674        1.3911520465        6.4331722284
 Fe         2.6547284235       10.2717906406        6.4335922207
 Fe         5.2060396194        5.8328359140        6.4186812298
 Fe         7.7820954413        1.3920289161        6.4328640192
 Fe        -2.4720852008       10.2723502227        6.4328520914
 Fe         0.0982241419        5.8354887356        6.4388746313
 Fe         2.6558486541        1.3930369975        6.4328401366
  O         7.8369142858       10.3830902777        8.2650582172
  H         7.8887005460        9.5530299289        8.7718547251
  H         5.3475163092       10.6139814608        6.6691495085
  O        10.4039827698        5.9428214887        8.2642792041
  H        10.4519879445        5.1132397397        8.7722354875
  H         7.9062138661        6.1706771446        6.6688561172
  O        12.9683318736        1.5023545215        8.2643854592
  H        13.0133689986        0.6727433371        8.7724155224
  H        10.4753357736        1.7327172897        6.6699118361
  O         2.7108561157       10.3849185835        8.2680789655
  H         2.7604854927        9.5474276983        8.7616449061
  H         0.2195389688       10.6141596355        6.6696589384
  O         5.4648532297        5.9320831177        8.2474212342
  H         5.3506618288        5.0933891111        8.7456546585
  H         2.8912712830        6.1142674767        6.6472704472
  O         7.8393108124        1.5024207898        8.2645215220
  H         7.8870037250        0.6730689474        8.7728192774
  H         5.3474493874        1.7327236840        6.6690058927
  O        -2.4146097935       10.3832448181        8.2649902737
  H        -2.3693524772        9.5529193406        8.7719828335
  H        -4.9071121588       10.6130535644        6.6701801525
  O        -0.0274583125        5.9333521921        8.2758402540
  H         0.1771804470        5.0986242725        8.7538104472
  H        -2.3363196335        6.1710278963        6.6692967990
  O         2.7118766017        1.5055219486        8.2673653620
  H         2.7585935400        0.6727556659        8.7708709160
  H         0.2194586368        1.7333831566        6.6692043021
  C         2.7876138926        6.1736647135       10.8364029653
  C         2.7529897359        6.2011760429        9.4018890037
  H         2.3890445356        7.1280452236       11.2025368513
  H         2.1539147461        5.3533323472       11.1978781011
  H         3.8180107579        6.0371045404       11.1901212002
  N         2.6545760867        6.2397326750        8.2514704155
     168
 i =        3, E =     -8144.3567823041
 Fe         5.0938794100       11.8196869300        0.3885799900
 Fe         7.6575796300        7.3792284900        0.3885799900
 Fe        10.2212798400        2.9387700600        0.3885799900
 Fe        -0.0335205200       11.8196869300        0.3885799900
 Fe         2.5301797000        7.3792284900        0.3885799900
 Fe         5.0938799200        2.9387700600        0.3885799900
 Fe        -5.1609204400       11.8196869300        0.3885799900
 Fe        -2.5972202200        7.3792284900        0.3885799900
 Fe        -0.0335200000        2.9387700600        0.3885799900
  O         8.4519195100        8.9577468800        1.1642700400
  O        11.0156197300        4.5172884400        1.1642700400
  O        13.5793199500        0.0768300000        1.1642700400
  O         3.3245195900        8.9577468800        1.1642700400
  O         5.8882198100        4.5172884400        1.1642700400
  O         8.4519200300        0.0768300000        1.1642700400
  O        -1.8028803300        8.9577468800        1.1642700400
  O         0.7608198900        4.5172884400        1.1642700400
  O         3.3245201100        0.0768300000        1.1642700400
  O         8.4568493000       11.7183869300        1.1650400200
  O        11.0205495200        7.2779284900        1.1650400200
  O        13.5842497300        2.8374700500        1.1650400200
  O         3.3294493700       11.7183869300        1.1650400200
  O         5.8931495900        7.2779284900        1.1650400200
  O         8.4568498100        2.8374700500        1.1650400200
  O        -1.7979505500       11.7183869300        1.1650400200
  O         0.7657496700        7.2779284900        1.1650400200
  O         3.3294498900        2.8374700500        1.1650400200
  O         6.0627194200       10.3425368500        1.1660399400
  O         8.6264196400        5.9020784100        1.1660399400
  O        11.1901198600        1.4616199700        1.1660399400
  O         0.9353195000       10.3425368500        1.1660399400
  O         3.4990197200        5.9020784100        1.1660399400
  O         6.0627199400        1.4616199700        1.1660399400
  O        -4.1920804200       10.3425368500        1.1660399400
  O        -1.6283802000        5.9020784100        1.1660399400
  O         0.9353200200        1.4616199700        1.1660399400
 Fe         7.6576695000       13.2997167500        1.9292099500
 Fe        10.2213697200        8.8592583200        1.9292099500
 Fe        12.7850699400        4.4187998800        1.9292099500
 Fe         2.5302695800       13.2997167500        1.9292099500
 Fe         5.0939698000        8.8592583200        1.9292099500
 Fe         7.6576700200        4.4187998800        1.9292099500
 Fe        -2.5971303400       13.2997167500        1.9292099500
 Fe        -0.0334301200        8.8592583200        1.9292099500
 Fe         2.5302701000        4.4187998800        1.9292099500
 Fe         7.6573893600       10.3392168700        2.7128999200
 Fe        10.2210895800        5.8987584300        2.7128999200
 Fe        12.7847898000        1.4582999900        2.7128999200
 Fe         2.5299894400       10.3392168700        2.7128999200
 Fe         5.0936896600        5.8987584300        2.7128999200
 Fe         7.6573898800        1.4582999900        2.7128999200
 Fe        -2.5974104800       10.3392168700        2.7128999200
 Fe        -0.0337102600        5.8987584300        2.7128999200
 Fe         2.5299899600        1.4582999900        2.7128999200
  O         4.0923802813       13.3156638930        3.5128869523
  O         6.6784264654        8.8829276053        3.5454669078
  O         9.2194844050        4.4361831077        3.5121554414
  O        -1.0071589298       13.3262315145        3.5589494614
  O         1.5453182473        8.8812187340        3.5448305890
  O         4.1343480816        4.4209712771        3.5208936955
  O        -6.1631453036       13.3128572132        3.5118519899
  O        -3.5960368608        8.8755294845        3.5167531969
  O        -1.0386682169        4.4311572467        3.5071468785
  O         6.8118657949       11.8742598223        3.4945909460
  O         9.3782535383        7.4299404581        3.4966504165
  O        11.9392639097        2.9902726367        3.4968292498
  O         1.6848256069       11.8749790222        3.4929331452
  O         4.2620293560        7.4404084260        3.4875576714
  O         6.8192528177        2.9919679398        3.4992750070
  O        -3.4452770834       11.8437302826        3.5406760092
  O        -0.8858110188        7.4211251942        3.5101008435
  O         1.6803163222        2.9535257456        3.5516998174
  O         9.4266629131       10.2255299885        3.4903693846
  O        11.9895809389        5.7826298573        3.4875435297
  O        14.5558528816        1.3450706092        3.4902048193
  O         4.2857783100       10.2424277834        3.5089156405
  O         6.8653813337        5.7810302304        3.4869667508
  O         9.4288356514        1.3434280833        3.4871864512
  O        -0.8395552399       10.2336720950        3.5131976427
  O         1.6944197346        5.7931560095        3.5143851757
  O         4.2765115746        1.3456885660        3.5280486199
 Fe         5.0362028998       11.8392357470        4.4240755585
 Fe         7.6068128298        7.3850985905        4.4250403309
 Fe        10.1616954074        2.9591497893        4.4196638011
 Fe        -0.0801124285       11.8309028887        4.4363188055
 Fe         2.4905546619        7.3682951520        4.4419882093
 Fe         5.0410588675        2.9509297657        4.4242376651
 Fe        -5.2292201143       11.8359736304        4.4279933966
 Fe        -2.6574586032        7.3923751947        4.4252954107
 Fe        -0.0979458818        2.9642206691        4.4368077710
 Fe         7.6078914774       13.1865030233        4.8064003111
 Fe        10.1718220903        8.7432471975        4.8069493140
 Fe        12.7373209233        4.3067812376        4.8079318970
 Fe         2.4808213175       13.1852927828        4.8053425658
 Fe         5.0386557343        8.7513412279        4.8102252417
 Fe         7.6093641331        4.3094390916        4.8128523583
 Fe        -2.6462202212       13.1873524486        4.8240727192
 Fe        -0.0827017926        8.7413066805        4.8193563019
 Fe         2.4949058544        4.3264484773        4.8224788686
  O         5.8593912075       10.3467204221        5.8740982537
  O         8.4202453867        5.9086681307        5.8747815767
  O        10.9831648889        1.4634633208        5.8721961878
  O         0.7318485136       10.3490174938        5.8733551261
  O         3.3865576301        5.8979952444        5.7257969114
  O         5.8586020593        1.4661487393        5.8726766459
  O        -4.3981010343       10.3453188947        5.8714201641
  O        -1.8354827723        5.9103361610        5.8510721820
  O         0.7299102688        1.4614199451        5.8765639734
  O         5.9260349629       13.1745613992        5.6901942229
  O         8.4908354629        8.7343172726        5.6912403348
  O        11.0534748268        4.2940241953        5.6890999883
  O         0.8015091380       13.1796128875        5.6929923107
  O         3.3588585878        8.7494799426        5.6762803116
  O         5.9260817800        4.2725132517        5.6806160493
  O        -4.3332449607       13.1744437562        5.6936025075
  O        -1.7744177207        8.7368234543        5.6871010981
  O         0.8040872782        4.3026866417        5.7019732740
  O         3.4654755021       11.7785078015        5.6757042483
  O         6.0357418589        7.3498455597        5.6571141272
  O         8.5941301851        2.8918894205        5.6700080424
  O        -1.6604153210       11.7731165756        5.6712057697
  O         0.8895435908        7.3361288702        5.6580012722
  O         3.4720441584        2.9003556548        5.6841702115
  O        -6.7926463621       11.7752266535        5.6749755411
  O        -4.2272721342        7.3335602227        5.6718433107
  O        -1.6685449808        2.8906702953        5.6732571196
 Fe         7.7823353093       10.2712124257        6.4339105428
 Fe        10.3431641049        5.8318624687        6.4345281603
 Fe        12.9078746340        1.3901698820        6.4342142216
 Fe         2.6541377887       10.2728231387        6.4291850164
 Fe         5.2620210920        5.8337619793        6.4144320413
 Fe         7.7804826255        1.3946321004        6.4336778697
 Fe        -2.4731879518       10.2735538791        6.4330627077
 Fe         0.0918544209        5.8466411610        6.4395251616
 Fe         2.6560520982        1.3965679469        6.4312406764
  O         7.8339975740       10.3846232230        8.2683945505
  H         7.8914344111        9.5490407333        8.7655342030
  H         5.3465629893       10.6153821183        6.6682121686
  O        10.4045476858        5.9444641952        8.2669603931
  H        10.4519908599        5.1103784934        8.7674645764
  H         7.8964831437        6.1614858415        6.6702571231
  O        12.9706480867        1.5036167198        8.2678108738
  H        13.0125040615        0.6689965578        8.7676587282
  H        10.4747187720        1.7342869760        6.6693947945
  O         2.7096571319       10.3848440588        8.2707299109
  H         2.7613021890        9.5356851034        8.7438331941
  H         0.2173762468       10.6157577018        6.6672356141
  O         5.6435711989        5.9197111836        8.2393940414
  H         5.4036227087        5.0661381598        8.6965090726
  H         2.9344762006        6.0861903577        6.6339530477
  O         7.8372427215        1.5028682596        8.2675523786
  H         7.8878043231        0.6693409746        8.7683257065
  H         5.3477376865        1.7340558126        6.6679600422
  O        -2.4120489672       10.3842733373        8.2674435673
  H        -2.3718780409        9.5488315487        8.7663831060
  H        -4.9071700165       10.6137563794        6.6687325175
  O        -0.2522996286        5.9107302143        8.2854094886
  H         0.1348756317        5.0790282056        8.7272546248
  H        -2.3197379865        6.1647638447        6.6696407430
  O         2.7119636380        1.5112434868        8.2722447281
  H         2.7582699002        0.6707144322        8.7638659434
  H         0.2159618928        1.7340494557        6.6690924861
  C         2.7832009260        6.1814578420       10.8459887514
  C         2.7274799873        6.2340482783        9.4237964801
  H         2.3965121753        7.1113278451       11.2789074651
  H         2.1712577569        5.3674530214       11.2532867823
  H         3.8013354590        6.0425328661       11.2277269754
  N         2.5639655847        6.3029548655        8.2805860576
     168
 i =        4, E =     -8144.3665672782
 Fe         5.0938794100       11.8196869300        0.3885799900
 Fe         7.6575796300        7.3792284900        0.3885799900
 Fe        10.2212798400        2.9387700600        0.3885799900
 Fe        -0.0335205200       11.8196869300        0.3885799900
 Fe         2.5301797000        7.3792284900        0.3885799900
 Fe         5.0938799200        2.9387700600        0.3885799900
 Fe        -5.1609204400       11.8196869300        0.3885799900
 Fe        -2.5972202200        7.3792284900        0.3885799900
 Fe        -0.0335200000        2.9387700600        0.3885799900
  O         8.4519195100        8.9577468800        1.1642700400
  O        11.0156197300        4.5172884400        1.1642700400
  O        13.5793199500        0.0768300000        1.1642700400
  O         3.3245195900        8.9577468800        1.1642700400
  O         5.8882198100        4.5172884400        1.1642700400
  O         8.4519200300        0.0768300000        1.1642700400
  O        -1.8028803300        8.9577468800        1.1642700400
  O         0.7608198900        4.5172884400        1.1642700400
  O         3.3245201100        0.0768300000        1.1642700400
  O         8.4568493000       11.7183869300        1.1650400200
  O        11.0205495200        7.2779284900        1.1650400200
  O        13.5842497300        2.8374700500        1.1650400200
  O         3.3294493700       11.7183869300        1.1650400200
  O         5.8931495900        7.2779284900        1.1650400200
  O         8.4568498100        2.8374700500        1.1650400200
  O        -1.7979505500       11.7183869300        1.1650400200
  O         0.7657496700        7.2779284900        1.1650400200
  O         3.3294498900        2.8374700500        1.1650400200
  O         6.0627194200       10.3425368500        1.1660399400
  O         8.6264196400        5.9020784100        1.1660399400
  O        11.1901198600        1.4616199700        1.1660399400
  O         0.9353195000       10.3425368500        1.1660399400
  O         3.4990197200        5.9020784100        1.1660399400
  O         6.0627199400        1.4616199700        1.1660399400
  O        -4.1920804200       10.3425368500        1.1660399400
  O        -1.6283802000        5.9020784100        1.1660399400
  O         0.9353200200        1.4616199700        1.1660399400
 Fe         7.6576695000       13.2997167500        1.9292099500
 Fe        10.2213697200        8.8592583200        1.9292099500
 Fe        12.7850699400        4.4187998800        1.9292099500
 Fe         2.5302695800       13.2997167500        1.9292099500
 Fe         5.0939698000        8.8592583200        1.9292099500
 Fe         7.6576700200        4.4187998800        1.9292099500
 Fe        -2.5971303400       13.2997167500        1.9292099500
 Fe        -0.0334301200        8.8592583200        1.9292099500
 Fe         2.5302701000        4.4187998800        1.9292099500
 Fe         7.6573893600       10.3392168700        2.7128999200
 Fe        10.2210895800        5.8987584300        2.7128999200
 Fe        12.7847898000        1.4582999900        2.7128999200
 Fe         2.5299894400       10.3392168700        2.7128999200
 Fe         5.0936896600        5.8987584300        2.7128999200
 Fe         7.6573898800        1.4582999900        2.7128999200
 Fe        -2.5974104800       10.3392168700        2.7128999200
 Fe        -0.0337102600        5.8987584300        2.7128999200
 Fe         2.5299899600        1.4582999900        2.7128999200
  O         4.0935690147       13.3159812592        3.5139773888
  O         6.6644540443        8.8788900350        3.5198758276
  O         9.2200106985        4.4351914591        3.5094130001
  O        -1.0207902214       13.3238618752        3.5396714859
  O         1.5358467694        8.8790961122        3.5271756750
  O         4.1104118956        4.4187504890        3.4963573126
  O        -6.1631587148       13.3103492465        3.5095865655
  O        -3.5994620423        8.8726169732        3.5087887785
  O        -1.0358507533        4.4313113105        3.5116587869
  O         6.8124306803       11.8746508400        3.4938257021
  O         9.3791339813        7.4329552049        3.4923673020
  O        11.9399098972        2.9890313151        3.4978420629
  O         1.6846876168       11.8737530462        3.4955789226
  O         4.2579264757        7.4478648605        3.4756973969
  O         6.8160092945        2.9925134237        3.4930254024
  O        -3.4444266313       11.8553386445        3.5216414902
  O        -0.8850944240        7.4281770411        3.4985043207
  O         1.6822882265        2.9741757629        3.5190014755
  O         9.4288908722       10.2239272458        3.4848597135
  O        11.9894455093        5.7837001414        3.4874035938
  O        14.5554242125        1.3444492869        3.4889403032
  O         4.2979679265       10.2345960172        3.4889817059
  O         6.8671344546        5.7830649651        3.4862844704
  O         9.4287675392        1.3445655187        3.4869750581
  O        -0.8307924018       10.2291031970        3.4980777741
  O         1.7186704353        5.7850549037        3.4910827048
  O         4.2891372018        1.3429389365        3.5105439575
 Fe         5.0348997161       11.8354572322        4.4200592994
 Fe         7.6049262426        7.3954857002        4.4170495661
 Fe        10.1623555451        2.9588731925        4.4191090416
 Fe        -0.0875097087       11.8342954095        4.4274701659
 Fe         2.4842243775        7.3758231772        4.4314771998
 Fe         5.0355946016        2.9572702828        4.4168297476
 Fe        -5.2239250320       11.8347788713        4.4237841687
 Fe        -2.6558678131        7.3955437239        4.4220166438
 Fe        -0.0885000692        2.9622676517        4.4300759749
 Fe         7.6076162166       13.1869745216        4.8064171394
 Fe        10.1728306301        8.7446662419        4.8051726380
 Fe        12.7357229952        4.3057372102        4.8088009660
 Fe         2.4808824509       13.1865659661        4.8067099733
 Fe         5.0418643276        8.7500740988        4.8047078837
 Fe         7.6113422107        4.3052187834        4.8079414282
 Fe        -2.6463800162       13.1827541728        4.8237416332
 Fe        -0.0799418083        8.7389817235        4.8160642724
 Fe         2.4917973410        4.3153286363        4.8189026449
  O         5.8571503391       10.3477295703        5.8740047821
  O         8.4161646134        5.9089319995        5.8731446010
  O        10.9831429222        1.4653265101        5.8721060613
  O         0.7292164260       10.3501948190        5.8739397319
  O         3.3717165501        5.8960603447        5.7606808598
  O         5.8569585345        1.4662121540        5.8742148864
  O        -4.4004984899       10.3455948274        5.8720750463
  O        -1.8406494696        5.9123831955        5.8472417808
  O         0.7269761772        1.4631605757        5.8762269580
  O         5.9240578045       13.1734618967        5.6888445519
  O         8.4931167157        8.7337000840        5.6923470506
  O        11.0515147718        4.2936841512        5.6889039018
  O         0.8015137118       13.1746056772        5.6941591033
  O         3.3629455492        8.7420651550        5.6828357945
  O         5.9305333363        4.2740784624        5.6817886349
  O        -4.3339087516       13.1741358250        5.6955420283
  O        -1.7697340114        8.7358815566        5.6885696549
  O         0.8040775681        4.3039381378        5.7049586401
  O         3.4666133074       11.7793601319        5.6762516848
  O         6.0395066060        7.3486234117        5.6598349949
  O         8.5967366738        2.8925842414        5.6711859579
  O        -1.6560707449       11.7732606568        5.6787934910
  O         0.8963556433        7.3333158729        5.6675371059
  O         3.4753464558        2.8993405116        5.6888700035
  O        -6.7902787127       11.7752214720        5.6721270736
  O        -4.2267996018        7.3340135521        5.6696557305
  O        -1.6618232702        2.8915205578        5.6698422528
 Fe         7.7825457618       10.2715043391        6.4334243006
 Fe        10.3436276193        5.8328106537        6.4352936979
 Fe        12.9090207153        1.3919773450        6.4338114940
 Fe         2.6551286319       10.2727323308        6.4307720201
 Fe         5.2639689299        5.8337657348        6.4175805952
 Fe         7.7830934429        1.3930054740        6.4339828746
 Fe        -2.4751240220       10.2720592283        6.4335368687
 Fe         0.0814484109        5.8443576104        6.4400653783
 Fe         2.6529194294        1.3959215663        6.4334241850
  O         7.8339684028       10.3835123072        8.2674083339
  H         7.8913855590        9.5491200178        8.7668858865
  H         5.3467768212       10.6163154887        6.6702583581
  O        10.4036395491        5.9438979331        8.2668812456
  H        10.4524450823        5.1105395910        8.7688561818
  H         7.9012250775        6.1613515889        6.6745529223
  O        12.9702161781        1.5024047599        8.2671190427
  H        13.0126984113        0.6688279056        8.7691431666
  H        10.4743274419        1.7339400591        6.6698566083
  O         2.7103103220       10.3834354929        8.2705527603
  H         2.7609808108        9.5359201832        8.7470710049
  H         0.2175895136       10.6164401681        6.6704829380
  O         5.5845541580        5.9136395593        8.2411898655
  H         5.4193222531        5.0745916606        8.7049259184
  H         2.9057244302        6.1070778977        6.6401783839
  O         7.8370029510        1.5027480112        8.2674936662
  H         7.8877959556        0.6693857586        8.7690764805
  H         5.3470720512        1.7350769364        6.6706751979
  O        -2.4119198052       10.3838192924        8.2670104743
  H        -2.3718090802        9.5488445091        8.7670900786
  H        -4.9075899963       10.6132188891        6.6707784698
  O        -0.1771607227        5.9027968718        8.2768298667
  H         0.1020796880        5.0894047276        8.7360257412
  H        -2.3192610402        6.1621258381        6.6708491181
  O         2.7124969698        1.5109769469        8.2721598318
  H         2.7580827727        0.6711942125        8.7647497594
  H         0.2165635387        1.7326687880        6.6720278758
  C         2.7859004536        6.1814552433       10.8554547873
  C         2.7245031858        6.2296458284        9.4231350774
  H         2.3937276037        7.1206030658       11.2648369486
  H         2.1649415569        5.3596234565       11.2358163891
  H         3.8135462517        6.0415203418       11.2142629253
  N         2.5917090738        6.2887698476        8.2741360644
     168
 i =        5, E =     -8144.3665506105
 Fe         5.0938794100       11.8196869300        0.3885799900
 Fe         7.6575796300        7.3792284900        0.3885799900
 Fe        10.2212798400        2.9387700600        0.3885799900
 Fe        -0.0335205200       11.8196869300        0.3885799900
 Fe         2.5301797000        7.3792284900        0.3885799900
 Fe         5.0938799200        2.9387700600        0.3885799900
 Fe        -5.1609204400       11.8196869300        0.3885799900
 Fe        -2.5972202200        7.3792284900        0.3885799900
 Fe        -0.0335200000        2.9387700600        0.3885799900
  O         8.4519195100        8.9577468800        1.1642700400
  O        11.0156197300        4.5172884400        1.1642700400
  O        13.5793199500        0.0768300000        1.1642700400
  O         3.3245195900        8.9577468800        1.1642700400
  O         5.8882198100        4.5172884400        1.1642700400
  O         8.4519200300        0.0768300000        1.1642700400
  O        -1.8028803300        8.9577468800        1.1642700400
  O         0.7608198900        4.5172884400        1.1642700400
  O         3.3245201100        0.0768300000        1.1642700400
  O         8.4568493000       11.7183869300        1.1650400200
  O        11.0205495200        7.2779284900        1.1650400200
  O        13.5842497300        2.8374700500        1.1650400200
  O         3.3294493700       11.7183869300        1.1650400200
  O         5.8931495900        7.2779284900        1.1650400200
  O         8.4568498100        2.8374700500        1.1650400200
  O        -1.7979505500       11.7183869300        1.1650400200
  O         0.7657496700        7.2779284900        1.1650400200
  O         3.3294498900        2.8374700500        1.1650400200
  O         6.0627194200       10.3425368500        1.1660399400
  O         8.6264196400        5.9020784100        1.1660399400
  O        11.1901198600        1.4616199700        1.1660399400
  O         0.9353195000       10.3425368500        1.1660399400
  O         3.4990197200        5.9020784100        1.1660399400
  O         6.0627199400        1.4616199700        1.1660399400
  O        -4.1920804200       10.3425368500        1.1660399400
  O        -1.6283802000        5.9020784100        1.1660399400
  O         0.9353200200        1.4616199700        1.1660399400
 Fe         7.6576695000       13.2997167500        1.9292099500
 Fe        10.2213697200        8.8592583200        1.9292099500
 Fe        12.7850699400        4.4187998800        1.9292099500
 Fe         2.5302695800       13.2997167500        1.9292099500
 Fe         5.0939698000        8.8592583200        1.9292099500
 Fe         7.6576700200        4.4187998800        1.9292099500
 Fe        -2.5971303400       13.2997167500        1.9292099500
 Fe        -0.0334301200        8.8592583200        1.9292099500
 Fe         2.5302701000        4.4187998800        1.9292099500
 Fe         7.6573893600       10.3392168700        2.7128999200
 Fe        10.2210895800        5.8987584300        2.7128999200
 Fe        12.7847898000        1.4582999900        2.7128999200
 Fe         2.5299894400       10.3392168700        2.7128999200
 Fe         5.0936896600        5.8987584300        2.7128999200
 Fe         7.6573898800        1.4582999900        2.7128999200
 Fe        -2.5974104800       10.3392168700        2.7128999200
 Fe        -0.0337102600        5.8987584300        2.7128999200
 Fe         2.5299899600        1.4582999900        2.7128999200
  O         4.0935690147       13.3159812592        3.5139773888
  O         6.6644540443        8.8788900350        3.5198758276
  O         9.2200106985        4.4351914591        3.5094130001
  O        -1.0207902214       13.3238618752        3.5396714859
  O         1.5358467694        8.8790961122        3.5271756750
  O         4.1104118956        4.4187504890        3.4963573126
  O        -6.1631587148       13.3103492465        3.5095865655
  O        -3.5994620423        8.8726169732        3.5087887785
  O        -1.0358507533        4.4313113105        3.5116587869
  O         6.8124306803       11.8746508400        3.4938257021
  O         9.3791339813        7.4329552049        3.4923673020
  O        11.9399098972        2.9890313151        3.4978420629
  O         1.6846876168       11.8737530462        3.4955789226
  O         4.2579264757        7.4478648605        3.4756973969
  O         6.8160092945        2.9925134237        3.4930254024
  O        -3.4444266313       11.8553386445        3.5216414902
  O        -0.8850944240        7.4281770411        3.4985043207
  O         1.6822882265        2.9741757629        3.5190014755
  O         9.4288908722       10.2239272458        3.4848597135
  O        11.9894455093        5.7837001414        3.4874035938
  O        14.5554242125        1.3444492869        3.4889403032
  O         4.2979679265       10.2345960172        3.4889817059
  O         6.8671344546        5.7830649651        3.4862844704
  O         9.4287675392        1.3445655187        3.4869750581
  O        -0.8307924018       10.2291031970        3.4980777741
  O         1.7186704353        5.7850549037        3.4910827048
  O         4.2891372018        1.3429389365        3.5105439575
 Fe         5.0348997161       11.8354572322        4.4200592994
 Fe         7.6049262426        7.3954857002        4.4170495661
 Fe        10.1623555451        2.9588731925        4.4191090416
 Fe        -0.0875097087       11.8342954095        4.4274701659
 Fe         2.4842243775        7.3758231772        4.4314771998
 Fe         5.0355946016        2.9572702828        4.4168297476
 Fe        -5.2239250320       11.8347788713        4.4237841687
 Fe        -2.6558678131        7.3955437239        4.4220166438
 Fe        -0.0885000692        2.9622676517        4.4300759749
 Fe         7.6076162166       13.1869745216        4.8064171394
 Fe        10.1728306301        8.7446662419        4.8051726380
 Fe        12.7357229952        4.3057372102        4.8088009660
 Fe         2.4808824509       13.1865659661        4.8067099733
 Fe         5.0418643276        8.7500740988        4.8047078837
 Fe         7.6113422107        4.3052187834        4.8079414282
 Fe        -2.6463800162       13.1827541728        4.8237416332
 Fe        -0.0799418083        8.7389817235        4.8160642724
 Fe         2.4917973410        4.3153286363        4.8189026449
  O         5.8571503391       10.3477295703        5.8740047821
  O         8.4161646134        5.9089319995        5.8731446010
  O        10.9831429222        1.4653265101        5.8721060613
  O         0.7292164260       10.3501948190        5.8739397319
  O         3.3717165501        5.8960603447        5.7606808598
  O         5.8569585345        1.4662121540        5.8742148864
  O        -4.4004984899       10.3455948274        5.8720750463
  O        -1.8406494696        5.9123831955        5.8472417808
  O         0.7269761772        1.4631605757        5.8762269580
  O         5.9240578045       13.1734618967        5.6888445519
  O         8.4931167157        8.7337000840        5.6923470506
  O        11.0515147718        4.2936841512        5.6889039018
  O         0.8015137118       13.1746056772        5.6941591033
  O         3.3629455492        8.7420651550        5.6828357945
  O         5.9305333363        4.2740784624        5.6817886349
  O        -4.3339087516       13.1741358250        5.6955420283
  O        -1.7697340114        8.7358815566        5.6885696549
  O         0.8040775681        4.3039381378        5.7049586401
  O         3.4666133074       11.7793601319        5.6762516848
  O         6.0395066060        7.3486234117        5.6598349949
  O         8.5967366738        2.8925842414        5.6711859579
  O        -1.6560707449       11.7732606568        5.6787934910
  O         0.8963556433        7.3333158729        5.6675371059
  O         3.4753464558        2.8993405116        5.6888700035
  O        -6.7902787127       11.7752214720        5.6721270736
  O        -4.2267996018        7.3340135521        5.6696557305
  O        -1.6618232702        2.8915205578        5.6698422528
 Fe         7.7825457618       10.2715043391        6.4334243006
 Fe        10.3436276193        5.8328106537        6.4352936979
 Fe        12.9090207153        1.3919773450        6.4338114940
 Fe         2.6551286319       10.2727323308        6.4307720201
 Fe         5.2639689299        5.8337657348        6.4175805952
 Fe         7.7830934429        1.3930054740        6.4339828746
 Fe        -2.4751240220       10.2720592283        6.4335368687
 Fe         0.0814484109        5.8443576104        6.4400653783
 Fe         2.6529194294        1.3959215663        6.4334241850
  O         7.8339684028       10.3835123072        8.2674083339
  H         7.8913855590        9.5491200178        8.7668858865
  H         5.3467768212       10.6163154887        6.6702583581
  O        10.4036395491        5.9438979331        8.2668812456
  H        10.4524450823        5.1105395910        8.7688561818
  H         7.9012250775        6.1613515889        6.6745529223
  O        12.9702161781        1.5024047599        8.2671190427
  H        13.0126984113        0.6688279056        8.7691431666
  H        10.4743274419        1.7339400591        6.6698566083
  O         2.7103103220       10.3834354929        8.2705527603
  H         2.7609808108        9.5359201832        8.7470710049
  H         0.2175895136       10.6164401681        6.6704829380
  O         5.5845541580        5.9136395593        8.2411898655
  H         5.4193222531        5.0745916606        8.7049259184
  H         2.9057244302        6.1070778977        6.6401783839
  O         7.8370029510        1.5027480112        8.2674936662
  H         7.8877959556        0.6693857586        8.7690764805
  H         5.3470720512        1.7350769364        6.6706751979
  O        -2.4119198052       10.3838192924        8.2670104743
  H        -2.3718090802        9.5488445091        8.7670900786
  H        -4.9075899963       10.6132188891        6.6707784698
  O        -0.1771607227        5.9027968718        8.2768298667
  H         0.1020796880        5.0894047276        8.7360257412
  H        -2.3192610402        6.1621258381        6.6708491181
  O         2.7124969698        1.5109769469        8.2721598318
  H         2.7580827727        0.6711942125        8.7647497594
  H         0.2165635387        1.7326687880        6.6720278758
  C         2.7859004536        6.1814552433       10.8554547873
  C         2.7245031858        6.2296458284        9.4231350774
  H         2.3937276037        7.1206030658       11.2648369486
  H         2.1649415569        5.3596234565       11.2358163891
  H         3.8135462517        6.0415203418       11.2142629253
  N         2.5917090738        6.2887698476        8.2741360644
