     161
 i =        1, E =     -8104.4995770891
 Fe         5.0938794100       11.8196869300        0.3885799900
 Fe         7.6575796300        7.3792284900        0.3885799900
 Fe        10.2212798400        2.9387700600        0.3885799900
 Fe        -0.0335205200       11.8196869300        0.3885799900
 Fe         2.5301797000        7.3792284900        0.3885799900
 Fe         5.0938799200        2.9387700600        0.3885799900
 Fe        -5.1609204400       11.8196869300        0.3885799900
 Fe        -2.5972202200        7.3792284900        0.3885799900
 Fe        -0.0335200000        2.9387700600        0.3885799900
  O         8.4519195100        8.9577468800        1.1642700400
  O        11.0156197300        4.5172884400        1.1642700400
  O        13.5793199500        0.0768300000        1.1642700400
  O         3.3245195900        8.9577468800        1.1642700400
  O         5.8882198100        4.5172884400        1.1642700400
  O         8.4519200300        0.0768300000        1.1642700400
  O        -1.8028803300        8.9577468800        1.1642700400
  O         0.7608198900        4.5172884400        1.1642700400
  O         3.3245201100        0.0768300000        1.1642700400
  O         8.4568493000       11.7183869300        1.1650400200
  O        11.0205495200        7.2779284900        1.1650400200
  O        13.5842497300        2.8374700500        1.1650400200
  O         3.3294493700       11.7183869300        1.1650400200
  O         5.8931495900        7.2779284900        1.1650400200
  O         8.4568498100        2.8374700500        1.1650400200
  O        -1.7979505500       11.7183869300        1.1650400200
  O         0.7657496700        7.2779284900        1.1650400200
  O         3.3294498900        2.8374700500        1.1650400200
  O         6.0627194200       10.3425368500        1.1660399400
  O         8.6264196400        5.9020784100        1.1660399400
  O        11.1901198600        1.4616199700        1.1660399400
  O         0.9353195000       10.3425368500        1.1660399400
  O         3.4990197200        5.9020784100        1.1660399400
  O         6.0627199400        1.4616199700        1.1660399400
  O        -4.1920804200       10.3425368500        1.1660399400
  O        -1.6283802000        5.9020784100        1.1660399400
  O         0.9353200200        1.4616199700        1.1660399400
 Fe         7.6576695000       13.2997167500        1.9292099500
 Fe        10.2213697200        8.8592583200        1.9292099500
 Fe        12.7850699400        4.4187998800        1.9292099500
 Fe         2.5302695800       13.2997167500        1.9292099500
 Fe         5.0939698000        8.8592583200        1.9292099500
 Fe         7.6576700200        4.4187998800        1.9292099500
 Fe        -2.5971303400       13.2997167500        1.9292099500
 Fe        -0.0334301200        8.8592583200        1.9292099500
 Fe         2.5302701000        4.4187998800        1.9292099500
 Fe         7.6573893600       10.3392168700        2.7128999200
 Fe        10.2210895800        5.8987584300        2.7128999200
 Fe        12.7847898000        1.4582999900        2.7128999200
 Fe         2.5299894400       10.3392168700        2.7128999200
 Fe         5.0936896600        5.8987584300        2.7128999200
 Fe         7.6573898800        1.4582999900        2.7128999200
 Fe        -2.5974104800       10.3392168700        2.7128999200
 Fe        -0.0337102600        5.8987584300        2.7128999200
 Fe         2.5299899600        1.4582999900        2.7128999200
  O         4.1326449717       13.3035439816        3.4993732667
  O         6.6963147220        8.8641878741        3.4968268652
  O         9.2603498308        4.4230191915        3.4991043332
  O        -0.9946575886       13.3027708914        3.4984877150
  O         1.5694202093        8.8630015803        3.4995346695
  O         4.1333583903        4.4208809228        3.4940481496
  O        -6.1223088849       13.3040173162        3.4989496556
  O        -3.5641254866        8.8694611774        3.4944940494
  O        -0.9945758508        4.4230031709        3.5006692185
  O         6.8609492881       11.9111048082        3.5001402764
  O         9.4246614043        7.4698433256        3.5000575899
  O        11.9852210655        3.0232799252        3.4968429984
  O         1.7333151185       11.9096116453        3.5009416484
  O         4.3090863275        7.4735688070        3.4896478137
  O         6.8615350284        3.0285037174        3.4987992624
  O        -3.3938854316       11.9094231325        3.5015158838
  O        -0.8320724295        7.4690075412        3.5008312295
  O         1.7317497233        3.0294967108        3.5005080797
  O         9.4163989968       10.2447997174        3.5006854435
  O        11.9807250959        5.8046322656        3.5006228840
  O        14.5429403069        1.3630709604        3.5005365437
  O         4.2879188905       10.2445682512        3.5013790974
  O         6.8539715370        5.8043238111        3.4971955643
  O         9.4159954263        1.3638010291        3.5006781366
  O        -0.8441671187       10.2568122449        3.4938956165
  O         1.7224314654        5.8034699895        3.5013347199
  O         4.2878094406        1.3646673678        3.5017482409
 Fe         5.0946002791       11.8183449634        4.4865309281
 Fe         7.6563389323        7.3786744568        4.4866673858
 Fe        10.2215538886        2.9383946770        4.4854983923
 Fe        -0.0324891226       11.8202558699        4.4864388245
 Fe         2.5575500025        7.3767037856        4.4612869915
 Fe         5.0959583488        2.9404279865        4.4874317481
 Fe        -5.1612367573       11.8193672217        4.4860895839
 Fe        -2.6041321924        7.3897617172        4.4742190598
 Fe        -0.0338957469        2.9362043601        4.4847549004
 Fe         7.6591862618       13.2992185850        4.8230597101
 Fe        10.2227179877        8.8576758910        4.8223191294
 Fe        12.7764160255        4.4017707519        4.8123890369
 Fe         2.5303198504       13.2993534936        4.8229025678
 Fe         5.0962720933        8.8548440553        4.8234309611
 Fe         7.6564576366        4.4184991806        4.8244145778
 Fe        -2.5959110900       13.2996060632        4.8222000267
 Fe        -0.0482308472        8.8840562539        4.7999257957
 Fe         2.5382073135        4.4193350252        4.8180855176
  O         5.8654302754       10.3874916184        5.7249899236
  O         8.4323417831        5.9483948419        5.7254710813
  O        10.9935420925        1.5074126741        5.7265482653
  O         0.7378104609       10.3885199569        5.7319214483
  O         3.3076593471        5.9481665425        5.7178200175
  O         5.8661205151        1.5064363947        5.7259938172
  O        -4.3897651745       10.3886118833        5.7267346386
  O        -1.8700513335        5.9437863146        5.7057580860
  O         0.7383058363        1.5089959895        5.7276828810
  O         5.9480060185       13.2040317305        5.7274994686
  O         8.5138272844        8.7641539901        5.7264124161
  O        11.0734603575        4.3224341858        5.7277128499
  O         0.8186415656       13.2030942561        5.7267428258
  O         3.3818479681        8.7612807415        5.7250690876
  O         5.9407856318        4.3341705077        5.7099631601
  O        -4.3062874633       13.2020895540        5.7281908894
  O        -1.7434287553        8.7616382758        5.7310634508
  O         0.8300095043        4.3122736161        5.7349197416
  O         3.4686053137       11.8653564847        5.7297150704
  O         6.0292510122        7.4151065288        5.7145127716
  O         8.5994244449        2.9831466105        5.7270374788
  O        -1.6576112532       11.8653403008        5.7304968308
  O         0.8649508413        7.3756439427        5.5747279512
  O         3.4673653346        2.9846860000        5.7300853765
  O        -6.7860568580       11.8648968792        5.7293917749
  O        -4.2186115862        7.4246784237        5.7276792134
  O        -1.6549597633        2.9845428873        5.7316954287
 Fe         7.6565200053       10.3379689633        5.9815101314
 Fe        10.2223859284        5.8997292225        5.9879530193
 Fe        12.7849964968        1.4587585887        5.9811047871
 Fe         2.5310555807       10.3376636029        5.9825248128
 Fe         5.0931281546        5.9003405715        6.1019085741
 Fe         7.6574753038        1.4595252386        5.9811660348
 Fe        -2.5987986192       10.3398326100        5.9767771003
 Fe        -0.0756458493        5.8693800441        5.8858453325
 Fe         2.5307119240        1.4571290130        5.9790433720
  C        -0.9081721145        7.1993019124        8.5277708366
  C         0.5072093074        6.8144218953        8.9963739480
  H        -1.1589108431        6.7122202227        7.5636551356
  O        -1.9289732846        6.7315837678        9.4063948074
  H        -0.9716891745        8.2795190965        8.3024591675
  C         1.0446608970        7.7040278847       10.1205165562
  C         2.3689800466        7.2582809310       10.7694140702
  O         0.0289537890        7.7922721420       11.1598682812
  H         1.1609809730        8.7252367645        9.7156178091
  C         3.6381701625        7.2579207791        9.8774238005
  H         2.2160572650        6.2436590939       11.2022023689
  O         2.6144470365        8.1969036330       11.8342576639
  C         3.8913785622        5.8875983074        9.2531211803
  O         4.8024283494        7.5355902401       10.6745092633
  H         3.5327006916        8.0081177742        9.0733746622
  H         4.0015603889        5.1472076752       10.0704429375
  O         5.0834326331        5.8987483120        8.4597676147
  H         3.0810207550        5.5945982974        8.5779888250
  H        -1.8471287414        7.3148257702       10.1836742629
  H        -0.0820499173        6.8772373420       11.4903799356
  H         1.7328959317        8.4175580998       12.1974663128
  H         4.5194856860        8.1847195579       11.3487394672
  H         5.7920544221        6.3083749712        8.9944558618
  O         1.4822564461        7.0693713446        7.9856005625
  H         0.5603191232        5.7269664038        9.2075385827
  H         1.3098041313        6.6400798084        7.0811242999
     161
 i =        2, E =     -8104.5102431401
 Fe         5.0938794100       11.8196869300        0.3885799900
 Fe         7.6575796300        7.3792284900        0.3885799900
 Fe        10.2212798400        2.9387700600        0.3885799900
 Fe        -0.0335205200       11.8196869300        0.3885799900
 Fe         2.5301797000        7.3792284900        0.3885799900
 Fe         5.0938799200        2.9387700600        0.3885799900
 Fe        -5.1609204400       11.8196869300        0.3885799900
 Fe        -2.5972202200        7.3792284900        0.3885799900
 Fe        -0.0335200000        2.9387700600        0.3885799900
  O         8.4519195100        8.9577468800        1.1642700400
  O        11.0156197300        4.5172884400        1.1642700400
  O        13.5793199500        0.0768300000        1.1642700400
  O         3.3245195900        8.9577468800        1.1642700400
  O         5.8882198100        4.5172884400        1.1642700400
  O         8.4519200300        0.0768300000        1.1642700400
  O        -1.8028803300        8.9577468800        1.1642700400
  O         0.7608198900        4.5172884400        1.1642700400
  O         3.3245201100        0.0768300000        1.1642700400
  O         8.4568493000       11.7183869300        1.1650400200
  O        11.0205495200        7.2779284900        1.1650400200
  O        13.5842497300        2.8374700500        1.1650400200
  O         3.3294493700       11.7183869300        1.1650400200
  O         5.8931495900        7.2779284900        1.1650400200
  O         8.4568498100        2.8374700500        1.1650400200
  O        -1.7979505500       11.7183869300        1.1650400200
  O         0.7657496700        7.2779284900        1.1650400200
  O         3.3294498900        2.8374700500        1.1650400200
  O         6.0627194200       10.3425368500        1.1660399400
  O         8.6264196400        5.9020784100        1.1660399400
  O        11.1901198600        1.4616199700        1.1660399400
  O         0.9353195000       10.3425368500        1.1660399400
  O         3.4990197200        5.9020784100        1.1660399400
  O         6.0627199400        1.4616199700        1.1660399400
  O        -4.1920804200       10.3425368500        1.1660399400
  O        -1.6283802000        5.9020784100        1.1660399400
  O         0.9353200200        1.4616199700        1.1660399400
 Fe         7.6576695000       13.2997167500        1.9292099500
 Fe        10.2213697200        8.8592583200        1.9292099500
 Fe        12.7850699400        4.4187998800        1.9292099500
 Fe         2.5302695800       13.2997167500        1.9292099500
 Fe         5.0939698000        8.8592583200        1.9292099500
 Fe         7.6576700200        4.4187998800        1.9292099500
 Fe        -2.5971303400       13.2997167500        1.9292099500
 Fe        -0.0334301200        8.8592583200        1.9292099500
 Fe         2.5302701000        4.4187998800        1.9292099500
 Fe         7.6573893600       10.3392168700        2.7128999200
 Fe        10.2210895800        5.8987584300        2.7128999200
 Fe        12.7847898000        1.4582999900        2.7128999200
 Fe         2.5299894400       10.3392168700        2.7128999200
 Fe         5.0936896600        5.8987584300        2.7128999200
 Fe         7.6573898800        1.4582999900        2.7128999200
 Fe        -2.5974104800       10.3392168700        2.7128999200
 Fe        -0.0337102600        5.8987584300        2.7128999200
 Fe         2.5299899600        1.4582999900        2.7128999200
  O         4.1333915576       13.3019023537        3.4985131797
  O         6.7029287948        8.8662149021        3.5041485841
  O         9.2613025564        4.4205780149        3.4989965846
  O        -0.9959205291       13.3008024119        3.4966624836
  O         1.5735746210        8.8680058625        3.4954486869
  O         4.1288120513        4.4149835219        3.4803388674
  O        -6.1216303300       13.3027376787        3.4995311659
  O        -3.5612321601        8.8689203734        3.4975830139
  O        -0.9871331312        4.4237537941        3.5134852501
  O         6.8602003593       11.9121834162        3.4998099144
  O         9.4225784426        7.4693818272        3.5023140390
  O        11.9807327252        3.0192293174        3.4964894880
  O         1.7316737755       11.9101368642        3.5013125916
  O         4.2976052581        7.4763753413        3.4840741319
  O         6.8627293125        3.0267253251        3.4991002241
  O        -3.3946780241       11.9094825764        3.5021760357
  O        -0.8566105317        7.4721167955        3.4826511626
  O         1.7302214646        3.0299619779        3.5013845667
  O         9.4159923198       10.2482184702        3.5022099149
  O        11.9829575090        5.8058564453        3.4905072547
  O        14.5440467073        1.3636213274        3.4993627384
  O         4.2851548563       10.2469193312        3.5103437165
  O         6.8639031802        5.8032616953        3.4794462406
  O         9.4186872047        1.3626210688        3.4980767040
  O        -0.8431597397       10.2553921381        3.5041372032
  O         1.7298048403        5.7934100088        3.4841492413
  O         4.2900860555        1.3674038902        3.5024299191
 Fe         5.0952943190       11.8190150025        4.4918045556
 Fe         7.6495922565        7.3700842465        4.4918795798
 Fe        10.2156843126        2.9364942619        4.4903439268
 Fe        -0.0304860412       11.8270101363        4.4938903418
 Fe         2.5578909584        7.3681894197        4.4510208032
 Fe         5.0973710818        2.9502910785        4.4916222457
 Fe        -5.1617131663       11.8196958864        4.4909089949
 Fe        -2.6146664364        7.3893021589        4.4793600051
 Fe        -0.0303027810        2.9274094665        4.4913187051
 Fe         7.6589875650       13.2982762902        4.8209840656
 Fe        10.2177880288        8.8594926944        4.8202184420
 Fe        12.7620945902        4.3918395692        4.7989208643
 Fe         2.5319159642       13.2995864570        4.8209172822
 Fe         5.0997670265        8.8484753974        4.8275521873
 Fe         7.6486213743        4.4238035431        4.8231261051
 Fe        -2.5957484513       13.3010991459        4.8204230620
 Fe        -0.0444555744        8.8771225876        4.7847113202
 Fe         2.5491235630        4.4236088089        4.8122144276
  O         5.8655842174       10.3876526260        5.7300188798
  O         8.4365017816        5.9457431071        5.7312481448
  O        10.9953323617        1.5058507883        5.7291473741
  O         0.7342456815       10.3781929158        5.7333417156
  O         3.3182218414        5.9509264564        5.7135186726
  O         5.8652505402        1.5071040645        5.7272524600
  O        -4.3898396183       10.3869920814        5.7300063993
  O        -1.9024749402        5.9341527748        5.6947241500
  O         0.7391657585        1.5033056865        5.7335400698
  O         5.9490826768       13.2058132191        5.7306924831
  O         8.5114369463        8.7621636485        5.7285693239
  O        11.0690180197        4.3194736286        5.7278917665
  O         0.8225260936       13.2067999403        5.7331908637
  O         3.3765155976        8.7551182047        5.7223998334
  O         5.9318429184        4.3515646384        5.7011515828
  O        -4.3053743662       13.2025134979        5.7309493047
  O        -1.7360906253        8.7668428001        5.7265620884
  O         0.8408342575        4.3014399820        5.7409074296
  O         3.4651963930       11.8637366825        5.7345896978
  O         6.0199092464        7.3993233209        5.7081219476
  O         8.5945297179        2.9865790957        5.7296630523
  O        -1.6596574693       11.8645503101        5.7343817263
  O         0.8487733128        7.3390049456        5.5191454915
  O         3.4654171918        2.9861289945        5.7352886969
  O        -6.7876760286       11.8661903945        5.7333155431
  O        -4.2249914122        7.4303655292        5.7294879588
  O        -1.6575451848        2.9875702844        5.7313944327
 Fe         7.6571563937       10.3373115849        5.9887882350
 Fe        10.2260222333        5.9000850499        5.9965664403
 Fe        12.7859207729        1.4595092925        5.9915959441
 Fe         2.5298656811       10.3333069609        5.9884029987
 Fe         5.0906809074        5.9008264335        6.2720534137
 Fe         7.6561070005        1.4617678462        5.9893841928
 Fe        -2.6009678978       10.3402801476        5.9884027860
 Fe        -0.1078761606        5.8388128889        5.8123752506
 Fe         2.5315994061        1.4573064651        5.9871011377
  C        -0.8884650789        7.1827454504        8.5417499561
  C         0.5414737742        6.7980682312        8.9603418971
  H        -1.1708959138        6.7203794641        7.5720996200
  O        -1.9311296121        6.7547519514        9.4186476316
  H        -0.9682226518        8.2629254586        8.3136614671
  C         1.0008638373        7.6630562358       10.1257393487
  C         2.3464022308        7.2785439073       10.7700314640
  O         0.0515645167        7.8159216171       11.2209413386
  H         1.1490094084        8.6874912464        9.7337968748
  C         3.6189954951        7.2511963660        9.8791853088
  H         2.2253954326        6.2571852083       11.1975756913
  O         2.6281781407        8.1875480789       11.8526842685
  C         3.8960960411        5.8900748042        9.2459631059
  O         4.7940894018        7.5301131291       10.6627684443
  H         3.5356068678        8.0045315112        9.0766779037
  H         4.0090232571        5.1476675773       10.0575019821
  O         5.0812354489        5.8999804564        8.4233311862
  H         3.0795159063        5.6030384824        8.5791214775
  H        -1.8662392974        7.3178342434       10.2095216218
  H        -0.0915984042        6.8832560048       11.4930432074
  H         1.7401141377        8.4213917092       12.1944089877
  H         4.5246800658        8.1799491558       11.3429701111
  H         5.7903603891        6.3114526939        8.9578840576
  O         1.5915383150        7.0984271803        8.0410827155
  H         0.5138609670        5.7343989760        9.2789723528
  H         1.3978550271        6.7439667981        7.1005339652
     161
 i =        3, E =     -8104.5124157186
 Fe         5.0938794100       11.8196869300        0.3885799900
 Fe         7.6575796300        7.3792284900        0.3885799900
 Fe        10.2212798400        2.9387700600        0.3885799900
 Fe        -0.0335205200       11.8196869300        0.3885799900
 Fe         2.5301797000        7.3792284900        0.3885799900
 Fe         5.0938799200        2.9387700600        0.3885799900
 Fe        -5.1609204400       11.8196869300        0.3885799900
 Fe        -2.5972202200        7.3792284900        0.3885799900
 Fe        -0.0335200000        2.9387700600        0.3885799900
  O         8.4519195100        8.9577468800        1.1642700400
  O        11.0156197300        4.5172884400        1.1642700400
  O        13.5793199500        0.0768300000        1.1642700400
  O         3.3245195900        8.9577468800        1.1642700400
  O         5.8882198100        4.5172884400        1.1642700400
  O         8.4519200300        0.0768300000        1.1642700400
  O        -1.8028803300        8.9577468800        1.1642700400
  O         0.7608198900        4.5172884400        1.1642700400
  O         3.3245201100        0.0768300000        1.1642700400
  O         8.4568493000       11.7183869300        1.1650400200
  O        11.0205495200        7.2779284900        1.1650400200
  O        13.5842497300        2.8374700500        1.1650400200
  O         3.3294493700       11.7183869300        1.1650400200
  O         5.8931495900        7.2779284900        1.1650400200
  O         8.4568498100        2.8374700500        1.1650400200
  O        -1.7979505500       11.7183869300        1.1650400200
  O         0.7657496700        7.2779284900        1.1650400200
  O         3.3294498900        2.8374700500        1.1650400200
  O         6.0627194200       10.3425368500        1.1660399400
  O         8.6264196400        5.9020784100        1.1660399400
  O        11.1901198600        1.4616199700        1.1660399400
  O         0.9353195000       10.3425368500        1.1660399400
  O         3.4990197200        5.9020784100        1.1660399400
  O         6.0627199400        1.4616199700        1.1660399400
  O        -4.1920804200       10.3425368500        1.1660399400
  O        -1.6283802000        5.9020784100        1.1660399400
  O         0.9353200200        1.4616199700        1.1660399400
 Fe         7.6576695000       13.2997167500        1.9292099500
 Fe        10.2213697200        8.8592583200        1.9292099500
 Fe        12.7850699400        4.4187998800        1.9292099500
 Fe         2.5302695800       13.2997167500        1.9292099500
 Fe         5.0939698000        8.8592583200        1.9292099500
 Fe         7.6576700200        4.4187998800        1.9292099500
 Fe        -2.5971303400       13.2997167500        1.9292099500
 Fe        -0.0334301200        8.8592583200        1.9292099500
 Fe         2.5302701000        4.4187998800        1.9292099500
 Fe         7.6573893600       10.3392168700        2.7128999200
 Fe        10.2210895800        5.8987584300        2.7128999200
 Fe        12.7847898000        1.4582999900        2.7128999200
 Fe         2.5299894400       10.3392168700        2.7128999200
 Fe         5.0936896600        5.8987584300        2.7128999200
 Fe         7.6573898800        1.4582999900        2.7128999200
 Fe        -2.5974104800       10.3392168700        2.7128999200
 Fe        -0.0337102600        5.8987584300        2.7128999200
 Fe         2.5299899600        1.4582999900        2.7128999200
  O         4.1340957532       13.3022707595        3.5001705769
  O         6.7038988812        8.8699965428        3.5101880394
  O         9.2647053577        4.4225116467        3.5076847168
  O        -0.9968407624       13.3009959119        3.4972376431
  O         1.5767161586        8.8742206724        3.4965687093
  O         4.1635821581        4.4287938495        3.5359216190
  O        -6.1217292203       13.3032734834        3.5015155087
  O        -3.5606410765        8.8678921191        3.5005770706
  O        -0.9785211616        4.4303330615        3.5322017126
  O         6.8605760604       11.9119794250        3.5011469621
  O         9.4211370995        7.4694450721        3.5044423700
  O        11.9786304933        3.0194159708        3.4975224525
  O         1.7317491120       11.9103623864        3.5036923784
  O         4.2874484861        7.4854471182        3.4693294521
  O         6.8657429852        3.0202805528        3.5073549229
  O        -3.3927079497       11.9090029862        3.5040020325
  O        -0.8763386235        7.4702185966        3.4749712611
  O         1.7284622141        2.9840319309        3.5737152810
  O         9.4154117976       10.2502105953        3.5028449911
  O        11.9809271458        5.8015215126        3.4820207906
  O        14.5432056746        1.3617056445        3.4992808684
  O         4.2847158153       10.2446262863        3.5153591437
  O         6.8699161607        5.8025604063        3.4681884788
  O         9.4185850642        1.3587166690        3.4983992241
  O        -0.8436441741       10.2494940516        3.5211230256
  O         1.6988776182        5.8075907324        3.5386952144
  O         4.2906161751        1.3687391293        3.5039706350
 Fe         5.0948619085       11.8164636769        4.4914782578
 Fe         7.6392840660        7.3631239731        4.4925099005
 Fe        10.2076817016        2.9330475042        4.4911077065
 Fe        -0.0289380420       11.8325671178        4.4963027370
 Fe         2.5657891961        7.3732999768        4.4529410602
 Fe         5.1073630358        2.9485582158        4.5038284444
 Fe        -5.1612283815       11.8197561480        4.4904256675
 Fe        -2.6265849270        7.3846856978        4.4823249791
 Fe        -0.0416080652        2.9152682777        4.5040600345
 Fe         7.6582911709       13.2957568996        4.8183519336
 Fe        10.2102768108        8.8620862358        4.8179275994
 Fe        12.7492346748        4.3891320811        4.7910463871
 Fe         2.5340619864       13.2993404945        4.8190043993
 Fe         5.1023661629        8.8382838040        4.8322443110
 Fe         7.6371116154        4.4302867525        4.8237059131
 Fe        -2.5966169717       13.3030825303        4.8170395093
 Fe        -0.0370072338        8.8624834024        4.7876361421
 Fe         2.5617253942        4.4289667131        4.8371004326
  O         5.8639983985       10.3855515409        5.7351279747
  O         8.4364882805        5.9451647475        5.7372535810
  O        10.9961418919        1.5054955856        5.7301252548
  O         0.7316688247       10.3704267017        5.7342442477
  O         3.3274594574        5.9605647005        5.7236041279
  O         5.8660793249        1.5031509973        5.7332493338
  O        -4.3883620855       10.3862106926        5.7323756847
  O        -1.9223965596        5.9309516753        5.6936655863
  O         0.7392944579        1.4962642451        5.7382795694
  O         5.9485956204       13.2047808551        5.7313357179
  O         8.5061344459        8.7574860879        5.7323844267
  O        11.0623517656        4.3142306745        5.7259197680
  O         0.8253161898       13.2084527587        5.7365889481
  O         3.3747700522        8.7513988332        5.7285196403
  O         5.9236393378        4.3651993331        5.7053606967
  O        -4.3052241425       13.2018939182        5.7324243117
  O        -1.7340050298        8.7666416090        5.7242288711
  O         0.8442420031        4.2870392615        5.7456832298
  O         3.4639072038       11.8630590055        5.7381667140
  O         6.0130941445        7.3857686051        5.7153028095
  O         8.5884133946        2.9920053202        5.7322764730
  O        -1.6598711402       11.8670550280        5.7371123518
  O         0.8538166696        7.3174193376        5.5223265367
  O         3.4717926498        2.9837651043        5.7442877454
  O        -6.7868645682       11.8672750103        5.7360519043
  O        -4.2325286413        7.4365150069        5.7313085259
  O        -1.6664734279        2.9915972613        5.7329875945
 Fe         7.6577415041       10.3370294846        5.9857064586
 Fe        10.2276619853        5.8996587097        5.9914286549
 Fe        12.7861965099        1.4583607617        5.9918677815
 Fe         2.5293051232       10.3310320054        5.9834258588
 Fe         5.0882880066        5.9010294036        6.3726087618
 Fe         7.6566843620        1.4633946712        5.9879247744
 Fe        -2.5991408870       10.3414472208        5.9921231827
 Fe        -0.1259238078        5.8121919578        5.7478803576
 Fe         2.5328134994        1.4576123703        5.9851674156
  C        -0.8766955049        7.1781596295        8.5212459366
  C         0.5557992207        6.8119374554        8.9772256922
  H        -1.1732852412        6.7091336971        7.5629253980
  O        -1.8992197126        6.7657252390        9.4346524552
  H        -0.9507765814        8.2639115880        8.3317725868
  C         1.0156566225        7.6727279591       10.1458275679
  C         2.3587340590        7.2570722197       10.7778871707
  O         0.0638283697        7.8007221805       11.2396929176
  H         1.1254198638        8.6917664238        9.7334096243
  C         3.6241897588        7.2594800710        9.8680362646
  H         2.2275286556        6.2414444518       11.2099367954
  O         2.6266336840        8.1834891420       11.8490905502
  C         3.8817353259        5.8886201585        9.2461565664
  O         4.7981215927        7.5206120672       10.6620050812
  H         3.5321086205        8.0127359352        9.0689313365
  H         4.0245574001        5.1409145904       10.0458982385
  O         5.0732611711        5.9081822895        8.4125974796
  H         3.0695954947        5.6027593499        8.5752436350
  H        -1.8795896611        7.3266696540       10.2305267916
  H        -0.1190026957        6.8834429267       11.5269574857
  H         1.7447033595        8.4304761314       12.1994139946
  H         4.5271170459        8.1756163111       11.3372898366
  H         5.7994278762        6.3207655983        8.9263847153
  O         1.6099013782        7.1209794865        8.0753612877
  H         0.4907097207        5.7461465506        9.3119907420
  H         1.4585802466        6.8166483910        7.1159913593
     161
 i =        4, E =     -8104.5194837511
 Fe         5.0938794100       11.8196869300        0.3885799900
 Fe         7.6575796300        7.3792284900        0.3885799900
 Fe        10.2212798400        2.9387700600        0.3885799900
 Fe        -0.0335205200       11.8196869300        0.3885799900
 Fe         2.5301797000        7.3792284900        0.3885799900
 Fe         5.0938799200        2.9387700600        0.3885799900
 Fe        -5.1609204400       11.8196869300        0.3885799900
 Fe        -2.5972202200        7.3792284900        0.3885799900
 Fe        -0.0335200000        2.9387700600        0.3885799900
  O         8.4519195100        8.9577468800        1.1642700400
  O        11.0156197300        4.5172884400        1.1642700400
  O        13.5793199500        0.0768300000        1.1642700400
  O         3.3245195900        8.9577468800        1.1642700400
  O         5.8882198100        4.5172884400        1.1642700400
  O         8.4519200300        0.0768300000        1.1642700400
  O        -1.8028803300        8.9577468800        1.1642700400
  O         0.7608198900        4.5172884400        1.1642700400
  O         3.3245201100        0.0768300000        1.1642700400
  O         8.4568493000       11.7183869300        1.1650400200
  O        11.0205495200        7.2779284900        1.1650400200
  O        13.5842497300        2.8374700500        1.1650400200
  O         3.3294493700       11.7183869300        1.1650400200
  O         5.8931495900        7.2779284900        1.1650400200
  O         8.4568498100        2.8374700500        1.1650400200
  O        -1.7979505500       11.7183869300        1.1650400200
  O         0.7657496700        7.2779284900        1.1650400200
  O         3.3294498900        2.8374700500        1.1650400200
  O         6.0627194200       10.3425368500        1.1660399400
  O         8.6264196400        5.9020784100        1.1660399400
  O        11.1901198600        1.4616199700        1.1660399400
  O         0.9353195000       10.3425368500        1.1660399400
  O         3.4990197200        5.9020784100        1.1660399400
  O         6.0627199400        1.4616199700        1.1660399400
  O        -4.1920804200       10.3425368500        1.1660399400
  O        -1.6283802000        5.9020784100        1.1660399400
  O         0.9353200200        1.4616199700        1.1660399400
 Fe         7.6576695000       13.2997167500        1.9292099500
 Fe        10.2213697200        8.8592583200        1.9292099500
 Fe        12.7850699400        4.4187998800        1.9292099500
 Fe         2.5302695800       13.2997167500        1.9292099500
 Fe         5.0939698000        8.8592583200        1.9292099500
 Fe         7.6576700200        4.4187998800        1.9292099500
 Fe        -2.5971303400       13.2997167500        1.9292099500
 Fe        -0.0334301200        8.8592583200        1.9292099500
 Fe         2.5302701000        4.4187998800        1.9292099500
 Fe         7.6573893600       10.3392168700        2.7128999200
 Fe        10.2210895800        5.8987584300        2.7128999200
 Fe        12.7847898000        1.4582999900        2.7128999200
 Fe         2.5299894400       10.3392168700        2.7128999200
 Fe         5.0936896600        5.8987584300        2.7128999200
 Fe         7.6573898800        1.4582999900        2.7128999200
 Fe        -2.5974104800       10.3392168700        2.7128999200
 Fe        -0.0337102600        5.8987584300        2.7128999200
 Fe         2.5299899600        1.4582999900        2.7128999200
  O         4.1347678973       13.3023814604        3.5013068664
  O         6.6981884219        8.8688747973        3.5093264354
  O         9.2630158009        4.4255272965        3.5107764602
  O        -0.9957957739       13.3017289598        3.4992398442
  O         1.5728192757        8.8702744605        3.4946653609
  O         4.1484920547        4.4261624901        3.5211922919
  O        -6.1228086424       13.3011343656        3.4991596955
  O        -3.5654399709        8.8675421457        3.4983554729
  O        -0.9751958044        4.4352865103        3.5431496473
  O         6.8609709131       11.9107597605        3.5016683931
  O         9.4212721934        7.4698891446        3.5037926539
  O        11.9808159333        3.0256792365        3.4967899218
  O         1.7320421326       11.9103030765        3.5051235174
  O         4.2850994568        7.4915314222        3.4630439487
  O         6.8669527341        3.0184950247        3.5125565864
  O        -3.3922903814       11.9108658493        3.5014375048
  O        -0.8713349168        7.4683348531        3.4784416208
  O         1.7371224969        2.9889602514        3.5691098097
  O         9.4155882857       10.2492364725        3.5016668260
  O        11.9795299911        5.7949139474        3.4802544388
  O        14.5413879155        1.3602593966        3.5016519995
  O         4.2860379689       10.2397096033        3.5139624152
  O         6.8721393556        5.8015726457        3.4662217675
  O         9.4166792019        1.3562316608        3.5004086320
  O        -0.8399238555       10.2414459237        3.5168943493
  O         1.7077073564        5.7952677223        3.5284342486
  O         4.2915610629        1.3694021565        3.5046853863
 Fe         5.0940891321       11.8118261558        4.4875775465
 Fe         7.6338847789        7.3616134606        4.4896663127
 Fe        10.2018366314        2.9335618192        4.4868360402
 Fe        -0.0311859657       11.8273198611        4.4912499720
 Fe         2.5614300008        7.3642140421        4.4559040799
 Fe         5.1038292457        2.9610591605        4.4989644210
 Fe        -5.1601043073       11.8198473044        4.4871124566
 Fe        -2.6278941894        7.3829648704        4.4781252234
 Fe        -0.0294236054        2.9102999430        4.4992308953
 Fe         7.6584967714       13.2921630802        4.8173436608
 Fe        10.2051574017        8.8623361513        4.8170195967
 Fe        12.7470145734        4.3932533840        4.8010321817
 Fe         2.5351033202       13.2984333010        4.8185306223
 Fe         5.0998273429        8.8327322264        4.8379852799
 Fe         7.6302693790        4.4333897207        4.8261683131
 Fe        -2.5969378401       13.3049914119        4.8161180168
 Fe        -0.0348421318        8.8548476070        4.8010242106
 Fe         2.5658715424        4.4280896647        4.8565788097
  O         5.8617492538       10.3830955781        5.7378267420
  O         8.4307976261        5.9472176429        5.7407917769
  O        10.9934834099        1.5077566898        5.7288865574
  O         0.7330169350       10.3691174026        5.7357037052
  O         3.3218768155        5.9636867166        5.7490582492
  O         5.8645514556        1.5100243453        5.7320840003
  O        -4.3885300664       10.3858719174        5.7312612022
  O        -1.9179740997        5.9397698671        5.7041866543
  O         0.7324258298        1.4900599544        5.7463079655
  O         5.9465265910       13.2022186706        5.7296446791
  O         8.5015667631        8.7542478092        5.7351002113
  O        11.0552070037        4.3111467362        5.7256951969
  O         0.8233967950       13.2045509060        5.7334483272
  O         3.3694016854        8.7450960944        5.7340623314
  O         5.9282368315        4.3582317492        5.7282169931
  O        -4.3060801406       13.2017055923        5.7322443889
  O        -1.7384264628        8.7601235127        5.7286157420
  O         0.8421663981        4.2788659884        5.7559336286
  O         3.4659862279       11.8638906690        5.7387583354
  O         6.0160312074        7.3885992601        5.7314017832
  O         8.5848808076        2.9941107037        5.7341938152
  O        -1.6579383279       11.8698665553        5.7382019158
  O         0.8704219243        7.3343572207        5.5825699094
  O         3.4827953071        2.9825497707        5.7607813946
  O        -6.7843452706       11.8657190537        5.7362227145
  O        -4.2342087235        7.4367438055        5.7293919249
  O        -1.6618289175        2.9876053103        5.7279764097
 Fe         7.6571449934       10.3369638897        5.9786475398
 Fe        10.2242086308        5.8997884950        5.9825317173
 Fe        12.7847394921        1.4571965826        5.9857779552
 Fe         2.5306815861       10.3316676571        5.9767563826
 Fe         5.0887623290        5.8987642984        6.2660634894
 Fe         7.6566109192        1.4617516521        5.9816689810
 Fe        -2.5965758350       10.3409275990        5.9796716724
 Fe        -0.1173652030        5.8099914476        5.7226100183
 Fe         2.5298521661        1.4591803538        5.9723777118
  C        -0.8874688941        7.2008515999        8.5192911660
  C         0.5402091159        6.8289740630        9.0002394136
  H        -1.1587546757        6.7032498780        7.5732909656
  O        -1.8823844980        6.7391168810        9.4433925221
  H        -0.9343051387        8.2844938394        8.3277895818
  C         1.0337815731        7.6952834470       10.1557525860
  C         2.3690479641        7.2474749773       10.7828663734
  O         0.0573638836        7.7816346494       11.2285022162
  H         1.1186515722        8.7126760442        9.7409668014
  C         3.6345758684        7.2611915115        9.8723668567
  H         2.2306083885        6.2328523383       11.2150182583
  O         2.6298391653        8.1844089906       11.8455973417
  C         3.8679528663        5.8874534622        9.2501196883
  O         4.8098595477        7.5191287310       10.6636372285
  H         3.5280369517        8.0131625733        9.0731685737
  H         4.0317395980        5.1375269179       10.0431900779
  O         5.0765084844        5.9113202406        8.4355603674
  H         3.0607124946        5.5962895917        8.5736773991
  H        -1.8630143399        7.3383294592       10.2126461269
  H        -0.1323057070        6.8798555498       11.5479804834
  H         1.7492592841        8.4310381849       12.1996375481
  H         4.5279327958        8.1732278866       11.3349516771
  H         5.8103224947        6.3330353282        8.9313554282
  O         1.5616760058        7.1185528600        8.0646800295
  H         0.5162435672        5.7507329619        9.2878540145
  H         1.4407025269        6.8177431634        7.1206622377
     161
 i =        5, E =     -8104.5239923793
 Fe         5.0938794100       11.8196869300        0.3885799900
 Fe         7.6575796300        7.3792284900        0.3885799900
 Fe        10.2212798400        2.9387700600        0.3885799900
 Fe        -0.0335205200       11.8196869300        0.3885799900
 Fe         2.5301797000        7.3792284900        0.3885799900
 Fe         5.0938799200        2.9387700600        0.3885799900
 Fe        -5.1609204400       11.8196869300        0.3885799900
 Fe        -2.5972202200        7.3792284900        0.3885799900
 Fe        -0.0335200000        2.9387700600        0.3885799900
  O         8.4519195100        8.9577468800        1.1642700400
  O        11.0156197300        4.5172884400        1.1642700400
  O        13.5793199500        0.0768300000        1.1642700400
  O         3.3245195900        8.9577468800        1.1642700400
  O         5.8882198100        4.5172884400        1.1642700400
  O         8.4519200300        0.0768300000        1.1642700400
  O        -1.8028803300        8.9577468800        1.1642700400
  O         0.7608198900        4.5172884400        1.1642700400
  O         3.3245201100        0.0768300000        1.1642700400
  O         8.4568493000       11.7183869300        1.1650400200
  O        11.0205495200        7.2779284900        1.1650400200
  O        13.5842497300        2.8374700500        1.1650400200
  O         3.3294493700       11.7183869300        1.1650400200
  O         5.8931495900        7.2779284900        1.1650400200
  O         8.4568498100        2.8374700500        1.1650400200
  O        -1.7979505500       11.7183869300        1.1650400200
  O         0.7657496700        7.2779284900        1.1650400200
  O         3.3294498900        2.8374700500        1.1650400200
  O         6.0627194200       10.3425368500        1.1660399400
  O         8.6264196400        5.9020784100        1.1660399400
  O        11.1901198600        1.4616199700        1.1660399400
  O         0.9353195000       10.3425368500        1.1660399400
  O         3.4990197200        5.9020784100        1.1660399400
  O         6.0627199400        1.4616199700        1.1660399400
  O        -4.1920804200       10.3425368500        1.1660399400
  O        -1.6283802000        5.9020784100        1.1660399400
  O         0.9353200200        1.4616199700        1.1660399400
 Fe         7.6576695000       13.2997167500        1.9292099500
 Fe        10.2213697200        8.8592583200        1.9292099500
 Fe        12.7850699400        4.4187998800        1.9292099500
 Fe         2.5302695800       13.2997167500        1.9292099500
 Fe         5.0939698000        8.8592583200        1.9292099500
 Fe         7.6576700200        4.4187998800        1.9292099500
 Fe        -2.5971303400       13.2997167500        1.9292099500
 Fe        -0.0334301200        8.8592583200        1.9292099500
 Fe         2.5302701000        4.4187998800        1.9292099500
 Fe         7.6573893600       10.3392168700        2.7128999200
 Fe        10.2210895800        5.8987584300        2.7128999200
 Fe        12.7847898000        1.4582999900        2.7128999200
 Fe         2.5299894400       10.3392168700        2.7128999200
 Fe         5.0936896600        5.8987584300        2.7128999200
 Fe         7.6573898800        1.4582999900        2.7128999200
 Fe        -2.5974104800       10.3392168700        2.7128999200
 Fe        -0.0337102600        5.8987584300        2.7128999200
 Fe         2.5299899600        1.4582999900        2.7128999200
  O         4.1355406412       13.3011847855        3.5013110403
  O         6.6944536874        8.8670901381        3.5111114023
  O         9.2620418979        4.4258197190        3.5100093124
  O        -0.9932878210       13.3002297840        3.5000856064
  O         1.5690397276        8.8653316654        3.4920859054
  O         4.1377773285        4.4263491523        3.5149329811
  O        -6.1231266171       13.2994365040        3.4989095777
  O        -3.5691880331        8.8673512418        3.4956167063
  O        -0.9684639579        4.4407732473        3.5543037172
  O         6.8600315965       11.9085414415        3.5026594789
  O         9.4223028329        7.4700391743        3.5022420072
  O        11.9814843550        3.0294709645        3.4933641068
  O         1.7317414409       11.9095241527        3.5059902443
  O         4.2890817231        7.4894387567        3.4688422672
  O         6.8648118309        3.0199709428        3.5146467518
  O        -3.3918021854       11.9119177095        3.5004422288
  O        -0.8621318747        7.4604503850        3.4918654023
  O         1.7418258772        2.9927344861        3.5605868746
  O         9.4150811372       10.2491943903        3.5018793220
  O        11.9793777336        5.7916952862        3.4796641939
  O        14.5419990812        1.3603335784        3.5021633516
  O         4.2854773110       10.2391885308        3.5147803632
  O         6.8700782744        5.8000232165        3.4734373100
  O         9.4164175577        1.3564294165        3.5012521612
  O        -0.8382493211       10.2385764290        3.5106872651
  O         1.7129822853        5.7877622705        3.5262146579
  O         4.2909862875        1.3681449653        3.5042368283
 Fe         5.0931457664       11.8083783882        4.4891384195
 Fe         7.6335996724        7.3625065301        4.4893625575
 Fe        10.1973664090        2.9352346820        4.4873451442
 Fe        -0.0324623066       11.8220075774        4.4909632470
 Fe         2.5617966112        7.3612397131        4.4583038614
 Fe         5.0991874313        2.9657326001        4.4966831874
 Fe        -5.1587301826       11.8199116775        4.4881282883
 Fe        -2.6302317899        7.3844944232        4.4782148603
 Fe        -0.0184346628        2.9054823347        4.4987103955
 Fe         7.6578258721       13.2875881783        4.8170878374
 Fe        10.2005334791        8.8620533233        4.8156501976
 Fe        12.7433874098        4.3916427004        4.8048074147
 Fe         2.5357579639       13.2971517722        4.8182261387
 Fe         5.0958355601        8.8308050917        4.8448341287
 Fe         7.6286636191        4.4338729472        4.8307270299
 Fe        -2.5963217697       13.3077571804        4.8147980448
 Fe        -0.0356245560        8.8545531481        4.8060662066
 Fe         2.5662490717        4.4239163984        4.8708980809
  O         5.8597653584       10.3800463187        5.7398872242
  O         8.4252574979        5.9497290234        5.7427580709
  O        10.9922723827        1.5084073386        5.7267412465
  O         0.7348533439       10.3659235829        5.7365519764
  O         3.3264271969        5.9616404470        5.7540536666
  O         5.8645446236        1.5137652408        5.7317703501
  O        -4.3879355655       10.3840980985        5.7283527015
  O        -1.9213307294        5.9432059769        5.7064730570
  O         0.7282986407        1.4829420013        5.7511636024
  O         5.9449396869       13.2006302008        5.7282339572
  O         8.4985932361        8.7547701275        5.7372168195
  O        11.0504773362        4.3121748983        5.7252120470
  O         0.8215886113       13.2022952809        5.7301386742
  O         3.3653702739        8.7418341619        5.7386831176
  O         5.9263031515        4.3633572754        5.7286516727
  O        -4.3061986344       13.2033464325        5.7302449200
  O        -1.7408567379        8.7577946025        5.7303861165
  O         0.8437356888        4.2695429186        5.7675123541
  O         3.4653813716       11.8626007230        5.7389158267
  O         6.0121350628        7.3825515978        5.7281833907
  O         8.5826546974        2.9926763690        5.7358076795
  O        -1.6586134171       11.8709993418        5.7370812632
  O         0.8748387657        7.3389538073        5.6017528462
  O         3.4861308851        2.9807501146        5.7705992769
  O        -6.7837698163       11.8621439871        5.7355756768
  O        -4.2383081030        7.4345849006        5.7255502013
  O        -1.6596197379        2.9832783092        5.7238341771
 Fe         7.6546242007       10.3367394646        5.9824393822
 Fe        10.2188239189        5.8998266532        5.9871464230
 Fe        12.7837577147        1.4555309322        5.9866283936
 Fe         2.5305827103       10.3311984478        5.9809893474
 Fe         5.0881493788        5.8979932847        6.2862718316
 Fe         7.6560582456        1.4597075846        5.9837902737
 Fe        -2.5954397459       10.3402309404        5.9776851169
 Fe        -0.1172003108        5.8013571785        5.6695613843
 Fe         2.5268507876        1.4593018224        5.9724288017
  C        -0.8839508976        7.2088449970        8.5359726469
  C         0.5425687264        6.8313342229        9.0022893910
  H        -1.1489493828        6.7121082514        7.5888197821
  O        -1.8844946330        6.7325099794        9.4483187627
  H        -0.9346452210        8.2891157419        8.3254948545
  C         1.0201651735        7.6888770741       10.1704511180
  C         2.3671611611        7.2612632758       10.7859621315
  O         0.0521944686        7.7908382823       11.2484505031
  H         1.1174121232        8.7091686956        9.7683450165
  C         3.6314237895        7.2480281090        9.8762623300
  H         2.2356090401        6.2414120254       11.2117447981
  O         2.6417230808        8.1838372052       11.8572113124
  C         3.8874456174        5.8860275645        9.2436084580
  O         4.8085577937        7.5186675726       10.6589764514
  H         3.5267436759        8.0080420755        9.0836200731
  H         4.0280001327        5.1397471796       10.0397022693
  O         5.0858700870        5.9115244185        8.4082402411
  H         3.0665941147        5.5989394796        8.5818723624
  H        -1.8510229395        7.3494519986       10.2025441516
  H        -0.1323702841        6.8797063798       11.5483366010
  H         1.7562084182        8.4304670440       12.1990918025
  H         4.5340630390        8.1708548857       11.3347495845
  H         5.7955954852        6.3395129996        8.9273451459
  O         1.5744017480        7.1148403265        8.0764359534
  H         0.5298241545        5.7513161509        9.2792952904
  H         1.4290141987        6.8613446151        7.1213337118
     161
 i =        6, E =     -8104.5278469208
 Fe         5.0938794100       11.8196869300        0.3885799900
 Fe         7.6575796300        7.3792284900        0.3885799900
 Fe        10.2212798400        2.9387700600        0.3885799900
 Fe        -0.0335205200       11.8196869300        0.3885799900
 Fe         2.5301797000        7.3792284900        0.3885799900
 Fe         5.0938799200        2.9387700600        0.3885799900
 Fe        -5.1609204400       11.8196869300        0.3885799900
 Fe        -2.5972202200        7.3792284900        0.3885799900
 Fe        -0.0335200000        2.9387700600        0.3885799900
  O         8.4519195100        8.9577468800        1.1642700400
  O        11.0156197300        4.5172884400        1.1642700400
  O        13.5793199500        0.0768300000        1.1642700400
  O         3.3245195900        8.9577468800        1.1642700400
  O         5.8882198100        4.5172884400        1.1642700400
  O         8.4519200300        0.0768300000        1.1642700400
  O        -1.8028803300        8.9577468800        1.1642700400
  O         0.7608198900        4.5172884400        1.1642700400
  O         3.3245201100        0.0768300000        1.1642700400
  O         8.4568493000       11.7183869300        1.1650400200
  O        11.0205495200        7.2779284900        1.1650400200
  O        13.5842497300        2.8374700500        1.1650400200
  O         3.3294493700       11.7183869300        1.1650400200
  O         5.8931495900        7.2779284900        1.1650400200
  O         8.4568498100        2.8374700500        1.1650400200
  O        -1.7979505500       11.7183869300        1.1650400200
  O         0.7657496700        7.2779284900        1.1650400200
  O         3.3294498900        2.8374700500        1.1650400200
  O         6.0627194200       10.3425368500        1.1660399400
  O         8.6264196400        5.9020784100        1.1660399400
  O        11.1901198600        1.4616199700        1.1660399400
  O         0.9353195000       10.3425368500        1.1660399400
  O         3.4990197200        5.9020784100        1.1660399400
  O         6.0627199400        1.4616199700        1.1660399400
  O        -4.1920804200       10.3425368500        1.1660399400
  O        -1.6283802000        5.9020784100        1.1660399400
  O         0.9353200200        1.4616199700        1.1660399400
 Fe         7.6576695000       13.2997167500        1.9292099500
 Fe        10.2213697200        8.8592583200        1.9292099500
 Fe        12.7850699400        4.4187998800        1.9292099500
 Fe         2.5302695800       13.2997167500        1.9292099500
 Fe         5.0939698000        8.8592583200        1.9292099500
 Fe         7.6576700200        4.4187998800        1.9292099500
 Fe        -2.5971303400       13.2997167500        1.9292099500
 Fe        -0.0334301200        8.8592583200        1.9292099500
 Fe         2.5302701000        4.4187998800        1.9292099500
 Fe         7.6573893600       10.3392168700        2.7128999200
 Fe        10.2210895800        5.8987584300        2.7128999200
 Fe        12.7847898000        1.4582999900        2.7128999200
 Fe         2.5299894400       10.3392168700        2.7128999200
 Fe         5.0936896600        5.8987584300        2.7128999200
 Fe         7.6573898800        1.4582999900        2.7128999200
 Fe        -2.5974104800       10.3392168700        2.7128999200
 Fe        -0.0337102600        5.8987584300        2.7128999200
 Fe         2.5299899600        1.4582999900        2.7128999200
  O         4.1352849229       13.2995672320        3.4998808460
  O         6.6898658702        8.8639183253        3.5116967446
  O         9.2576062060        4.4248878353        3.5052778367
  O        -0.9907752957       13.2983484436        3.4992551122
  O         1.5642649586        8.8569266592        3.4878902699
  O         4.1191299811        4.4213718891        3.4941762291
  O        -6.1244065698       13.2979811958        3.4992575465
  O        -3.5690631009        8.8659224874        3.4953296692
  O        -0.9585245225        4.4423694585        3.5782828196
  O         6.8582619275       11.9046544113        3.5035238774
  O         9.4210501187        7.4681140541        3.5026214283
  O        11.9848204384        3.0346509848        3.4884957859
  O         1.7316116229       11.9079660037        3.5056273035
  O         4.2940961180        7.4857458740        3.4766472780
  O         6.8611079046        3.0266732172        3.5119233537
  O        -3.3903337293       11.9127093527        3.4998906663
  O        -0.8559735638        7.4564997491        3.5153828025
  O         1.7452348437        3.0026747709        3.5359985025
  O         9.4113743769       10.2500055526        3.5052702468
  O        11.9811601417        5.7889563774        3.4777474101
  O        14.5456757633        1.3607196055        3.4997624221
  O         4.2832422969       10.2378939147        3.5159188865
  O         6.8688771179        5.7951279878        3.4791862247
  O         9.4170445537        1.3577212004        3.4998309750
  O        -0.8364314973       10.2343888658        3.5024374765
  O         1.7314508885        5.7788727724        3.5217521776
  O         4.2896741217        1.3665894685        3.5033415841
 Fe         5.0908747883       11.8031231282        4.4905730685
 Fe         7.6303234607        7.3623161610        4.4894261131
 Fe        10.1911945166        2.9376526973        4.4873328537
 Fe        -0.0337010420       11.8167313676        4.4901556111
 Fe         2.5654178345        7.3616744118        4.4679182028
 Fe         5.0933750420        2.9713437836        4.4911193653
 Fe        -5.1566264328       11.8205245320        4.4898479572
 Fe        -2.6375533064        7.3845090798        4.4891014098
 Fe        -0.0004822986        2.8940406367        4.5040689147
 Fe         7.6552125673       13.2792186727        4.8168470770
 Fe        10.1934231647        8.8628509316        4.8127749975
 Fe        12.7351129824        4.3884776846        4.8120684181
 Fe         2.5357219541       13.2955139912        4.8172485238
 Fe         5.0912720680        8.8287420203        4.8531415203
 Fe         7.6269740950        4.4347718046        4.8393290073
 Fe        -2.5943586852       13.3124593356        4.8127393141
 Fe        -0.0329207300        8.8559592379        4.8136713054
 Fe         2.5669657180        4.4148069221        4.8783009677
  O         5.8566382935       10.3756941892        5.7431727956
  O         8.4199442795        5.9541477089        5.7459412332
  O        10.9915135716        1.5088838403        5.7227024849
  O         0.7366553282       10.3651286638        5.7385883100
  O         3.3328665427        5.9516623740        5.7519758432
  O         5.8651806126        1.5185700030        5.7307160471
  O        -4.3878032190       10.3822252104        5.7231980305
  O        -1.9192834861        5.9429997924        5.7077687258
  O         0.7278476093        1.4687389246        5.7567393436
  O         5.9419378922       13.1959901072        5.7263265132
  O         8.4945388878        8.7539893849        5.7387653682
  O        11.0420632429        4.3126899071        5.7260403719
  O         0.8197642475       13.1988704347        5.7270944687
  O         3.3642227257        8.7404722576        5.7465810513
  O         5.9222881844        4.3683193584        5.7244570354
  O        -4.3060312813       13.2058482772        5.7258045715
  O        -1.7426452784        8.7593992560        5.7287876113
  O         0.8492508939        4.2630541778        5.7782396804
  O         3.4638391841       11.8603139815        5.7384596550
  O         6.0066245066        7.3778119302        5.7232593133
  O         8.5808170126        2.9902251272        5.7376317769
  O        -1.6602402114       11.8701882501        5.7327291646
  O         0.8749832636        7.3352041153        5.6241684866
  O         3.4906306670        2.9811896245        5.7807085622
  O        -6.7828748489       11.8561517336        5.7346071859
  O        -4.2481072701        7.4339475242        5.7220052528
  O        -1.6595550753        2.9764894447        5.7175425781
 Fe         7.6515059752       10.3349972656        5.9856497917
 Fe        10.2137218395        5.9003578760        5.9970060503
 Fe        12.7832860111        1.4514745011        5.9893895490
 Fe         2.5298680603       10.3303594229        5.9890033976
 Fe         5.0886594231        5.8976846872        6.3092125811
 Fe         7.6558172314        1.4566030869        5.9853507339
 Fe        -2.5962526318       10.3396432936        5.9818146240
 Fe        -0.1192383431        5.7831058596        5.6373461225
 Fe         2.5266845381        1.4600933211        5.9788921100
  C        -0.8647245068        7.2016573364        8.5406937479
  C         0.5575812788        6.8327293352        9.0045544142
  H        -1.1325561779        6.7200221327        7.5898744623
  O        -1.8788275510        6.7565010429        9.4549956437
  H        -0.9448782018        8.2847629405        8.3392420126
  C         1.0141897834        7.6836332366       10.1867721738
  C         2.3692092152        7.2607466338       10.7920188793
  O         0.0576323195        7.7966891887       11.2748524883
  H         1.1136339046        8.7129833151        9.8083214670
  C         3.6331730336        7.2520328009        9.8789925304
  H         2.2385448288        6.2414980032       11.2195324882
  O         2.6540602370        8.1780299575       11.8654373882
  C         3.8819792826        5.8899112130        9.2452871297
  O         4.8147963854        7.5121187413       10.6592469034
  H         3.5239289876        8.0071259950        9.0839170863
  H         4.0425229685        5.1348732685       10.0309410429
  O         5.0804169963        5.9167949333        8.4036666564
  H         3.0670439708        5.5981666696        8.5776205814
  H        -1.8475336800        7.3644094505       10.2129884263
  H        -0.1369705307        6.8776932950       11.5539784394
  H         1.7708430915        8.4344613682       12.2055248649
  H         4.5441363440        8.1671340842       11.3334187940
  H         5.7920756101        6.3559031652        8.9127793739
  O         1.6095858065        7.1188258330        8.1007799020
  H         0.5368189779        5.7521442123        9.2757745385
  H         1.3960323737        6.9529933390        7.1267485709
     161
 i =        7, E =     -8104.5305974535
 Fe         5.0938794100       11.8196869300        0.3885799900
 Fe         7.6575796300        7.3792284900        0.3885799900
 Fe        10.2212798400        2.9387700600        0.3885799900
 Fe        -0.0335205200       11.8196869300        0.3885799900
 Fe         2.5301797000        7.3792284900        0.3885799900
 Fe         5.0938799200        2.9387700600        0.3885799900
 Fe        -5.1609204400       11.8196869300        0.3885799900
 Fe        -2.5972202200        7.3792284900        0.3885799900
 Fe        -0.0335200000        2.9387700600        0.3885799900
  O         8.4519195100        8.9577468800        1.1642700400
  O        11.0156197300        4.5172884400        1.1642700400
  O        13.5793199500        0.0768300000        1.1642700400
  O         3.3245195900        8.9577468800        1.1642700400
  O         5.8882198100        4.5172884400        1.1642700400
  O         8.4519200300        0.0768300000        1.1642700400
  O        -1.8028803300        8.9577468800        1.1642700400
  O         0.7608198900        4.5172884400        1.1642700400
  O         3.3245201100        0.0768300000        1.1642700400
  O         8.4568493000       11.7183869300        1.1650400200
  O        11.0205495200        7.2779284900        1.1650400200
  O        13.5842497300        2.8374700500        1.1650400200
  O         3.3294493700       11.7183869300        1.1650400200
  O         5.8931495900        7.2779284900        1.1650400200
  O         8.4568498100        2.8374700500        1.1650400200
  O        -1.7979505500       11.7183869300        1.1650400200
  O         0.7657496700        7.2779284900        1.1650400200
  O         3.3294498900        2.8374700500        1.1650400200
  O         6.0627194200       10.3425368500        1.1660399400
  O         8.6264196400        5.9020784100        1.1660399400
  O        11.1901198600        1.4616199700        1.1660399400
  O         0.9353195000       10.3425368500        1.1660399400
  O         3.4990197200        5.9020784100        1.1660399400
  O         6.0627199400        1.4616199700        1.1660399400
  O        -4.1920804200       10.3425368500        1.1660399400
  O        -1.6283802000        5.9020784100        1.1660399400
  O         0.9353200200        1.4616199700        1.1660399400
 Fe         7.6576695000       13.2997167500        1.9292099500
 Fe        10.2213697200        8.8592583200        1.9292099500
 Fe        12.7850699400        4.4187998800        1.9292099500
 Fe         2.5302695800       13.2997167500        1.9292099500
 Fe         5.0939698000        8.8592583200        1.9292099500
 Fe         7.6576700200        4.4187998800        1.9292099500
 Fe        -2.5971303400       13.2997167500        1.9292099500
 Fe        -0.0334301200        8.8592583200        1.9292099500
 Fe         2.5302701000        4.4187998800        1.9292099500
 Fe         7.6573893600       10.3392168700        2.7128999200
 Fe        10.2210895800        5.8987584300        2.7128999200
 Fe        12.7847898000        1.4582999900        2.7128999200
 Fe         2.5299894400       10.3392168700        2.7128999200
 Fe         5.0936896600        5.8987584300        2.7128999200
 Fe         7.6573898800        1.4582999900        2.7128999200
 Fe        -2.5974104800       10.3392168700        2.7128999200
 Fe        -0.0337102600        5.8987584300        2.7128999200
 Fe         2.5299899600        1.4582999900        2.7128999200
  O         4.1335208493       13.2988281281        3.4974963623
  O         6.6864585143        8.8608385404        3.5103556270
  O         9.2522724475        4.4243225776        3.5028944692
  O        -0.9884743865       13.2982830082        3.4984274845
  O         1.5617066683        8.8476378364        3.4895422495
  O         4.1009417873        4.4082355644        3.4635917331
  O        -6.1267394117       13.2977431214        3.5003700345
  O        -3.5691688722        8.8638996452        3.4936408056
  O        -0.9466271753        4.4433811039        3.6130432758
  O         6.8550683001       11.8992906655        3.5048367398
  O         9.4164159249        7.4671678833        3.5012022222
  O        11.9897388686        3.0412055695        3.4824938854
  O         1.7316677542       11.9048332264        3.5049574243
  O         4.2936537528        7.4814280153        3.4835740296
  O         6.8574343427        3.0333712106        3.5085836722
  O        -3.3884887572       11.9124207012        3.4997683967
  O        -0.8517378719        7.4580790694        3.5424007323
  O         1.7449565818        3.0109729986        3.5117447797
  O         9.4080790842       10.2493613205        3.5063497323
  O        11.9825851560        5.7845213194        3.4776348809
  O        14.5508722289        1.3564053352        3.4954152866
  O         4.2782603408       10.2351178327        3.5186012042
  O         6.8675628647        5.7896611628        3.4827026286
  O         9.4167827139        1.3595801024        3.4975883808
  O        -0.8343134534       10.2278993576        3.4963675638
  O         1.7569901899        5.7714260183        3.5197096706
  O         4.2875348117        1.3671161094        3.5043574627
 Fe         5.0861306434       11.7967969567        4.4900752197
 Fe         7.6229751975        7.3609058804        4.4881845510
 Fe        10.1837478984        2.9388692704        4.4863596716
 Fe        -0.0348967119       11.8127463099        4.4882841519
 Fe         2.5688269301        7.3612334872        4.4890981029
 Fe         5.0908533509        2.9759728291        4.4861298334
 Fe        -5.1548925413       11.8210810123        4.4900709666
 Fe        -2.6463149775        7.3835173500        4.5012053024
 Fe         0.0107121960        2.8779355776        4.5101875862
 Fe         7.6520057226       13.2664531092        4.8173139347
 Fe        10.1856930842        8.8640971768        4.8075730118
 Fe        12.7261251407        4.3837181188        4.8222862972
 Fe         2.5347466506       13.2936814364        4.8141001151
 Fe         5.0890083679        8.8252361867        4.8584908805
 Fe         7.6222341588        4.4354134999        4.8513374398
 Fe        -2.5913495131       13.3174979835        4.8085649177
 Fe        -0.0284391654        8.8524756394        4.8239279255
 Fe         2.5688293863        4.4092798160        4.8731232201
  O         5.8529911546       10.3704972416        5.7468445057
  O         8.4098367364        5.9587084856        5.7514936928
  O        10.9894576874        1.5085180912        5.7168898873
  O         0.7372047509       10.3635346255        5.7389549459
  O         3.3414861649        5.9361456966        5.7447925664
  O         5.8673764746        1.5207624403        5.7286305857
  O        -4.3892721446       10.3813571658        5.7173712370
  O        -1.9156775736        5.9414539035        5.7151156211
  O         0.7330253090        1.4544504885        5.7560358284
  O         5.9381345478       13.1880114287        5.7233473641
  O         8.4917429569        8.7471164431        5.7395659639
  O        11.0318556359        4.3136467511        5.7260056851
  O         0.8193308099       13.1942781712        5.7246520450
  O         3.3665849821        8.7407441694        5.7537578300
  O         5.9153483570        4.3726165620        5.7177212515
  O        -4.3045133208       13.2063365587        5.7202167616
  O        -1.7458343894        8.7631613417        5.7256907535
  O         0.8613109769        4.2507668634        5.7849287388
  O         3.4612743682       11.8584823658        5.7374653659
  O         6.0009475297        7.3761278821        5.7205633249
  O         8.5785287709        2.9870504128        5.7384817365
  O        -1.6616453766       11.8682073324        5.7254787299
  O         0.8733970251        7.3258760198        5.6613205606
  O         3.4887272497        2.9824562701        5.7775586647
  O        -6.7835065092       11.8446148133        5.7335943021
  O        -4.2582405129        7.4317693254        5.7182652995
  O        -1.6640674706        2.9671920136        5.7157285476
 Fe         7.6489393905       10.3251122224        5.9883693506
 Fe        10.2040180577        5.9007495274        5.9990862610
 Fe        12.7811247898        1.4441533160        5.9888626331
 Fe         2.5287263201       10.3296661362        5.9919417780
 Fe         5.0893982726        5.8989674119        6.3114795302
 Fe         7.6564931430        1.4514247831        5.9856243141
 Fe        -2.5990044791       10.3399355106        5.9849197789
 Fe        -0.1204655460        5.7525727106        5.6032026866
 Fe         2.5305736132        1.4583747160        5.9887355030
  C        -0.8480049719        7.2092252294        8.5480802365
  C         0.5692993538        6.8444851355        9.0165411253
  H        -1.1076560958        6.7248979674        7.5992901376
  O        -1.8609601329        6.7700128677        9.4697978715
  H        -0.9393740892        8.2932652904        8.3523794003
  C         1.0206220100        7.6866405514       10.2095541271
  C         2.3761387184        7.2589772528       10.8135410999
  O         0.0683944997        7.7863363380       11.3042680839
  H         1.1112338521        8.7251777904        9.8517650885
  C         3.6289880746        7.2429643832        9.8807501438
  H         2.2463191465        6.2362377837       11.2319359839
  O         2.6741130173        8.1747814014       11.8851261176
  C         3.8862088513        5.8850616966        9.2415354647
  O         4.8150687113        7.5060527747       10.6541167806
  H         3.5255122214        8.0061873511        9.0927864499
  H         4.0556093421        5.1314537073       10.0257394922
  O         5.0833003658        5.9279250193        8.3919347815
  H         3.0651705659        5.6015751340        8.5774918528
  H        -1.8364412822        7.3894924790       10.2191303215
  H        -0.1484628236        6.8694251083       11.5752133162
  H         1.7922919742        8.4406870567       12.2203813078
  H         4.5621984371        8.1624488543       11.3341967754
  H         5.7862605286        6.3829672511        8.8987201502
  O         1.6188750156        7.1370075858        8.1170961464
  H         0.5484536520        5.7607081642        9.2765655945
  H         1.3442260294        7.0830491161        7.1259012844
     161
 i =        8, E =     -8104.5328306539
 Fe         5.0938794100       11.8196869300        0.3885799900
 Fe         7.6575796300        7.3792284900        0.3885799900
 Fe        10.2212798400        2.9387700600        0.3885799900
 Fe        -0.0335205200       11.8196869300        0.3885799900
 Fe         2.5301797000        7.3792284900        0.3885799900
 Fe         5.0938799200        2.9387700600        0.3885799900
 Fe        -5.1609204400       11.8196869300        0.3885799900
 Fe        -2.5972202200        7.3792284900        0.3885799900
 Fe        -0.0335200000        2.9387700600        0.3885799900
  O         8.4519195100        8.9577468800        1.1642700400
  O        11.0156197300        4.5172884400        1.1642700400
  O        13.5793199500        0.0768300000        1.1642700400
  O         3.3245195900        8.9577468800        1.1642700400
  O         5.8882198100        4.5172884400        1.1642700400
  O         8.4519200300        0.0768300000        1.1642700400
  O        -1.8028803300        8.9577468800        1.1642700400
  O         0.7608198900        4.5172884400        1.1642700400
  O         3.3245201100        0.0768300000        1.1642700400
  O         8.4568493000       11.7183869300        1.1650400200
  O        11.0205495200        7.2779284900        1.1650400200
  O        13.5842497300        2.8374700500        1.1650400200
  O         3.3294493700       11.7183869300        1.1650400200
  O         5.8931495900        7.2779284900        1.1650400200
  O         8.4568498100        2.8374700500        1.1650400200
  O        -1.7979505500       11.7183869300        1.1650400200
  O         0.7657496700        7.2779284900        1.1650400200
  O         3.3294498900        2.8374700500        1.1650400200
  O         6.0627194200       10.3425368500        1.1660399400
  O         8.6264196400        5.9020784100        1.1660399400
  O        11.1901198600        1.4616199700        1.1660399400
  O         0.9353195000       10.3425368500        1.1660399400
  O         3.4990197200        5.9020784100        1.1660399400
  O         6.0627199400        1.4616199700        1.1660399400
  O        -4.1920804200       10.3425368500        1.1660399400
  O        -1.6283802000        5.9020784100        1.1660399400
  O         0.9353200200        1.4616199700        1.1660399400
 Fe         7.6576695000       13.2997167500        1.9292099500
 Fe        10.2213697200        8.8592583200        1.9292099500
 Fe        12.7850699400        4.4187998800        1.9292099500
 Fe         2.5302695800       13.2997167500        1.9292099500
 Fe         5.0939698000        8.8592583200        1.9292099500
 Fe         7.6576700200        4.4187998800        1.9292099500
 Fe        -2.5971303400       13.2997167500        1.9292099500
 Fe        -0.0334301200        8.8592583200        1.9292099500
 Fe         2.5302701000        4.4187998800        1.9292099500
 Fe         7.6573893600       10.3392168700        2.7128999200
 Fe        10.2210895800        5.8987584300        2.7128999200
 Fe        12.7847898000        1.4582999900        2.7128999200
 Fe         2.5299894400       10.3392168700        2.7128999200
 Fe         5.0936896600        5.8987584300        2.7128999200
 Fe         7.6573898800        1.4582999900        2.7128999200
 Fe        -2.5974104800       10.3392168700        2.7128999200
 Fe        -0.0337102600        5.8987584300        2.7128999200
 Fe         2.5299899600        1.4582999900        2.7128999200
  O         4.1320963392       13.2994274508        3.4966001686
  O         6.6875473314        8.8595397031        3.5079615340
  O         9.2524012713        4.4243882260        3.5041867312
  O        -0.9881879955       13.2993645677        3.4979211545
  O         1.5606497950        8.8479163228        3.4969560877
  O         4.1056393292        4.4022433964        3.4612426200
  O        -6.1271719002       13.2969095811        3.5003122723
  O        -3.5682928097        8.8622584064        3.4936388076
  O        -0.9399090922        4.4463917215        3.6260878355
  O         6.8524172837       11.8961710528        3.5059309194
  O         9.4134462450        7.4666672013        3.5006018267
  O        11.9937130401        3.0430776822        3.4824080654
  O         1.7309089866       11.9024824335        3.5045000511
  O         4.2931482621        7.4789528018        3.4846559714
  O         6.8564503591        3.0330748319        3.5066127594
  O        -3.3881775622       11.9113625361        3.4987849487
  O        -0.8468032243        7.4595879113        3.5486809331
  O         1.7390500963        3.0076477515        3.5104545287
  O         9.4077041391       10.2481248128        3.5053753200
  O        11.9832426034        5.7822222378        3.4807803817
  O        14.5511216015        1.3512614614        3.4954288920
  O         4.2755424020       10.2351431108        3.5187840107
  O         6.8660066050        5.7906667370        3.4820545342
  O         9.4153730162        1.3610529621        3.4969167814
  O        -0.8326683584       10.2262362472        3.4947843979
  O         1.7563253263        5.7736585877        3.5305677489
  O         4.2871118805        1.3668490393        3.5041005280
 Fe         5.0827767980       11.7951656922        4.4896428677
 Fe         7.6206394328        7.3602786561        4.4881863588
 Fe        10.1818701707        2.9379519678        4.4858971459
 Fe        -0.0353856102       11.8120505108        4.4882883168
 Fe         2.5698477110        7.3616100921        4.4943894407
 Fe         5.0946384648        2.9701172146        4.4853779685
 Fe        -5.1533873600       11.8211891066        4.4896450013
 Fe        -2.6430659007        7.3812390465        4.5020130106
 Fe         0.0043957424        2.8722592710        4.5119119464
 Fe         7.6513867631       13.2605620083        4.8179005457
 Fe        10.1838257564        8.8640753757        4.8058515785
 Fe        12.7270500882        4.3811752312        4.8297818112
 Fe         2.5330443371       13.2931129429        4.8111702901
 Fe         5.0896672957        8.8242254240        4.8539667029
 Fe         7.6200222903        4.4338831027        4.8526669703
 Fe        -2.5905376100       13.3174800205        4.8053823957
 Fe        -0.0294726645        8.8459330559        4.8287366669
 Fe         2.5670788609        4.4117438979        4.8604250651
  O         5.8496324477       10.3680127932        5.7465982578
  O         8.4055390571        5.9563336805        5.7533705558
  O        10.9876925507        1.5075986254        5.7133342417
  O         0.7362336000       10.3609229833        5.7378020699
  O         3.3453699275        5.9311946655        5.7331160833
  O         5.8682650183        1.5164197240        5.7279137286
  O        -4.3908798245       10.3814907134        5.7157455846
  O        -1.9103249443        5.9391258058        5.7234008588
  O         0.7394417102        1.4535701720        5.7488396116
  O         5.9373630665       13.1838838460        5.7217344135
  O         8.4900241987        8.7464284925        5.7387922390
  O        11.0294224440        4.3149264207        5.7251685104
  O         0.8199095744       13.1933496376        5.7241502433
  O         3.3681780950        8.7408141508        5.7504526819
  O         5.9119774942        4.3705482533        5.7101090828
  O        -4.3027528217       13.2039599209        5.7202340487
  O        -1.7500738706        8.7656684821        5.7258539029
  O         0.8661347991        4.2474273517        5.7813044842
  O         3.4591903269       11.8587050038        5.7364547257
  O         6.0001982848        7.3797108168        5.7198589432
  O         8.5770018339        2.9855726849        5.7371322471
  O        -1.6611993516       11.8673161216        5.7213025621
  O         0.8729657807        7.3164093938        5.6760973019
  O         3.4832192932        2.9829782159        5.7612869824
  O        -6.7832982379       11.8403540192        5.7323095926
  O        -4.2559449496        7.4290025563        5.7150822668
  O        -1.6685503604        2.9613985120        5.7222886352
 Fe         7.6457346012       10.3236471815        5.9877824874
 Fe        10.2002026337        5.9017122899        5.9954566598
 Fe        12.7784599348        1.4390791002        5.9881771100
 Fe         2.5283501782       10.3292899439        5.9893172079
 Fe         5.0900771971        5.8998583275        6.2953658158
 Fe         7.6558774659        1.4489264459        5.9856673888
 Fe        -2.6009373644       10.3418443299        5.9832462621
 Fe        -0.1198128583        5.7396804296        5.6171151453
 Fe         2.5355578322        1.4559048141        5.9906071305
  C        -0.8404207604        7.2188642869        8.5603180622
  C         0.5795677709        6.8586993599        9.0188535548
  H        -1.0943491405        6.7288948570        7.6119457246
  O        -1.8542168315        6.7731197868        9.4780635439
  H        -0.9271657935        8.3006076674        8.3556832817
  C         1.0200904602        7.6859232754       10.2273044587
  C         2.3805705301        7.2548884577       10.8179203436
  O         0.0703866544        7.7806298416       11.3267342835
  H         1.1163576906        8.7253803810        9.8719773951
  C         3.6376195160        7.2464673563        9.8903623949
  H         2.2508951856        6.2358380103       11.2440386209
  O         2.6816436488        8.1670913012       11.8920635562
  C         3.8807011777        5.8887681384        9.2429852127
  O         4.8317240264        7.5004828127       10.6557358918
  H         3.5225398802        8.0027426193        9.0976536944
  H         4.0633201764        5.1299911397       10.0209293275
  O         5.0809415481        5.9341208022        8.3998336125
  H         3.0645220783        5.6006822334        8.5745174052
  H        -1.8274327088        7.4027771996       10.2200177994
  H        -0.1482366496        6.8613610298       11.5838927686
  H         1.8065809997        8.4441605552       12.2349305666
  H         4.5696980028        8.1577651064       11.3309857621
  H         5.7849958779        6.4022422011        8.8950576597
  O         1.5976480888        7.1678347851        8.0965086748
  H         0.5547628601        5.7745336112        9.2818525521
  H         1.3115773563        7.1399253418        7.1247583179
     161
 i =        9, E =     -8104.5328184245
 Fe         5.0938794100       11.8196869300        0.3885799900
 Fe         7.6575796300        7.3792284900        0.3885799900
 Fe        10.2212798400        2.9387700600        0.3885799900
 Fe        -0.0335205200       11.8196869300        0.3885799900
 Fe         2.5301797000        7.3792284900        0.3885799900
 Fe         5.0938799200        2.9387700600        0.3885799900
 Fe        -5.1609204400       11.8196869300        0.3885799900
 Fe        -2.5972202200        7.3792284900        0.3885799900
 Fe        -0.0335200000        2.9387700600        0.3885799900
  O         8.4519195100        8.9577468800        1.1642700400
  O        11.0156197300        4.5172884400        1.1642700400
  O        13.5793199500        0.0768300000        1.1642700400
  O         3.3245195900        8.9577468800        1.1642700400
  O         5.8882198100        4.5172884400        1.1642700400
  O         8.4519200300        0.0768300000        1.1642700400
  O        -1.8028803300        8.9577468800        1.1642700400
  O         0.7608198900        4.5172884400        1.1642700400
  O         3.3245201100        0.0768300000        1.1642700400
  O         8.4568493000       11.7183869300        1.1650400200
  O        11.0205495200        7.2779284900        1.1650400200
  O        13.5842497300        2.8374700500        1.1650400200
  O         3.3294493700       11.7183869300        1.1650400200
  O         5.8931495900        7.2779284900        1.1650400200
  O         8.4568498100        2.8374700500        1.1650400200
  O        -1.7979505500       11.7183869300        1.1650400200
  O         0.7657496700        7.2779284900        1.1650400200
  O         3.3294498900        2.8374700500        1.1650400200
  O         6.0627194200       10.3425368500        1.1660399400
  O         8.6264196400        5.9020784100        1.1660399400
  O        11.1901198600        1.4616199700        1.1660399400
  O         0.9353195000       10.3425368500        1.1660399400
  O         3.4990197200        5.9020784100        1.1660399400
  O         6.0627199400        1.4616199700        1.1660399400
  O        -4.1920804200       10.3425368500        1.1660399400
  O        -1.6283802000        5.9020784100        1.1660399400
  O         0.9353200200        1.4616199700        1.1660399400
 Fe         7.6576695000       13.2997167500        1.9292099500
 Fe        10.2213697200        8.8592583200        1.9292099500
 Fe        12.7850699400        4.4187998800        1.9292099500
 Fe         2.5302695800       13.2997167500        1.9292099500
 Fe         5.0939698000        8.8592583200        1.9292099500
 Fe         7.6576700200        4.4187998800        1.9292099500
 Fe        -2.5971303400       13.2997167500        1.9292099500
 Fe        -0.0334301200        8.8592583200        1.9292099500
 Fe         2.5302701000        4.4187998800        1.9292099500
 Fe         7.6573893600       10.3392168700        2.7128999200
 Fe        10.2210895800        5.8987584300        2.7128999200
 Fe        12.7847898000        1.4582999900        2.7128999200
 Fe         2.5299894400       10.3392168700        2.7128999200
 Fe         5.0936896600        5.8987584300        2.7128999200
 Fe         7.6573898800        1.4582999900        2.7128999200
 Fe        -2.5974104800       10.3392168700        2.7128999200
 Fe        -0.0337102600        5.8987584300        2.7128999200
 Fe         2.5299899600        1.4582999900        2.7128999200
  O         4.1320963392       13.2994274508        3.4966001686
  O         6.6875473314        8.8595397031        3.5079615340
  O         9.2524012713        4.4243882260        3.5041867312
  O        -0.9881879955       13.2993645677        3.4979211545
  O         1.5606497950        8.8479163228        3.4969560877
  O         4.1056393292        4.4022433964        3.4612426200
  O        -6.1271719002       13.2969095811        3.5003122723
  O        -3.5682928097        8.8622584064        3.4936388076
  O        -0.9399090922        4.4463917215        3.6260878355
  O         6.8524172837       11.8961710528        3.5059309194
  O         9.4134462450        7.4666672013        3.5006018267
  O        11.9937130401        3.0430776822        3.4824080654
  O         1.7309089866       11.9024824335        3.5045000511
  O         4.2931482621        7.4789528018        3.4846559714
  O         6.8564503591        3.0330748319        3.5066127594
  O        -3.3881775622       11.9113625361        3.4987849487
  O        -0.8468032243        7.4595879113        3.5486809331
  O         1.7390500963        3.0076477515        3.5104545287
  O         9.4077041391       10.2481248128        3.5053753200
  O        11.9832426034        5.7822222378        3.4807803817
  O        14.5511216015        1.3512614614        3.4954288920
  O         4.2755424020       10.2351431108        3.5187840107
  O         6.8660066050        5.7906667370        3.4820545342
  O         9.4153730162        1.3610529621        3.4969167814
  O        -0.8326683584       10.2262362472        3.4947843979
  O         1.7563253263        5.7736585877        3.5305677489
  O         4.2871118805        1.3668490393        3.5041005280
 Fe         5.0827767980       11.7951656922        4.4896428677
 Fe         7.6206394328        7.3602786561        4.4881863588
 Fe        10.1818701707        2.9379519678        4.4858971459
 Fe        -0.0353856102       11.8120505108        4.4882883168
 Fe         2.5698477110        7.3616100921        4.4943894407
 Fe         5.0946384648        2.9701172146        4.4853779685
 Fe        -5.1533873600       11.8211891066        4.4896450013
 Fe        -2.6430659007        7.3812390465        4.5020130106
 Fe         0.0043957424        2.8722592710        4.5119119464
 Fe         7.6513867631       13.2605620083        4.8179005457
 Fe        10.1838257564        8.8640753757        4.8058515785
 Fe        12.7270500882        4.3811752312        4.8297818112
 Fe         2.5330443371       13.2931129429        4.8111702901
 Fe         5.0896672957        8.8242254240        4.8539667029
 Fe         7.6200222903        4.4338831027        4.8526669703
 Fe        -2.5905376100       13.3174800205        4.8053823957
 Fe        -0.0294726645        8.8459330559        4.8287366669
 Fe         2.5670788609        4.4117438979        4.8604250651
  O         5.8496324477       10.3680127932        5.7465982578
  O         8.4055390571        5.9563336805        5.7533705558
  O        10.9876925507        1.5075986254        5.7133342417
  O         0.7362336000       10.3609229833        5.7378020699
  O         3.3453699275        5.9311946655        5.7331160833
  O         5.8682650183        1.5164197240        5.7279137286
  O        -4.3908798245       10.3814907134        5.7157455846
  O        -1.9103249443        5.9391258058        5.7234008588
  O         0.7394417102        1.4535701720        5.7488396116
  O         5.9373630665       13.1838838460        5.7217344135
  O         8.4900241987        8.7464284925        5.7387922390
  O        11.0294224440        4.3149264207        5.7251685104
  O         0.8199095744       13.1933496376        5.7241502433
  O         3.3681780950        8.7408141508        5.7504526819
  O         5.9119774942        4.3705482533        5.7101090828
  O        -4.3027528217       13.2039599209        5.7202340487
  O        -1.7500738706        8.7656684821        5.7258539029
  O         0.8661347991        4.2474273517        5.7813044842
  O         3.4591903269       11.8587050038        5.7364547257
  O         6.0001982848        7.3797108168        5.7198589432
  O         8.5770018339        2.9855726849        5.7371322471
  O        -1.6611993516       11.8673161216        5.7213025621
  O         0.8729657807        7.3164093938        5.6760973019
  O         3.4832192932        2.9829782159        5.7612869824
  O        -6.7832982379       11.8403540192        5.7323095926
  O        -4.2559449496        7.4290025563        5.7150822668
  O        -1.6685503604        2.9613985120        5.7222886352
 Fe         7.6457346012       10.3236471815        5.9877824874
 Fe        10.2002026337        5.9017122899        5.9954566598
 Fe        12.7784599348        1.4390791002        5.9881771100
 Fe         2.5283501782       10.3292899439        5.9893172079
 Fe         5.0900771971        5.8998583275        6.2953658158
 Fe         7.6558774659        1.4489264459        5.9856673888
 Fe        -2.6009373644       10.3418443299        5.9832462621
 Fe        -0.1198128583        5.7396804296        5.6171151453
 Fe         2.5355578322        1.4559048141        5.9906071305
  C        -0.8404207604        7.2188642869        8.5603180622
  C         0.5795677709        6.8586993599        9.0188535548
  H        -1.0943491405        6.7288948570        7.6119457246
  O        -1.8542168315        6.7731197868        9.4780635439
  H        -0.9271657935        8.3006076674        8.3556832817
  C         1.0200904602        7.6859232754       10.2273044587
  C         2.3805705301        7.2548884577       10.8179203436
  O         0.0703866544        7.7806298416       11.3267342835
  H         1.1163576906        8.7253803810        9.8719773951
  C         3.6376195160        7.2464673563        9.8903623949
  H         2.2508951856        6.2358380103       11.2440386209
  O         2.6816436488        8.1670913012       11.8920635562
  C         3.8807011777        5.8887681384        9.2429852127
  O         4.8317240264        7.5004828127       10.6557358918
  H         3.5225398802        8.0027426193        9.0976536944
  H         4.0633201764        5.1299911397       10.0209293275
  O         5.0809415481        5.9341208022        8.3998336125
  H         3.0645220783        5.6006822334        8.5745174052
  H        -1.8274327088        7.4027771996       10.2200177994
  H        -0.1482366496        6.8613610298       11.5838927686
  H         1.8065809997        8.4441605552       12.2349305666
  H         4.5696980028        8.1577651064       11.3309857621
  H         5.7849958779        6.4022422011        8.8950576597
  O         1.5976480888        7.1678347851        8.0965086748
  H         0.5547628601        5.7745336112        9.2818525521
  H         1.3115773563        7.1399253418        7.1247583179
