 DBCSR| Multiplication driver                                               XSMM
 DBCSR| Multrec recursion limit                                              512
 DBCSR| Multiplication stack size                                           1000
 DBCSR| Maximum elements for images                                    UNLIMITED
 DBCSR| Multiplicative factor virtual images                                   1
 DBCSR| Multiplication size stacks                                             3
 DBCSR| Number of 3D layers                                               SINGLE
 DBCSR| Use MPI memory allocation                                              T
 DBCSR| Use RMA algorithm                                                      F
 DBCSR| Use Communication thread                                               T
 DBCSR| Communication thread load                                             87


  **** **** ******  **  PROGRAM STARTED AT               2020-10-29 16:28:42.748
 ***** ** ***  *** **   PROGRAM STARTED ON                             irene3045
 **    ****   ******    PROGRAM STARTED BY                              marticar
 ***** **    ** ** **   PROGRAM PROCESS ID                                263238
  **** **  *******  **  PROGRAM STARTED IN /ccc/scratch/cont003/gen0609/marticar
                                           /5723192

 CP2K| version string:                                          CP2K version 6.1
 CP2K| source code revision number:                                    svn:18464
 CP2K| cp2kflags: libint fftw3 parallel mpi3 scalapack xsmm mkl                 
 CP2K| is freely available from                            https://www.cp2k.org/
 CP2K| Program compiled at                          Mon Dec 24 15:18:38 CET 2018
 CP2K| Program compiled on                                             cobalt170
 CP2K| Program compiled for                                   Linux-x86-64-iomkl
 CP2K| Data directory path          /tmp/cp2k/6.1/iomkl-174196.202/cp2k-6.1/data
 CP2K| Input file name                                             screening.inp
 
 GLOBAL| Force Environment number                                              1
 GLOBAL| Basis set file name            /ccc/work/cont003/gen0609/marticar/data/
 GLOBAL| Potential file name            /ccc/work/cont003/gen0609/marticar/data/
 GLOBAL| MM Potential file name                                     MM_POTENTIAL
 GLOBAL| Coordinate file name                                          coord.xyz
 GLOBAL| Method name                                                        CP2K
 GLOBAL| Project name                                         sorbitol_screening
 GLOBAL| Preferred FFT library                                             FFTW3
 GLOBAL| Preferred diagonalization lib.                                       SL
 GLOBAL| Run type                                                        GEO_OPT
 GLOBAL| All-to-all communication in single precision                          F
 GLOBAL| FFTs using library dependent lengths                                  F
 GLOBAL| Global print level                                                  LOW
 GLOBAL| Total number of message passing processes                            64
 GLOBAL| Number of threads for this process                                    1
 GLOBAL| This output is from process                                           0
 GLOBAL| CPU model name :  Intel(R) Xeon Phi(TM) CPU 7250 @ 1.40GHz

 MEMORY| system memory details [Kb]
 MEMORY|                        rank 0           min           max       average
 MEMORY| MemTotal             98253756      98253756      98253756      98253756
 MEMORY| MemFree              69799800      69799800      69799800      69799800
 MEMORY| Buffers                     0             0             0             0
 MEMORY| Cached                1499620       1499620       1499620       1499620
 MEMORY| Slab                   980864        980864        980864        980864
 MEMORY| SReclaimable           115576        115576        115576        115576
 MEMORY| MemLikelyFree        71414996      71414996      71414996      71414996

 
 GENERATE|  Preliminary Number of Bonds generated:                             0
 GENERATE|  Achieved consistency in connectivity generation.

 *******************************************************************************
 *******************************************************************************
 **                                                                           **
 **     #####                         ##              ##                      **
 **    ##   ##            ##          ##              ##                      **
 **   ##     ##                       ##            ######                    **
 **   ##     ##  ##   ##  ##   #####  ##  ##   ####   ##    #####    #####    **
 **   ##     ##  ##   ##  ##  ##      ## ##   ##      ##   ##   ##  ##   ##   **
 **   ##  ## ##  ##   ##  ##  ##      ####     ###    ##   ######   ######    **
 **    ##  ###   ##   ##  ##  ##      ## ##      ##   ##   ##       ##        **
 **     #######   #####   ##   #####  ##  ##  ####    ##    #####   ##        **
 **           ##                                                    ##        **
 **                                                                           **
 **                                                ... make the atoms dance   **
 **                                                                           **
 **            Copyright (C) by CP2K developers group (2000 - 2018)           **
 **                                                                           **
 *******************************************************************************


 TOTAL NUMBERS AND MAXIMUM NUMBERS

  Total number of            - Atomic kinds:                                   6
                             - Atoms:                                        161
                             - Shell sets:                                   161
                             - Shells:                                       939
                             - Primitive Cartesian functions:               1073
                             - Cartesian basis functions:                   3046
                             - Spherical basis functions:                   2683

  Maximum angular momentum of- Orbital basis functions:                        3
                             - Local part of the GTH pseudopotential:          2
                             - Non-local part of the GTH pseudopotential:      3


 SCF PARAMETERS         Density guess:                                   RESTART
                        --------------------------------------------------------
                        max_scf:                                             500
                        max_scf_history:                                       0
                        max_diis:                                              4
                        --------------------------------------------------------
                        eps_scf:                                        1.00E-05
                        eps_scf_history:                                0.00E+00
                        eps_diis:                                       1.00E-01
                        eps_eigval:                                     1.00E-05
                        --------------------------------------------------------
                        level_shift [a.u.]:                                 0.00
                        --------------------------------------------------------
                        Outer loop SCF in use 
                        No variables optimised in outer loop
                        eps_scf                                         1.00E-05
                        max_scf                                               10
                        No outer loop optimization
                        step_size                                       5.00E-01

 BFGS| Use rational function optimization for step estimation:                NO
 BFGS| Use model Hessian for initial guess:                                  YES
 BFGS| Restart Hessian:                                                       NO
 BFGS| Trust radius:                                                       0.472

 *******************************************************************************
 ***                     STARTING GEOMETRY OPTIMIZATION                      ***
 ***                                   BFGS                                  ***
 *******************************************************************************

 Spin 1

 Number of electrons:                                                        712
 Number of occupied orbitals:                                                712
 Number of molecular orbitals:                                               712

 Spin 2

 Number of electrons:                                                        712
 Number of occupied orbitals:                                                712
 Number of molecular orbitals:                                               712

 Number of orbital functions:                                               2683
 Number of independent orbital functions:                                   2683

 Extrapolation method: initial_guess

 *** WARNING in qs_initial_guess.F:263 :: User requested to restart the  ***
 *** wavefunction from the file named: sorbitol_screening-RESTART.wfn.   ***
 *** This file does not exist. Please check the existence of the file or ***
 *** change properly the value of the keyword WFN_RESTART_FILE_NAME.     ***
 *** Calculation continues using ATOMIC GUESS.                           ***



 SCF WAVEFUNCTION OPTIMIZATION

  ----------------------------------- OT ---------------------------------------
  Minimizer      : CG                  : conjugate gradient
  Preconditioner : FULL_ALL            : diagonalization, state selective
  Precond_solver : DEFAULT
  Line search    : 3PNT                : 3 energies
  stepsize       :    0.15000000                  energy_gap     :    0.08000000
  eps_taylor     :   0.10000E-15                  max_taylor     :             4
  ----------------------------------- OT ---------------------------------------

  Step     Update method      Time    Convergence         Total energy    Change
  ------------------------------------------------------------------------------
     1 OT CG       0.12E+00   22.1     0.01868901     -7997.6343831383 -8.00E+03
     2 OT LS       0.17E+00    9.9                    -8078.4753489069
     3 OT LS       0.14E+00    9.9                    -8076.9137501289
     4 OT CG       0.11E+00   18.8     0.00468931     -8078.9243037558 -8.13E+01
     5 OT LS       0.16E+00    9.9                    -8086.4845844308
     6 OT LS       0.31E+00    9.9                    -8088.5588066812
     7 OT CG       0.24E+00   18.8     0.00314215     -8091.5403887668 -1.26E+01

 *** WARNING in dft_plus_u.F:2007 :: DFT+U energy contibution is negative ***
 *** possibly due to unphysical Mulliken charges. Check your input, if    ***
 *** this warning persists or try a different method!                     ***

     8 OT LS       0.34E+00    9.9                    -8097.1279249484

 *** WARNING in dft_plus_u.F:2007 :: DFT+U energy contibution is negative ***
 *** possibly due to unphysical Mulliken charges. Check your input, if    ***
 *** this warning persists or try a different method!                     ***

     9 OT LS       0.31E+00    9.9                    -8097.3606645498

 *** WARNING in dft_plus_u.F:2007 :: DFT+U energy contibution is negative ***
 *** possibly due to unphysical Mulliken charges. Check your input, if    ***
 *** this warning persists or try a different method!                     ***

    10 OT CG       0.25E+00   18.7     0.00247535     -8097.4084546359 -5.87E+00
    11 OT LS       0.35E+00    9.9                    -8098.8082699433
    12 OT LS       0.16E+00    9.9                    -8096.8620795516
    13 OT CG       0.13E+00   18.8     0.00214375     -8099.3374491626 -1.93E+00
    14 OT LS       0.18E+00    9.9                    -8100.9985150480
    15 OT LS       0.23E+00    9.9                    -8101.2977515986
    16 OT CG       0.19E+00   18.8     0.00169694     -8101.3885933770 -2.05E+00
    17 OT LS       0.26E+00    9.9                    -8102.2135822192
    18 OT LS       0.16E+00    9.9                    -8101.8494052274
    19 OT CG       0.12E+00   18.7     0.00126800     -8102.2477264712 -8.59E-01
    20 OT LS       0.17E+00    9.9                    -8102.7734332976
    21 OT LS       0.20E+00    9.9                    -8102.8478326794
    22 OT CG       0.16E+00   18.7     0.00104067     -8102.8557232095 -6.08E-01
    23 OT LS       0.22E+00    9.9                    -8103.1934810218
    24 OT LS       0.16E+00    9.9                    -8103.1515634382
    25 OT CG       0.13E+00   18.8     0.00081512     -8103.1938785373 -3.38E-01
    26 OT LS       0.18E+00    9.9                    -8103.4220616361
    27 OT LS       0.21E+00    9.9                    -8103.4550295252
    28 OT CG       0.17E+00   18.8     0.00077205     -8103.4589269336 -2.65E-01
    29 OT LS       0.23E+00    9.9                    -8103.6712557509
    30 OT LS       0.19E+00    9.9                    -8103.6619748863
    31 OT CG       0.15E+00   18.8     0.00065413     -8103.6742037411 -2.15E-01
    32 OT LS       0.21E+00    9.9                    -8103.8258818512
    33 OT LS       0.19E+00    9.9                    -8103.8328020289
    34 OT CG       0.16E+00   18.8     0.00060317     -8103.8339946586 -1.60E-01
    35 OT LS       0.22E+00    9.9                    -8103.9642794887
    36 OT LS       0.19E+00    9.9                    -8103.9676608749
    37 OT CG       0.16E+00   18.8     0.00051994     -8103.9697010447 -1.36E-01
    38 OT LS       0.22E+00    9.9                    -8104.0628269155
    39 OT LS       0.18E+00    9.9                    -8104.0620653546
    40 OT CG       0.15E+00   18.7     0.00045305     -8104.0651961017 -9.55E-02
    41 OT LS       0.21E+00    9.9                    -8104.1381572836
    42 OT LS       0.20E+00    9.9                    -8104.1433149416
    43 OT CG       0.16E+00   18.8     0.00040367     -8104.1434255910 -7.82E-02
    44 OT LS       0.22E+00    9.9                    -8104.2002481438
    45 OT LS       0.19E+00    9.9                    -8104.1992089219
    46 OT CG       0.15E+00   18.8     0.00034243     -8104.2014729042 -5.80E-02
    47 OT LS       0.21E+00    9.9                    -8104.2430003221
    48 OT LS       0.20E+00    9.9                    -8104.2454477404
    49 OT CG       0.16E+00   18.7     0.00030431     -8104.2456075250 -4.41E-02
    50 OT LS       0.22E+00    9.9                    -8104.2788156177
    51 OT LS       0.19E+00    9.9                    -8104.2794825736
    52 OT CG       0.16E+00   18.8     0.00026479     -8104.2800829676 -3.45E-02
    53 OT LS       0.22E+00    9.9                    -8104.3052980333
    54 OT LS       0.20E+00    9.9                    -8104.3061231214
    55 OT CG       0.16E+00   18.7     0.00023722     -8104.3064371475 -2.64E-02
    56 OT LS       0.22E+00    9.9                    -8104.3269693749
    57 OT LS       0.20E+00    9.9                    -8104.3277337704
    58 OT CG       0.16E+00   18.7     0.00021016     -8104.3279525428 -2.15E-02
    59 OT LS       0.22E+00    9.9                    -8104.3440212139
    60 OT LS       0.20E+00    9.9                    -8104.3443186792
    61 OT CG       0.16E+00   18.8     0.00019001     -8104.3446205543 -1.67E-02
    62 OT LS       0.22E+00    9.9                    -8104.3580825213
    63 OT LS       0.21E+00    9.9                    -8104.3587962188
    64 OT CG       0.17E+00   18.8     0.00017498     -8104.3588686050 -1.42E-02
    65 OT LS       0.23E+00    9.9                    -8104.3702225434
    66 OT LS       0.20E+00    9.9                    -8104.3702912774
    67 OT CG       0.16E+00   18.8     0.00015837     -8104.3705778012 -1.17E-02
    68 OT LS       0.22E+00    9.9                    -8104.3799957448
    69 OT LS       0.21E+00    9.9                    -8104.3804427355
    70 OT CG       0.17E+00   18.8     0.00014924     -8104.3805093946 -9.93E-03
    71 OT LS       0.23E+00    9.9                    -8104.3890210613
    72 OT LS       0.21E+00    9.9                    -8104.3892901928
    73 OT CG       0.17E+00   18.8     0.00013829     -8104.3894001951 -8.89E-03
    74 OT LS       0.23E+00    9.9                    -8104.3965644828
    75 OT LS       0.20E+00    9.9                    -8104.3966037412
    76 OT CG       0.16E+00   18.8     0.00012894     -8104.3967867527 -7.39E-03
    77 OT LS       0.23E+00    9.9                    -8104.4030485903
    78 OT LS       0.21E+00    9.9                    -8104.4033061699
    79 OT CG       0.17E+00   18.8     0.00012123     -8104.4033639386 -6.58E-03
    80 OT LS       0.23E+00    9.9                    -8104.4089772654
    81 OT LS       0.21E+00    9.9                    -8104.4091536905
    82 OT CG       0.17E+00   18.8     0.00011428     -8104.4092268084 -5.86E-03
    83 OT LS       0.23E+00    9.9                    -8104.4142745962
    84 OT LS       0.21E+00    9.9                    -8104.4144502370
    85 OT CG       0.17E+00   18.8     0.00010907     -8104.4145092463 -5.28E-03
    86 OT LS       0.24E+00    9.9                    -8104.4191736437
    87 OT LS       0.21E+00    9.9                    -8104.4193394029
    88 OT CG       0.17E+00   18.8     0.00010537     -8104.4193926412 -4.88E-03
    89 OT LS       0.24E+00    9.9                    -8104.4237510016
    90 OT LS       0.21E+00    9.9                    -8104.4238523345
    91 OT CG       0.17E+00   18.8     0.00010152     -8104.4239249913 -4.53E-03
    92 OT LS       0.24E+00    9.9                    -8104.4279679363
    93 OT LS       0.21E+00    9.9                    -8104.4280794247
    94 OT CG       0.17E+00   18.8     0.00009855     -8104.4281389794 -4.21E-03
    95 OT LS       0.24E+00    9.9                    -8104.4319545577
    96 OT LS       0.21E+00    9.9                    -8104.4320582248
    97 OT CG       0.17E+00   18.7     0.00009618     -8104.4321152379 -3.98E-03
    98 OT LS       0.24E+00    9.9                    -8104.4357272944
    99 OT LS       0.21E+00    9.9                    -8104.4357997415
   100 OT CG       0.17E+00   18.8     0.00009241     -8104.4358656514 -3.75E-03
   101 OT LS       0.24E+00    9.9                    -8104.4391835977
   102 OT LS       0.21E+00    9.9                    -8104.4392674892
   103 OT CG       0.17E+00   18.8     0.00008944     -8104.4393199575 -3.45E-03
   104 OT LS       0.24E+00    9.9                    -8104.4424475124
   105 OT LS       0.21E+00    9.9                    -8104.4425523466
   106 OT CG       0.17E+00   18.8     0.00008673     -8104.4425907135 -3.27E-03
   107 OT LS       0.24E+00    9.9                    -8104.4455235729
   108 OT LS       0.21E+00    9.9                    -8104.4455852578
   109 OT CG       0.17E+00   18.8     0.00008294     -8104.4456372864 -3.05E-03
   110 OT LS       0.24E+00    9.9                    -8104.4482998294
   111 OT LS       0.21E+00    9.9                    -8104.4483601760
   112 OT CG       0.17E+00   18.8     0.00007958     -8104.4484053158 -2.77E-03
   113 OT LS       0.24E+00    9.9                    -8104.4508616171
   114 OT LS       0.21E+00    9.9                    -8104.4509368029
   115 OT CG       0.17E+00   18.8     0.00007592     -8104.4509697744 -2.56E-03
   116 OT LS       0.24E+00    9.9                    -8104.4531853403
   117 OT LS       0.21E+00    9.9                    -8104.4532223209
   118 OT CG       0.17E+00   18.8     0.00007216     -8104.4532661570 -2.30E-03
   119 OT LS       0.23E+00    9.9                    -8104.4552755756
   120 OT LS       0.21E+00    9.9                    -8104.4553461522
   121 OT CG       0.17E+00   18.8     0.00006915     -8104.4553693542 -2.10E-03
   122 OT LS       0.24E+00    9.9                    -8104.4572083708
   123 OT LS       0.21E+00    9.9                    -8104.4572438936
   124 OT CG       0.17E+00   18.8     0.00006481     -8104.4572778751 -1.91E-03
   125 OT LS       0.23E+00    9.9                    -8104.4588877856
   126 OT LS       0.21E+00    9.9                    -8104.4589315613
   127 OT CG       0.17E+00   18.8     0.00006120     -8104.4589554336 -1.68E-03
   128 OT LS       0.23E+00    9.9                    -8104.4603893868
   129 OT LS       0.21E+00    9.9                    -8104.4604261910
   130 OT CG       0.17E+00   18.8     0.00005732     -8104.4604483981 -1.49E-03
   131 OT LS       0.23E+00    9.9                    -8104.4616904270
   132 OT LS       0.20E+00    9.9                    -8104.4617096352
   133 OT CG       0.16E+00   18.8     0.00005304     -8104.4617348609 -1.29E-03
   134 OT LS       0.23E+00    9.9                    -8104.4627958977
   135 OT LS       0.21E+00    9.9                    -8104.4628276907
   136 OT CG       0.16E+00   18.8     0.00004898     -8104.4628421160 -1.11E-03
   137 OT LS       0.23E+00    9.9                    -8104.4637445999
   138 OT LS       0.20E+00    9.9                    -8104.4637650977
   139 OT CG       0.16E+00   18.8     0.00004527     -8104.4637802670 -9.38E-04
   140 OT LS       0.23E+00    9.9                    -8104.4645480088
   141 OT LS       0.20E+00    9.9                    -8104.4645670198
   142 OT CG       0.16E+00   18.8     0.00004172     -8104.4645791976 -7.99E-04
   143 OT LS       0.23E+00    9.9                    -8104.4652310326
   144 OT LS       0.20E+00    9.9                    -8104.4652488265
   145 OT CG       0.16E+00   18.8     0.00003840     -8104.4652584247 -6.79E-04
   146 OT LS       0.23E+00    9.9                    -8104.4658112881
   147 OT LS       0.20E+00    9.9                    -8104.4658264443
   148 OT CG       0.16E+00   18.8     0.00003563     -8104.4658345561 -5.76E-04
   149 OT LS       0.23E+00    9.9                    -8104.4663168707
   150 OT LS       0.21E+00    9.9                    -8104.4663354599
   151 OT CG       0.17E+00   18.8     0.00003312     -8104.4663403540 -5.06E-04
   152 OT LS       0.23E+00    9.9                    -8104.4667560026
   153 OT LS       0.21E+00    9.9                    -8104.4667634747
   154 OT CG       0.16E+00   18.8     0.00003052     -8104.4667713909 -4.31E-04
   155 OT LS       0.23E+00    9.9                    -8104.4671268442
   156 OT LS       0.21E+00    9.9                    -8104.4671400755
   157 OT CG       0.17E+00   18.8     0.00002872     -8104.4671438598 -3.72E-04
   158 OT LS       0.23E+00    9.9                    -8104.4674603643
   159 OT LS       0.21E+00    9.9                    -8104.4674686561
   160 OT CG       0.17E+00   18.8     0.00002691     -8104.4674734696 -3.30E-04
   161 OT LS       0.23E+00    9.9                    -8104.4677457744
   162 OT LS       0.20E+00    9.9                    -8104.4677479814
   163 OT CG       0.16E+00   18.8     0.00002483     -8104.4677545401 -2.81E-04
   164 OT LS       0.23E+00    9.9                    -8104.4679874703
   165 OT LS       0.21E+00    9.9                    -8104.4679966026
   166 OT CG       0.17E+00   18.8     0.00002321     -8104.4679989077 -2.44E-04
   167 OT LS       0.23E+00    9.9                    -8104.4682029120
   168 OT LS       0.21E+00    9.9                    -8104.4682075466
   169 OT CG       0.16E+00   18.8     0.00002146     -8104.4682109717 -2.12E-04
   170 OT LS       0.23E+00    9.9                    -8104.4683842970
   171 OT LS       0.20E+00    9.9                    -8104.4683881635
   172 OT CG       0.16E+00   18.8     0.00001982     -8104.4683911064 -1.80E-04
   173 OT LS       0.23E+00    9.9                    -8104.4685391481
   174 OT LS       0.21E+00    9.9                    -8104.4685436328
   175 OT CG       0.16E+00   18.8     0.00001839     -8104.4685456214 -1.55E-04
   176 OT LS       0.23E+00    9.9                    -8104.4686739822
   177 OT LS       0.21E+00    9.9                    -8104.4686780482
   178 OT CG       0.17E+00   18.8     0.00001711     -8104.4686796980 -1.34E-04
   179 OT LS       0.23E+00    9.9                    -8104.4687915878
   180 OT LS       0.21E+00    9.9                    -8104.4687949609
   181 OT CG       0.17E+00   18.8     0.00001604     -8104.4687964707 -1.17E-04
   182 OT LS       0.23E+00    9.9                    -8104.4688943986
   183 OT LS       0.21E+00    9.9                    -8104.4688964219
   184 OT CG       0.17E+00   18.8     0.00001497     -8104.4688981602 -1.02E-04
   185 OT LS       0.23E+00    9.9                    -8104.4689837198
   186 OT LS       0.21E+00    9.9                    -8104.4689865889
   187 OT CG       0.17E+00   18.8     0.00001416     -8104.4689876238 -8.95E-05
   188 OT LS       0.23E+00    9.9                    -8104.4690646681
   189 OT LS       0.21E+00    9.9                    -8104.4690668852
   190 OT CG       0.17E+00   18.8     0.00001341     -8104.4690679701 -8.03E-05
   191 OT LS       0.23E+00    9.9                    -8104.4691370141
   192 OT LS       0.21E+00    9.9                    -8104.4691387040
   193 OT CG       0.17E+00   18.8     0.00001266     -8104.4691398075 -7.18E-05
   194 OT LS       0.23E+00    9.9                    -8104.4692013398
   195 OT LS       0.21E+00    9.9                    -8104.4692030280
   196 OT CG       0.17E+00   18.8     0.00001201     -8104.4692039302 -6.41E-05
   197 OT LS       0.23E+00    9.9                    -8104.4692591312
   198 OT LS       0.21E+00    9.9                    -8104.4692604738
   199 OT CG       0.17E+00   18.8     0.00001126     -8104.4692613599 -5.74E-05
   200 OT LS       0.23E+00    9.9                    -8104.4693096402
   201 OT LS       0.21E+00    9.9                    -8104.4693107525
   202 OT CG       0.17E+00   18.8     0.00001049     -8104.4693115559 -5.02E-05
   203 OT LS       0.23E+00    9.9                    -8104.4693535514
   204 OT LS       0.21E+00    9.9                    -8104.4693547875
   205 OT CG       0.17E+00   18.8     0.00000981     -8104.4693553670 -4.38E-05

  *** SCF run converged in   205 steps ***


  Electronic density on regular grids:      -1423.9999923625        0.0000076375
  Core density on regular grids:             1423.9999996428       -0.0000003572
  Total charge density on r-space grids:        0.0000072803
  Total charge density g-space grids:           0.0000072803

  Overlap energy of the core charge distribution:               0.00000189619055
  Self energy of the core charge distribution:             -14544.97670297458353
  Core Hamiltonian energy:                                   4078.78824701970188
  Hartree energy:                                            3394.91133854074087
  Exchange-correlation energy:                              -1034.12327356146670
  Dispersion energy:                                           -0.55621203312471

  DFT+U energy:                                                 1.48724574549819

  Total energy:                                             -8104.46935536704314

  outer SCF iter =    1 RMS gradient =   0.98E-05 energy =      -8104.4693553670
  outer SCF loop converged in   1 iterations or  205 steps


  Integrated absolute spin density  :                             232.1518608600
  Ideal and single determinant S**2 :                    0.000000     127.214113

 ENERGY| Total FORCE_EVAL ( QS ) energy (a.u.):            -8104.469391940592686


 --------  Informations at step =     0 ------------
  Optimization Method        =                 BFGS
  Total Energy               =     -8104.4693919406
  Used time                  =             2699.381
 ---------------------------------------------------

 --------------------------
 OPTIMIZATION STEP:      1
 --------------------------

 Spin 1

 Number of electrons:                                                        712
 Number of occupied orbitals:                                                712
 Number of molecular orbitals:                                               712

 Spin 2

 Number of electrons:                                                        712
 Number of occupied orbitals:                                                712
 Number of molecular orbitals:                                               712

 Number of orbital functions:                                               2683
 Number of independent orbital functions:                                   2683

 Extrapolation method: PS Nth order


 SCF WAVEFUNCTION OPTIMIZATION

  ----------------------------------- OT ---------------------------------------
  Minimizer      : CG                  : conjugate gradient
  Preconditioner : FULL_ALL            : diagonalization, state selective
  Precond_solver : DEFAULT
  Line search    : 3PNT                : 3 energies
  stepsize       :    0.15000000                  energy_gap     :    0.08000000
  eps_taylor     :   0.10000E-15                  max_taylor     :             4
  ----------------------------------- OT ---------------------------------------

  Step     Update method      Time    Convergence         Total energy    Change
  ------------------------------------------------------------------------------
     1 OT CG       0.12E+00   20.5     0.00012475     -8104.4757280082 -8.10E+03
     2 OT LS       0.17E+00    9.0                    -8104.4816251739
     3 OT LS       0.35E+00    9.0                    -8104.4832952677
     4 OT CG       0.28E+00   17.9     0.00010548     -8104.4860959824 -1.04E-02
     5 OT LS       0.14E+00    8.9                    -8104.4842429503
     6 OT LS       0.12E+00    9.0                    -8104.4886490021
     7 OT CG       0.96E-01   17.9     0.00003091     -8104.4887063185 -2.61E-03
     8 OT LS       0.14E+00    8.9                    -8104.4889336606
     9 OT LS       0.13E+00    8.9                    -8104.4889538014
    10 OT CG       0.11E+00   17.8     0.00001639     -8104.4889538015 -2.47E-04
    11 OT LS       0.15E+00    8.9                    -8104.4890212740
    12 OT LS       0.14E+00    8.9                    -8104.4890239776
    13 OT CG       0.11E+00   17.8     0.00000876     -8104.4890246234 -7.08E-05

  *** SCF run converged in    13 steps ***


  Electronic density on regular grids:      -1423.9999923128        0.0000076872
  Core density on regular grids:             1423.9999996421       -0.0000003579
  Total charge density on r-space grids:        0.0000073293
  Total charge density g-space grids:           0.0000073293

  Overlap energy of the core charge distribution:               0.00000187294138
  Self energy of the core charge distribution:             -14544.97670297458353
  Core Hamiltonian energy:                                   4078.75574130879249
  Hartree energy:                                            3394.91968586293206
  Exchange-correlation energy:                              -1034.11611973201207
  Dispersion energy:                                           -0.55601211030661

  DFT+U energy:                                                 1.48438114883056

  Total energy:                                             -8104.48902462340629

  outer SCF iter =    1 RMS gradient =   0.88E-05 energy =      -8104.4890246234
  outer SCF loop converged in   1 iterations or   13 steps


  Integrated absolute spin density  :                             232.1466150029
  Ideal and single determinant S**2 :                    0.000000     127.216052

 ENERGY| Total FORCE_EVAL ( QS ) energy (a.u.):            -8104.489038316327424


 --------  Informations at step =     1 ------------
  Optimization Method        =                 BFGS
  Total Energy               =     -8104.4890383163
  Real energy change         =        -0.0196463757
  Predicted change in energy =        -0.0155414327
  Scaling factor             =         0.0000000000
  Step size                  =         0.1754291875
  Trust radius               =         0.4724315332
  Decrease in energy         =                  YES
  Used time                  =              214.790

  Convergence check :
  Max. step size             =         0.1754291875
  Conv. limit for step size  =         1.0000000000
  Convergence in step size   =                  YES
  RMS step size              =         0.0195273888
  Conv. limit for RMS step   =         1.0000000000
  Convergence in RMS step    =                  YES
  Max. gradient              =         0.0319443669
  Conv. limit for gradients  =         0.0100000000
  Conv. for gradients        =                   NO
  RMS gradient               =         0.0027857672
  Conv. limit for RMS grad.  =         1.0000000000
  Conv. in RMS gradients     =                  YES
 ---------------------------------------------------

 --------------------------
 OPTIMIZATION STEP:      2
 --------------------------

 Spin 1

 Number of electrons:                                                        712
 Number of occupied orbitals:                                                712
 Number of molecular orbitals:                                               712

 Spin 2

 Number of electrons:                                                        712
 Number of occupied orbitals:                                                712
 Number of molecular orbitals:                                               712

 Number of orbital functions:                                               2683
 Number of independent orbital functions:                                   2683

 Extrapolation method: PS Nth order


 SCF WAVEFUNCTION OPTIMIZATION

  ----------------------------------- OT ---------------------------------------
  Minimizer      : CG                  : conjugate gradient
  Preconditioner : FULL_ALL            : diagonalization, state selective
  Precond_solver : DEFAULT
  Line search    : 3PNT                : 3 energies
  stepsize       :    0.15000000                  energy_gap     :    0.08000000
  eps_taylor     :   0.10000E-15                  max_taylor     :             4
  ----------------------------------- OT ---------------------------------------

  Step     Update method      Time    Convergence         Total energy    Change
  ------------------------------------------------------------------------------
     1 OT CG       0.12E+00   20.5     0.00013776     -8104.4835885469 -8.10E+03
     2 OT LS       0.17E+00    9.0                    -8104.4908583093
     3 OT LS       0.37E+00    9.0                    -8104.4929689294
     4 OT CG       0.29E+00   17.9     0.00012075     -8104.4969090980 -1.33E-02
     5 OT LS       0.15E+00    9.0                    -8104.4911029689
     6 OT LS       0.11E+00    9.0                    -8104.4996495986
     7 OT CG       0.87E-01   17.8     0.00003236     -8104.5000044331 -3.10E-03
     8 OT LS       0.12E+00    9.0                    -8104.5002017417
     9 OT LS       0.99E-01    8.9                    -8104.5001946466
    10 OT CG       0.80E-01   17.8     0.00001702     -8104.5002048445 -2.00E-04
    11 OT LS       0.11E+00    8.9                    -8104.5002651395
    12 OT LS       0.13E+00    8.9                    -8104.5002737129
    13 OT CG       0.10E+00   17.8     0.00000726     -8104.5002746745 -6.98E-05

  *** SCF run converged in    13 steps ***


  Electronic density on regular grids:      -1423.9999923463        0.0000076537
  Core density on regular grids:             1423.9999996437       -0.0000003563
  Total charge density on r-space grids:        0.0000072974
  Total charge density g-space grids:           0.0000072974

  Overlap energy of the core charge distribution:               0.00000186705061
  Self energy of the core charge distribution:             -14544.97670297458353
  Core Hamiltonian energy:                                   4078.73921470084406
  Hartree energy:                                            3394.91798181760623
  Exchange-correlation energy:                              -1034.10681285263831
  Dispersion energy:                                           -0.55545642377201

  DFT+U energy:                                                 1.48149919094817

  Total energy:                                             -8104.50027467454402

  outer SCF iter =    1 RMS gradient =   0.73E-05 energy =      -8104.5002746745
  outer SCF loop converged in   1 iterations or   13 steps


  Integrated absolute spin density  :                             232.1333168507
  Ideal and single determinant S**2 :                    0.000000     127.220527

 ENERGY| Total FORCE_EVAL ( QS ) energy (a.u.):            -8104.500288228611680


 --------  Informations at step =     2 ------------
  Optimization Method        =                 BFGS
  Total Energy               =     -8104.5002882286
  Real energy change         =        -0.0112499123
  Predicted change in energy =        -0.0148367557
  Scaling factor             =         0.0000000000
  Step size                  =         0.2863118985
  Trust radius               =         0.4724315332
  Decrease in energy         =                  YES
  Used time                  =              215.184

  Convergence check :
  Max. step size             =         0.2863118985
  Conv. limit for step size  =         1.0000000000
  Convergence in step size   =                  YES
  RMS step size              =         0.0285163444
  Conv. limit for RMS step   =         1.0000000000
  Convergence in RMS step    =                  YES
  Max. gradient              =         0.0351373056
  Conv. limit for gradients  =         0.0100000000
  Conv. for gradients        =                   NO
  RMS gradient               =         0.0032702518
  Conv. limit for RMS grad.  =         1.0000000000
  Conv. in RMS gradients     =                  YES
 ---------------------------------------------------

 --------------------------
 OPTIMIZATION STEP:      3
 --------------------------

 Spin 1

 Number of electrons:                                                        712
 Number of occupied orbitals:                                                712
 Number of molecular orbitals:                                               712

 Spin 2

 Number of electrons:                                                        712
 Number of occupied orbitals:                                                712
 Number of molecular orbitals:                                               712

 Number of orbital functions:                                               2683
 Number of independent orbital functions:                                   2683

 Extrapolation method: PS Nth order


 SCF WAVEFUNCTION OPTIMIZATION

  ----------------------------------- OT ---------------------------------------
  Minimizer      : CG                  : conjugate gradient
  Preconditioner : FULL_ALL            : diagonalization, state selective
  Precond_solver : DEFAULT
  Line search    : 3PNT                : 3 energies
  stepsize       :    0.15000000                  energy_gap     :    0.08000000
  eps_taylor     :   0.10000E-15                  max_taylor     :             4
  ----------------------------------- OT ---------------------------------------

  Step     Update method      Time    Convergence         Total energy    Change
  ------------------------------------------------------------------------------
     1 OT CG       0.12E+00   20.4     0.00028311     -8104.4381188409 -8.10E+03
     2 OT LS       0.17E+00    8.9                    -8104.4681266771
     3 OT LS       0.33E+00    8.9                    -8104.4764081110
     4 OT CG       0.26E+00   18.3     0.00025257     -8104.4891011656 -5.10E-02
     5 OT LS       0.13E+00    8.9                    -8104.4853958079
     6 OT LS       0.13E+00    8.9                    -8104.5050535048
     7 OT CG       0.10E+00   17.8     0.00005981     -8104.5050795991 -1.60E-02
     8 OT LS       0.14E+00    8.9                    -8104.5059692519
     9 OT LS       0.14E+00    8.9                    -8104.5060436264
    10 OT CG       0.11E+00   17.8     0.00003316     -8104.5060437427 -9.64E-04
    11 OT LS       0.16E+00    8.9                    -8104.5062674630
    12 OT LS       0.11E+00    8.9                    -8104.5062209440
    13 OT CG       0.85E-01   17.8     0.00001606     -8104.5062678464 -2.24E-04
    14 OT LS       0.12E+00    8.9                    -8104.5063236529
    15 OT LS       0.13E+00    8.9                    -8104.5063300547
    16 OT CG       0.10E+00   17.8     0.00000782     -8104.5063302430 -6.24E-05

  *** SCF run converged in    16 steps ***


  Electronic density on regular grids:      -1423.9999923451        0.0000076549
  Core density on regular grids:             1423.9999996432       -0.0000003568
  Total charge density on r-space grids:        0.0000072982
  Total charge density g-space grids:           0.0000072982

  Overlap energy of the core charge distribution:               0.00000186409004
  Self energy of the core charge distribution:             -14544.97670297458353
  Core Hamiltonian energy:                                   4078.78944997521012
  Hartree energy:                                            3394.87741359383381
  Exchange-correlation energy:                              -1034.12174910311296
  Dispersion energy:                                           -0.55490583429685

  DFT+U energy:                                                 1.48016223589879

  Total energy:                                             -8104.50633024296167

  outer SCF iter =    1 RMS gradient =   0.78E-05 energy =      -8104.5063302430
  outer SCF loop converged in   1 iterations or   16 steps


  Integrated absolute spin density  :                             232.1430771205
  Ideal and single determinant S**2 :                    0.000000     127.224541

 ENERGY| Total FORCE_EVAL ( QS ) energy (a.u.):            -8104.506345759087708


 --------  Informations at step =     3 ------------
  Optimization Method        =                 BFGS
  Total Energy               =     -8104.5063457591
  Real energy change         =        -0.0060575305
  Predicted change in energy =        -0.0056885349
  Scaling factor             =         0.0000000000
  Step size                  =         0.1081153871
  Trust radius               =         0.4724315332
  Decrease in energy         =                  YES
  Used time                  =              251.026

  Convergence check :
  Max. step size             =         0.1081153871
  Conv. limit for step size  =         1.0000000000
  Convergence in step size   =                  YES
  RMS step size              =         0.0122660540
  Conv. limit for RMS step   =         1.0000000000
  Convergence in RMS step    =                  YES
  Max. gradient              =         0.0242020834
  Conv. limit for gradients  =         0.0100000000
  Conv. for gradients        =                   NO
  RMS gradient               =         0.0020740094
  Conv. limit for RMS grad.  =         1.0000000000
  Conv. in RMS gradients     =                  YES
 ---------------------------------------------------

 --------------------------
 OPTIMIZATION STEP:      4
 --------------------------

 Spin 1

 Number of electrons:                                                        712
 Number of occupied orbitals:                                                712
 Number of molecular orbitals:                                               712

 Spin 2

 Number of electrons:                                                        712
 Number of occupied orbitals:                                                712
 Number of molecular orbitals:                                               712

 Number of orbital functions:                                               2683
 Number of independent orbital functions:                                   2683

 Extrapolation method: PS Nth order


 SCF WAVEFUNCTION OPTIMIZATION

  ----------------------------------- OT ---------------------------------------
  Minimizer      : CG                  : conjugate gradient
  Preconditioner : FULL_ALL            : diagonalization, state selective
  Precond_solver : DEFAULT
  Line search    : 3PNT                : 3 energies
  stepsize       :    0.15000000                  energy_gap     :    0.08000000
  eps_taylor     :   0.10000E-15                  max_taylor     :             4
  ----------------------------------- OT ---------------------------------------

  Step     Update method      Time    Convergence         Total energy    Change
  ------------------------------------------------------------------------------
     1 OT CG       0.12E+00   20.4     0.00017743     -8104.4833979517 -8.10E+03
     2 OT LS       0.17E+00    8.9                    -8104.4947480836
     3 OT LS       0.28E+00    8.9                    -8104.4975560583
     4 OT CG       0.22E+00   17.8     0.00016699     -8104.5002388712 -1.68E-02
     5 OT LS       0.31E+00    8.9                    -8104.5058588350
     6 OT LS       0.15E+00    8.9                    -8104.4981142671
     7 OT CG       0.12E+00   17.7     0.00005185     -8104.5079933167 -7.75E-03
     8 OT LS       0.17E+00    8.9                    -8104.5084982634
     9 OT LS       0.10E+00    8.9                    -8104.5083064802
    10 OT CG       0.81E-01   17.7     0.00001830     -8104.5085120850 -5.19E-04
    11 OT LS       0.11E+00    8.9                    -8104.5085858206
    12 OT LS       0.14E+00    8.9                    -8104.5085985140
    13 OT CG       0.11E+00   17.7     0.00001229     -8104.5086017625 -8.97E-05
    14 OT LS       0.16E+00    8.9                    -8104.5086351793
    15 OT LS       0.12E+00    8.9                    -8104.5086310555
    16 OT CG       0.93E-01   17.7     0.00000516     -8104.5086352175 -3.35E-05

  *** SCF run converged in    16 steps ***


  Electronic density on regular grids:      -1423.9999923325        0.0000076675
  Core density on regular grids:             1423.9999996425       -0.0000003575
  Total charge density on r-space grids:        0.0000073100
  Total charge density g-space grids:           0.0000073100

  Overlap energy of the core charge distribution:               0.00000187585436
  Self energy of the core charge distribution:             -14544.97670297458353
  Core Hamiltonian energy:                                   4078.78808185861635
  Hartree energy:                                            3394.87821758707105
  Exchange-correlation energy:                              -1034.12490542402270
  Dispersion energy:                                           -0.55526190748159

  DFT+U energy:                                                 1.48193376702387

  Total energy:                                             -8104.50863521752126

  outer SCF iter =    1 RMS gradient =   0.52E-05 energy =      -8104.5086352175
  outer SCF loop converged in   1 iterations or   16 steps


  Integrated absolute spin density  :                             232.1545501320
  Ideal and single determinant S**2 :                    0.000000     127.225392

 ENERGY| Total FORCE_EVAL ( QS ) energy (a.u.):            -8104.508641685408293


 --------  Informations at step =     4 ------------
  Optimization Method        =                 BFGS
  Total Energy               =     -8104.5086416854
  Real energy change         =        -0.0022959263
  Predicted change in energy =        -0.0038005890
  Scaling factor             =         0.0000000000
  Step size                  =         0.0782003263
  Trust radius               =         0.4724315332
  Decrease in energy         =                  YES
  Used time                  =              249.859

  Convergence check :
  Max. step size             =         0.0782003263
  Conv. limit for step size  =         1.0000000000
  Convergence in step size   =                  YES
  RMS step size              =         0.0125043892
  Conv. limit for RMS step   =         1.0000000000
  Convergence in RMS step    =                  YES
  Max. gradient              =         0.0113303572
  Conv. limit for gradients  =         0.0100000000
  Conv. for gradients        =                   NO
  RMS gradient               =         0.0015179742
  Conv. limit for RMS grad.  =         1.0000000000
  Conv. in RMS gradients     =                  YES
 ---------------------------------------------------

 --------------------------
 OPTIMIZATION STEP:      5
 --------------------------

 Spin 1

 Number of electrons:                                                        712
 Number of occupied orbitals:                                                712
 Number of molecular orbitals:                                               712

 Spin 2

 Number of electrons:                                                        712
 Number of occupied orbitals:                                                712
 Number of molecular orbitals:                                               712

 Number of orbital functions:                                               2683
 Number of independent orbital functions:                                   2683

 Extrapolation method: PS Nth order


 SCF WAVEFUNCTION OPTIMIZATION

  ----------------------------------- OT ---------------------------------------
  Minimizer      : CG                  : conjugate gradient
  Preconditioner : FULL_ALL            : diagonalization, state selective
  Precond_solver : DEFAULT
  Line search    : 3PNT                : 3 energies
  stepsize       :    0.15000000                  energy_gap     :    0.08000000
  eps_taylor     :   0.10000E-15                  max_taylor     :             4
  ----------------------------------- OT ---------------------------------------

  Step     Update method      Time    Convergence         Total energy    Change
  ------------------------------------------------------------------------------
     1 OT CG       0.12E+00   20.4     0.00015724     -8104.4919812743 -8.10E+03
     2 OT LS       0.17E+00    8.9                    -8104.5010129590
     3 OT LS       0.30E+00    8.9                    -8104.5033371430
     4 OT CG       0.24E+00   17.7     0.00013332     -8104.5059427173 -1.40E-02
     5 OT LS       0.33E+00    8.9                    -8104.5092888777
     6 OT LS       0.15E+00    8.9                    -8104.5034954145
     7 OT CG       0.12E+00   17.7     0.00004737     -8104.5110175341 -5.07E-03
     8 OT LS       0.17E+00    8.9                    -8104.5115495796
     9 OT LS       0.12E+00    8.9                    -8104.5114869193
    10 OT CG       0.99E-01   17.7     0.00002255     -8104.5115503967 -5.33E-04
    11 OT LS       0.14E+00    8.9                    -8104.5116707564
    12 OT LS       0.13E+00    8.9                    -8104.5116780802
    13 OT CG       0.11E+00   17.7     0.00001283     -8104.5116784849 -1.28E-04
    14 OT LS       0.15E+00    8.9                    -8104.5117137266
    15 OT LS       0.11E+00    8.9                    -8104.5117104587
    16 OT CG       0.90E-01   17.7     0.00000541     -8104.5117138708 -3.54E-05

  *** SCF run converged in    16 steps ***


  Electronic density on regular grids:      -1423.9999923280        0.0000076720
  Core density on regular grids:             1423.9999996425       -0.0000003575
  Total charge density on r-space grids:        0.0000073145
  Total charge density g-space grids:           0.0000073145

  Overlap energy of the core charge distribution:               0.00000187254637
  Self energy of the core charge distribution:             -14544.97670297458353
  Core Hamiltonian energy:                                   4078.76366568747289
  Hartree energy:                                            3394.89415782253218
  Exchange-correlation energy:                              -1034.11996917501733
  Dispersion energy:                                           -0.55507253610880

  DFT+U energy:                                                 1.48220543231008

  Total energy:                                             -8104.51171387084833

  outer SCF iter =    1 RMS gradient =   0.54E-05 energy =      -8104.5117138708
  outer SCF loop converged in   1 iterations or   16 steps


  Integrated absolute spin density  :                             232.1543195788
  Ideal and single determinant S**2 :                    0.000000     127.225636

 ENERGY| Total FORCE_EVAL ( QS ) energy (a.u.):            -8104.511721333336027


 --------  Informations at step =     5 ------------
  Optimization Method        =                 BFGS
  Total Energy               =     -8104.5117213333
  Real energy change         =        -0.0030796479
  Predicted change in energy =        -0.0022199443
  Scaling factor             =         0.0000000000
  Step size                  =         0.1057122559
  Trust radius               =         0.4724315332
  Decrease in energy         =                  YES
  Used time                  =              250.467

  Convergence check :
  Max. step size             =         0.1057122559
  Conv. limit for step size  =         1.0000000000
  Convergence in step size   =                  YES
  RMS step size              =         0.0102974225
  Conv. limit for RMS step   =         1.0000000000
  Convergence in RMS step    =                  YES
  Max. gradient              =         0.0072533864
  Conv. limit for gradients  =         0.0100000000
  Conv. in gradients         =                  YES
  RMS gradient               =         0.0009757193
  Conv. limit for RMS grad.  =         1.0000000000
  Conv. in RMS gradients     =                  YES
 ---------------------------------------------------

 *******************************************************************************
 ***                    GEOMETRY OPTIMIZATION COMPLETED                      ***
 *******************************************************************************

                    Reevaluating energy at the minimum

 Spin 1

 Number of electrons:                                                        712
 Number of occupied orbitals:                                                712
 Number of molecular orbitals:                                               712

 Spin 2

 Number of electrons:                                                        712
 Number of occupied orbitals:                                                712
 Number of molecular orbitals:                                               712

 Number of orbital functions:                                               2683
 Number of independent orbital functions:                                   2683

 Extrapolation method: PS Nth order


 SCF WAVEFUNCTION OPTIMIZATION

  ----------------------------------- OT ---------------------------------------
  Minimizer      : CG                  : conjugate gradient
  Preconditioner : FULL_ALL            : diagonalization, state selective
  Precond_solver : DEFAULT
  Line search    : 3PNT                : 3 energies
  stepsize       :    0.15000000                  energy_gap     :    0.08000000
  eps_taylor     :   0.10000E-15                  max_taylor     :             4
  ----------------------------------- OT ---------------------------------------

  Step     Update method      Time    Convergence         Total energy    Change
  ------------------------------------------------------------------------------
     1 OT CG       0.12E+00   20.5     0.00013077     -8104.4983388262 -8.10E+03
     2 OT LS       0.17E+00    8.9                    -8104.5044435752
     3 OT LS       0.27E+00    8.9                    -8104.5059203374
     4 OT CG       0.22E+00   17.7     0.00011791     -8104.5072485404 -8.91E-03
     5 OT LS       0.31E+00    8.9                    -8104.5103627892
     6 OT LS       0.15E+00    8.9                    -8104.5066809450
     7 OT CG       0.12E+00   17.6     0.00004029     -8104.5112514467 -4.00E-03
     8 OT LS       0.17E+00    8.9                    -8104.5116277593
     9 OT LS       0.12E+00    8.9                    -8104.5115761551
    10 OT CG       0.96E-01   17.7     0.00001750     -8104.5116279182 -3.76E-04
    11 OT LS       0.14E+00    8.9                    -8104.5116981144
    12 OT LS       0.13E+00    8.9                    -8104.5117023444
    13 OT CG       0.10E+00   17.7     0.00001025     -8104.5117025893 -7.47E-05
    14 OT LS       0.14E+00    8.9                    -8104.5117256688
    15 OT LS       0.12E+00    8.9                    -8104.5117248495
    16 OT CG       0.93E-01   17.6     0.00000358     -8104.5117260356 -2.34E-05

  *** SCF run converged in    16 steps ***


  Electronic density on regular grids:      -1423.9999923283        0.0000076717
  Core density on regular grids:             1423.9999996425       -0.0000003575
  Total charge density on r-space grids:        0.0000073142
  Total charge density g-space grids:           0.0000073142

  Overlap energy of the core charge distribution:               0.00000187254637
  Self energy of the core charge distribution:             -14544.97670297458353
  Core Hamiltonian energy:                                   4078.76530485734429
  Hartree energy:                                            3394.89212683010282
  Exchange-correlation energy:                              -1034.11954448880851
  Dispersion energy:                                           -0.55507253610880

  DFT+U energy:                                                 1.48216040387194

  Total energy:                                             -8104.51172603563464

  outer SCF iter =    1 RMS gradient =   0.36E-05 energy =      -8104.5117260356
  outer SCF loop converged in   1 iterations or   16 steps


  Integrated absolute spin density  :                             232.1568986937
  Ideal and single determinant S**2 :                    0.000000     127.226636

 ENERGY| Total FORCE_EVAL ( QS ) energy (a.u.):            -8104.511726035634638


 -------------------------------------------------------------------------------
 -                                                                             -
 -                                DBCSR STATISTICS                             -
 -                                                                             -
 -------------------------------------------------------------------------------
 COUNTER                                    TOTAL       BLAS       SMM       ACC
 flops     5 x     8 x     8               125440       0.0%    100.0%      0.0%
 flops    13 x     8 x     8              2166528       0.0%    100.0%      0.0%
 flops    26 x     8 x     8              2515968       0.0%    100.0%      0.0%
 flops     5 x    32 x    32             44154880       0.0%    100.0%      0.0%
 flops     5 x     8 x     5             72206400       0.0%    100.0%      0.0%
 flops     5 x     5 x    64            206976000       0.0%    100.0%      0.0%
 flops     5 x     5 x    72            232848000       0.0%    100.0%      0.0%
 flops    13 x    32 x    32            762617856       0.0%    100.0%      0.0%
 flops    26 x    32 x    32            885620736       0.0%    100.0%      0.0%
 flops    64 x    64 x    64           1225785344       0.0%    100.0%      0.0%
 flops     5 x     8 x    13           1247107680       0.0%    100.0%      0.0%
 flops    13 x     8 x     5           1247107680       0.0%    100.0%      0.0%
 flops    64 x    64 x    72           1379008512       0.0%    100.0%      0.0%
 flops    64 x    72 x    64           1379008512       0.0%    100.0%      0.0%
 flops    72 x    64 x    64           1379008512       0.0%    100.0%      0.0%
 flops     5 x     8 x    26           1448254080       0.0%    100.0%      0.0%
 flops    26 x     8 x     5           1448254080       0.0%    100.0%      0.0%
 flops    64 x    72 x    72           1551384576       0.0%    100.0%      0.0%
 flops    72 x    64 x    72           1551384576       0.0%    100.0%      0.0%
 flops    72 x    72 x    64           1551384576       0.0%    100.0%      0.0%
 flops    72 x    72 x    72           1745307648       0.0%    100.0%      0.0%
 flops     5 x     5 x    96           1862784000       0.0%    100.0%      0.0%
 flops     5 x    13 x    64           3315952640       0.0%    100.0%      0.0%
 flops    13 x     5 x    64           3356953600       0.0%    100.0%      0.0%
 flops    64 x    64 x   338           3383590912       0.0%    100.0%      0.0%
 flops     5 x    13 x    72           3730446720       0.0%    100.0%      0.0%
 flops    13 x     5 x    72           3776572800       0.0%    100.0%      0.0%
 flops    64 x    72 x   338           3806539776       0.0%    100.0%      0.0%
 flops    72 x    64 x   338           3806539776       0.0%    100.0%      0.0%
 flops    26 x     5 x    64           3833589760       0.0%    100.0%      0.0%
 flops     5 x    26 x    64           3915591680       0.0%    100.0%      0.0%
 flops    72 x    72 x   338           4282357248       0.0%    100.0%      0.0%
 flops    26 x     5 x    72           4312788480       0.0%    100.0%      0.0%
 flops     5 x    26 x    72           4405040640       0.0%    100.0%      0.0%
 flops   338 x    64 x    64           4978475008       0.0%    100.0%      0.0%
 flops   338 x    64 x    72           5600784384       0.0%    100.0%      0.0%
 flops   338 x    72 x    64           5600784384       0.0%    100.0%      0.0%
 flops   338 x    72 x    72           6300882432       0.0%    100.0%      0.0%
 flops     5 x    32 x     5           6354163200       0.0%    100.0%      0.0%
 flops   338 x    64 x   338           6434222080     100.0%      0.0%      0.0%
 flops   338 x    72 x   338           7238499840     100.0%      0.0%      0.0%
 flops    64 x    64 x    96          11032068096       0.0%    100.0%      0.0%
 flops    64 x    96 x    64          11032068096       0.0%    100.0%      0.0%
 flops    96 x    64 x    64          11032068096       0.0%    100.0%      0.0%
 flops    64 x    72 x    96          12411076608       0.0%    100.0%      0.0%
 flops    64 x    96 x    72          12411076608       0.0%    100.0%      0.0%
 flops    72 x    64 x    96          12411076608       0.0%    100.0%      0.0%
 flops    72 x    96 x    64          12411076608       0.0%    100.0%      0.0%
 flops    96 x    64 x    72          12411076608       0.0%    100.0%      0.0%
 flops    96 x    72 x    64          12411076608       0.0%    100.0%      0.0%
 flops    72 x    72 x    96          13962461184       0.0%    100.0%      0.0%
 flops    72 x    96 x    72          13962461184       0.0%    100.0%      0.0%
 flops    96 x    72 x    72          13962461184       0.0%    100.0%      0.0%
 flops    13 x     8 x    13          21449677392       0.0%    100.0%      0.0%
 flops    64 x    64 x   335          23474913280       0.0%    100.0%      0.0%
 flops    26 x     8 x    13          24976956160       0.0%    100.0%      0.0%
 flops    13 x     8 x    26          24976956160       0.0%    100.0%      0.0%
 flops    64 x    72 x   335          26409277440       0.0%    100.0%      0.0%
 flops    72 x    64 x   335          26409277440       0.0%    100.0%      0.0%
 flops    26 x     8 x    26          29047838976       0.0%    100.0%      0.0%
 flops    72 x    72 x   335          29710437120       0.0%    100.0%      0.0%
 flops     5 x    13 x    96          29843573760       0.0%    100.0%      0.0%
 flops    13 x     5 x    96          30212582400       0.0%    100.0%      0.0%
 flops    64 x    96 x   338          30452318208       0.0%    100.0%      0.0%
 flops    96 x    64 x   338          30452318208       0.0%    100.0%      0.0%
 flops    72 x    96 x   338          34258857984     100.0%      0.0%      0.0%
 flops    96 x    72 x   338          34258857984     100.0%      0.0%      0.0%
 flops    26 x     5 x    96          34502307840       0.0%    100.0%      0.0%
 flops   335 x    64 x    64          34540011520       0.0%    100.0%      0.0%
 flops     5 x    26 x    96          35240325120       0.0%    100.0%      0.0%
 flops   335 x    64 x    72          38857512960       0.0%    100.0%      0.0%
 flops   335 x    72 x    64          38857512960       0.0%    100.0%      0.0%
 flops   335 x    72 x    72          43714702080       0.0%    100.0%      0.0%
 flops   335 x    64 x   338          44639795200     100.0%      0.0%      0.0%
 flops   338 x    64 x   335          44639795200     100.0%      0.0%      0.0%
 flops   338 x    64 x    96          44806275072       0.0%    100.0%      0.0%
 flops   338 x    96 x    64          44806275072       0.0%    100.0%      0.0%
 flops   335 x    72 x   338          50219769600     100.0%      0.0%      0.0%
 flops   338 x    72 x   335          50219769600     100.0%      0.0%      0.0%
 flops   338 x    72 x    96          50407059456     100.0%      0.0%      0.0%
 flops   338 x    96 x    72          50407059456     100.0%      0.0%      0.0%
 flops   338 x    96 x   338          57907998720     100.0%      0.0%      0.0%
 flops    13 x    13 x    64          58005083136       0.0%    100.0%      0.0%
 flops    13 x    13 x    72          65255718528       0.0%    100.0%      0.0%
 flops    13 x    26 x    64          66725721088       0.0%    100.0%      0.0%
 flops    26 x    13 x    64          66919716864       0.0%    100.0%      0.0%
 flops    13 x    26 x    72          75066436224       0.0%    100.0%      0.0%
 flops    26 x    13 x    72          75284681472       0.0%    100.0%      0.0%
 flops    26 x    26 x    64          79152353280       0.0%    100.0%      0.0%
 flops    26 x    26 x    72          89046397440       0.0%    100.0%      0.0%
 flops    96 x    96 x    64          99288612864       0.0%    100.0%      0.0%
 flops    64 x    96 x    96          99288612864       0.0%    100.0%      0.0%
 flops    96 x    64 x    96          99288612864       0.0%    100.0%      0.0%
 flops     5 x    32 x    13         109745475840       0.0%    100.0%      0.0%
 flops    13 x    32 x     5         109745475840       0.0%    100.0%      0.0%
 flops    96 x    96 x    72         111699689472       0.0%    100.0%      0.0%
 flops    72 x    96 x    96         111699689472       0.0%    100.0%      0.0%
 flops    96 x    72 x    96         111699689472       0.0%    100.0%      0.0%
 flops     5 x    32 x    26         127446359040       0.0%    100.0%      0.0%
 flops    26 x    32 x     5         127446359040       0.0%    100.0%      0.0%
 flops    64 x    96 x   335         211274219520       0.0%    100.0%      0.0%
 flops    96 x    64 x   335         211274219520       0.0%    100.0%      0.0%
 flops    72 x    96 x   335         237683496960     100.0%      0.0%      0.0%
 flops    96 x    72 x   335         237683496960     100.0%      0.0%      0.0%
 flops    96 x    96 x   338         274070863872     100.0%      0.0%      0.0%
 flops   335 x    64 x   335         309705088000     100.0%      0.0%      0.0%
 flops   335 x    96 x    64         310860103680       0.0%    100.0%      0.0%
 flops   335 x    64 x    96         310860103680       0.0%    100.0%      0.0%
 flops   335 x    72 x   335         348418224000     100.0%      0.0%      0.0%
 flops   335 x    96 x    72         349717616640     100.0%      0.0%      0.0%
 flops   335 x    72 x    96         349717616640     100.0%      0.0%      0.0%
 flops   335 x    96 x   338         401758156800     100.0%      0.0%      0.0%
 flops   338 x    96 x   335         401758156800     100.0%      0.0%      0.0%
 flops   338 x    96 x    96         403256475648     100.0%      0.0%      0.0%
 flops    13 x    13 x    96         522045748224       0.0%    100.0%      0.0%
 flops    13 x    26 x    96         600531489792       0.0%    100.0%      0.0%
 flops    26 x    13 x    96         602277451776       0.0%    100.0%      0.0%
 flops    26 x    26 x    96         712371179520       0.0%    100.0%      0.0%
 flops    96 x    96 x    96         893597515776       0.0%    100.0%      0.0%
 flops    13 x    32 x    13        1887571610496       0.0%    100.0%      0.0%
 flops    96 x    96 x   335        1901467975680     100.0%      0.0%      0.0%
 flops    26 x    32 x    13        2197972142080       0.0%    100.0%      0.0%
 flops    13 x    32 x    26        2197972142080       0.0%    100.0%      0.0%
 flops    26 x    32 x    26        2556209829888       0.0%    100.0%      0.0%
 flops   335 x    96 x   335        2787345792000     100.0%      0.0%      0.0%
 flops   335 x    96 x    96        2797740933120     100.0%      0.0%      0.0%
 flops inhomo. stacks                           0       0.0%      0.0%      0.0%
 flops total                        27.016755E+12      41.6%     58.4%      0.0%
 flops max/rank                    490.400540E+09      43.4%     56.6%      0.0%
 matmuls inhomo. stacks                         0       0.0%      0.0%      0.0%
 matmuls total                          615173713       0.2%     99.8%      0.0%
 number of processed stacks               9963267      13.9%     86.1%      0.0%
 average stack size                                     1.0      71.6       0.0
 marketing flops                    30.243687E+12
 -------------------------------------------------------------------------------
 # multiplications                           7363
 max memory usage/rank             812.871680E+06
 # max total images/rank                        1
 # max 3D layers                                1
 # MPI messages exchanged                 6597248
 MPI messages size (bytes):
  total size                         1.464350E+12
  min size                           0.000000E+00
  max size                         913.952000E+03
  average size                     221.963703E+03
 MPI breakdown and total messages size (bytes):
             size <=      128               18032                        0
       128 < size <=     8192                   0                        0
      8192 < size <=    32768               46102               1502692352
     32768 < size <=   131072             2855034             182304525312
    131072 < size <=  4194304             3678080            1280753593112
   4194304 < size <= 16777216                   0                        0
  16777216 < size                               0                        0
 -------------------------------------------------------------------------------
 
 MEMORY| Estimated peak process memory [MiB]                                 776

 -------------------------------------------------------------------------------
 -                                                                             -
 -                         MESSAGE PASSING PERFORMANCE                         -
 -                                                                             -
 -------------------------------------------------------------------------------

 ROUTINE             CALLS      AVE VOLUME [Bytes]
 MP_Group              626
 MP_Bcast            27951                  40496.
 MP_Allreduce       110639                    422.
 MP_Sync               464
 MP_Alltoall         34025                 801666.
 MP_SendRecv          8072                 449932.
 MP_ISendRecv       155358                  29184.
 MP_Wait            871948
 MP_comm_split         459
 MP_ISend           354838                 125367.
 MP_IRecv           354838                 124202.
 MP_Recv                75                 123648.
 MP_Memory          297108
 -------------------------------------------------------------------------------


 -------------------------------------------------------------------------------
 -                                                                             -
 -                           R E F E R E N C E S                               -
 -                                                                             -
 -------------------------------------------------------------------------------
 
 CP2K version 6.1, the CP2K developers group (2018).
 CP2K is freely available from https://www.cp2k.org/ .

 Schuett, Ole; Messmer, Peter; Hutter, Juerg; VandeVondele, Joost. 
 Electronic Structure Calculations on Graphics Processing Units, John Wiley & Sons, Ltd, 173-190 (2016). 
 GPU-Accelerated Sparse Matrix-Matrix Multiplication for Linear Scaling Density Functional Theory.
 http://dx.doi.org/10.1002/9781118670712.ch8


 Borstnik, U; VandeVondele, J; Weber, V; Hutter, J. 
 PARALLEL COMPUTING, 40 (5-6), 47-58 (2014). 
 Sparse matrix multiplication: The distributed block-compressed sparse
 row library.
 http://dx.doi.org/10.1016/j.parco.2014.03.012


 Hutter, J; Iannuzzi, M; Schiffmann, F; VandeVondele, J. 
 WILEY INTERDISCIPLINARY REVIEWS-COMPUTATIONAL MOLECULAR SCIENCE, 4 (1), 15-25 (2014). 
 CP2K: atomistic simulations of condensed matter systems.
 http://dx.doi.org/10.1002/wcms.1159


 Grimme, S; Ehrlich, S; Goerigk, L. 
 JOURNAL OF COMPUTATIONAL CHEMISTRY, 32, 1456 (2011). 
 Effect of the damping function in dispersion corrected density functional theory.
 http://dx.doi.org/10.1002/jcc.21759


 Grimme, S; Antony, J; Ehrlich, S; Krieg, H. 
 JOURNAL OF CHEMICAL PHYSICS, 132 (15), 154104 (2010). 
 A consistent and accurate ab initio parametrization of density
 functional dispersion correction (DFT-D) for the 94 elements H-Pu.
 http://dx.doi.org/10.1063/1.3382344


 VandeVondele, J; Hutter, J. 
 JOURNAL OF CHEMICAL PHYSICS, 127 (11), 114105 (2007). 
 Gaussian basis sets for accurate calculations on molecular systems in
 gas and condensed phases.
 http://dx.doi.org/10.1063/1.2770708


 Krack, M. 
 THEORETICAL CHEMISTRY ACCOUNTS, 114 (1-3), 145-152 (2005). 
 Pseudopotentials for H to Kr optimized for gradient-corrected
 exchange-correlation functionals.
 http://dx.doi.org/10.1007/s00214-005-0655-y


 VandeVondele, J; Krack, M; Mohamed, F; Parrinello, M; Chassaing, T;
 Hutter, J. COMPUTER PHYSICS COMMUNICATIONS, 167 (2), 103-128 (2005). 
 QUICKSTEP: Fast and accurate density functional calculations using a
 mixed Gaussian and plane waves approach.
 http://dx.doi.org/10.1016/j.cpc.2004.12.014


 Frigo, M; Johnson, SG. 
 PROCEEDINGS OF THE IEEE, 93 (2), 216-231 (2005). 
 The design and implementation of FFTW3.
 http://dx.doi.org/10.1109/JPROC.2004.840301


 VandeVondele, J; Hutter, J. 
 JOURNAL OF CHEMICAL PHYSICS, 118 (10), 4365-4369 (2003). 
 An efficient orbital transformation method for electronic structure
 calculations.
 http://dx.doi.org/10.1063/1.1543154


 Hartwigsen, C; Goedecker, S; Hutter, J. 
 PHYSICAL REVIEW B, 58 (7), 3641-3662 (1998). 
 Relativistic separable dual-space Gaussian pseudopotentials from H to Rn.
 http://dx.doi.org/10.1103/PhysRevB.58.3641


 Dudarev, SL; Botton, GA; Savrasov, SY; Humphreys, CJ; Sutton, AP. 
 PHYSICAL REVIEW B, 57 (3), 1505-1509 (1998). 
 Electron-energy-loss spectra and the structural stability of
 nickel oxide: An LSDA+U study.
 http://dx.doi.org/10.1103/PhysRevB.57.1505


 Lippert, G; Hutter, J; Parrinello, M. 
 MOLECULAR PHYSICS, 92 (3), 477-487 (1997). 
 A hybrid Gaussian and plane wave density functional scheme.
 http://dx.doi.org/10.1080/002689797170220


 Dudarev, SL; Manh, DN; Sutton, AP. 
 PHILOSOPHICAL MAGAZINE B, 75 (5), 613-628 (1997). 
 Effect of Mott-Hubbard correlations on the electronic
 structure and structural stability of uranium dioxide.
 http://dx.doi.org/10.1080/13642819708202343


 Perdew, JP; Burke, K; Ernzerhof, M. 
 PHYSICAL REVIEW LETTERS, 77 (18), 3865-3868 (1996). 
 Generalized gradient approximation made simple.
 http://dx.doi.org/10.1103/PhysRevLett.77.3865


 Goedecker, S; Teter, M; Hutter, J. 
 PHYSICAL REVIEW B, 54 (3), 1703-1710 (1996). 
 Separable dual-space Gaussian pseudopotentials.
 http://dx.doi.org/10.1103/PhysRevB.54.1703


 -------------------------------------------------------------------------------
 -                                                                             -
 -                                T I M I N G                                  -
 -                                                                             -
 -------------------------------------------------------------------------------
 SUBROUTINE                       CALLS  ASD         SELF TIME        TOTAL TIME
                                MAXIMUM       AVERAGE  MAXIMUM  AVERAGE  MAXIMUM
 CP2K                                 1  1.0    0.270    0.361 4100.092 4100.136
 cp_geo_opt                           1  2.0    0.013    0.014 4096.438 4096.483
 geoopt_bfgs                          1  3.0    0.112    0.160 4096.425 4096.470
 cp_eval_at                           7  4.0    0.024    0.027 4093.288 4093.344
 qs_energies                          7  5.9    0.026    0.029 3930.768 3930.823
 qs_forces                            6  5.0    0.018    0.020 3877.654 3877.695
 scf_env_do_scf                       7  6.9    0.012    0.014 3819.560 3819.598
 scf_env_do_scf_inner_loop          295  7.9    0.060    0.131 3680.828 3680.867
 qs_rho_update_rho                  302  9.0    0.013    0.014 2378.027 2378.054
 calculate_rho_elec                 604 10.0 1994.116 2216.475 2378.014 2378.043
 rebuild_ks_matrix                  301  9.9    0.014    0.016 1264.988 1265.065
 qs_ks_build_kohn_sham_matrix       301 10.9    0.170    0.179 1264.974 1265.053
 qs_ks_update_qs_env                302  8.9    0.019    0.021 1118.204 1118.275
 sum_up_and_integrate               109 11.8    1.198    1.205  936.461  936.590
 integrate_v_rspace                 218 12.8  760.893  875.688  935.262  935.384
 density_rs2pw                      604 11.0    0.112    0.118  369.042  861.192
 rs_pw_transfer                    4123 12.7    0.175    0.186  359.288  851.125
 mp_waitany                      119278 14.7  258.970  759.554  258.970  759.554
 rs_pw_transfer_RS2PW_200           611 12.9   27.740   32.255  263.132  753.728
 rs_distribute_matrix               834 11.7    2.833    5.481  124.754  326.187
 mp_alltoall_d11v                  7165 15.9  121.376  324.695  121.376  324.695
 qs_vxc_create                      301 11.9    0.018    0.022  308.647  308.671
 qs_scf_new_mos                     295  8.9    0.008    0.009  304.266  304.608
 qs_scf_loop_do_ot                  295  9.9    0.011    0.013  304.258  304.600
 ot_scf_mini                        295 10.9    0.066    0.071  291.575  292.039
 xc_rho_set_and_dset_create         301 13.9    8.771    8.860  245.343  249.199
 cp_fm_syevd                        459 14.6    0.015    0.022  229.405  229.535
 cp_fm_redistribute_end             459 15.6  162.578  226.861  162.982  227.009
 cp_fm_syevd_base                   459 15.4   63.833  224.829   63.833  224.829
 qs_ot_get_p                        604 11.9    0.020    0.022  206.149  207.518
 cp_dbcsr_syevd                     439 13.8    0.181    0.197  190.790  190.826
 qs_ot_p2m_diag                     411 13.0    1.527    1.811  187.698  188.086
 pw_nn_compose_r                   3280 14.6  162.408  163.108  167.677  169.314
 xc_exc_calc                        192 12.9    0.731    0.733  158.956  158.964
 xc_vxc_pw_create                   109 12.8   10.766   10.886  149.673  149.696
 qs_ks_update_qs_env_forces           6  6.0    0.000    0.000  147.328  147.333
 init_scf_loop                        7  7.9    0.008    0.011  138.628  138.631
 dbcsr_multiply_generic            7363 13.6    1.665    1.709  126.756  129.267
 xc_functional_eval                 301 14.9    0.007    0.007  110.691  114.550
 pbe_lsd_eval                       301 15.9  110.684  114.543  110.684  114.543
 multiply_cannon                   7363 14.6    6.121    6.378   83.726   89.855
 -------------------------------------------------------------------------------

 The number of warnings for this run is : 4
 
 -------------------------------------------------------------------------------
  **** **** ******  **  PROGRAM ENDED AT                 2020-10-29 17:37:35.549
 ***** ** ***  *** **   PROGRAM RAN ON                                 irene3045
 **    ****   ******    PROGRAM RAN BY                                  marticar
 ***** **    ** ** **   PROGRAM PROCESS ID                                263238
  **** **  *******  **  PROGRAM STOPPED IN /ccc/scratch/cont003/gen0609/marticar
                                           /5723192
