46

Cu      0.578202396057928     -0.177844079188671     15.201979727422987
Cu      2.917059242791898     -0.027755439990077     15.497577043916154
Cu      5.344985762083857      0.128382904684214     15.746648965735714
Cu      1.525380496032971      2.000463699373823     15.239265758193328
Cu      3.927512033501454      2.172513768989258     15.452576013799208
Cu      6.364358021642157      2.283378336084616     15.529904254153804
Cu      2.572654744260117      4.262843731164714     15.299471928943202
Cu      4.955024631383621      4.413023304902625     15.362684704330684
Cu      7.381256474532304      4.431617723738811     15.125344134141994
Cu      1.404931951081111      0.613368301811779     17.310831215545210
Cu      3.932849945295362      0.841789318088689     17.568726898758857
Cu      6.392014898463416      1.131865998005333     17.778918833565481
Cu      2.472637219941422      2.941047309332913     17.298433379027539
Cu      5.055611599577635      3.120337467550848     17.487345235050192
Cu      7.606300205070447      3.314842096419912     17.330316196546882
Cu      3.674963544369764      5.135640046150580     17.506997394022587
Cu      6.319804669532621      5.343040032030805     17.113817395442240
Cu      8.744894955278967      5.403588361828852     16.814561043463993
Cu      0.170712793836140      2.268246431290939     18.573941092924990
Cu      2.446192917240718      1.641304580944063     19.298658138767909
Cu      4.864166898690949      1.207463063171841     19.833564386741344
Cu      1.558348715175200      4.145129174849707     19.195227353872745
Cu      3.902789630111740      3.553585719572304     19.610356139291831
Cu      6.489166626570909      3.060003971100196     19.514689891258332
Cu      3.131519951897219      5.911924164535250     19.820312467633492
Cu      5.472399353598446      5.379127478236812     19.351760732467412
Cu      7.883908183449631      5.082496972705624     19.007526688761587
Cu      0.632081600850366      0.171328983985938     19.718967495792803
Cu      2.818108071565037     -0.100117333687011     20.861285798221989
Cu      4.802403674008691      0.360107357431429     22.106112208644468
Cu      0.868243274588236      2.391890586928504     20.919112638476257
Cu      3.309218254513993      2.195076094212108     21.585272739528907
Cu      5.723941351400474      2.607092493617418     21.784419504466829
Cu      2.191741117748177      4.371956917304934     21.500364095938341
Cu      4.573632411194651      4.793158046704974     21.602316025171749
Cu      6.958615520011501      4.775835343768019     21.207291548047291
O       6.621703987609352      2.356419789236097     23.443665987664797
C       6.492047052991669      3.396449708241398     24.168338468752832
C       7.699534512907009      4.137651773746055     24.643007936305938
C       5.165814969774505      3.934633021810733     24.583790875004862
H       7.900494186214574      4.992001416682455     23.971985414134153
H       7.505260713749755      4.538611328908377     25.645884394981874
H       8.576843667575643      3.479902524319159     24.653942119247208
H       4.375317733874129      3.185741422573087     24.453858600278615
H       4.909568166928801      4.826003019498352     23.969555757674460
H       5.223518230659877      4.271573324933107     25.627985786290886
