46

Cu      0.418451732215418     -0.227904824660415     15.324868399181756
Cu      2.767491305624899     -0.136193476532641     15.599225386573895
Cu      5.205217508609111     -0.030457409599463     15.790580268800564
Cu      1.438248120417974      1.917266357468968     15.245697989647290
Cu      3.847021446419233      2.029599782141132     15.412479296351854
Cu      6.310133854295480      2.075888717004986     15.446934852762411
Cu      2.554895953801906      4.147559846044731     15.201691534023965
Cu      4.938944789266308      4.236482493468781     15.186583681994261
Cu      7.377178458202849      4.199218514342454     14.963155538601015
Cu      1.280333755170999      0.639080468989772     17.383478156762280
Cu      3.837244299975624      0.804565718124131     17.598354786726990
Cu      6.314991317137073      1.034810568170839     17.757307884315193
Cu      2.435091753256484      2.911107000170666     17.258887329652353
Cu      5.030340418003649      3.039907983738763     17.358896823218355
Cu      7.602507687608953      3.173717206185152     17.185941169057720
Cu      3.699591001168633      5.079705669774960     17.333915520745936
Cu      6.331103382636071      5.209546926415467     16.913627817323086
Cu      8.759876087947955      5.235744054636852     16.606822551174535
Cu      0.073211903247951      2.314660739192018     18.635100013616576
Cu      2.373958391395988      1.684911089030780     19.318861503464205
Cu      4.805688453552518      1.198722289902254     19.832026780694076
Cu      1.551579092995708      4.144745423607330     19.159709297149540
Cu      3.914019430113901      3.546745046418923     19.488532777976413
Cu      6.480226743734063      3.019537153215847     19.353013257243706
Cu      3.152388070459041      5.921615837027889     19.630552185036208
Cu      5.500483788366312      5.352329811419835     19.154412664511298
Cu      7.907520772784745      4.993195793731939     18.822930108764016
Cu      0.557664353055586      0.261085999665835     19.835911850720350
Cu      2.771488036654812      0.013141438977182     20.968932175749302
Cu      4.831899925301681      0.537175355087988     22.177245235395695
Cu      0.844772672871912      2.525878646308587     20.958212440290829
Cu      3.276024840864997      2.315131834383005     21.561639990868898
Cu      5.662808830355107      2.742208711318880     21.610471948305612
Cu      2.206058048572107      4.520745800438968     21.439431314430330
Cu      4.583343591508008      4.930685340727649     21.406800585578146
Cu      6.960869300263094      4.742745704882310     21.042068560114977
O       5.217166773418609     -0.800187390949113     23.424885515754806
C       4.393324950449263     -1.155700112139799     24.314590881434473
C       3.151509119314098     -0.391918033616838     24.615732170268654
C       4.644582698947579     -2.412522457253508     25.089894967204426
H       2.322993796713395     -0.772725118536116     23.996143616061996
H       2.885989477047914     -0.540551454939864     25.669546639915737
H       3.274595135954497      0.679850800516584     24.407649001315601
H       5.717811023031522     -2.618287714111290     25.141576775502898
H       4.137658762254550     -3.256048830848685     24.598674737527372
H       4.225845502642573     -2.311919334607215     26.095586431821406
