46

Cu      0.586831257537551     -0.101577101206820     15.158224871603379
Cu      2.932808857241000      0.050587345072816     15.401385251849614
Cu      5.361149296586396      0.222545034605166     15.652335880819935
Cu      1.532987263426400      2.080572423390913     15.208527178875675
Cu      3.923948710915424      2.266282530827825     15.472763663877759
Cu      6.349131608031337      2.406520552479827     15.561297897526300
Cu      2.556742483829883      4.360114953519181     15.351680712220844
Cu      4.915040481597448      4.507836771817884     15.555175218322864
Cu      7.330256886467831      4.598616325276915     15.256405333584928
Cu      1.442538819126348      0.671563537642385     17.258535197178634
Cu      3.943325527836604      0.822041085859874     17.509826208870621
Cu      6.448796101700854      1.139521987957874     17.708963054298401
Cu      2.454995769102064      2.999648777703745     17.284086071995869
Cu      5.024665556184292      3.086831565205467     17.616495413672936
Cu      7.636054410542420      3.361448677493458     17.366329835307916
Cu      3.686877226064876      5.128794384397358     17.732586130976834
Cu      6.294554610584004      5.356720476553423     17.325401795744295
Cu      8.713159684527541      5.507668846028168     16.961935245502143
Cu      0.236688203371317      2.351956756376875     18.541459391164157
Cu      2.508634168528609      1.710878029808783     19.267438874508699
Cu      4.924369504065476      1.197788236612763     19.725621045500169
Cu      1.714582949102902      4.169305283690303     19.280097845446470
Cu      4.028891737761897      3.550284249762691     19.856034412608082
Cu      6.587994351380646      3.009435175802199     19.541631990117857
Cu      3.228684391917509      5.916635236048349     20.048996215637775
Cu      5.575056918545982      5.371692677094487     19.600682372798275
Cu      7.944574456682362      5.024667227362160     19.163500326294059
Cu      0.725903202308368      0.206149950966102     19.638725563828018
Cu      3.036559594030686     -0.267696784223525     20.520059596337518
Cu      4.918227897935903      0.269947008521178     21.958524439343009
Cu      0.863870441330483      2.425344819189475     20.897517622318823
Cu      3.213558867091292      1.923507635083596     21.589164708524205
Cu      5.546714749231110      2.616774596806931     21.705387539334929
Cu      2.343059283398847      4.233850945537216     21.633456194107005
Cu      4.677466887726640      4.944340394378617     21.836911473694474
Cu      7.058901657669248      4.555556981876372     21.408295397741281
O       8.107066561652376      5.118067332020446     22.849988046223935
C       7.738871990035164      5.747412858593136     23.878746659881642
C       8.790173764810046      6.277888967873801     24.806852306770914
C       6.314347550525217      6.021849812831174     24.205591332432448
H       9.138204446914894      7.258294799251596     24.452839026908681
H       8.368239232596025      6.404066111227863     25.806401934401269
H       9.645552078104675      5.595995017590061     24.831555088178362
H       5.643500825720385      5.200080408593549     23.883699403720499
H       5.992949231035182      6.954546398112470     23.717295750267201
H       6.212195497588604      6.149654082495692     25.290153366951369
