46

Cu      0.337093940559212     -0.500963198210002     16.024376450493641
Cu      2.727399605723524     -0.299556457529137     15.788291922021271
Cu      5.189935178019739     -0.019325891976757     15.622071910436775
Cu      1.228415240139728      1.685486497202394     15.999301356854081
Cu      3.668852722012732      1.934367853857788     15.717580741623731
Cu      6.093157099074073      2.204343357604081     15.430924734880282
Cu      2.173818707316859      3.933549306829767     16.013742766172221
Cu      4.586692789853964      4.185650854360819     15.463757473189997
Cu      6.989399576537282      4.387361121268398     14.933355061799553
Cu      1.635467835168340      0.161519018970773     17.901292476499169
Cu      4.115403127569083      0.457836105447071     17.699385008400522
Cu      6.567394723232226      0.984770369812896     17.515695391716925
Cu      2.632780111279140      2.435146213307223     17.906009201100574
Cu      5.084287144522174      2.897969614831393     17.677579535888338
Cu      7.566104746919639      3.265040225490139     17.059630186612026
Cu      3.686804720027257      4.928435032259168     17.624297815846340
Cu      6.137111782784966      5.205275795742742     17.035421197522236
Cu      8.503740342156529      5.418958397508468     16.498582011793623
Cu      0.249823117114168      2.178890513206289     18.255222677360575
Cu      2.941268152386013      0.862174472954455     19.904246485686816
Cu      5.327022668247968      1.163076764342487     19.655184591754434
Cu      1.571708118356435      4.457009891871107     18.805802783864248
Cu      3.714531959588815      3.424964986711998     19.814636362974984
Cu      6.941383661771075      2.920532116276005     19.371493603370549
Cu      3.305124432270401      6.029459240299185     19.725060177769961
Cu      5.513483104927283      4.969176395046186     19.335681779926407
Cu      7.907892090795618      5.064139565151308     18.791829463364881
Cu      0.488290284711869      0.425700924939954     19.994572015844430
Cu      1.708842053386382      0.731331149353523     22.064582299787563
Cu      4.451228581294737      0.665076859083816     21.859002869933953
Cu      1.347981600492389      2.619423938970855     20.416830179799565
Cu      3.191535060966034      2.750136019731901     22.094129565949554
Cu      5.593009342922063      2.795303581616061     21.410040906795100
Cu      2.061471165634111      4.769855231812748     21.295098195066334
Cu      4.543086717234259      4.964177779145045     21.599030327107076
Cu      7.064084159998671      4.705419153064789     21.116176311330449
O       3.923141382116808     -0.339330682030078     23.350995160604349
C       2.725728778627292      0.024824798528249     23.737026530701762
C       2.521159030855727      1.306741644901972     24.510902664064815
C       1.690865870127508     -1.049339922909073     23.976272098970771
H       1.536111950003824      1.745691664170204     24.298760646509265
H       2.547258850498877      1.073486504123277     25.584001605905144
H       3.299206031528889      2.051136436516545     24.286037637862322
H       2.070652203443234     -2.018710961543301     23.639967225192603
H       0.735840683996917     -0.845885414826494     23.463722995506103
H       1.472651231597220     -1.096842654589116     25.050980512038553
