46

Cu      0.178743407212491      0.011049346708964     15.573762711284575
Cu      2.549453355490336      0.066849743876988     15.624878142395879
Cu      4.990114211034832      0.150975159012599     15.655726839245565
Cu      1.207030400696789      2.154949503588689     15.555835827124609
Cu      3.610799466903641      2.241324836340707     15.504902259991136
Cu      6.058513789509283      2.265262931752322     15.305527646521901
Cu      2.344077312938518      4.377766712810474     15.525928385306587
Cu      4.716555042517753      4.443793706067118     15.268165727714084
Cu      7.120131202122297      4.386893257232984     14.836281824661228
Cu      1.256438658720266      0.746812142352052     17.581577559137216
Cu      3.789436362434617      0.910133938673754     17.601012939000007
Cu      6.264137440355997      1.119488019267898     17.573174426409107
Cu      2.371952363073858      3.054786979740955     17.538344637654060
Cu      4.975556781004466      3.147295371068993     17.362989408323905
Cu      7.504936357758872      3.259162324716012     16.990235844856613
Cu      3.698900202712159      5.215259397067489     17.535428390017522
Cu      6.256355522762758      5.330277944155149     16.915342782790823
Cu      8.642738352154574      5.329227206466856     16.403538363155679
Cu      0.155311422995830      2.247144487189295     19.115356937914349
Cu      2.506396290974834      1.670406052643122     19.505287070999831
Cu      4.965067808005530      1.205738780275880     19.775024965478298
Cu      1.617762625492416      4.067962841518373     19.661435783917803
Cu      4.019050701179945      3.547773091758359     19.559507513802764
Cu      6.580394247822049      3.038071908383555     19.248180506490094
Cu      3.277349853167307      5.855676700087415     19.932459134440052
Cu      5.605064615551142      5.372357044383827     19.230038372521488
Cu      7.969907770300575      5.012627226173014     18.671182436212984
Cu      0.826397729682291      0.072903087041769     19.980313584904774
Cu      3.009243282878426      0.029851645383615     21.146236838448328
Cu      5.188810336183693      0.441031767242478     22.070804832705672
Cu      1.203320388790183      2.215780035668352     21.420671840287014
Cu      3.681289352202825      2.300013942033755     21.664171131564135
Cu      6.069280371874044      2.624201160857043     21.573210663592878
Cu      2.508185292088464      4.428804651891504     21.853592398336968
Cu      4.885187856875446      4.751392957252044     21.506028186896177
Cu      7.239988324318840      4.687255099131958     20.953052686761424
O       0.129515975686125      2.149335973317730     22.952173921453788
C       0.086726687774155      2.935813289630451     23.931788017732270
C       1.024662996692705      4.085127435259629     24.085376647960423
C      -0.958631004984398      2.719879233242830     24.985333479497129
H       0.829270144955811      4.861678529888839     23.320163550983121
H       0.866279495152464      4.542416974482836     25.068268098589296
H       2.076044728039673      3.746438699476314     24.035236069559097
H      -1.121584180620966      1.649164650404743     25.143888538929971
H      -1.907141476596726      3.171318179489183     24.662687174882620
H      -0.643680326348268      3.200326706065185     25.914459918188935
