46

Cu      0.359832869835172     -0.320829916719024     15.479065507565450
Cu      2.727470806605229     -0.198075938089522     15.609156999197213
Cu      5.189232785854769     -0.036200416762761     15.681772811985356
Cu      1.355343308767625      1.838306179239993     15.445900242194721
Cu      3.781648828881457      1.992455004730711     15.446255970408300
Cu      6.233588569844599      2.117524032147411     15.400681630486659
Cu      2.428263049057790      4.078823829460057     15.399865100965652
Cu      4.809402029925768      4.244152294785433     15.302483224569517
Cu      7.226157870315798      4.277210064313000     14.964919937147210
Cu      1.329128604397419      0.486093961495967     17.511030483292547
Cu      3.889078347667132      0.678950899218728     17.574069920177880
Cu      6.379718558523666      0.971225535100793     17.636369354147973
Cu      2.484057921100720      2.768538790854689     17.430503924333362
Cu      5.028193399820947      2.951656080844706     17.411362561215316
Cu      7.588573760221739      3.157086288370022     17.134356873758403
Cu      3.655625760835771      5.006905180244817     17.482363098705438
Cu      6.262643887402847      5.163194909638820     17.013805338211558
Cu      8.659110614415310      5.274649972571008     16.602151412898387
Cu      0.318588720121133      2.371258071090713     18.640829530409729
Cu      2.529305231222505      1.386760767908717     19.476443565146081
Cu      4.965102395185756      1.181548859982181     19.714513303786394
Cu      1.631636320007417      4.332199137239294     19.122018945958789
Cu      3.893916885674934      3.478405243208411     19.510057147678310
Cu      6.573287270456224      2.955435318556940     19.345177410195554
Cu      3.324036915509891      5.951237227464984     19.770050242899529
Cu      5.580059763290500      5.246871988095243     19.291142753231345
Cu      7.962584810474134      4.913346366699720     18.857024175374981
Cu      0.421422851980978      0.318244081779772     19.901207349906940
Cu      2.125451721701767      0.320399381102351     21.661770101067432
Cu      4.604394785928675      0.392016879373006     22.008375571316275
Cu      1.012109510731650      2.494069309137475     20.973736644310282
Cu      3.381366487130585      2.443213358838455     21.647244337353886
Cu      5.802237211739108      2.505093537448725     21.622020945667188
Cu      2.231339567953567      4.574804156603931     21.453151477422413
Cu      4.663514759607058      4.683384366041229     21.496440668322013
Cu      7.064606922422104      4.555904143449809     21.115094767409712
O       3.289306471442233     -0.729740570099101     22.820503388392346
C       2.905743742148771     -1.041677272936684     24.008560728405570
C       1.736700798130812     -0.373566462059992     24.605610339152474
C       3.636702533022606     -2.110422220437670     24.725348344635321
H       0.806456554528112     -0.658718257957204     24.087083084882995
H       1.655521110570310     -0.672906255332518     25.655368689795115
H       1.832581712952069      0.722296013942546     24.549640419356589
H       4.721510443187098     -1.933558567363716     24.705365835485942
H       3.444071730749102     -3.092957543302909     24.264599244136086
H       3.292559550773695     -2.139709745506227     25.764088680179963
