46

Cu      0.382451975176446     -0.088892885430668     15.085688141376091
Cu      2.736608329570076      0.043716336551974     15.258550335592330
Cu      5.182502670278307      0.204426257138963     15.403299212822535
Cu      1.353402529540343      2.078716399830503     15.125220876799405
Cu      3.754546341194915      2.251891019171558     15.313194431939225
Cu      6.180411306868663      2.397874751443188     15.340620675293540
Cu      2.368359113945527      4.330212570084987     15.265969687901674
Cu      4.718402120920178      4.519327624088544     15.497720159123137
Cu      7.114980767789711      4.614447159947360     15.105942401344302
Cu      1.299112566474376      0.681029532974042     17.169401536610611
Cu      3.836379227030007      0.754759599478429     17.323943903659671
Cu      6.343110459961268      1.038809734826352     17.452840355299411
Cu      2.366496185790329      2.949127804379859     17.208630365947730
Cu      4.929355728454185      2.984115055482054     17.429393885205549
Cu      7.571544631391589      3.265705382800282     17.108553499558099
Cu      3.653026110035689      5.052611350115268     17.772428084026444
Cu      6.192031836890063      5.223624556144351     17.286192597808306
Cu      8.582409807298111      5.454306206579654     16.773109687361991
Cu      0.248379486926619      2.285336090286632     18.710275408104948
Cu      2.524019929203107      1.588896968415832     19.176517325824527
Cu      4.904674334179491      1.000340111484806     19.548242162194502
Cu      1.742686800260831      4.126679898826879     19.219640666510408
Cu      4.062380847019800      3.392973341981786     19.709380437345345
Cu      6.553352073181970      2.862562106162236     19.278304823738420
Cu      3.318073496464975      5.724413423380569     20.171573678218792
Cu      5.632555245678376      5.226098475153329     19.618990966189852
Cu      7.972576555861999      4.857395558696782     18.984492690661604
Cu      0.703812364576465      0.019745016301498     19.491781006700315
Cu      2.846201396772702     -0.257864114340029     20.661631116372188
Cu      4.992424937907121     -0.044140366545246     21.736749387991814
Cu      1.072508156112390      1.911133471580775     21.026926978125989
Cu      3.524753738321917      1.874296894182257     21.564934728749645
Cu      5.913682194403374      2.185991551479336     21.510828449329896
Cu      2.302954915432615      3.962687446816388     21.555365617881826
Cu      4.793429404661378      4.365879036142285     21.832268186189829
Cu      7.194991759068636      4.233847672372551     21.204296163434304
O       4.675210641411068      5.198832007630368     23.519836580182876
C       3.780269025099479      4.838544086813718     24.338438417073448
C       3.019635678293816      5.865952164026070     25.117042846335924
C       3.422000942239535      3.412746825564847     24.579918057841965
H       2.027464640145668      6.012416775345051     24.661684396769491
H       2.862389897536885      5.503314095279335     26.139277539939037
H       3.559453957262257      6.817995425095400     25.122069183317237
H       4.236117974480885      2.743667453346784     24.277853656355759
H       2.517328794246001      3.146781975860700     23.998032593308142
H       3.180736703195395      3.275681836700520     25.641530264195183
