46

Cu      0.569359444847718      0.116426454862267     14.816142905267862
Cu      2.911531048421184      0.174886232775960     15.147292546842976
Cu      5.345583552454844      0.247334395830043     15.462658932818975
Cu      1.567444729013725      2.254541867227026     15.141182567813839
Cu      3.965209770535543      2.343403092898304     15.398743534809135
Cu      6.395954206201635      2.403824449278423     15.553294544103435
Cu      2.647943549653434      4.464082584267928     15.508807416087654
Cu      5.015207142453786      4.561626561213418     15.641573816230320
Cu      7.435400826469467      4.585767350319790     15.455807483211858
Cu      1.387707999447934      0.624166834786064     17.008864064706039
Cu      3.916278293296309      0.754714441228500     17.321309044700399
Cu      6.364252865544020      0.991036470515888     17.640270248704024
Cu      2.507556933504751      2.896619555577474     17.324596021698280
Cu      5.056253093468974      3.003744139055085     17.577192194828829
Cu      7.628830752091837      3.186017802256763     17.481502778068677
Cu      3.717789767612004      5.056750548043583     17.829258392689901
Cu      6.341970174053463      5.220949273145432     17.549253013888709
Cu      8.781639132580462      5.309639366703034     17.273822640027916
Cu      0.241350662458585      2.247234830357743     18.399252968865927
Cu      2.431086952128608      1.310521108363005     19.141075508496055
Cu      4.800421913507227      0.947544856288955     19.647607400538138
Cu      1.567102850162038      4.056721867541213     19.254968468413818
Cu      3.838670246261535      3.283791660165252     19.672342893805425
Cu      6.478213042754327      2.735003313092661     19.606672918330766
Cu      3.174369483486975      5.633047887789894     20.204196252052906
Cu      5.501796115393926      5.059085496502600     19.793305059054802
Cu      7.899614331959944      4.718274798081472     19.403136358336550
Cu      0.416359472523275      0.003872798732011     19.289352746660569
Cu      2.199538092456283     -0.253589299860892     20.939391005807412
Cu      4.468381262413068     -0.162696825508073     21.785107499543258
Cu      0.856061200812555      1.981966203852283     20.770150596057459
Cu      3.218431787176697      1.847389555821997     21.525023526400386
Cu      5.624722815538922      1.997166456343029     21.763511848420205
Cu      2.038456071474066      3.977857787034269     21.611696030413949
Cu      4.453139986452693      4.167833147071868     21.890456138516452
Cu      6.934669875756781      4.138421007883569     21.567803273860296
O       7.630379159162747      4.579897524770244     23.269114682316552
C       6.874868288553422      3.837223913401701     23.994626049755716
C       5.593989653771589      4.343214037042843     24.581299976412598
C       7.308398960441195      2.461762550862123     24.396813544780709
H       4.748023869632107      3.700252664718075     24.276772876628950
H       5.655797447844197      4.300912742183342     25.678083406424921
H       5.398245998540529      5.365892505220707     24.245697349323532
H       8.378341843150809      2.336508856078353     24.193526591676690
H       6.755161341124097      1.688122900436145     23.823918820973223
H       7.094548592535022      2.300657675914861     25.462105683077180
