46

Cu      0.266747029168573     -0.013480560601789     15.360993265290267
Cu      2.631410927479229      0.111856581878435     15.370439212737532
Cu      5.074941035854712      0.266531249238791     15.343489883768513
Cu      1.248797977248221      2.154782895339789     15.456384732675275
Cu      3.648277141059064      2.319339361343787     15.392412586738907
Cu      6.094288269625029      2.429447815750053     15.171424867197429
Cu      2.312109412248331      4.406344851398273     15.573729416803612
Cu      4.680242629418842      4.571847860003744     15.362005290317757
Cu      7.061789194676034      4.623469787262797     14.867633809378546
Cu      1.353282259691370      0.616637402273065     17.399605604852194
Cu      3.893531674365739      0.825262267353450     17.369996623262502
Cu      6.364189620251781      1.088436790791628     17.317562431017652
Cu      2.427764422203398      2.940877950931960     17.476539679889836
Cu      5.026299344803670      3.088195720290859     17.313544377675729
Cu      7.551233469671532      3.310923023094561     16.900098019284648
Cu      3.699638093209221      5.106775303379711     17.685405387483584
Cu      6.240864590826176      5.332520013475802     17.047657603412070
Cu      8.611756915876899      5.460107942673506     16.483936674518457
Cu      0.274547420674207      2.086512622665580     18.990047385097679
Cu      2.637417870664991      1.444491957320579     19.337999844202695
Cu      5.078858222604385      0.987673753327747     19.552430039720139
Cu      1.749245676079905      3.879572550227074     19.640090847269718
Cu      4.130057874929530      3.332254477360590     19.567801750424294
Cu      6.679222134175762      2.872927041089650     19.144872859029274
Cu      3.385307197706472      5.639900310890527     20.099730564524222
Cu      5.682988417332513      5.192314593173433     19.369960232990227
Cu      8.031728571200855      4.907274105121534     18.731292280915007
Cu      0.902207107990782     -0.110127122364911     19.816940058858382
Cu      3.133626714537152     -0.298687027694549     20.855689229870190
Cu      5.305131159423507      0.063118346784493     21.785086106813992
Cu      1.321074233122258      1.940227567031654     21.241302903696010
Cu      3.771311930856361      1.944501808424680     21.579523580519503
Cu      6.166270623627813      2.267263262084164     21.428162088806989
Cu      2.594997549905773      4.098667663208619     21.885634058854766
Cu      4.982901099495083      4.387954995638413     21.589068732843749
Cu      7.341816893437672      4.363107620691948     20.988688299852193
O       1.558497458197913      4.577970521698820     23.378343647508252
C       1.248624206087825      3.730810530664091     24.262073013359643
C       0.100808945594655      4.001731161266123     25.182313873936131
C       1.954839781118717      2.429897697141288     24.415813241326088
H      -0.789018384013660      3.465816449768772     24.823541435309966
H       0.336217377099797      3.610320699012553     26.176364012235467
H      -0.114280622327963      5.071806357115419     25.231013030804846
H       3.015099460847185      2.508767105600333     24.126551771578139
H       1.472784996251574      1.669510679826043     23.768161769186992
H       1.872785733512278      2.093969614651805     25.457227485730773
