46

Cu      0.217711873489985     -0.357088362854184     16.119130892557205
Cu      2.589016388770052     -0.219036742228801     15.727520253572873
Cu      5.039446784118169     -0.010897023118420     15.416546706026743
Cu      1.155390958336681      1.811872732520371     16.044839306772552
Cu      3.597097116287780      1.984171126144370     15.565283562190144
Cu      6.042536317695745      2.186418457929699     15.208182260463968
Cu      2.207899633175678      4.029973390028012     15.921712712368668
Cu      4.593619839029794      4.226606859616705     15.363632989743568
Cu      6.990256890345447      4.365440751334655     14.804516912592632
Cu      1.643139889327798      0.263714630267901     17.907845449076859
Cu      4.089688252506060      0.488447061041116     17.564907549209622
Cu      6.527828233400528      0.892454314002280     17.247593727525153
Cu      2.699902644518451      2.544414361426000     17.801737188283358
Cu      5.112040201390109      2.861693297524613     17.442312907178241
Cu      7.598710608580580      3.146477297102103     16.873633169413505
Cu      3.746221510822393      4.949104146072585     17.590282405965507
Cu      6.217980173457626      5.111184199421028     16.964723876626007
Cu      8.566417298451592      5.304679572787177     16.355032767037848
Cu      0.378059158846919      2.289634960611623     18.430809858486441
Cu      3.034632314568296      1.068194737033795     19.801371540304185
Cu      5.428883618603165      1.256458650341255     19.451846989551431
Cu      1.704086592979963      4.429306675263241     18.974582661930700
Cu      3.988509944985095      3.478481038582837     19.681386495039384
Cu      6.816971180419206      3.189967434601754     19.177044866077086
Cu      3.357254628217705      6.089146385622794     19.712851159567837
Cu      5.602417100402235      5.342043339912867     19.255387813621439
Cu      7.997767867316071      5.196620399588423     18.667699339852852
Cu      0.642454790407010      0.465118903629388     20.102431986113025
Cu      2.141283613559819      0.694059108394621     22.041417063676253
Cu      4.610167472464466      0.691107965569401     21.676810010081876
Cu      1.386881848890788      2.662964761265088     20.648703312520723
Cu      3.432944488118514      2.770927331426446     21.968722330265066
Cu      5.812630033760652      2.789190385217179     21.350470154179813
Cu      2.246544494199691      4.810667938686034     21.386936653162884
Cu      4.703646900448336      4.969394828849500     21.516968954504154
Cu      7.154816166278093      4.807152250356771     20.994489905112324
O       2.536898813079324     -0.698632374148137     23.237971873625671
C       1.700747606329944     -1.159009785493613     24.066562086575829
C       0.415503507532682     -0.474633293322055     24.358653398237177
C       1.975231554304091     -2.448952296338896     24.766447058362509
H      -0.392209769335855     -0.948787132700376     23.779016500410940
H       0.173405694174047     -0.602605778343999     25.420811620157860
H       0.454912112909448      0.591843187081168     24.103234652565369
H       3.030821042956930     -2.718922338327108     24.678698333638692
H       1.355011558623929     -3.244172369062229     24.329317152931726
H       1.687018766264895     -2.351301081135495     25.818510178169138
