46

Cu      0.526618206859713     -0.259065407673515     15.293798034268175
Cu      2.878465613083334     -0.110393484881175     15.552057628450040
Cu      5.316259956757623      0.086120620791275     15.757663610544975
Cu      1.502600300180923      1.914000926642762     15.252454675663172
Cu      3.900491915297794      2.106219638914707     15.435034743337591
Cu      6.346479923367847      2.246158701300045     15.515547762724701
Cu      2.546957568277685      4.190400350136296     15.252977509879212
Cu      4.921382907701821      4.370436561633159     15.351751026743155
Cu      7.352650696844991      4.411947905634651     15.123665124737729
Cu      1.377788055890873      0.600672456078239     17.356094680387290
Cu      3.906119503966802      0.811868250738857     17.575287236704071
Cu      6.373539642112142      1.106630247872571     17.778762445342949
Cu      2.456226434491473      2.918829683198895     17.271772353549807
Cu      5.025817562719751      3.078493424409429     17.464544190553799
Cu      7.606324803772790      3.278622999075350     17.308593877525865
Cu      3.657022529841878      5.110907050419894     17.501023136075844
Cu      6.285722369489258      5.282001337588984     17.126944586243503
Cu      8.715065076385290      5.394222425622315     16.815242542333539
Cu      0.209121379093662      2.389684171937919     18.510334462108855
Cu      2.444862819712148      1.676760288701977     19.309549741568436
Cu      4.829983782284566      1.243193146025753     19.830188990114863
Cu      1.612468283517519      4.264928236777400     19.119501529730499
Cu      3.907400126421124      3.588432794978391     19.582561352250629
Cu      6.478874106477877      3.052516510664050     19.477699005518716
Cu      3.197521571169884      5.989637740094039     19.802200760874253
Cu      5.508886086780426      5.394842017572006     19.382885705016491
Cu      7.894520399124736      5.041538088006313     19.018713019882188
Cu      0.527651758918401      0.310102066901197     19.731107240090957
Cu      2.610753523181559      0.067656753838920     21.025524833439913
Cu      4.717683773746079      0.376060061568056     22.075826990241705
Cu      0.876664436333115      2.521850861280666     20.871829938896777
Cu      3.320518171068887      2.331289954492789     21.623078968942245
Cu      5.782681338246330      2.568631024288656     21.741565543038718
Cu      2.173683840460131      4.500524384014472     21.452000575778861
Cu      4.570908274623378      4.755753188608481     21.610664467648007
Cu      6.970627279256576      4.708250423773768     21.227768794194624
O       6.461433837631384      2.334284002306082     23.511938271347113
C       5.604423076855961      3.021691287830577     24.176809187673246
C       5.856304766181034      4.454852154922427     24.518356898263207
C       4.342972664831898      2.417552793008411     24.700291145104700
H       5.201792835993815      5.118281157479530     23.914852376215926
H       5.609997975898480      4.623794679910960     25.575705707231542
H       6.898779343425762      4.719502770990876     24.307882599960127
H       4.342861397302652      1.329018777700362     24.555492099411527
H       3.468459817939371      2.836136779303666     24.166294138931789
H       4.231791647227714      2.666958917414539     25.764743941653641
