46

Cu      0.952571804724507     -0.735789078399063     14.947814825876867
Cu      3.235851451143746     -0.586897921083107     15.569338951324786
Cu      5.570005225212103     -0.163813875742110     16.265156263926702
Cu      1.898963340033678      1.408601166866984     14.587670992198282
Cu      4.032577403243288      1.666603915975792     15.635068579301491
Cu      6.358214721646352      2.130505471664563     16.080123337805244
Cu      3.160439343054761      3.362877423536058     14.051825250089511
Cu      4.822644975807615      4.084018272107652     15.596120800405179
Cu      7.310138198561853      4.280434295134642     15.634405948309954
Cu      1.553360549661162      0.646300846614928     16.821133038145991
Cu      3.813378751950981      0.400626290723270     17.805804679535555
Cu      6.193908790906134      1.132693298906878     18.299940059965028
Cu      2.395163627552352      3.300652517018755     16.358151992024396
Cu      4.577420901601275      2.886848677611294     17.733535944709942
Cu      7.520590183469928      3.216027753130839     17.909206984285881
Cu      3.614828797141552      5.207712411444859     17.516403363671078
Cu      6.055488864981123      5.044889083449212     17.519293220354879
Cu      8.503572194898103      5.353967204353631     17.405943469790646
Cu      0.175018625823345      2.626266926165730     17.361936353176610
Cu      2.248090554502809      2.152339852635611     18.597761866984346
Cu      4.348356783667307      1.534759057673468     19.906053423529521
Cu      1.441335309428657      4.503592678776637     18.384488373283261
Cu      3.491142796826837      3.942620890651348     19.726910601915158
Cu      5.962282590053138      3.332785023019975     19.780790712526404
Cu      2.687277502786632      6.321294356702979     19.527918431230901
Cu      5.085690508695154      5.757115576636089     19.593145398546319
Cu      7.480106486894153      5.196473328015908     19.549684413570930
Cu      0.292887378586722      0.695014228418326     18.903980712548673
Cu      2.411727051375238      0.103995354893865     20.013961667145516
Cu      3.652668346502767      0.674531543160469     22.108128679063444
Cu      0.170995216651223      2.958960591072107     19.792056592061577
Cu      2.182337103207270      2.331809151996719     21.068880774403290
Cu      4.531003464819484      3.080853793124571     21.873439802071694
Cu      1.454809145033051      4.712936141035989     20.898226292695778
Cu      3.715690190877163      5.454873483796098     21.630763437254746
Cu      6.123501529927425      4.941193287877220     21.616824363797800
O       4.733433457404995      1.763307955488313     23.271736816615249
C       5.339059931060878      1.838106770318425     24.390144473736573
C       6.108085024121713      3.041486045060125     24.752483433710907
C       5.224402002076883      0.724016234475679     25.356145988995898
H       5.484803922809361      3.703515930527221     25.375602580217297
H       6.967288593236431      2.738216493025003     25.365301364626909
H       6.458988475686969      3.620796863104395     23.879475485246910
H       4.952399589545800     -0.213004887968322     24.855593948890871
H       4.459788435882159      0.961990357462995     26.113397795546557
H       6.177864722597236      0.614645541435893     25.886813816812904
