46

Cu      0.082416103803741      0.157354807474793     15.574690892551287
Cu      2.448387976771737      0.052624525090555     15.518127694933398
Cu      4.895108268382502     -0.003116799057808     15.356445512791467
Cu      1.283586680343265      2.191433614790626     15.315369903140789
Cu      3.718965526451113      2.126888423327785     15.271553884334340
Cu      6.215598359974089      2.054823402144502     15.155995883313386
Cu      2.576775806955800      4.259889910141536     15.093721864272721
Cu      5.024743528006048      4.244279180640561     15.064788502073174
Cu      7.482465856009799      4.174041748539325     15.153632480377762
Cu      1.273298240558823      0.985674186978909     17.472376310267332
Cu      3.806074934214266      0.809938916637081     17.396210302095305
Cu      6.265191491286963      0.713449585072927     17.225933246352966
Cu      2.532589585359271      3.049496244451503     17.270212655662942
Cu      5.087121531912738      2.914194536742246     17.192193675952350
Cu      7.543376473996878      2.792187499126126     17.113147098041136
Cu      3.799245540466234      5.153630601875776     17.009329600966758
Cu      6.290481545746606      5.090884187590071     17.047489330392640
Cu      8.646689537326749      4.911270783771937     17.225497463485450
Cu      0.408330416087643      1.497108823851222     19.669124263565390
Cu      2.768521088997794      1.613869913900966     19.424079727912599
Cu      5.272485858435336      1.560224880095954     19.331669348086116
Cu      1.458332064048034      3.725464005972758     19.387694000471239
Cu      3.966640743804408      3.802104744467132     19.174438826165012
Cu      6.525756411541654      3.761052791554600     19.112373189683268
Cu      2.608326450535932      5.855700742696364     19.026534980492951
Cu      5.053934676116285      5.994795398109589     18.965975737176286
Cu      7.475535579201972      5.975085902572868     19.054722665942919
Cu      0.561106071209609      0.414803947598595     21.740677530981689
Cu      2.941211425770319      0.439433930875223     21.526351133910897
Cu      5.334269699714683      0.491098343565454     21.519437578539694
Cu      1.675982751678303      2.535946897352246     21.504957368800426
Cu      4.131016242099768      2.568107998050324     21.324300798940275
Cu      6.561333065753214      2.553245765961126     21.252534516530940
Cu      2.867457917641600      4.707371562795174     21.179658174844146
Cu      5.366213322964893      4.714085978847034     21.048366648734699
Cu      7.772650499125907      4.635787190718963     21.021281047517594
O      -0.295679537486528     -0.140092271530039     23.296269729787038
C      -0.249706153298035      0.645621552496561     24.288155729336850
C       0.734857283428140      1.755801778258761     24.373838806073675
C      -1.224828249077742      0.468139803418501     25.408469466904233
H       0.494860620720642      2.554886324208536     23.644726472088031
H       0.710060886877551      2.199057679800634     25.373343408284249
H       1.749083310442690      1.387650379624634     24.160865942310714
H      -1.486862268571947     -0.588696618793721     25.529627586450101
H      -2.139963485269515      1.039159686241133     25.190503255168558
H      -0.787702713893299      0.858774562218106     26.331889068232751
