46

Cu      0.251214187320754     -0.044897409105726     15.406103831130762
Cu      2.611852802477094      0.084438754957410     15.456550459944543
Cu      5.054428901470765      0.239772652750063     15.428298967339218
Cu      1.233469655942048      2.123160336553958     15.474075731061895
Cu      3.636672567276567      2.290457535472911     15.392327416730655
Cu      6.090370452487042      2.391826449631388     15.179922584555715
Cu      2.299759791385733      4.370111882279405     15.548430675967056
Cu      4.665680723432459      4.551558695670483     15.318300821448686
Cu      7.055568047477097      4.590044073796637     14.871247739950475
Cu      1.291022519041465      0.628842863609133     17.458291835154647
Cu      3.850276211565603      0.856903116802197     17.436599011429553
Cu      6.319011261925546      1.089141438637367     17.397514301981445
Cu      2.395666950202339      2.943761526543505     17.486068152740870
Cu      5.009861202709669      3.108030497392144     17.280592518023898
Cu      7.518019919971228      3.307843792782579     16.928254674201689
Cu      3.670300112400245      5.127264385878151     17.629948452415380
Cu      6.216089765912240      5.340265004939014     17.023988801436118
Cu      8.592535943037529      5.449668642092600     16.491393186568629
Cu      0.248861790654057      2.214933770096041     18.964549611054231
Cu      2.561377996399986      1.469163217436577     19.392059724004611
Cu      4.999145729213333      1.031892247631641     19.634638556741464
Cu      1.707316650369720      3.997619932195305     19.602543009124467
Cu      4.059485932274266      3.377537163735656     19.486173216080395
Cu      6.611573888247675      2.877786975500842     19.177101283185898
Cu      3.390193316313655      5.711450834883866     20.040081725079823
Cu      5.670418775153265      5.215091759892586     19.345387771875465
Cu      8.005943838557094      4.902522533954932     18.738048650725720
Cu      0.717155719726861      0.047771649296022     19.908061216179043
Cu      2.803452642599399     -0.076495112984287     21.181841545360236
Cu      5.086226392706326      0.143071482092697     21.901169440249184
Cu      1.266612176008325      2.122958076165502     21.278978983661197
Cu      3.729467815585192      2.119563988949334     21.579479825712685
Cu      6.159618643318870      2.252213947468820     21.486067356259390
Cu      2.529933816473046      4.248848345795431     21.856913051993505
Cu      4.940729725796402      4.375732128514115     21.534628772537893
Cu      7.309108535998363      4.357342700687123     20.995529221366613
O       1.735126234250229      5.226063185171794     23.238032637304460
C       1.043414158290248      4.721768248702916     24.164885372200374
C       0.406505848140726      5.634351060021898     25.168002302444197
C       0.826141252806212      3.254325951039279     24.283401926485912
H      -0.591747349536631      5.925983079378808     24.810107657755914
H       0.288483451441273      5.109158938271412     26.119348608087552
H       1.015472321608290      6.535409705693588     25.299568122732893
H       1.789262329262974      2.723527963001611     24.250986948396672
H       0.200770469579680      2.886619019644713     23.445649820266215
H       0.315432378404176      3.033605520159554     25.227436998263233
