46

Cu      0.557493299076507     -0.300868003311968     15.265770570753691
Cu      2.920752036217956     -0.205594017092690     15.365376374699256
Cu      5.337923542520755      0.168192106716546     15.608811971883840
Cu      1.470708249468736      1.848604356724451     14.829992048836658
Cu      3.704851279406126      2.036129277755165     15.670684447078454
Cu      6.090797406190081      2.466817573549493     15.671006505490425
Cu      2.564906171643487      3.963576774818232     14.623582083903633
Cu      4.523132777772985      4.435459764154027     15.904986272010426
Cu      6.958057729309493      4.676791132959367     15.411066958827911
Cu      1.591554419855119      0.960523835318336     17.035796881389121
Cu      3.959682113228663      0.390648913982817     17.566802440107654
Cu      6.418202878397064      1.074053836051805     17.653424435973797
Cu      2.330757398740924      3.517640501489284     17.000004467594973
Cu      4.747438748363122      2.852221284371286     17.789886806953088
Cu      7.691606067697012      3.205874447940800     17.334193920471279
Cu      3.832217011481814      5.165254685785122     18.218249876786590
Cu      6.194470537377533      5.019513615928759     17.649284050294202
Cu      8.538238172552225      5.440792383592247     17.019922376376513
Cu      0.356193800872595      2.678177436880663     18.322861264640121
Cu      2.659002741207194      1.979141204250749     18.970381407272281
Cu      4.970318253669322      1.117353931813266     19.664493171740549
Cu      1.875118456859404      4.302381856733364     19.381081720679049
Cu      4.192327616295183      3.526364711523557     20.147961487193825
Cu      6.578694044044147      2.933044495865880     19.519984826915838
Cu      3.400768235273949      5.862181994692090     20.561207870834117
Cu      5.730690108491577      5.373434547345457     19.987191326316879
Cu      8.048262166996659      4.826955955653230     19.267894986333662
Cu      0.755927945730489      0.451822223247434     19.276622691828877
Cu      3.012892515731992     -0.295710421007973     19.889271554992899
Cu      4.697121632166612     -0.143658739107711     21.676447433525578
Cu      0.910384042404088      2.439026084613273     20.696176974499981
Cu      3.158673342111080      1.663584383929061     21.394428392180405
Cu      5.571625750160917      2.200034898223815     21.763187448114380
Cu      2.408071619221948      3.995343270755370     21.793986497099525
Cu      4.760891022771078      4.635455326145604     22.294543227516026
Cu      7.196008780497982      4.184672724789603     21.504339162978674
O       7.378787268347682      4.710847381929849     23.287766356964102
C       6.194641076006729      4.570851492642361     23.836956732121173
C       5.495484635340011      5.793577753768211     24.389352919962011
C       5.823937597089500      3.254763175980614     24.479243934600369
H       4.436251171796611      5.879078695671087     24.084851653477131
H       5.486700491432085      5.741417492647475     25.487883062117607
H       6.017142604425451      6.699869369785795     24.067816898774538
H       6.462600435373462      2.446936679734402     24.102192622322377
H       4.772930646906858      3.002841956564284     24.282461783398961
H       5.926867960434715      3.342591408308576     25.569151532861238
