46

Cu      0.002435862411098      0.432144894370019     15.640047852883342
Cu      2.349220210301235      0.313517436057644     15.307066793126900
Cu      4.737965634652012      0.228500315032483     14.809621744209039
Cu      1.208752441006612      2.431072916150289     15.260166365486265
Cu      3.690896913232850      2.400957189447930     15.065844184152574
Cu      6.130598589067032      2.291448864210561     14.794564201991326
Cu      2.541149311572211      4.509920936517767     15.005519249642408
Cu      5.033430868354958      4.532388051007274     15.080999491190168
Cu      7.325487943107872      4.149161641956076     15.933820094289830
Cu      1.377620469295460      1.038266490487449     17.503187276005498
Cu      3.887966050054343      0.962133568103164     17.048947134988765
Cu      6.272536851403203      0.670624430925410     16.607202857338322
Cu      2.545034095368332      3.132699892131811     17.110967030797202
Cu      5.300111538582285      3.025497819921290     16.996350958709126
Cu      7.660299256000674      2.384294915535781     17.567222947751684
Cu      3.730907194673321      5.221579217152089     16.999615545421104
Cu      6.039937209708058      5.409599485020500     17.537793230944683
Cu      8.284424450077605      4.734255607924826     18.182055093760628
Cu      0.826606375986878      0.581076758601480     19.893262971741716
Cu      3.162562872133728      0.909846866106778     19.322649282330456
Cu      5.586123210417745      1.325905771122295     18.879025617344581
Cu      1.582492729434996      2.793184379077660     19.354824214313091
Cu      3.977866550627700      3.340536427866518     19.054790110998120
Cu      6.408946807024163      3.631557152678567     19.194551178328222
Cu      2.066240839601713      5.101217156219212     18.722548346824809
Cu      4.356972503924522      5.744919451966596     19.345385366838009
Cu      6.765312609315938      5.930406844995231     19.834245655181952
Cu      0.247091314185557      0.289645806668414     22.219195937461830
Cu      2.585618630010464      0.153497392622098     21.549312446232204
Cu      4.931752001723695      0.102803055384232     20.900985582788799
Cu      1.452297507319475      2.360925497160119     21.743478534540980
Cu      3.872267686752341      2.238004884085701     21.270897515152932
Cu      6.299544438701429      2.119237466592146     21.119143077948124
Cu      2.721312501206587      4.388733444003971     20.950292320750862
Cu      5.213747391563745      4.359561274914950     21.166640886109921
Cu      7.658827605885492      4.156195649296381     21.200060131878004
O       0.215691727059957      1.972921388390269     23.153869227493910
C      -0.274896238234568      2.430913615446900     24.237325184850231
C       0.207476059503289      3.725717461930088     24.764616886666289
C      -1.323235213166557      1.658454222980947     24.936503293965295
H      -0.103285984302353      4.554079130116500     24.109535963493805
H      -0.221982585916934      3.887291628803637     25.758447204430006
H       1.305035957799698      3.734905113305113     24.838045478670704
H      -1.136523161438690      0.577728592327315     24.874669397612035
H      -2.309770391584231      1.860039579680487     24.489824535929735
H      -1.358006608405252      1.975797220759269     25.983461950325246
