46

Cu      0.017325009569645      0.397500664636828     15.857881042189245
Cu      2.348862546337497      0.275870649561955     15.438135536858107
Cu      4.707526416663465      0.157112162790027     14.832639045683168
Cu      1.201292006820101      2.380857254707275     15.326973045190529
Cu      3.686695696676686      2.338470723206300     15.041873683617753
Cu      6.091036179647866      2.205475659773084     14.613062779436449
Cu      2.547041794430907      4.440062611663147     14.900956928807020
Cu      5.061863024106566      4.465892689691774     14.885238362309368
Cu      7.390106559645010      4.022848824451789     15.682963869467878
Cu      1.473877423399067      1.076320322887027     17.633303609928529
Cu      3.970047517402663      0.998211445664844     17.077915281645332
Cu      6.336295368969440      0.702911728495317     16.513576932856182
Cu      2.600432850515176      3.170922459736942     17.075657557392148
Cu      5.391843350898744      3.031206091434826     16.848835496858321
Cu      7.769716349162260      2.389243435068677     17.456661244011205
Cu      3.826373369162899      5.227730514754622     16.813199374161321
Cu      6.166046353750211      5.442504819223321     17.209270010309233
Cu      8.413796156503272      4.776791084292493     17.862252988097467
Cu      1.037982789717410      0.716888032601460     20.086581039950957
Cu      3.344953488069823      1.009166268907250     19.380590960367947
Cu      5.754232613874263      1.420041556141587     18.815052900075379
Cu      1.746680811486767      2.901702547323579     19.361077090874097
Cu      4.125060953259056      3.411641672094616     18.936454373237101
Cu      6.537233089608703      3.769523488286118     18.982911875709977
Cu      2.243330658679259      5.180272554386919     18.626863100045249
Cu      4.567473121657995      5.816265836232557     19.091080999890025
Cu      6.978615600722971      6.102830351658314     19.459554994813171
Cu      0.622074520680750      0.412292552360467     22.394989911620328
Cu      2.890440038191620      0.307557794542530     21.664866435097593
Cu      5.210015218861998      0.269051531162413     20.908313437238490
Cu      1.766222922802098      2.460187813735453     21.728188054139999
Cu      4.164041650286165      2.416039981712351     21.215123648715473
Cu      6.570089786929040      2.322632010751619     20.974513058284941
Cu      2.956213652477586      4.523302061320615     20.850478622745509
Cu      5.445900030066257      4.554561365154394     20.980309699968995
Cu      7.884767424849153      4.392447610956978     20.893097303342614
O      -0.617787338353500      0.452076273152929     23.776675616516950
C      -0.415452251060153      1.394023547708061     24.600674954079810
C       0.946593497071109      1.910185438703141     24.903727943307519
C      -1.567449711780112      2.048361732022124     25.291446859350234
H       1.168391840362956      2.795697026548704     24.279110481325954
H       0.992406433658320      2.224644358194379     25.952549773608748
H       1.707699447578911      1.145459994965933     24.701863278244485
H      -2.479469739430697      1.461394031281441     25.151933350189221
H      -1.711046684294222      3.058782215750416     24.882760284399080
H      -1.336417875107466      2.152523129307572     26.357397224533891
