46

Cu      0.457425961529088     -0.330584237746336     15.400055340467704
Cu      2.814350978037378     -0.215933678862223     15.633813846474396
Cu      5.255396919149434     -0.069691442018955     15.862257906898959
Cu      1.462712914364688      1.810930412596147     15.219137194942022
Cu      3.866596469324600      1.964699279676882     15.446528511728914
Cu      6.295389788136881      2.066380521798133     15.499069062446285
Cu      2.546930137671961      4.069512124688161     15.109204378338152
Cu      4.916419271792481      4.181365088252909     15.222635561226200
Cu      7.352190069564286      4.166611520048919     14.933202883837987
Cu      1.350247236987426      0.616605647097016     17.409173507083338
Cu      3.850586117706312      0.773394518603116     17.641628151794059
Cu      6.338412868489320      1.067999186097974     17.796376476568959
Cu      2.415927334763332      2.912569544177131     17.182972267415696
Cu      4.984585444838403      3.036169990486866     17.445737498395093
Cu      7.595769447588937      3.188553444907348     17.193553987756808
Cu      3.665665358772163      5.073634842394569     17.316891697077494
Cu      6.325440328366782      5.195666046820688     16.880357749659659
Cu      8.742395641341748      5.235413959518923     16.550051411362041
Cu      0.170314408587817      2.444054740895639     18.483159949472853
Cu      2.423910573443350      1.846345273791333     19.296471118167339
Cu      4.836021282232685      1.336747811172687     19.820481802389303
Cu      1.648378720806571      4.317598655965307     18.998977781457295
Cu      3.959415249389331      3.702030666577168     19.623197356802788
Cu      6.519887871842183      3.102786473597149     19.384145885939319
Cu      3.215187617949344      6.104474915120198     19.538062164605186
Cu      5.545947108659082      5.429861615831316     19.111088499886410
Cu      7.941210616383771      5.040035917953828     18.787304549431667
Cu      0.593629709261287      0.431598279402740     19.809468630412155
Cu      2.875135833520775      0.023999474457137     20.765918189181541
Cu      4.833589125307472      0.631571478752335     22.085006270604392
Cu      0.796303554708555      2.782391520306950     20.817626873276573
Cu      3.134525184206649      2.325178234045771     21.595932484818750
Cu      5.483942533572631      2.993321545363116     21.602727319200401
Cu      2.311570532887822      4.645785244836536     21.315448516172847
Cu      4.651021333121595      5.318887104129047     21.385425464572073
Cu      6.989261331818559      4.853237600468309     21.017455994931378
O       5.067016499619252     -0.105625927996163     23.799346004432508
C       4.312337942159083      0.684783465487129     24.471143879916031
C       4.688968940781001      2.099340705995308     24.765911598639949
C       3.008399778900030      0.220162168818688     25.037248226242113
H       3.948755754709099      2.779952303226129     24.311744500985675
H       4.667177496119486      2.263445709272759     25.852181662821661
H       5.678819923125332      2.336772777102253     24.358295952239871
H       2.864478242484623     -0.846717104706111     24.838151084951075
H       2.182642681325482      0.790739176679037     24.584215150144868
H       2.983914392610636      0.408480042812219     26.119798012314451
