46

Cu      0.424163130357714     -0.541310554809231     16.122298766533156
Cu      2.758184493907749     -0.211431841238775     15.701117868337976
Cu      5.173590743789396      0.187892788328818     15.296486360240145
Cu      1.195514686845781      1.699582413881544     16.156199112717960
Cu      3.587480491946546      2.063981745736963     15.627553489748934
Cu      5.957824877780621      2.456318208667504     15.111388345362402
Cu      2.050897830514133      3.989841482907159     16.169430446493191
Cu      4.375786799223991      4.364611999830374     15.372740243232027
Cu      6.709374164402596      4.696162297342070     14.617907811386814
Cu      1.821720450680154      0.140696288922578     17.930262217906495
Cu      4.278502129810183      0.521094086022535     17.489465385738697
Cu      6.683724056531967      1.178081318070836     17.093685014254593
Cu      2.781307002466123      2.449304238777915     17.926591730150971
Cu      5.162736160644536      3.032778835641349     17.464101201279796
Cu      7.549527401940287      3.520731672539432     16.628981288806457
Cu      3.688900168408937      4.989603813305585     17.649829979061490
Cu      6.042361940335946      5.392514951950315     16.827678160257605
Cu      8.318785926057172      5.745921101658339     16.064500004964991
Cu      0.477921600574627      2.141216855308920     18.542284824124259
Cu      3.291080971237903      0.819542600401992     19.798600340169799
Cu      5.621242132887003      1.259112632106572     19.330992215203583
Cu      1.751826282614572      4.381478507181440     19.052989125307764
Cu      4.013466250387766      3.399539705173869     19.771348743604634
Cu      7.174390790042593      3.046568886465471     18.981841292246887
Cu      3.511120336071046      5.990093191206325     19.830430580263826
Cu      5.689517144595772      5.049250018602966     19.170238707048419
Cu      8.005812792048788      5.247149173118008     18.394142295338586
Cu      0.905300721471172      0.313406650739953     20.160735614999862
Cu      2.470275017374903      0.573929207442965     22.081241667457085
Cu      4.932110764578892      0.630249920765901     21.598981209780501
Cu      1.737575523143114      2.504301408011260     20.633914414596788
Cu      3.752808013698817      2.647857083726722     22.077159101625281
Cu      6.067809486302641      2.770681072415464     21.164293544036916
Cu      2.488027662982440      4.649766347246280     21.498113839460668
Cu      4.968290979824991      4.892014700779590     21.531615482910503
Cu      7.424516957898886      4.741892926451940     20.773771364161018
O       1.725287001421142     -0.575422723423178     23.354769925386670
C       0.822950686035396     -0.253859260499434     24.174687198567756
C       0.402581656215105      1.158726000805596     24.388208170903283
C       0.121930496790389     -1.314539465949310     24.961649514049686
H      -0.287347888997739      1.471336132987095     23.588784773017629
H      -0.123290048940075      1.241837611503009     25.346125588483165
H       1.267013352247959      1.835479567248780     24.379249425110650
H       0.576164507189023     -2.291235583817267     24.776420954604244
H      -0.938808576418834     -1.331856180109792     24.678641585946728
H       0.177375225493871     -1.061446900324983     26.027109014658965
