46

Cu      0.117556342105287      0.174994599861193     15.352089565150521
Cu      2.483260632777841      0.098300405894166     15.320848296741175
Cu      4.934701759589587      0.054653952278969     15.186971695451527
Cu      1.308050885279577      2.230866262386224     15.201240912525320
Cu      3.752167896894278      2.183801002908927     15.174081451027389
Cu      6.239726229847664      2.132907544697492     15.109598589893780
Cu      2.600623494709556      4.321622134484262     15.090959656840791
Cu      5.039338638522793      4.324862868085469     15.096920624215624
Cu      7.490761639768889      4.252461051034551     15.150900317131022
Cu      1.260760139196799      0.927761504002144     17.311454225774227
Cu      3.803855901092180      0.769427472361343     17.245388879672504
Cu      6.262130451626973      0.719219380006038     17.117839833428175
Cu      2.531770670418763      3.004283545269279     17.187221266710072
Cu      5.070155659447934      2.909190572815449     17.159871306240813
Cu      7.526161170636970      2.835394899156724     17.108229429487068
Cu      3.796096828864582      5.153855860280002     17.066651675581245
Cu      6.309198965478607      5.071463429554290     17.105510576876441
Cu      8.683834421572723      4.945900937345104     17.182574584994434
Cu      0.393738772783576      1.361394083359347     19.553958690417325
Cu      2.731859515810838      1.526366898268714     19.276662480935844
Cu      5.225388362833767      1.471497889310269     19.236808864427971
Cu      1.431392060663855      3.669675941048602     19.288780613328097
Cu      3.910916249309309      3.729783628057440     19.156590941443206
Cu      6.447132809772776      3.671441810373356     19.157831169225528
Cu      2.636336491095411      5.838946039694195     19.111773721220565
Cu      5.092957245823866      5.884238204042263     19.071897303108134
Cu      7.537249570797981      5.821979615050911     19.115396619822942
Cu      0.342024636412628      0.460369267885852     21.752158873141365
Cu      2.721413586937675      0.310495416641188     21.373174532235861
Cu      5.142436099172254      0.305125782889161     21.359987429126274
Cu      1.581904863302330      2.451974467644445     21.364829841037025
Cu      4.014911569018539      2.398682375994424     21.243002107955874
Cu      6.441986295771712      2.371669007959064     21.244803893905438
Cu      2.775610188715414      4.574553914644552     21.189893069001783
Cu      5.239406480568017      4.541878878175270     21.129147909933259
Cu      7.623028755383920      4.505927661647323     21.123642640876394
O      -0.708234409038827     -0.193330218096482     23.098111038742864
C      -0.740466193949084     -0.293206952137397     24.352863021358310
C      -1.664230141595780      0.574941846260715     25.147256177978374
C       0.120262851554991     -1.285318447206696     25.065466611463535
H      -2.700644101390959      0.420123379087295     24.819457206107888
H      -1.577646175422091      0.338710929969095     26.209633239626157
H      -1.407021129876146      1.630620271936406     24.986981316985762
H       1.180415362641332     -1.046284781256857     24.903961654885496
H      -0.070096362777698     -2.295819616316343     24.678687678024271
H      -0.091381960679488     -1.263875881695669     26.137471007727822
