46

Cu      0.324877116501824     -0.053396551370147     15.273128135418055
Cu      2.686861674558906      0.098205470260382     15.330213760146306
Cu      5.124075261742888      0.274797610020065     15.323898098610218
Cu      1.278573460201978      2.124503561598539     15.411342395263764
Cu      3.684801897984182      2.316250585238272     15.317486347660399
Cu      6.139161827828362      2.443971064975007     15.121606111493634
Cu      2.336267949379137      4.378460655178636     15.515545683803078
Cu      4.701408841423953      4.589872249214018     15.265523014885055
Cu      7.100425841187501      4.654083630803427     14.849745576565136
Cu      1.358903503489581      0.572660756884005     17.337146989426614
Cu      3.902575747996301      0.849388801135966     17.326265820855792
Cu      6.370991805966872      1.119655699696218     17.315535578261830
Cu      2.439466522958052      2.926743385189178     17.432735784582128
Cu      5.038852066177150      3.131178890504666     17.225198564866997
Cu      7.550434627342759      3.348662220743071     16.894327750643473
Cu      3.687299433970608      5.135289166079378     17.594746558170634
Cu      6.232001534459848      5.374802277422179     17.000969885246544
Cu      8.614011128465659      5.495230953359910     16.491204216692584
Cu      0.301393524710383      2.191248464936040     18.781769151343134
Cu      2.609946572218057      1.370199173886424     19.299862009274364
Cu      5.052492956339583      1.041215487614366     19.518246838204693
Cu      1.712303825164982      3.949647042173853     19.575649471401441
Cu      4.070019906182192      3.351828757126690     19.418319506464798
Cu      6.631281749279974      2.914486708576471     19.128126153653522
Cu      3.331646210627734      5.675446540166050     20.018047327496099
Cu      5.625312264010690      5.223753235872335     19.316617295519624
Cu      7.980680835720815      4.954543247339461     18.731972690485566
Cu      0.685516027088335      0.022993811609711     19.764036938326402
Cu      2.652980469710187     -0.082295275322302     21.213059006046141
Cu      4.997180210215852      0.125166870178035     21.769619816971925
Cu      1.218854145146853      2.069088994939013     21.109940932672689
Cu      3.666618927944756      2.093955287690238     21.486692451927954
Cu      6.088861622890665      2.260456130875605     21.412382110153516
Cu      2.421934903204264      4.186936068507038     21.863120657765879
Cu      4.846895830585522      4.365004871130709     21.497213235357332
Cu      7.227781457031794      4.385653989480793     20.981772133841776
O       2.277492181218443      5.086627021985020     23.471547081131874
C       1.571761877438191      5.556247652379273     24.393141176457778
C       1.997256999787720      6.810289300149480     25.091391711346933
C       0.293393086609061      4.923884234566129     24.833626806358886
H       1.522329632841739      7.677636399579158     24.610893310271276
H       1.666868721493546      6.782681960393100     26.133421058544318
H       3.083764456294040      6.922073073679806     25.035893245986585
H       0.314161825703063      3.842906765565006     24.662407337697932
H      -0.548001349511100      5.361910401964863     24.276049418827149
H       0.134574992978188      5.135117493417575     25.897144074433239
