46

Cu      0.075312977139087      0.455339436352249     15.738901376033509
Cu      2.403606065858992      0.304705140506547     15.385735597167637
Cu      4.778310707421501      0.128207410550089     14.849155480933783
Cu      1.295805733313958      2.424280927972495     15.216675692397642
Cu      3.785839031403652      2.333197454513041     14.977159587497795
Cu      6.209783405468114      2.142035527712769     14.632844161730183
Cu      2.672967490526609      4.456318552155782     14.781283302583589
Cu      5.179077180159251      4.419497060910222     14.801983857258763
Cu      7.477889335760150      4.017732082380847     15.644722480561304
Cu      1.463736740655156      1.205395179834718     17.547032600322890
Cu      3.978387224965919      1.029073432778937     17.051144710081729
Cu      6.353153370893281      0.666091425624042     16.577196345011803
Cu      2.696477460146842      3.238574638905942     16.967451343465267
Cu      5.462645193681142      3.027869223249014     16.816056261073165
Cu      7.826882895438366      2.366362543292750     17.396061957052734
Cu      3.942250316484141      5.276058119628950     16.684304333132623
Cu      6.256525755414908      5.403403826412514     17.209770440421867
Cu      8.502039662124748      4.734363934841725     17.822666512097225
Cu      0.906546154178123      1.016276529212307     20.015608830396896
Cu      3.249976658105736      1.137641868802474     19.331345160708647
Cu      5.679078986491125      1.458750710946898     18.837082816551337
Cu      1.786624223686236      3.102030420454812     19.218965434218614
Cu      4.186405849505524      3.582203816523351     18.848185908769565
Cu      6.642306567663779      3.717455869092968     18.978318069267228
Cu      2.306315701889888      5.347749883872834     18.429580217232900
Cu      4.617754383979253      5.991436504197385     18.992826209697309
Cu      7.057706618195675      6.051893712215407     19.445359770090946
Cu      0.389584603871777      0.899412718983876     22.364520294003594
Cu      2.676451290022034      0.629742304972259     21.663627587826955
Cu      4.997220107063336      0.406268331249647     20.959469074246577
Cu      1.616321341755781      2.808849682349121     21.589624284084977
Cu      4.023443214564019      2.616789096666241     21.115367899878926
Cu      6.441780108387338      2.382257922557466     21.025036136515229
Cu      2.956197731912367      4.778853973740468     20.695587765526696
Cu      5.445136871935712      4.661444315984473     20.862845115813549
Cu      7.876778074934903      4.360319035966647     20.955696509118074
O      -0.724912422188872      0.196194207505622     23.644859629986264
C      -1.287684811780890      0.625597834380725     24.686055374241199
C      -1.323139463230179      2.070175310157486     25.048446024958057
C      -1.969745020796576     -0.344673341325591     25.601616219747562
H      -2.272821429051285      2.509559142757873     24.706899270724310
H      -1.283626112785518      2.168081895603648     26.140098769145290
H      -0.494154833121396      2.619797195928417     24.587841931349061
H      -1.449828114890880     -1.307673644327440     25.579108871514457
H      -3.009018781269934     -0.488875276859580     25.276357915842421
H      -1.985534905699891      0.056050442191145     26.618105232435052
