46

Cu      0.422188443986641     -0.236054348259877     15.136862796671782
Cu      2.786682787229476     -0.145401770919967     15.193863743704741
Cu      5.213371131480907      0.240448194396779     15.372981007800558
Cu      1.246610875790684      1.979661871652808     14.986503743000636
Cu      3.561077624752245      2.089332612022727     15.540047282433076
Cu      5.945105477331303      2.548676068889820     15.529907604258101
Cu      2.326243663809148      4.091415276662492     14.691933184557397
Cu      4.366499213030107      4.476164324072810     15.850058573547988
Cu      6.805197852468190      4.764507959809740     15.310136477373424
Cu      1.488888602889330      0.785255941303717     17.033850070286782
Cu      3.906847083832939      0.357248561960121     17.382434450099062
Cu      6.352228989142803      1.082833803393900     17.427266293577727
Cu      2.177233375692395      3.425413343087936     17.016485301641438
Cu      4.619548094341879      2.809777132842117     17.671093192810275
Cu      7.646837025029523      3.213857555629566     17.150231210501087
Cu      3.706617998307211      5.092133744177063     18.197443386510443
Cu      6.083057013366557      4.948056618915007     17.570207356544334
Cu      8.409467564355220      5.483030251464057     16.928373848019405
Cu      0.289399601679563      2.467565480112442     18.382346497884452
Cu      2.614857666480602      1.826985888126551     18.920918139789052
Cu      4.981594955627155      1.029985182847440     19.480155496041668
Cu      1.816254526614404      4.128093105914551     19.422803657841520
Cu      4.150530592287340      3.409609877315760     20.057761870185509
Cu      6.508861747955517      2.909131507315510     19.315236720594967
Cu      3.329181270166395      5.724520431678616     20.558646325707056
Cu      5.660049720672068      5.293065043225104     19.897059099390191
Cu      7.977074154045265      4.812948437304490     19.168438884938784
Cu      0.783461655907945      0.244600924506926     19.318877689354682
Cu      3.095845119517598     -0.453514438740804     19.746075506063374
Cu      4.840628797322453     -0.256972531896243     21.492375114489750
Cu      0.936901720994831      2.242418780357338     20.734254722494491
Cu      3.223454224823806      1.481583645250092     21.300681372387803
Cu      5.629995829830213      2.099237684418640     21.583897558475726
Cu      2.470306533233771      3.808248228790423     21.821711632219330
Cu      4.854554100302183      4.510028966610548     22.149858501474601
Cu      7.148692679557302      4.049899812728257     21.365985303206990
O       5.936210688816815      5.239807877238444     23.518032127976760
C       5.516927092134690      6.146985723308557     24.292980338415884
C       6.475481898002822      6.897795797917767     25.154868409128508
C       4.085639482266128      6.530101128752742     24.368193810159685
H       6.636543813072454      7.900752533425963     24.736784073387319
H       6.033627164705695      7.030093119813562     26.147835087123251
H       7.433245826292036      6.377012442577628     25.225365121739859
H       3.421930682231435      5.741159455009754     23.986328604486797
H       3.916188938186676      7.441675839981255     23.774266269269560
H       3.825622377094111      6.764798229688323     25.407185747527869
