46

Cu      0.208534346207333     -0.164772521210926     15.713271546441987
Cu      2.572682594658670     -0.005638491735232     15.602294935115692
Cu      5.014705271221421      0.227705360332869     15.502246435227317
Cu      1.139976073291425      2.020336472156796     15.677036403499070
Cu      3.546582227523894      2.223964196327809     15.595282879082706
Cu      5.954060415498847      2.441017167679004     15.341970626935803
Cu      2.139386183348913      4.303316642596315     15.717046944288340
Cu      4.500055300926809      4.488049011005362     15.600417734630447
Cu      6.851560586631033      4.645268899230561     14.946681558557247
Cu      1.390710481403555      0.563755708879067     17.671215346584017
Cu      3.872326937432327      0.736353064121417     17.568108795629890
Cu      6.372470471404420      1.103086255912553     17.401415972807637
Cu      2.355187835046561      2.895743245702595     17.619725033659673
Cu      4.920725035226308      3.018070696013213     17.588586985972842
Cu      7.508487033434677      3.342709739459758     16.951712833366479
Cu      3.598625859646461      5.041552982755738     17.923251489957245
Cu      6.128190616437943      5.288302897964155     17.175416422830693
Cu      8.454871477704899      5.533659419588880     16.467302724257273
Cu      0.377638759875928      2.225415227004917     19.116229265527927
Cu      2.727530215971106      1.594268786915545     19.577214055139208
Cu      5.150610598570132      1.093208844098655     19.627599884041398
Cu      1.906070881454295      4.059032310645641     19.701350293579768
Cu      4.267929145428035      3.414206736321735     19.985555676749712
Cu      6.763175834305700      2.928329458095146     19.225545974014853
Cu      3.518034940559057      5.807357247631709     20.268201868179890
Cu      5.764693044271713      5.238329576906163     19.510816444881740
Cu      8.065011573851203      4.964467572358357     18.740290140662786
Cu      1.012819823311987      0.047394507524090     20.077727765607456
Cu      3.396209485369691     -0.365132561315216     20.734064182162989
Cu      5.545513332259798      0.084040368758435     21.765238425142343
Cu      1.274851507769887      2.230365474370274     21.380036134073773
Cu      3.798719632877549      1.775159282655604     21.863293007764032
Cu      6.118673767420236      2.446076284145308     21.504824321568311
Cu      2.778240564592276      4.216075672889315     21.965364207047102
Cu      5.205073138967038      4.745473887479069     21.827312819829178
Cu      7.481629438818323      4.416330695667805     21.041901587327853
O       3.565272491026735      2.237044966627752     23.700462045916410
C       2.721005261782214      3.227732655672301     23.805937294738118
C       3.180531352482713      4.540743404019098     24.396080172027155
C       1.234749333581879      2.935704384368945     23.904590271690381
H       2.568531610763856      5.384988173238820     24.044420475321331
H       3.053188917951741      4.501665230363982     25.486539139132308
H       4.237542194363629      4.744336480691967     24.170874606680869
H       1.052116007036961      1.855727474611202     23.903754466777304
H       0.640407721891118      3.412568139522682     23.096184626849237
H       0.852343850694744      3.378408726506762     24.834189161460081
