46

Cu      0.110634590087367     -0.079581413658076     15.613019298591515
Cu      2.482674720139890     -0.074368484718669     15.544336884398302
Cu      4.924603238873133     -0.022924862150321     15.473236696521807
Cu      1.206355072095669      2.028113233175881     15.475267948718496
Cu      3.627041515244692      2.074000780847394     15.436714204409753
Cu      6.106980416417855      2.092512079681149     15.289240798424739
Cu      2.419455276166441      4.182824718439019     15.348180875344251
Cu      4.845565925539144      4.245682033974413     15.246542689979718
Cu      7.285397177132939      4.214264664960933     15.105691854378657
Cu      1.297024953591083      0.671520859756932     17.544493020168250
Cu      3.766438649592584      0.703051328462222     17.505460879139999
Cu      6.238646891794454      0.788690277396105     17.370344401045941
Cu      2.380760154349121      2.923329995058820     17.472261741379089
Cu      4.959975329706706      2.896468664129653     17.353492399417298
Cu      7.472113453426846      2.916794032074426     17.170474116106149
Cu      3.700059902768909      5.106990321520498     17.258175780472037
Cu      6.249025634546284      5.040502686501647     17.139850632000869
Cu      8.650022482492071      5.016089695287150     16.933559714356040
Cu      0.301674913663759      2.055582937887553     19.251030940234024
Cu      2.669939647748853      1.567763123956960     19.523812611703445
Cu      5.124124932167116      1.499717263697170     19.471301016604318
Cu      1.424689476064929      4.174544583957989     19.426732058478223
Cu      3.841247246751818      3.803080822220546     19.357889364895748
Cu      6.386704537443399      3.612184789479432     19.291144300456388
Cu      2.870578041914526      6.123034140452586     19.349378174591291
Cu      5.256548767650630      5.861613064815471     19.169235801175954
Cu      7.708398307137315      5.598302111922827     19.057468930465173
Cu      1.072652289812192     -0.177812552681834     19.814100513149938
Cu      2.424617173146782      0.508516715738869     21.758893872600186
Cu      4.846523868427830      0.413151745820738     21.607590283347864
Cu      1.404312162348025      2.713589429609199     21.377765298549743
Cu      3.881312395670475      2.555997832001335     21.473794340434115
Cu      6.306975826070158      2.412964334584231     21.449258448049772
Cu      2.764471820964278      4.785630673602935     21.385756433764808
Cu      5.215583287906157      4.613121079239839     21.276791647981540
Cu      7.580890094448824      4.502110197002251     21.203037160563490
O       1.043711673435637      1.561040415283546     22.883915492857334
C       0.813149784036741      2.035800593534108     24.051414232098413
C       1.585661898320002      3.168287869143513     24.601650870864656
C      -0.282325091574126      1.428502741285953     24.849187790817751
H       1.348727836276134      4.111434626931919     24.077163244713557
H       1.327293348064412      3.290507226766390     25.661084904728192
H       2.670666175749903      2.994950031469998     24.513732838485122
H      -0.194806406584185      0.333575345508241     24.862225436808583
H      -1.262201406539702      1.690086176264139     24.420742427166065
H      -0.238079201107446      1.811930389726568     25.872141019517908
