46

Cu     -0.054448569554823      0.456789486497075     15.800588872119249
Cu      2.285830484941568      0.287092762106815     15.466516955878177
Cu      4.662598573526467      0.088987205988248     14.963302983368926
Cu      1.191312629496822      2.411553892022987     15.287987225579801
Cu      3.690081010101469      2.308250828176552     15.075273408414809
Cu      6.111154092777063      2.093711836514498     14.759977527695783
Cu      2.584939526561683      4.424406517002834     14.862098942317180
Cu      5.092706746151177      4.392115081199939     14.930077532548296
Cu      7.383654395388190      3.953075011882351     15.787295316960527
Cu      1.356499403678344      1.154241910492308     17.611601550700250
Cu      3.863573995066360      1.009305226411755     17.151548441757775
Cu      6.233689967800358      0.619522010022823     16.702448333838777
Cu      2.566650584079030      3.203242199170838     17.058636606067051
Cu      5.340345581733259      3.006634879825878     16.933950082940076
Cu      7.684238003532165      2.328417059253725     17.575621872623898
Cu      3.812188164931079      5.240854348777229     16.795493375581909
Cu      6.140927563477888      5.401050375525298     17.271892325830045
Cu      8.368116833668328      4.711919717640760     17.966276403298949
Cu      0.845966309807737      0.825312848969529     20.062489862142826
Cu      3.172301247583999      1.075930942800143     19.427487660072714
Cu      5.602856268490632      1.438038158462473     18.940159030134748
Cu      1.621847586004652      2.989747038013540     19.315456078082185
Cu      4.024775196908191      3.476007864456422     18.974657199834201
Cu      6.459703954901757      3.755463042630254     19.077252262248361
Cu      2.187436672381747      5.246962020733356     18.574112071355501
Cu      4.497655578632014      5.879842674562227     19.084707308757597
Cu      6.907304190745432      6.087855229629826     19.526573152249686
Cu      0.407855637169947      0.521328391475881     22.398437202184379
Cu      2.686924150291664      0.411466809019399     21.703911906711884
Cu      5.010753527012535      0.336573935428885     21.025992217017183
Cu      1.541671747311534      2.536964043783957     21.686124480532261
Cu      3.967075831579997      2.501842617394253     21.251507754874648
Cu      6.380610194035062      2.372172133098948     21.110312078226595
Cu      2.782432161330653      4.604442978617787     20.841227896782780
Cu      5.289508900762055      4.612908259976286     21.010461884768834
Cu      7.735062298625326      4.409971763240282     21.037029193660210
O      -0.621226564833815     -0.545914496224386     23.497247723924172
C      -1.432516523532001     -0.202912032571841     24.398892744046172
C      -1.708799548048371      1.223266461194781     24.722818137463850
C      -2.169018716070988     -1.254080865842335     25.168543039686835
H      -2.595888871777033      1.560224023450308     24.165120504571469
H      -1.932391414333177      1.317728307500760     25.791869501820372
H      -0.860468667656488      1.864746183030504     24.455486719708439
H      -1.636277030089976     -2.206538521585266     25.107922745775806
H      -3.176898405185885     -1.376100221627773     24.750695905204523
H      -2.276938951550890     -0.940933025482216     26.211498868171173
