46

Cu      0.028659421561501      0.079509538869031     15.707860650326593
Cu      2.397992405480218      0.046364498441825     15.621887849044576
Cu      4.832916034497078      0.068011386449143     15.514771479789879
Cu      1.127255864007072      2.179818017602516     15.602338458560222
Cu      3.536826983448419      2.190619863093515     15.545146072098389
Cu      6.002640172249158      2.173108987108102     15.321720702669555
Cu      2.358272293224198      4.349224189005068     15.502242596775378
Cu      4.760186814391902      4.340784360628803     15.351554436625063
Cu      7.169782100490472      4.252761128634288     15.005547992999858
Cu      1.257081663834157      0.767655808271254     17.643886997500790
Cu      3.758060456753763      0.756626499302043     17.566500420765536
Cu      6.230679639894791      0.858967630066040     17.391620450469190
Cu      2.334644178980080      3.086479962451210     17.561484332990538
Cu      4.942822208288298      2.940455173552743     17.442381850550145
Cu      7.491502457034689      2.992719543806964     17.096153593188927
Cu      3.740253804739495      5.179448651573094     17.482530091844129
Cu      6.274458864262091      5.073860229962460     17.129488176693030
Cu      8.669927523650811      5.071607580959267     16.672160026064155
Cu      0.257947357654240      2.235940672438769     19.259997570106535
Cu      2.675257900732982      1.725622558102674     19.484792634614600
Cu      5.166746896579742      1.406159307157820     19.573529088414404
Cu      1.615743757657930      4.115201725260449     19.746538375855835
Cu      3.992249731138435      3.774541260663523     19.530665968398488
Cu      6.497019725678600      3.522152308813387     19.297790112898927
Cu      3.117304388361095      6.034594207896572     19.770084029392397
Cu      5.482555019296678      5.788124314755125     19.290596752502463
Cu      7.908699110540774      5.438492827778060     18.890282226432578
Cu      1.008075128655536      0.111171169322434     20.081094654196701
Cu      3.172920625950777      0.142000200995319     21.196265295354937
Cu      5.482364121467173      0.341025398389734     21.756518333629600
Cu      1.523708348211555      2.209053230440302     21.480873275355339
Cu      4.098028297846552      2.347264868071141     21.567434292962218
Cu      6.573362397564346      2.433617385756050     21.465111094656837
Cu      2.926681910252628      4.529610252400213     21.754823172988402
Cu      5.355092586440673      4.537152101874453     21.391277779345248
Cu      7.711335272821138      4.588374369760758     21.117563718851493
O       0.554923353779277      2.600724734564214     23.041687459948804
C       0.923572209896549      3.434805935540536     23.907787042939542
C       2.329028922345739      3.914882701151943     24.034666280091368
C      -0.077656790505434      3.998774856245089     24.866857825919851
H       2.489886830425571      4.898981894775418     23.510355205822204
H       2.515204675583578      4.133027074949300     25.094664089825127
H       3.051814040965441      3.138120029884153     23.732179901840002
H      -0.920318770606351      3.313165457102608     24.991805896116727
H      -0.446309128253623      4.967139594972116     24.497053313313256
H       0.414727943896634      4.179005877865822     25.827012131241588
