46

Cu      0.154776791037791     -0.099709180312694     15.591980909731724
Cu      2.521461713281419     -0.025929362921977     15.656354053420818
Cu      4.966152509391247      0.078508085694343     15.705080831566406
Cu      1.164171439035011      2.050024114448955     15.540667466831076
Cu      3.570396008287039      2.155616044645790     15.557065499701775
Cu      5.997232058180652      2.217310931328061     15.392026158572959
Cu      2.267412753928613      4.295724894353776     15.512702035100956
Cu      4.638408510297072      4.363629164466055     15.378609388035477
Cu      7.037747984518492      4.331267757083761     14.873783067662838
Cu      1.221497508769712      0.683062481195298     17.601468628276074
Cu      3.729669522182450      0.801912619935046     17.646291207299569
Cu      6.232092463116205      1.063630092169439     17.616087559720661
Cu      2.303958430824599      2.989533751983458     17.511545636634274
Cu      4.882980427639170      3.062887342910074     17.501784535895176
Cu      7.456772427945406      3.210085368290466     17.042762599252530
Cu      3.597448365742835      5.130005047503722     17.620624393785917
Cu      6.205624137638599      5.258581816527317     16.964001008186560
Cu      8.588139220809378      5.265171323535481     16.420799974643188
Cu      0.150000084977277      2.347099978038855     18.992532079629861
Cu      2.461887851626242      1.728777474453003     19.515469413045285
Cu      4.911809735881184      1.242582344690282     19.756469686877210
Cu      1.629353854408347      4.194625540296460     19.528309275718968
Cu      4.018242128536778      3.593216370873081     19.774517326560364
Cu      6.574316314231264      3.012854089733979     19.300355375023486
Cu      3.275020950343436      5.965292845228900     19.939916577489512
Cu      5.586222776591224      5.354116593652884     19.258584290037852
Cu      7.957464152390209      4.970454613956264     18.702426698506205
Cu      0.770088703320590      0.168004400101589     20.005682382303725
Cu      3.116944184241510     -0.155850146324110     20.840998837147094
Cu      5.163994364489921      0.457142103313714     22.017545344780867
Cu      0.999664415270732      2.483819168241836     21.318840972601539
Cu      3.442937987086141      2.093815518058920     21.724194170579683
Cu      5.757173390241555      2.781609931734534     21.572191104946835
Cu      2.559257228752886      4.379888965583813     21.739451109671425
Cu      4.888305368112455      5.087541288851536     21.585232418593833
Cu      7.195419640368211      4.685023812908134     20.993935938072326
O       0.012358647465356      1.541694689506433     22.615019760881108
C      -0.208800863216748      1.904555141773220     23.803497567868423
C      -0.126517750366765      3.331125398613886     24.217269227501781
C      -0.566413574803316      0.863143219177071     24.819685829415128
H      -0.884241243962013      3.921267839664275     23.680358328147125
H      -0.310829803727813      3.412700069674469     25.293132669144352
H       0.863818228111938      3.759690034655462     23.986442830294788
H       0.212502305308509      0.089453198116047     24.851415156847089
H      -1.515294941266158      0.381554647209534     24.545968994412473
H      -0.664295815966939      1.324235708600366     25.805505947370754
