46

Cu     -0.006392653851318      0.431353260352304     15.832135460897753
Cu      2.323522172193282      0.272967190410218     15.451774332842442
Cu      4.701807244604915      0.099750998250446     14.935080199727100
Cu      1.218534455443470      2.404055249934822     15.333274384816823
Cu      3.703626355687005      2.311148940252249     15.056307046968978
Cu      6.136662214666071      2.115300452033306     14.758950916815229
Cu      2.575831541684530      4.434585204010255     14.889582424593559
Cu      5.079347699868562      4.395890853882210     14.919664023530999
Cu      7.384120912019847      4.006583164412569     15.731613392563776
Cu      1.415402704023569      1.158286721552537     17.610696570408074
Cu      3.901912888903382      0.997560288091785     17.132408628182688
Cu      6.267689563064298      0.614363827006251     16.682967914601210
Cu      2.643043877117183      3.207712695019914     17.066644934796557
Cu      5.358361487308127      3.015599791855399     16.921976426902248
Cu      7.705356837674517      2.349961138607186     17.488356602471942
Cu      3.836196633897006      5.280617246596758     16.788542180160551
Cu      6.162013144949412      5.394848436219875     17.293251514393127
Cu      8.400225649683019      4.714139607689662     17.909093399633186
Cu      0.887689343515054      0.826545884223381     20.031239383279626
Cu      3.226158442955332      1.096085719433866     19.418554798056583
Cu      5.644764055457894      1.437915679159570     18.922517210114119
Cu      1.667655864278613      3.005697800479239     19.302087778194860
Cu      4.094948503611555      3.496851658210245     18.987779940259376
Cu      6.538395125746184      3.731516451422461     19.072815988978078
Cu      2.225110725082525      5.265572470213469     18.564748665633655
Cu      4.529393575209094      5.914005588036915     19.093460379099866
Cu      6.951704248104877      6.060776646776269     19.535153822239913
Cu      0.411115280569538      0.516505079361346     22.337159325773140
Cu      2.696281456941633      0.411093413998315     21.687596799743144
Cu      5.032839506354144      0.339630143569068     21.023576320644526
Cu      1.568274987263945      2.545966973197364     21.662831022513934
Cu      3.994123302467510      2.506655934315988     21.262366463119243
Cu      6.403297824533119      2.369357311787989     21.105335950141324
Cu      2.830863050271099      4.617405754788165     20.826585089854202
Cu      5.338271452888074      4.613899277648803     20.984031316949515
Cu      7.776309717510792      4.389574128369947     21.060903327151255
O      -0.895354684187053      0.015718576411630     23.547497029454906
C      -1.233737660682006      0.839885941873344     24.444531725644801
C      -0.501091328706448      2.117818089756225     24.659168995611545
C      -2.422685237167590      0.548488342282679     25.303487986593648
H      -0.892160562327513      2.889156315421063     23.977369500671536
H      -0.657041341554443      2.467331335122120     25.685222652793989
H       0.577265780583762      2.001316458649696     24.471883929018706
H      -2.682656420809263     -0.512394029320307     25.238381405205960
H      -3.274498842351007      1.159398757262107     24.971334102193790
H      -2.198113186651145      0.828033576164263     26.338641300564188
