46

Cu      0.314698372551724      0.003157413139171     15.415019643809837
Cu      2.684932717374355      0.146798985349649     15.383220074020450
Cu      5.132730881840001      0.339348681348118     15.297498209659050
Cu      1.279137260539579      2.168244672563789     15.556627429456997
Cu      3.693369734881869      2.362569551867218     15.376104627482523
Cu      6.133410919395907      2.524764669726684     15.144934322545922
Cu      2.336203264375644      4.419229159794932     15.682659160677142
Cu      4.693451915687790      4.639898165414674     15.390805861838208
Cu      7.078884388929749      4.747618307057199     14.905171309864320
Cu      1.434576189117203      0.568073075471681     17.451057901737123
Cu      3.968136996944375      0.830143342449328     17.347276348419403
Cu      6.454107431925798      1.153903676775032     17.261958388114842
Cu      2.545022485052819      2.894954665847402     17.541382123802446
Cu      5.076627302510787      3.130206333749392     17.302927528271333
Cu      7.601000562036720      3.396110177053053     16.893241511346059
Cu      3.713176342407929      5.130539410433610     17.754761219819244
Cu      6.256362371277040      5.387497068211383     17.105656151145922
Cu      8.622294923007532      5.572328194968683     16.528165941324115
Cu      0.437882195214643      2.262835595036165     18.831339351660279
Cu      2.742067245857517      1.325432329605928     19.414007004346640
Cu      5.194277784308111      1.073080790224939     19.445129720112909
Cu      1.845525252349555      4.061904416002895     19.570290496553778
Cu      4.186123102983730      3.359169696321828     19.564494573508355
Cu      6.742316918568410      2.944479458024400     19.132265809037737
Cu      3.458269071989786      5.731619466900841     20.168753258541663
Cu      5.718319704444506      5.245165922576738     19.433954587672147
Cu      8.066060899828008      4.971576362301048     18.775724661354271
Cu      0.709789021848163      0.101828454496962     19.858086835261929
Cu      2.548870350058392      0.011834230805245     21.445842123084166
Cu      4.962614999837046      0.127774521756527     21.659681342518372
Cu      1.287076981518671      2.162817154951693     21.127324938549854
Cu      3.701250309935074      2.140676381527691     21.623993581624688
Cu      6.110573452367215      2.266454231921395     21.386963699899525
Cu      2.474423332195427      4.232218286698050     21.893618553004313
Cu      4.922935894163941      4.402540252889566     21.660972638682075
Cu      7.316030088958137      4.364295725946658     21.035275376554431
O       1.616832796467502      5.026638544924896     23.352155303066855
C       2.137569697995489      5.811380435761109     24.190353921798817
C       3.599151563507081      6.065824207084034     24.274570575935766
C       1.253649310961912      6.562541622915457     25.137687146424327
H       3.835721126375232      6.988366973104903     23.722740751332509
H       3.882863529901392      6.222677631695112     25.323666596522322
H       4.197456230782455      5.241300243232218     23.847440904053354
H       0.282765768137263      6.067799466334234     25.222809220564042
H       1.108074302893576      7.585809644689766     24.764731887675765
H       1.738268566978903      6.630584778067524     26.116240089360865
