46

Cu      0.366181783740467     -0.511631949536400     15.951269259804299
Cu      2.722712984933010     -0.343973533531682     15.750657873143521
Cu      5.160913286836976      0.075733758377035     15.623893123551863
Cu      1.151904526015646      1.681355457219293     15.515176941687820
Cu      3.515103026978957      1.922143209304472     15.706749859028379
Cu      5.858796434357369      2.385417439222342     15.421728671621716
Cu      2.137110831224306      3.737176900158489     14.752697704386881
Cu      4.264716039929259      4.327811496656516     15.663815287542194
Cu      6.625514005016110      4.585331525073160     14.876230482354472
Cu      1.570548357871522      0.675608329792723     17.653059687680091
Cu      4.026845131025246      0.465757849701401     17.695775488755721
Cu      6.447293739918875      1.183855603460595     17.457926412811180
Cu      2.231703056272889      3.397362281607449     17.148254047500870
Cu      4.738686742939765      2.930257049419135     17.651189067401702
Cu      7.580130340036268      3.333997278496827     16.844047793125522
Cu      3.786262625451918      5.218797108858354     17.989833578361274
Cu      6.073873263178877      5.151973587683242     17.134412678536012
Cu      8.335455613096734      5.539676331548701     16.251102032876560
Cu      0.464674373054069      2.591894735353658     18.761185582545213
Cu      2.829159173437730      2.060945502611472     19.216464697245549
Cu      5.240611730570952      1.370334056245670     19.613600363264457
Cu      2.021827437873617      4.415488518873880     19.457307101764009
Cu      4.380467533997396      3.726317552025343     20.014382735621467
Cu      6.728135958755808      3.208581346994524     19.138427701250695
Cu      3.613215227249553      6.111465845082195     20.291148845365125
Cu      5.863645110998237      5.577623240358379     19.482505873868234
Cu      8.103877391707016      5.117359727306936     18.584454477945076
Cu      1.092549809675089      0.561792923803803     20.049694876967493
Cu      3.439426432816488     -0.151396516415917     20.113600617340843
Cu      5.371511473384674      0.257638681349168     21.675942319609867
Cu      1.237527520671903      2.766367765468891     21.058148994688008
Cu      3.586081361125231      1.903838531468810     21.623194084944362
Cu      6.033269456650669      2.684482908470307     21.521522094375324
Cu      2.900323787523572      4.377904458822321     21.856442472835486
Cu      5.297872359128664      5.079971490395247     21.824050635282035
Cu      7.524899600057859      4.610985041939265     20.954394572336753
O       3.018850600015337      1.280835018438969     23.333750966082480
C       2.152509403812972      1.758717893885524     24.110909097319304
C       1.755527053302954      3.191348934209874     24.117829227479582
C       1.446018935570485      0.860959508315611     25.077856356866405
H       0.945010066615323      3.372549555599316     23.382560798898027
H       1.352074141170123      3.442140421628949     25.105880338171652
H       2.612619475447933      3.861876614976542     23.908561001307572
H       1.973785457946989     -0.089015148059033     25.190457872470255
H       0.423104935366332      0.671823549227226     24.722442343855544
H       1.365907011731692      1.371267442679142     26.044046281038288
