46

Cu      0.241885593883571     -0.191905966002121     15.560812590549247
Cu      2.604791472243759     -0.059341183097077     15.597827390393128
Cu      5.047040687953866      0.092145196697998     15.576085206597917
Cu      1.200050331434969      1.982908190581274     15.551752920266003
Cu      3.607561558810134      2.146468684934034     15.485443976043662
Cu      6.047256102510132      2.246159772341237     15.276278013852339
Cu      2.261829718524221      4.242316757711714     15.564698367549177
Cu      4.623863749001785      4.398493855918698     15.312833153767629
Cu      7.003504191447424      4.420171548580342     14.820620629176643
Cu      1.306785869823196      0.556228723588781     17.579739417798969
Cu      3.847238420619886      0.768367984352906     17.559243529686551
Cu      6.314968067305561      1.063047287903023     17.500758827761668
Cu      2.372027538312068      2.870441035464845     17.534348526253076
Cu      4.960389022065599      3.052242610012094     17.365269132181233
Cu      7.503028378281419      3.246542607068895     16.940583947102738
Cu      3.605725512193493      5.066106494736772     17.617933153811503
Cu      6.179315399337306      5.261400430002971     16.948535625962556
Cu      8.551682515304330      5.366887277310444     16.363705894262868
Cu      0.239180020625662      2.101593714251985     19.110642087527150
Cu      2.577390221110233      1.514055099423712     19.495922709902345
Cu      5.039209448546470      1.112539800562794     19.706412373268375
Cu      1.654118492006638      3.974668405658299     19.591431842532462
Cu      4.045910864928830      3.443399635510299     19.590279635555845
Cu      6.604850892565733      2.976485168327213     19.206355378181502
Cu      3.298122911521555      5.764614704326529     20.011098875933325
Cu      5.601367906127891      5.291091192530812     19.272267992816587
Cu      7.958249832462631      4.982400459702021     18.646172035895741
Cu      0.882147255799950     -0.067462933749800     20.001414222428167
Cu      3.074858256714652     -0.124268399058908     21.132922790321288
Cu      5.295157344876187      0.270992058886023     21.967792827837542
Cu      1.283874241315864      2.040288365614097     21.427357300601987
Cu      3.765689739079839      2.119055229918424     21.661984203529485
Cu      6.149345436846864      2.491440498281349     21.535325052216407
Cu      2.563376399436618      4.224355917799611     21.784778348593782
Cu      4.932252368325637      4.615214570313109     21.546544206108980
Cu      7.277784435300840      4.584358939526357     20.939142829865308
O       0.154629391072936      2.118116575271608     22.908962002060608
C       0.053689443700372      1.417650433705472     23.948204654399561
C      -1.015491001302671      1.748816383106569     24.947337178467439
C       0.932307499753010      0.248665242911946     24.233942008727727
H      -1.924611637926988      1.173454122704703     24.717574183659771
H      -0.680490965411475      1.463356139714075     25.949097352767865
H      -1.248800156684150      2.817391934556229     24.908502849040410
H       1.975148639543147      0.451213435382390     23.956332144733732
H       0.586776742233221     -0.626524856814137     23.662226094222405
H       0.876293927294194      0.006516446976499     25.302090337925122
