46

Cu      0.464801851037287     -0.356045642881456     15.398368037455787
Cu      2.816372359110880     -0.216376597303534     15.615263074978690
Cu      5.251766546392576     -0.056195001228301     15.828359717113917
Cu      1.439759485899575      1.806161192568837     15.222534312344992
Cu      3.841408648459157      1.976711277310931     15.452814066443834
Cu      6.271272211101648      2.099951260672711     15.502531937558034
Cu      2.494513374735338      4.067551570306326     15.121458432657040
Cu      4.865366163708213      4.207172515591774     15.284565699252878
Cu      7.299920096376604      4.221192902920824     14.973490968502368
Cu      1.367911796284852      0.600875339945636     17.404381688978862
Cu      3.866059763583146      0.752590967396724     17.631362416737598
Cu      6.350726537167179      1.053365119601487     17.778693445178838
Cu      2.397864495292817      2.903245704306789     17.187127230746320
Cu      4.970836447869247      3.020347131185691     17.476954855271334
Cu      7.570566296750162      3.204259590146807     17.202664138748126
Cu      3.644751122999238      5.056601224055036     17.386752529008351
Cu      6.289844240743542      5.218512260321556     16.942714938616316
Cu      8.705605701876030      5.263205926797343     16.591992621106520
Cu      0.183142159294269      2.428741184837003     18.490012974632670
Cu      2.448087774161773      1.828972337543014     19.290068818922773
Cu      4.865813590684396      1.310089694765610     19.814841148272304
Cu      1.681042720968856      4.300309305105302     19.031719615240991
Cu      3.977473664694053      3.674406217761372     19.676016190384679
Cu      6.525895712050099      3.071012100891868     19.402779595475945
Cu      3.227303003899884      6.090636867981896     19.612185096360587
Cu      5.551251462756081      5.414391676285589     19.186726921892507
Cu      7.935634751181567      5.024630852045865     18.829527054632621
Cu      0.637428095486398      0.404248683600629     19.804887277143507
Cu      2.960215792108945     -0.065212227923840     20.652747159334773
Cu      4.845614996515785      0.532762114732861     22.077345090889406
Cu      0.812073708050710      2.740509821578473     20.818211652914616
Cu      3.158688753530415      2.227983781447580     21.598596214058027
Cu      5.505630976830918      2.938478754421941     21.633033037835762
Cu      2.334817152176723      4.576890633090635     21.363741047805458
Cu      4.665443689127158      5.274561411357449     21.459642435360124
Cu      7.007270589730189      4.801135895041800     21.065161219690172
O       5.506166292258352      0.062786118421996     23.771373942559130
C       5.322162235036680      1.151368983154304     24.421640270794725
C       6.483191476347065      1.969468743958621     24.891870995946515
C       3.959845474550586      1.641980310772450     24.786719340165412
H       6.577719861765450      2.877701950552682     24.269821980223586
H       6.311456335646183      2.288592302158297     25.929626362947175
H       7.411021869637403      1.389040279792028     24.818428387910807
H       3.214243510409261      0.853157459890722     24.650457743138613
H       3.675328485506859      2.497371359236274     24.145675646359614
H       3.963482984776409      2.000342041562018     25.823696093403285
