46

Cu      0.307776786883824     -0.272888070868399     15.613357778337420
Cu      2.656093418714559     -0.122756278341666     15.339548123133406
Cu      5.063473084041932      0.302440205790415     15.300133338975719
Cu      1.125216619895706      1.881178191896491     15.029629338546506
Cu      3.400114933247473      2.125508710176287     15.732224471791726
Cu      5.765361679721392      2.617874132469472     15.421900247925757
Cu      2.083145672956460      4.077106977716070     15.013223110489401
Cu      4.218762745410988      4.531130015172980     15.984418280846693
Cu      6.562592128113327      4.857043406346427     15.156801411383634
Cu      1.562834062986716      1.015371294556086     17.209373581261335
Cu      3.967744872886667      0.349719920321364     17.437354222104851
Cu      6.403110767927445      1.099833640008360     17.226185178196005
Cu      2.245224539179559      3.518210747627113     17.364233744341412
Cu      4.728227199296170      2.830000965780394     17.709846029855790
Cu      7.625043734945507      3.263303252645117     16.848521755452950
Cu      3.882478356377578      5.091026955433922     18.430274360770387
Cu      6.133405634084653      5.002117208889015     17.498777722149100
Cu      8.362200753159890      5.535557120593634     16.567483962981004
Cu      0.498295723760883      2.491220797089865     18.860570913297067
Cu      2.883468332895588      1.802350957143942     19.115642519912583
Cu      5.278765286067000      1.001231372365738     19.417208991502399
Cu      2.138623947954975      4.068876384254116     19.836500400824725
Cu      4.510390672225565      3.337536552614119     20.184357754221818
Cu      6.778699839446130      2.884826595865111     19.127329325830026
Cu      3.755149155487292      5.629576649765186     20.815136713766456
Cu      6.008954224572103      5.217291921278819     19.896824980239550
Cu      8.208190100733130      4.804846392678994     18.831615577079038
Cu      1.097825315277412      0.189250450814683     19.478352052715980
Cu      3.434376913593724     -0.506910581862789     19.846616335232142
Cu      5.406611088469210     -0.368942278672135     21.352103000917328
Cu      1.412040990257386      2.056750220202176     21.072223072254353
Cu      3.754381898277191      1.357282749366542     21.445739134224279
Cu      6.191816088697462      2.023179081006536     21.459319006994022
Cu      2.949723346897579      3.614527351205223     22.157527323331585
Cu      5.540143450030992      4.379912338974312     22.178971002410066
Cu      7.684519217337016      3.968846398799339     21.107609791933648
O       4.768274998852156      4.738180658982610     23.855109291213374
C       3.803006211844163      3.881060497849348     24.066243098352984
C       2.433383000213301      4.367429662453190     24.477479794026149
C       4.127238589339923      2.455903320349111     24.440403561209106
H       1.613308802771364      3.809408112246136     23.992196968184835
H       2.306227336440989      4.191168671399939     25.554976925325043
H       2.313300835255066      5.433225576898542     24.263567151574172
H       5.182194663516309      2.239185020585829     24.245333145267587
H       3.518926573171191      1.740036577769998     23.857066819521631
H       3.883502651829251      2.290393494890008     25.499271166739163
