46

Cu      0.510637622823657     -0.575398265028448     16.095962599504166
Cu      2.887429079793847     -0.333955073889446     15.865740054212861
Cu      5.343911805122358     -0.038579772824425     15.660748799213712
Cu      1.331062522147064      1.643005746053122     15.915939991152285
Cu      3.779724644841945      1.898664209610450     15.597308745287160
Cu      6.189060124597256      2.174849042263975     15.274147991741835
Cu      2.246696834838234      3.903741454276286     15.725274434044882
Cu      4.656613797352604      4.127909311130553     15.113058777316539
Cu      7.064852416540222      4.303532358424984     14.554675772993171
Cu      1.750415178453862      0.316933855353552     17.924775623856696
Cu      4.258971567019542      0.600330414128046     17.688731905687774
Cu      6.708044126110121      1.148889471542164     17.455700350377054
Cu      2.757456985817164      2.595279619470195     17.722828454111465
Cu      5.203428377661975      3.057578416582686     17.448661976756259
Cu      7.667241646436208      3.400745775343961     16.782035368756969
Cu      3.781224413490571      5.048201086042535     17.211352654087548
Cu      6.207583141156134      5.307697282516759     16.578306701474556
Cu      8.557084037808938      5.513646717090535     16.002019435603010
Cu      0.394177213445608      2.383362915935239     18.142826571339693
Cu      3.071254496220130      1.226205577333939     19.794032803711016
Cu      5.456581655320222      1.517776140216422     19.562341994292581
Cu      1.683437703194640      4.675464006912808     18.457216432306868
Cu      3.823317956205425      3.759367335702463     19.540886345350824
Cu      7.092385567990918      3.219914829306169     19.132755860402341
Cu      3.427768683335438      6.346351608676366     19.199641536407047
Cu      5.629804252485811      5.239954952877617     18.907084849598345
Cu      8.008165665927852      5.321690512422379     18.336269148634706
Cu      0.643375408124248      0.781331293337251     20.027468943763783
Cu      1.980669401398098      1.256610724117187     22.019286508866916
Cu      4.536408224239118      1.245078455339164     21.813050446215911
Cu      1.481542439623130      3.009847114969671     20.268043827301181
Cu      3.331442462605482      3.395618712477217     21.881439706800830
Cu      5.722242250749136      3.291419098383990     21.181576038517584
Cu      2.164073136013418      5.272340701404702     20.890812921722265
Cu      4.663021565253466      5.467338217020048     21.165488772811202
Cu      7.193229119566899      5.152531437110975     20.696776878232324
O       3.387660204186054      0.549839612501874     23.218087316365352
C       3.576272511438188      0.943246445050419     24.432506301171863
C       4.939857363785189      0.955094213262442     24.991731739516680
C       2.437572873805342      1.421592476562025     25.237713362203234
H       5.376328615958682      1.964256870708891     24.911821902398085
H       4.892427180238617      0.712919816976025     26.059736680039187
H       5.597365097685145      0.248428893293596     24.471122041290457
H       1.490794775774551      0.967040010587295     24.914091115973868
H       2.344757655092454      2.518537940780145     25.153862217369820
H       2.628467059364130      1.193255296614622     26.293640554229125
