46

Cu      0.460044624579236     -0.379890961494335     15.369990057346447
Cu      2.812987994540078     -0.250693747428611     15.605102638248907
Cu      5.241710081521616     -0.072841423632760     15.834522418019251
Cu      1.437164809422972      1.774531065808356     15.196677638819615
Cu      3.833969274069845      1.949014494589717     15.451416773746914
Cu      6.260232615938915      2.083515466750150     15.506698519505871
Cu      2.497564394230278      4.042419126582231     15.096160790751526
Cu      4.856912631178842      4.189905320381242     15.308468997782180
Cu      7.277806269154585      4.211806938703307     14.988022643992281
Cu      1.343588977624891      0.586712990175739     17.384889329086899
Cu      3.839066842229790      0.718472169414263     17.632120629623426
Cu      6.351539518779452      1.035294626292645     17.774797336131616
Cu      2.381599226142106      2.894292223380778     17.167206529590125
Cu      4.948148472041044      2.986254121129717     17.490736827850885
Cu      7.563584180756891      3.179068599054136     17.218382563355060
Cu      3.641417737776369      5.050152201066440     17.404397156673557
Cu      6.272482422336798      5.189155861645762     16.973580669456783
Cu      8.698677757390833      5.233780412759311     16.606520236216884
Cu      0.164510264118253      2.421634846096217     18.462260207108393
Cu      2.425950682643045      1.827619171332854     19.272060345561620
Cu      4.854490502119784      1.306072951473339     19.788754135149340
Cu      1.668270542818191      4.287900764629805     19.029280358818227
Cu      3.960023295746257      3.671768806839370     19.686655676191858
Cu      6.510906297907040      3.081955073867189     19.402553299804968
Cu      3.212597471995827      6.078651401960126     19.637271383332518
Cu      5.530759499914464      5.427063456207931     19.213825948229772
Cu      7.914541728400167      5.021609991595042     18.849303946704524
Cu      0.622203904917327      0.408693989035607     19.802066637266712
Cu      2.968044668522277     -0.078728855575944     20.606281368826391
Cu      4.873959572443992      0.591781077836107     22.067796091798357
Cu      0.781375687410293      2.732706368002771     20.797930084724307
Cu      3.111221096865633      2.190614910807109     21.590467760241626
Cu      5.474370054092653      2.916240325176789     21.606397189777777
Cu      2.305248138076954      4.554288685134918     21.375389550426135
Cu      4.634779478298786      5.245687136457184     21.494339099090379
Cu      6.976187670101629      4.798463550315815     21.088336649997224
O       4.879709551548943     -0.503514606320342     23.585858713585857
C       3.925872877439299     -0.242053972272182     24.381053384224561
C       3.459253958372628      1.147339956826045     24.644777133537701
C       3.196491590292861     -1.348245848528286     25.070795629693130
H       2.594702806350484      1.389816753616598     23.996729062032234
H       3.124727214623971      1.224565190371859     25.686283858813432
H       4.254386047485146      1.877235690299172     24.445675250638590
H       3.757704698480985     -2.283383692930132     24.994530185671053
H       2.205416458910424     -1.475938447109977     24.611136936800683
H       3.043013616018083     -1.077306349022636     26.121075804431864
