46

Cu      0.589910783076717     -0.317290193809640     15.241254031998434
Cu      2.928517118875162     -0.153828080695467     15.572161671156252
Cu      5.348237754815582      0.022853878460758     15.831067941571833
Cu      1.537562179165058      1.859805918254126     15.238891109854700
Cu      3.936644664504708      2.050179947791903     15.457616078224870
Cu      6.388372572851271      2.163005456723837     15.532038315253583
Cu      2.597590656099499      4.131891986726258     15.266873660582007
Cu      4.970496790439731      4.304286095112086     15.301340176935133
Cu      7.405333630649070      4.317707789139891     15.124728807887445
Cu      1.385096086001556      0.531560702142919     17.343376105077926
Cu      3.924957798193784      0.795785070257561     17.630641385411160
Cu      6.365726574764066      1.067932780294244     17.854270759291094
Cu      2.451763627868740      2.855581742400684     17.290297596648728
Cu      5.067272543734302      3.058426899834709     17.424055176632123
Cu      7.615288874989470      3.228574450367543     17.329636012911255
Cu      3.666461110147905      5.056154273848059     17.452700815341846
Cu      6.319533465675921      5.249232073678558     17.080666857418766
Cu      8.743234542670466      5.325371569905559     16.821661570546382
Cu      0.160448655935697      2.262536961148768     18.529010532376237
Cu      2.405431130312600      1.582552726666540     19.319475774451160
Cu      4.796343165454625      1.132529299503218     19.965088462041809
Cu      1.564250187218477      4.112140943527569     19.177522858558365
Cu      3.894891024243037      3.478779046472189     19.502844810173624
Cu      6.443026713946948      2.985273425765823     19.500863674895644
Cu      3.132466148650756      5.869416771135928     19.770216182476098
Cu      5.460664454039302      5.321131526429096     19.306659481765589
Cu      7.864323952080382      4.997333784149119     19.013707400505190
Cu      0.516350204456047      0.191561342782890     19.736947326095404
Cu      2.546567758010242      0.078173444620959     21.136351208450638
Cu      4.556054780181791      0.394072621591083     22.366523800836291
Cu      0.850820588271390      2.413439447082633     20.901680195886350
Cu      3.280554129920475      2.362410195277610     21.603227205878621
Cu      5.747638681224531      2.608700922502832     21.810401599880564
Cu      2.065116485137677      4.490354219932090     21.504506781365379
Cu      4.485162388411308      4.697063223300751     21.524397073310013
Cu      6.883267288423927      4.702626564038681     21.199526297007822
O       6.491186300670053      1.966300363460997     23.432425764974916
C       5.555235917151042      1.242233302192491     23.989268675501865
C       4.410329980746449      1.904475424820306     24.719390325080813
C       5.857225704429906     -0.188753512336409     24.369210981819347
H       3.441269551635597      1.643236020655040     24.263006210881283
H       4.389791971332486      1.551597096215360     25.758736335519405
H       4.517470839738984      2.992886487431763     24.688338137456771
H       6.936033951269503     -0.370442601379111     24.305150260643710
H       5.352959094346356     -0.947133146098826     23.736136443989746
H       5.508218302839613     -0.359568689882108     25.394689683352649
