46

Cu      0.076985767370960      0.203417780771178     15.444228109569869
Cu      2.443947640585821      0.124428569016099     15.324489396626760
Cu      4.911321882913755      0.072752082487572     15.100529514437547
Cu      1.274162247255001      2.243925426016217     15.241827114066419
Cu      3.736136626305298      2.200698930852581     15.129314718062213
Cu      6.231440532626724      2.159291216928536     15.060289770499219
Cu      2.580667340855157      4.328702179953821     15.078227870509409
Cu      5.030033729252873      4.347838081283552     15.083255262617405
Cu      7.480856588781255      4.272875110605138     15.180488398806261
Cu      1.261878757283769      0.940488527701997     17.384748635551588
Cu      3.831007193500000      0.762034624616796     17.189565057569723
Cu      6.281566633678962      0.703293618630425     17.025446574208356
Cu      2.563109833915671      2.985776527653431     17.163678268585294
Cu      5.083958107535383      2.905328822841537     17.121596889850370
Cu      7.525046457896589      2.821212378998819     17.107454988705147
Cu      3.792495376181502      5.148209787439558     17.051684236252726
Cu      6.286992052611795      5.087307005493344     17.124912141554987
Cu      8.649611747148320      4.941866877047805     17.244879113144684
Cu      0.605064807269731      0.846530383093861     19.776614618407876
Cu      2.820721190141435      1.451896259638643     19.251198886101875
Cu      5.288460745260975      1.455118114355372     19.176718610392598
Cu      1.428612684613553      3.466157432656406     19.271586214482486
Cu      3.915963568956715      3.678660564541446     19.137728552429888
Cu      6.439660132980070      3.661743128980932     19.159005439322176
Cu      2.544315313973115      5.717276185845198     19.060624801674813
Cu      5.028941684851598      5.859549591798702     19.082570917033951
Cu      7.486604199436488      5.817443210530324     19.169082348687212
Cu      0.337418229041860      0.364876999918667     22.102348337218046
Cu      2.610107931213977      0.238560137099707     21.336460462296344
Cu      5.037554823070005      0.251438266808246     21.257953074288437
Cu      1.491551146756813      2.369796643584271     21.418013421324105
Cu      3.939150984407619      2.349982799644686     21.234893556751025
Cu      6.364842575784783      2.332531379195798     21.241295380435528
Cu      2.684078327945668      4.495550928975721     21.149222769324258
Cu      5.167757141201613      4.494116766354013     21.134129290406126
Cu      7.554000732322144      4.467670982628666     21.164557753662887
O      -0.564751595116550     -0.430352495909212     23.462247380200271
C      -1.071262761301284     -1.013705779424981     24.442491379059316
C      -2.321399319413731     -0.489099109783098     25.081761367003008
C      -0.473347981206158     -2.265964096361576     25.007715950046418
H      -3.203377546297541     -0.832949033703296     24.522624212403507
H      -2.397440025426712     -0.862446201291561     26.107076517230468
H      -2.313556372270480      0.605886403856191     25.076632808885417
H       0.619296301558391     -2.221038189434195     24.955568963585090
H      -0.814483524843038     -3.140960259383193     24.435797608754577
H      -0.795376948496301     -2.392822878396009     26.046046215507072
