46

Cu      0.220517827444134     -0.235064899697712     15.979350887557780
Cu      2.600259397469210     -0.110409909488364     15.530007557918703
Cu      5.030559739960684      0.131121677236695     15.164515907713904
Cu      1.196098450809226      1.910796235368163     15.963567944310261
Cu      3.600216176897969      2.112629569691450     15.504265369420024
Cu      6.022152563016672      2.330847088678744     15.058073654017402
Cu      2.217911152862989      4.136130304479518     16.093507374499229
Cu      4.599480171585030      4.364138603814966     15.343670711624043
Cu      6.993286228846866      4.522417410552676     14.768240022890692
Cu      1.715510305074541      0.253648332010001     17.748370632054513
Cu      4.174402154311730      0.493277588582172     17.383971187344248
Cu      6.563369586120515      0.929208722451242     17.002246214539117
Cu      2.751309890503790      2.490008518464007     17.832463911905776
Cu      5.140051241821371      2.894403171030085     17.335269914355997
Cu      7.643028221387527      3.159590282435920     16.727255015247835
Cu      3.883809292051583      5.041832452224114     17.595135225856950
Cu      6.302050624824314      5.135030176285791     16.988158978451654
Cu      8.635425077630112      5.328225669368869     16.344411954032623
Cu      0.362850776451981      2.245041549611128     18.272565110941830
Cu      3.211357445010879      0.810921148707236     19.653355719368903
Cu      5.553348674760688      1.291765521328335     19.266751427614349
Cu      1.788727865738218      4.512735037177841     18.778288100377342
Cu      4.080399307174335      3.496969656854307     19.621940484700541
Cu      6.866833953855216      3.311321380333028     19.037222346215270
Cu      3.424532967766021      6.127529192744174     19.727562500451931
Cu      5.686155799954772      5.444997003937954     19.275732623900513
Cu      8.078395510496932      5.329918244136963     18.676340012695494
Cu      0.766416306990380      0.421306749877776     19.939203227367461
Cu      2.290682459880976      0.596864350892610     21.855892432657352
Cu      4.765973701060279      0.643085512917399     21.517681597686735
Cu      1.684028836340943      2.589963361212560     20.305392071169372
Cu      3.553088022940024      2.685415552011946     21.904548689334160
Cu      5.928337389212436      2.768745188748821     21.219198792353922
Cu      2.333448627243474      4.707067139291566     21.260280325176460
Cu      4.786585803532727      4.918632052937834     21.497436993477606
Cu      7.247651653780106      4.806568198047309     20.964656420320370
O       1.487126458557457     -0.057482233167286     23.411782830226990
C       1.198923138219717      0.727560333676926     24.359203783766308
C       1.885232278793548      2.031210399728467     24.568716428222537
C       0.102083203204111      0.373215184858535     25.312579212001694
H       1.354528597267912      2.826202728066815     24.019648988912813
H       1.866455278762883      2.284349017290424     25.636987689249693
H       2.930437982477985      2.005975897127539     24.213791300358281
H      -0.178912530838734     -0.677061101504554     25.203873818248773
H      -0.771392432357821      1.011713282110401     25.120133948085769
H       0.433558766597433      0.582174836190699     26.335332680963592
