46

Cu      0.319927003275233     -0.466410654444989     16.240911698093214
Cu      2.698534620138928     -0.311015399292399     15.985080206089959
Cu      5.156709116083885     -0.099671665797183     15.764412384337810
Cu      1.223785948266133      1.720187146091650     16.104414103881343
Cu      3.664041982031543      1.896568765468160     15.759941693030854
Cu      6.077450443829194      2.091670169741528     15.390773349043023
Cu      2.199763411248527      3.961612423705052     15.989170060662666
Cu      4.603230613227867      4.106505897580171     15.317498109150526
Cu      6.992895313107947      4.221386510503627     14.714953894870675
Cu      1.620219508894970      0.338015678386209     18.076262650677862
Cu      4.117412475610660      0.539282952783777     17.820611410277230
Cu      6.578899187605939      1.008570473993221     17.548957267552137
Cu      2.699792575708950      2.569442437728467     17.931645505554531
Cu      5.149008336812976      2.967988508180303     17.600066454136286
Cu      7.618479560935053      3.234125514669925     16.896925922044982
Cu      3.816682046857363      5.027763092232396     17.443157103959692
Cu      6.232769173094922      5.199506836957514     16.781169638983592
Cu      8.563366502443623      5.338038300933198     16.152380536964785
Cu      0.329021651614237      2.473078871547407     18.319049257621295
Cu      2.987795611198897      1.147859170905490     20.005846183356873
Cu      5.374400132100107      1.373837121323536     19.675504740579530
Cu      1.728751916215008      4.696011454612576     18.688449598475923
Cu      3.853406811033765      3.665314790070828     19.741895178415216
Cu      7.058282372746620      3.038111131675354     19.246565302449866
Cu      3.526047225157060      6.273954572854620     19.479958927821947
Cu      5.683224581271864      5.128315111845274     19.107588767149501
Cu      8.061146786555335      5.118256384927925     18.495626854168041
Cu      0.534376040337912      0.821364855384621     20.164833242574016
Cu      1.791068544347077      1.276550261734285     22.200218044317285
Cu      4.556800606270210      1.008501349549715     21.915552421890677
Cu      1.480534077968591      3.005278106214545     20.441653709969309
Cu      3.391087300419717      3.173002451258709     22.082455472871331
Cu      5.766341568479820      3.070554555205401     21.334454391405583
Cu      2.292677082075494      5.166127916734662     21.165511333633159
Cu      4.781928589835927      5.281841678179119     21.394613261302236
Cu      7.274703587987124      4.911430836786615     20.858998781521283
O       3.960836443173100      0.040944486772075     23.415587472708619
C       2.915900059214574      0.688743023554200     23.867643189388794
C       3.091320109640059      1.985521698854160     24.630534411002905
C       1.657646308802549     -0.082642395852107     24.186808428576803
H       2.319064356582142      2.714532042225287     24.341057850875142
H       2.967311221016460      1.790981987764080     25.704067485957523
H       4.079079572669147      2.422585048327174     24.446385114622256
H       1.651371154479435     -1.047686597497193     23.673852924589738
H       0.730350826353025      0.465824448612549     23.944290689507408
H       1.609808283513702     -0.247226436622052     25.271246563156009
