46

Cu      0.770330716342100     -0.491393148130401     15.094646891729022
Cu      3.118579825294459     -0.299789570652661     15.341838236759333
Cu      5.505406545918480      0.184867514935033     15.705401987080126
Cu      1.558101044664583      1.729306967188760     14.851200317721959
Cu      3.804052534860224      1.975104405949308     15.619563902749503
Cu      6.159753831101171      2.520600326695303     15.762654417291781
Cu      2.601143753907612      3.845246639692147     14.496200525956722
Cu      4.493185311685642      4.409672337279527     15.821300275884440
Cu      6.946221296162687      4.756789622421230     15.443095713570626
Cu      1.638962700687014      0.698238274092159     16.995178558324842
Cu      4.019675839395703      0.379240990595338     17.584706685059803
Cu      6.422888064540079      1.184342563065262     17.792656642622859
Cu      2.260962575688410      3.373840490835263     16.852272758280925
Cu      4.646861828205854      2.875415015914586     17.775116580906662
Cu      7.672068708449049      3.343256189969881     17.463809289741853
Cu      3.629763791079416      5.152744578047556     18.069031919375583
Cu      6.040691380855556      5.065701299698341     17.625620324618772
Cu      8.408152283156500      5.602883298762005     17.124307507550476
Cu      0.272286516488416      2.449429514451762     18.101046903736851
Cu      2.551064631151560      1.909511509175713     18.889081791753245
Cu      4.873974366399058      1.212770324928404     19.722270386167875
Cu      1.658028213203348      4.214683410655058     19.166070919393214
Cu      3.937759834429136      3.592443386923537     20.060717818920569
Cu      6.380883493204678      3.111143282475988     19.561787156929483
Cu      3.035743435331411      5.901518267032018     20.341578213367004
Cu      5.428867685403718      5.478500488909850     19.927510925331347
Cu      7.797837827740969      5.050601836766782     19.353546322786507
Cu      0.711072925779032      0.304615324664056     19.222607540762958
Cu      2.996451916331757     -0.295153388892934     19.899575675997220
Cu      4.580458200496317      0.046737057520671     21.781354647413245
Cu      0.705475602254722      2.383816420272917     20.510802382986924
Cu      2.955179197674363      1.731790764330220     21.340840078603350
Cu      5.328826390966146      2.429601033260348     21.786847994917895
Cu      2.076994609719817      4.055052950596946     21.619211143313603
Cu      4.423728145706781      4.812266427039616     22.143808756060679
Cu      6.873875267477835      4.377164078049162     21.562571937156537
O       7.727493610176190      5.035185648767737     23.103936867797781
C       7.025099195408663      5.530623534459569     24.026995014605070
C       7.589009004799694      6.585147001304025     24.919639121230489
C       5.615304528766824      5.118737123423046     24.277672231173938
H       6.931080184355538      7.463643679697742     24.893647164503442
H       7.594523961621602      6.214127077215521     25.952188914871773
H       8.602075357496249      6.857377381768352     24.612626833601187
H       5.482529532190684      4.041194663948493     24.091403072563200
H       4.893044232602069      5.753761463299087     23.696964861927938
H       5.384648725663925      5.306703641336491     25.333674791676813
