46

Cu      0.118018675633875      0.077613787155059     15.434706845858807
Cu      2.483872659712476      0.021601106595783     15.430890156255975
Cu      4.929682626999300      0.000877199022743     15.332134006005205
Cu      1.285626894118086      2.148254792967799     15.272740816093510
Cu      3.720953446278957      2.118112537726701     15.263192950337952
Cu      6.203424854983496      2.086853197300976     15.190495620898304
Cu      2.551939185780148      4.251649287208234     15.150020143567733
Cu      4.988906277859518      4.267719441886409     15.134348699195703
Cu      7.433150347300287      4.210198717510227     15.128943006097067
Cu      1.244901547296647      0.875288424817267     17.389318121741084
Cu      3.774514590752556      0.748799300595597     17.365408034777328
Cu      6.242518970972542      0.731335710433585     17.251052855418916
Cu      2.485370406200266      2.969646144777513     17.268143698640131
Cu      5.032255597304078      2.890685549496940     17.233835247657485
Cu      7.507111514281500      2.856760240935492     17.137893986506430
Cu      3.759451853184429      5.117494434952286     17.109710717309142
Cu      6.288383873728294      5.042440157038757     17.103765948414750
Cu      8.668280146429298      4.965419374606042     17.092051975958920
Cu      0.293054255861695      1.560594696295776     19.523500965246800
Cu      2.659683724871561      1.536984928326446     19.386478494580498
Cu      5.163168298765266      1.475174498387778     19.348696814446388
Cu      1.417458059936265      3.776047174540946     19.337807544026095
Cu      3.877625150471784      3.745041138299939     19.219131087332158
Cu      6.414061234866699      3.657974121985301     19.201601213283698
Cu      2.673960214817888      5.901928267287386     19.167030211975742
Cu      5.118681486538121      5.881891843250689     19.072453259158667
Cu      7.568952853113829      5.767330264830695     19.079240619713485
Cu      0.329283128110665      0.500503885049243     21.641405714594342
Cu      2.744032484547744      0.391570408595773     21.534021228331742
Cu      5.147299167747268      0.372870655762914     21.510691764351005
Cu      1.544493322125747      2.511011049395127     21.400136500327818
Cu      3.992458334865612      2.464391436720498     21.330274135012917
Cu      6.422765866342445      2.430543744340997     21.322304304506588
Cu      2.763065397106474      4.635998741972399     21.246352247395965
Cu      5.228346690454194      4.596526229188713     21.161581607346367
Cu      7.609334785123456      4.551013019152660     21.144918281657283
O      -0.448474888830623     -0.561331317453580     22.937838892896409
C      -0.546135240519065     -0.264205158736122     24.163174652069699
C      -0.495737027090207      1.144159706689904     24.646106630009182
C      -0.705939910160166     -1.376576487464280     25.155050498889668
H      -1.340215421681201      1.717273685049211     24.234469343560882
H      -0.561948178151890      1.157527457747981     25.738216000716282
H       0.443349331031119      1.632681793406813     24.342131741578715
H       0.169355381699269     -2.038719302683979     25.104023851418816
H      -1.602129442412966     -1.963956814922071     24.916422995837308
H      -0.791881355875765     -0.971512335960066     26.164868647678325
