46

Cu      0.285512807787830     -0.335531153498399     15.986989004082671
Cu      2.644003788670619     -0.260107325023251     15.707162057004007
Cu      5.077884489695673      0.131499671684313     15.591787600180396
Cu      1.107488871826213      1.822662605166254     15.460013141010212
Cu      3.463208470413610      1.983564508438534     15.807695838197235
Cu      5.827751539757504      2.448328785551097     15.498418599541164
Cu      2.158126568335355      3.892484962128255     14.905823349137117
Cu      4.282809903816494      4.392944712363378     15.843870396690209
Cu      6.632170283133615      4.647080365466401     15.031474576557368
Cu      1.599628094871043      0.876593436223389     17.588743988696699
Cu      4.011427701327714      0.415443447452153     17.727071644270151
Cu      6.426754872220033      1.132894758787280     17.445331299024584
Cu      2.239184762627397      3.454590908661865     17.290295357540153
Cu      4.724933088049102      2.881752547136717     17.746731393744582
Cu      7.674813678980827      3.248948914272932     16.875781026828736
Cu      3.869541046721455      5.200895890017341     18.185189442339652
Cu      6.157404774994571      5.011690509315020     17.346704866442995
Cu      8.386561242481843      5.493642400208205     16.406223201739898
Cu      0.503963125563309      2.623794669077329     18.912724074205709
Cu      2.881066825999650      2.013085602571132     19.310961569339021
Cu      5.278275247759392      1.266882767481526     19.631794766408209
Cu      2.112153515857091      4.365598054403681     19.652525359834090
Cu      4.466102698980650      3.653319071992779     20.149642098080669
Cu      6.766605467207610      3.127615288695041     19.153197113865193
Cu      3.748673737348547      6.051873644832694     20.476432685561978
Cu      5.980086762543892      5.492505951070249     19.697804105945838
Cu      8.205894456093827      5.011475869818838     18.726039388134051
Cu      1.109421326855204      0.469949858405097     19.953653452392047
Cu      3.457704184912294     -0.188472256135810     20.221249342353744
Cu      5.461962459650659      0.090067817380216     21.672180275473032
Cu      1.377323465499235      2.582856076577984     21.173103498586695
Cu      3.772411971371258      1.822235469366170     21.697073779186507
Cu      6.218975381425281      2.466765716705313     21.520376347442223
Cu      2.907686409635375      4.388227314013598     22.027562942046004
Cu      5.420604335488281      4.816152908210275     22.055907800165507
Cu      7.639187053776529      4.411027592770242     21.042959019112399
O       3.400203375252751      2.116672981926562     23.537989238537278
C       3.418428799843380      3.387881354601535     23.804800089697771
C       4.684210292042314      4.035170637365310     24.321820818115427
C       2.131243742555068      4.125746457696973     24.105693767548942
H       4.891891928291912      5.025549499955481     23.840500469742977
H       4.531698738477829      4.280528136436749     25.382034489681004
H       5.540472657004026      3.362701980972697     24.217533363629261
H       1.285690827509101      3.434615331457413     24.160101367060875
H       1.851765576721957      4.929532094296127     23.374786643150642
H       2.262929958212430      4.664007674729853     25.052826168862822
