46

Cu      0.009652966663801      0.437742260921142     15.715309278392052
Cu      2.347310297523855      0.333473449561768     15.338669388188663
Cu      4.713053338268350      0.251617614094594     14.751486015362778
Cu      1.204094796613920      2.444070473264466     15.318984054231619
Cu      3.686814996726495      2.421443214976426     15.064713033994181
Cu      6.105098687540798      2.307563441536255     14.670312554980461
Cu      2.542022468654121      4.523889764701457     15.022943740205685
Cu      5.058333865755733      4.546272196188286     15.031434819710608
Cu      7.377575458240092      4.095264544553102     15.842531213565573
Cu      1.418706381416311      1.059673842420796     17.553627632713688
Cu      3.931187044924970      0.976947542469130     17.036982107488608
Cu      6.299519503263155      0.695491262228882     16.498582575017732
Cu      2.583380188825607      3.148001782943668     17.131012977000097
Cu      5.368911825324559      3.010308665239982     16.921527243704656
Cu      7.756299098218265      2.336815921511663     17.478658209549106
Cu      3.803880007375659      5.215597516315010     16.978215313471029
Cu      6.129305818766940      5.390835514478209     17.451640792196791
Cu      8.394738606069508      4.697245811624761     18.073138153907895
Cu      0.909629305398507      0.651966708773123     19.967476494514933
Cu      3.244227330948122      0.924712443420336     19.322658096923757
Cu      5.669393303680727      1.299161479889105     18.814624935748913
Cu      1.695585976849481      2.834644563796416     19.396225300137747
Cu      4.089636836192085      3.348763047103464     19.007865493302322
Cu      6.519874138443901      3.600245270541917     19.092148579208366
Cu      2.188013441498198      5.129271577223327     18.743692229202541
Cu      4.505055246201608      5.746077576424060     19.303763650030454
Cu      6.931027141849472      5.909289126568208     19.725491269297553
Cu      0.383829979653088      0.464348069169073     22.313518989845182
Cu      2.704816552997221      0.190422889656453     21.571031104763513
Cu      5.040772037356466      0.089423982932772     20.861058872477152
Cu      1.675046964630006      2.424826445326168     21.779350537008877
Cu      4.052312508541153      2.251507623839467     21.232585000787857
Cu      6.468785658566532      2.089317370136852     21.033284274240572
Cu      2.930933780929261      4.427516837863527     20.944972252650143
Cu      5.423875190778438      4.349880196446518     21.099698779598917
Cu      7.874259399144681      4.103658523322930     21.016605619201261
O       0.412773923961335      2.138440998944955     23.262275015229459
C       0.469808812393351      2.821896366705911     24.341049119726815
C       1.702383744832846      3.557306589487073     24.687998841167360
C      -0.720157865570850      2.899467750040426     25.222280222118009
H       1.955272158695950      4.307463269481658     23.919271678863460
H       1.557624449939895      4.065303932808949     25.646941405060410
H       2.559081976734960      2.869552154437702     24.774754592838210
H      -1.360282098744684      2.015940280679483     25.114586377618039
H      -1.312189469466176      3.797875040837082     24.984829264380458
H      -0.377824215836280      2.997581273193451     26.258777609395487
