46

Cu      0.373918347674230     -0.640912605935372     16.313611141900981
Cu      2.695551108254814     -0.436540769746662     15.894437251396798
Cu      5.074761374250898      0.099149814959160     15.599997825695635
Cu      0.987293136205705      1.550541327187272     15.659584152491428
Cu      3.341387001139417      1.856882028116509     15.934776396862457
Cu      5.645933009488793      2.445193440187590     15.408542597035021
Cu      1.859749401311631      3.707553731409413     15.140062513555907
Cu      4.038010371701737      4.301626977432013     15.873394771466884
Cu      6.296182813168526      4.667327792597406     14.829553984794336
Cu      1.694303335444422      0.743446279760172     17.775756655129747
Cu      4.146259123517940      0.329260080324828     17.802117853471241
Cu      6.520687533898476      1.190235778392156     17.303673959925952
Cu      2.181061280616870      3.290112623849449     17.506193740029317
Cu      4.738181357357364      2.831224884940509     17.733567766108148
Cu      7.589699386714769      3.345631901549728     16.584905031200552
Cu      3.803569914495613      5.101821476482115     18.245335037883926
Cu      6.014561424675438      5.031036889386655     17.167171202758041
Cu      8.131662525361799      5.622211294021162     16.023847164254839
Cu      0.642459170198218      2.377648185571496     19.291696980419545
Cu      3.084136898894009      1.880921588012243     19.429319555320106
Cu      5.555542943188694      1.260075261121831     19.574218531678373
Cu      2.218814486580869      4.184043977582893     19.879070434322113
Cu      4.671613396414709      3.611650338269568     20.109667520329065
Cu      6.899918342153951      3.186823200109311     18.949395979638268
Cu      3.841341102156772      5.951465070286695     20.566301918485930
Cu      6.022413910756147      5.533299383336980     19.509085136178452
Cu      8.180622928259790      5.138749197177217     18.359098810490618
Cu      1.478068112441300      0.215362123038769     20.154652840002459
Cu      3.874085979173872     -0.281162187095176     20.353940568906097
Cu      5.981203111651987      0.141569356515774     21.630941604163262
Cu      1.674126455769626      2.321570806104405     21.479153053010602
Cu      4.211948939674733      1.738403819917902     21.725589421135577
Cu      6.544773731571606      2.574709105922386     21.401932558858853
Cu      3.309785058401470      4.179711305118109     22.129585213862015
Cu      5.693647515301739      4.908222756299335     21.875797371977637
Cu      7.842939323549147      4.558379886443970     20.751389221000412
O       2.890153976148391      2.182352286635914     23.138617218775419
C       2.138794696057628      1.385540758673980     23.835717682331769
C       0.704927078321097      1.681524681221718     24.010990592939685
C       2.710825457521384      0.166657090210590     24.425698082396423
H       0.089666320548493      1.084782870268497     23.311831434396073
H       0.408271098530085      1.386533455829587     25.025316619076804
H       0.475969458042671      2.743225461584460     23.843396493964438
H       3.808111403930965      0.164096393350782     24.396686323018368
H       2.342892059070288     -0.728971232922342     23.897040455718134
H       2.363363825891108      0.079173555013594     25.465921597909244
