46

Cu      0.104975045782783     -0.101154876387197     15.755346307255444
Cu      2.472453212759213     -0.099990468545709     15.652913304058622
Cu      4.893502499453192     -0.029839507303256     15.519409508380495
Cu      1.180823963749049      2.007481409941774     15.615185375828801
Cu      3.594284567422352      2.060416449010976     15.502457467019314
Cu      6.061327799581880      2.089073909902726     15.262414405084913
Cu      2.368793282976985      4.163306392121812     15.433682298591592
Cu      4.794494900245668      4.237453732818831     15.233038656733498
Cu      7.231315129158603      4.205023333413727     15.027079965922523
Cu      1.340391315932053      0.650906222305507     17.671249183192600
Cu      3.807844646631643      0.715127787838460     17.588689479700683
Cu      6.269854640890068      0.798299530928264     17.349273425029931
Cu      2.407476584407704      2.921583529623917     17.568738635551782
Cu      4.980485085282783      2.915366704723725     17.356527684308393
Cu      7.482440550782152      2.932737336941849     17.093730814624688
Cu      3.704126032813482      5.121260430695614     17.281542450965755
Cu      6.247254705804715      5.061120029264240     17.080196417658538
Cu      8.631498754022358      5.043318845063339     16.819047812801664
Cu      0.444368145043359      2.060060990129699     19.400607774172006
Cu      2.818012190763897      1.643087106223685     19.632187650419922
Cu      5.265021466565561      1.560398350939017     19.466439210737818
Cu      1.542378727275004      4.187383522497184     19.543155328771103
Cu      3.962064169781214      3.859641798318301     19.388957746953267
Cu      6.486863161571185      3.692260699874493     19.219977778424408
Cu      2.922223794982227      6.165124475555620     19.364177064896907
Cu      5.304130985464522      5.944625743392282     19.114427920901978
Cu      7.748371605859992      5.704132905437425     18.945048363876616
Cu      1.299328486963787     -0.150920811315306     19.965694015947722
Cu      2.691837754926791      0.554650700882591     21.867650319936441
Cu      5.083063120151345      0.474854928037739     21.610326520317898
Cu      1.548425869811677      2.768341845917937     21.512451224685723
Cu      4.102274217597563      2.639317700400591     21.536950801434017
Cu      6.530231549555952      2.479168602274036     21.377819797963667
Cu      2.961636616214554      4.841150388596408     21.431487902077944
Cu      5.437099025602613      4.698229400188093     21.225941212751284
Cu      7.810354483488460      4.541710816711132     21.063805095670336
O       1.361678693069489      1.537577801221172     23.033194815994712
C       1.627504566784432      2.325325101282111     24.030482746955862
C       3.006852532058878      2.612330698042921     24.463364882403226
C       0.486455602134702      2.938463709353259     24.753685800764970
H       3.403023921024302      3.509801464046050     23.943176743960791
H       3.007486196419834      2.832913705401433     25.539095689826375
H       3.687395411582039      1.774541478071598     24.247144400634525
H      -0.367539812136192      2.248042630164285     24.797958039539981
H       0.159586012521263      3.869559399984534     24.260842483207437
H       0.800936304023498      3.194851048649826     25.772008329842592
