46

Cu      0.206798932374149     -0.297750689648602     16.053173469175011
Cu      2.567245869422397     -0.137870396873199     15.607058464168610
Cu      4.985691276407005      0.110968166021509     15.200098728407188
Cu      1.151970191025676      1.869503459455889     16.077588737612217
Cu      3.547472418438009      2.088388587258431     15.571082887971789
Cu      5.960644532928179      2.316909677452764     15.078116044476193
Cu      2.170518375853984      4.095685298413526     16.191523713204095
Cu      4.536992281588026      4.348806047222260     15.390513122109946
Cu      6.929169108012745      4.503048479275051     14.779595741444391
Cu      1.689830693125622      0.224130845190305     17.836252269775780
Cu      4.158010919124400      0.466557933026774     17.432823857855677
Cu      6.534838766628043      0.908727736551074     17.018315935611763
Cu      2.755730139156964      2.455273922588919     17.922725550186989
Cu      5.120725920935612      2.880878347121998     17.362392258349910
Cu      7.606025032742812      3.130695501416056     16.726706029747508
Cu      3.858419780481058      5.024087752585102     17.656329855448554
Cu      6.272606394114759      5.114095512012112     17.013134222946057
Cu      8.592918792604756      5.293114357454535     16.337836862436408
Cu      0.384739756292785      2.255246502723355     18.405925383075150
Cu      3.232348657280628      0.752195840822517     19.713142307024039
Cu      5.557474748399283      1.310309848282794     19.294421258732623
Cu      1.782922564366321      4.473299142744910     18.875673051893266
Cu      4.099514959689437      3.492082891721370     19.688967822436350
Cu      6.848960902073052      3.358566092607763     19.041568388136334
Cu      3.395518610631660      6.118827699672337     19.785253091773594
Cu      5.666777299769480      5.486877198214609     19.300272807145625
Cu      8.061646398219573      5.380869189961942     18.674692168382833
Cu      0.787839662073654      0.408770972604397     20.050951699955906
Cu      2.337195396132473      0.589932908089705     21.924161291688225
Cu      4.826263543607556      0.686966678692504     21.556434383523875
Cu      1.762643588958165      2.555622707535413     20.417484605053865
Cu      3.624679783372130      2.724003559028572     22.035081309566507
Cu      5.978445832655739      2.802261834307102     21.240705785091173
Cu      2.357012527745219      4.693650031552608     21.351557296822605
Cu      4.815999666983587      4.947528963080703     21.536235524213122
Cu      7.259188241594069      4.855971146054877     20.965254300012067
O       2.199561403459631      0.009276136769371     23.709985361706536
C       2.324249351812757      1.151222821664980     24.285576655454978
C       3.643342229158786      1.675777899403442     24.753254780583845
C       1.121629579319712      1.969685951058170     24.638387493304588
H       3.828846695657455      2.688706004504755     24.347850725050002
H       3.622383221170149      1.773744832660700     25.847543872358781
H       4.454557929594041      1.012421213000813     24.437084624382557
H       0.204288063068015      1.396664321465564     24.462657969871959
H       1.090908154364900      2.888352208588837     24.031002362281466
H       1.180335712196449      2.275402097964583     25.692188505385037
