46

Cu      0.099995631040053      1.846703631206047     15.704905833974419
Cu      2.150326249952408      0.674670010857818     15.602058112732374
Cu      4.489517880775834     -0.136222025240020     15.536524341129612
Cu      1.787453803336931      2.604181939325350     14.107392550115311
Cu      3.997116233934461      2.209917692647736     15.118925124424269
Cu      6.384551489126831      1.393019001641136     15.092930549168498
Cu      3.657854864934825      4.082463841853222     13.670545536156951
Cu      5.880883002587033      3.782863862725129     14.650817689629909
Cu      7.807818910086323      3.203803877220041     16.116342896920774
Cu      1.156911575847887      1.288821824408850     17.844557661891518
Cu      3.623816440633997      1.168641956105720     17.447477694239268
Cu      6.057808353376631      0.389633778551934     17.307161728377999
Cu      2.077012024844224      3.081544219897346     16.438646649642056
Cu      5.534332573323426      2.751578822383934     16.934275350437606
Cu      7.469138620144463      2.181387673690904     18.405360525090202
Cu      3.995955561173261      4.598289114889405     16.021378477506605
Cu      6.339257892789194      5.112833526876845     16.715945339294706
Cu      8.226564107208743      4.511341695733313     18.200376116388298
Cu      0.395129852866466      1.734619058219224     20.115413903588085
Cu      2.791831315063420      1.682396752092302     19.819033536035338
Cu      5.206269277770152      1.676841676472385     19.224202301088052
Cu      1.249964580464100      3.553607174175382     18.737730034495932
Cu      3.639936654460898      3.546571350737580     18.318912256774965
Cu      5.948291107396055      4.089200612705278     18.986063483252000
Cu      2.152970312873252      5.410890491210597     17.447907241922280
Cu      4.460759499466286      5.925357540199905     18.109132712678779
Cu      6.781237814302981      6.441614390747485     18.763023223891018
Cu      0.316855787396104      2.132625255042175     22.448781493049022
Cu      2.723920368614887      1.739322983514279     22.317853149865066
Cu      4.897608237285660      1.235978734585294     21.544432453511465
Cu      1.721227443754250      3.571009928275301     21.085242834637079
Cu      4.241956245570663      3.444458447168802     20.811679802815597
Cu      6.732839818963025      2.695858168211163     20.834167808761567
Cu      2.824877323456632      5.318565502490812     19.836812456285120
Cu      5.155092000229149      5.792932535085411     20.507805006457602
Cu      7.567111423794469      4.997953504653559     20.548204955913839
O       1.520698873984394      1.427703381148201     23.759917366516806
C       1.349055892584138      1.009699759123308     24.952998292608783
C       2.526435244906362      0.642092004221853     25.770968084813852
C      -0.017516324188790      0.925052279855254     25.506659667808933
H       3.062350412229774      1.544723131846345     26.103029198615317
H       2.187831692033335      0.101168923210793     26.659136491876399
H       3.228649397507537      0.014291662254634     25.206149208139166
H      -0.756158852288337      0.716676901270766     24.721792812866624
H      -0.290646652216031      1.873241463237821     25.996551008056471
H      -0.040964090595786      0.139561076576381     26.269358041217139
