46

Cu      0.097485016924491      0.121114507660708     15.432836276704705
Cu      2.464258185474865      0.046088217917248     15.432215518187586
Cu      4.926369399145515      0.021979645771981     15.305650949892781
Cu      1.283005260015493      2.174160993350815     15.267696253600352
Cu      3.727449704767374      2.132978335603288     15.246573857712399
Cu      6.226128386383129      2.102593578473741     15.164783779332176
Cu      2.562390849185701      4.263474933536425     15.144624040659336
Cu      5.000301694620257      4.273961765593957     15.126732043590824
Cu      7.446071417544272      4.230655235087706     15.146806071338766
Cu      1.217851151246135      0.906293565774670     17.390269614444932
Cu      3.776821490129167      0.753257517408204     17.346999005623360
Cu      6.261403640330989      0.737523751593395     17.213550789102339
Cu      2.503652278280152      2.956161486557347     17.260409284102913
Cu      5.048791041391667      2.884145094649154     17.215114248393792
Cu      7.519806866875710      2.870414967076305     17.139725741587132
Cu      3.772456270308310      5.099870744832030     17.113024224231630
Cu      6.284619936201945      5.048526721497348     17.119347771085440
Cu      8.663079596331254      4.994479866196432     17.123871751287670
Cu      0.266330069499634      1.389454922683414     19.584184436958630
Cu      2.645551588484582      1.453435678426818     19.387419186251694
Cu      5.161995273093408      1.436125583143586     19.325215223991322
Cu      1.374878512397047      3.610677314936637     19.346173677966338
Cu      3.861758519232491      3.662530685500464     19.221600142538740
Cu      6.396102575617045      3.630752551752779     19.203379161172911
Cu      2.602434088667801      5.764463866464404     19.152437997543316
Cu      5.079384232629339      5.821053817250086     19.102471859595529
Cu      7.539000787303848      5.752000746536485     19.112712552230612
Cu      0.372266573010147      0.272423079998898     21.666120976471717
Cu      2.769342375022311      0.271418778107766     21.514739718455399
Cu      5.160805137662624      0.289784168075712     21.467804170688858
Cu      1.502163285369604      2.365703673872519     21.430835045916183
Cu      3.956533997736111      2.366977787938404     21.333472778889039
Cu      6.385772655024493      2.370974152409302     21.308354558686190
Cu      2.687556851537193      4.514068356834808     21.240517781514818
Cu      5.160169280718238      4.513233023454147     21.175521775742112
Cu      7.546534957698375      4.504232589001115     21.168814381623317
O       0.376854799185860     -1.046316431679485     22.942286876982287
C       0.114652456646333     -1.210220728174010     24.163160846749467
C      -0.935750395431281     -0.411364673738362     24.857156285528401
C       0.867553786915047     -2.247210259957796     24.937094765438982
H      -1.925478722776658     -0.643158966483919     24.439176437436672
H      -0.937087422322055     -0.662240581853489     25.921203772540380
H      -0.752172708603050      0.664196048123740     24.742094344315127
H       1.946587392948047     -2.052325119618506     24.889253179216972
H       0.680092691099631     -3.242876814812301     24.515050500028540
H       0.545504238628082     -2.230577103709625     25.980098982050738
