46

Cu      0.345983088890696     -0.059976260597096     15.188837030356151
Cu      2.698495368679019      0.088097782679669     15.288828530407669
Cu      5.136920625439266      0.259702783783869     15.357383651319722
Cu      1.282251090305156      2.123221451999397     15.300414628930652
Cu      3.692703179004477      2.306876001523323     15.374766804925619
Cu      6.112649258444730      2.458653510744599     15.296361238562261
Cu      2.311308484626762      4.391016350990095     15.481103018779649
Cu      4.676065906607945      4.556355124708155     15.528797227081201
Cu      7.067669328080555      4.670516605943453     15.051129428070119
Cu      1.319786767254994      0.624705840448751     17.273680063840953
Cu      3.840500004367088      0.767813735150556     17.338990916801762
Cu      6.336028729751910      1.060756105617447     17.378001250501406
Cu      2.374211520322577      2.937207431355769     17.350705219857858
Cu      4.942589006125380      3.030249306530363     17.474751781490781
Cu      7.521182524318197      3.298692805846727     17.049878785915535
Cu      3.625916879495464      5.053776606321470     17.820629937920568
Cu      6.204285260813938      5.309066828295594     17.227926200682369
Cu      8.586375102052633      5.470262208914077     16.701108708937433
Cu      0.251093677811310      2.283042976180564     18.705804583873512
Cu      2.538512239816937      1.540441962253896     19.254019309749783
Cu      4.946749064593776      0.955986739190372     19.522088309664269
Cu      1.798161305462848      4.031935831888823     19.456169611599154
Cu      4.119681211744063      3.323850976450959     19.830540473982229
Cu      6.623926387485566      2.766290578016254     19.259895231238254
Cu      3.393064593573733      5.705129080164142     20.194174857682558
Cu      5.669694278525401      5.124652504447385     19.529114862267875
Cu      8.005874091187986      4.820050659385368     18.914683498520450
Cu      0.726890044344737      0.082606534875228     19.676646149818421
Cu      3.042375463896353     -0.485196622670795     20.436857711072740
Cu      5.078538637873880     -0.084485523379990     21.696632724363468
Cu      1.027943784988355      2.219867632912103     21.012679163871393
Cu      3.413486424926924      1.646892354621590     21.548400627883222
Cu      5.768129159002297      2.251478707638103     21.498666531902295
Cu      2.588829398738898      3.960487181808156     21.787213684959156
Cu      4.976780467503231      4.590547630970021     21.821743102858541
Cu      7.279395232071209      4.155667560357192     21.130615628416113
O       5.143985061950532      5.614879310802747     23.382122218472759
C       4.248488648968515      5.835334044850921     24.238769775475721
C       4.471489581047762      6.919726718936167     25.247005788402710
C       2.963760490579533      5.083807142038237     24.284983316364084
H       4.004251384981589      7.848261096066270     24.889478338736183
H       3.987531427460876      6.640550236872786     26.186846852850241
H       5.543674675648004      7.089665183975205     25.390070104391189
H       3.119362684568934      4.009004872160771     24.089553733860321
H       2.236593754910171      5.508109313473569     23.567007663073959
H       2.525019920783374      5.193483927690813     25.283503497119739
