     161
 i =        1, E =     -8104.4683657095
 Fe         5.0938794100       11.8196869300        0.3885799900
 Fe         7.6575796300        7.3792284900        0.3885799900
 Fe        10.2212798400        2.9387700600        0.3885799900
 Fe        -0.0335205200       11.8196869300        0.3885799900
 Fe         2.5301797000        7.3792284900        0.3885799900
 Fe         5.0938799200        2.9387700600        0.3885799900
 Fe        -5.1609204400       11.8196869300        0.3885799900
 Fe        -2.5972202200        7.3792284900        0.3885799900
 Fe        -0.0335200000        2.9387700600        0.3885799900
  O         8.4519195100        8.9577468800        1.1642700400
  O        11.0156197300        4.5172884400        1.1642700400
  O        13.5793199500        0.0768300000        1.1642700400
  O         3.3245195900        8.9577468800        1.1642700400
  O         5.8882198100        4.5172884400        1.1642700400
  O         8.4519200300        0.0768300000        1.1642700400
  O        -1.8028803300        8.9577468800        1.1642700400
  O         0.7608198900        4.5172884400        1.1642700400
  O         3.3245201100        0.0768300000        1.1642700400
  O         8.4568493000       11.7183869300        1.1650400200
  O        11.0205495200        7.2779284900        1.1650400200
  O        13.5842497300        2.8374700500        1.1650400200
  O         3.3294493700       11.7183869300        1.1650400200
  O         5.8931495900        7.2779284900        1.1650400200
  O         8.4568498100        2.8374700500        1.1650400200
  O        -1.7979505500       11.7183869300        1.1650400200
  O         0.7657496700        7.2779284900        1.1650400200
  O         3.3294498900        2.8374700500        1.1650400200
  O         6.0627194200       10.3425368500        1.1660399400
  O         8.6264196400        5.9020784100        1.1660399400
  O        11.1901198600        1.4616199700        1.1660399400
  O         0.9353195000       10.3425368500        1.1660399400
  O         3.4990197200        5.9020784100        1.1660399400
  O         6.0627199400        1.4616199700        1.1660399400
  O        -4.1920804200       10.3425368500        1.1660399400
  O        -1.6283802000        5.9020784100        1.1660399400
  O         0.9353200200        1.4616199700        1.1660399400
 Fe         7.6576695000       13.2997167500        1.9292099500
 Fe        10.2213697200        8.8592583200        1.9292099500
 Fe        12.7850699400        4.4187998800        1.9292099500
 Fe         2.5302695800       13.2997167500        1.9292099500
 Fe         5.0939698000        8.8592583200        1.9292099500
 Fe         7.6576700200        4.4187998800        1.9292099500
 Fe        -2.5971303400       13.2997167500        1.9292099500
 Fe        -0.0334301200        8.8592583200        1.9292099500
 Fe         2.5302701000        4.4187998800        1.9292099500
 Fe         7.6573893600       10.3392168700        2.7128999200
 Fe        10.2210895800        5.8987584300        2.7128999200
 Fe        12.7847898000        1.4582999900        2.7128999200
 Fe         2.5299894400       10.3392168700        2.7128999200
 Fe         5.0936896600        5.8987584300        2.7128999200
 Fe         7.6573898800        1.4582999900        2.7128999200
 Fe        -2.5974104800       10.3392168700        2.7128999200
 Fe        -0.0337102600        5.8987584300        2.7128999200
 Fe         2.5299899600        1.4582999900        2.7128999200
  O         4.1180659649       13.3120824293        3.4899174113
  O         6.6907761015        8.8554891565        3.4778385794
  O         9.2583328501        4.4190113203        3.4987214889
  O        -0.9911481543       13.3035111851        3.5031505983
  O         1.5702266754        8.8637682473        3.5004155490
  O         4.1330544394        4.4233710236        3.5007701457
  O        -6.1216802645       13.3077573556        3.4923506011
  O        -3.5594651918        8.8631537715        3.5031556911
  O        -0.9941975808        4.4240410321        3.5025782715
  O         6.8434976120       11.9125192173        3.4911557239
  O         9.4300544338        7.4661981736        3.4952517694
  O        11.9876030194        3.0296006162        3.5010648183
  O         1.7331090035       11.9101842361        3.5028807214
  O         4.2649449559        7.4427910063        3.4682702973
  O         6.8612077482        3.0275516851        3.5048736038
  O        -3.3961482713       11.9100232338        3.5023473529
  O        -0.8290607203        7.4703853258        3.5045518199
  O         1.7335281742        3.0300946351        3.5008458309
  O         9.4348904362       10.2420732513        3.4719769266
  O        11.9806182756        5.8032771464        3.5015017802
  O        14.5405019394        1.3633246953        3.5036254622
  O         4.2871844786       10.2558782923        3.5022084148
  O         6.8493777942        5.8060014591        3.5068342232
  O         9.4132267443        1.3642007410        3.5062038281
  O        -0.8378623089       10.2429860112        3.5009250936
  O         1.7226005724        5.8028057787        3.5018463452
  O         4.2910893225        1.3659312839        3.5009509230
 Fe         5.0849356181       11.8413210641        4.4662161347
 Fe         7.6683537235        7.3891901286        4.4856433736
 Fe        10.2222060219        2.9392284305        4.4875578947
 Fe        -0.0334635249       11.8144010703        4.4895712661
 Fe         2.5245446831        7.3728327624        4.4805781271
 Fe         5.0945358450        2.9407096123        4.4887040913
 Fe        -5.1741922816       11.8157292320        4.4902872544
 Fe        -2.5973149098        7.3792872334        4.4866163960
 Fe        -0.0330993377        2.9363780479        4.4853750187
 Fe         7.6650202315       13.2913000694        4.8241769275
 Fe        10.2108388148        8.8613123424        4.8239079458
 Fe        12.7862937930        4.4181462470        4.8224752924
 Fe         2.5277913160       13.3027999558        4.8208233557
 Fe         5.0693316909        8.7935275718        4.7406590429
 Fe         7.6521524378        4.4184868643        4.8241117753
 Fe        -2.5956027819       13.2976241120        4.8224859765
 Fe        -0.0302913273        8.8623919395        4.8248456388
 Fe         2.5299735531        4.4158616786        4.8208050288
  O         5.8743372687       10.3139570843        5.6520777866
  O         8.4261557228        5.9416467878        5.7273755987
  O        10.9950336688        1.5073530443        5.7243784900
  O         0.7647231966       10.3855147169        5.7218758398
  O         3.2996304983        5.9468874307        5.7157373115
  O         5.8661981045        1.5091886670        5.7273434401
  O        -4.3818883144       10.3864580580        5.7196020782
  O        -1.8233137375        5.9476265005        5.7249774406
  O         0.7371890300        1.5127394317        5.7239742173
  O         5.9435236509       13.1985921599        5.7182965797
  O         8.5296865635        8.7255381774        5.7310033823
  O        11.0757207752        4.3245958564        5.7269438946
  O         0.8199054711       13.2017356342        5.7258992917
  O         3.3892993134        8.7602283612        5.6908057028
  O         5.9371146169        4.3377957195        5.7443445753
  O        -4.3021687577       13.2056957771        5.7246130726
  O        -1.7412920130        8.7626109245        5.7250587775
  O         0.8197079810        4.3241567114        5.7253100782
  O         3.4670367326       11.8675725389        5.7041760100
  O         6.0393996466        7.4480307137        5.7206742447
  O         8.5945534177        2.9861844759        5.7306554559
  O        -1.6561133710       11.8652005993        5.7286557831
  O         0.9084004496        7.4252210648        5.7227042835
  O         3.4695955910        2.9857978882        5.7321899568
  O        -6.7628695192       11.9020660496        5.7339708905
  O        -4.2189640673        7.4250987304        5.7248650735
  O        -1.6597469963        2.9829542892        5.7273960919
 Fe         7.7105019144       10.3382928915        6.0242237396
 Fe        10.2185707922        5.9023883789        5.9804186720
 Fe        12.7869739846        1.4539634646        5.9872229349
 Fe         2.5541980310       10.3359596407        6.0505680410
 Fe         5.0906250438        5.9320791600        5.9718855946
 Fe         7.6582694129        1.4566507168        5.9794233981
 Fe        -2.5962163510       10.3387530769        5.9878655566
 Fe        -0.0317597872        5.9008709110        5.9848670416
 Fe         2.5282558091        1.4554761044        5.9834223443
  C         4.3711032751        9.3578899730        8.9411575807
  C         5.6620014818        8.7700934393        9.5270553334
  H         3.6323517185        8.5817902436        8.6812834358
  O         4.6693088908       10.1873285993        7.8358618234
  H         3.9565331919       10.0821976240        9.6648170209
  C         5.4004940026        8.0287110987       10.8380888341
  C         4.6366395334        6.6926059348       10.7096243219
  O         4.6738164069        8.8750373226       11.7345444970
  H         6.3984282523        7.8120186222       11.2729308055
  C         5.2844088855        5.5828479645        9.8573593632
  H         3.6414498599        6.8915590225       10.2834625334
  O         4.3884530824        6.1853742058       12.0388022914
  C         6.7733992735        5.3489992685       10.1369491250
  O         5.0904832692        5.8814873118        8.4564757288
  H         4.7300395521        4.6586595778       10.1050480508
  H         7.1393772122        4.5156940734        9.5110352529
  O         6.9070777225        5.0323808731       11.5402726165
  H         7.3404280966        6.2559079876        9.8737573727
  H         5.3680519767       10.0718577360        6.5566433323
  H         4.3603707771        8.2768116695       12.4424768839
  H         5.2381895748        5.7955174650       12.3389770217
  H         5.2153762960        5.0165607792        8.0090360715
  H         7.8499922710        5.0673630157       11.7757100893
  O         6.6419730644        9.7846849848        9.7779012743
  H         6.0463018685        8.0430394188        8.7852259605
  H         6.5209212705       10.4186514689        9.0404829482
     161
 i =        2, E =     -8104.4502532926
 Fe         5.0938794100       11.8196869300        0.3885799900
 Fe         7.6575796300        7.3792284900        0.3885799900
 Fe        10.2212798400        2.9387700600        0.3885799900
 Fe        -0.0335205200       11.8196869300        0.3885799900
 Fe         2.5301797000        7.3792284900        0.3885799900
 Fe         5.0938799200        2.9387700600        0.3885799900
 Fe        -5.1609204400       11.8196869300        0.3885799900
 Fe        -2.5972202200        7.3792284900        0.3885799900
 Fe        -0.0335200000        2.9387700600        0.3885799900
  O         8.4519195100        8.9577468800        1.1642700400
  O        11.0156197300        4.5172884400        1.1642700400
  O        13.5793199500        0.0768300000        1.1642700400
  O         3.3245195900        8.9577468800        1.1642700400
  O         5.8882198100        4.5172884400        1.1642700400
  O         8.4519200300        0.0768300000        1.1642700400
  O        -1.8028803300        8.9577468800        1.1642700400
  O         0.7608198900        4.5172884400        1.1642700400
  O         3.3245201100        0.0768300000        1.1642700400
  O         8.4568493000       11.7183869300        1.1650400200
  O        11.0205495200        7.2779284900        1.1650400200
  O        13.5842497300        2.8374700500        1.1650400200
  O         3.3294493700       11.7183869300        1.1650400200
  O         5.8931495900        7.2779284900        1.1650400200
  O         8.4568498100        2.8374700500        1.1650400200
  O        -1.7979505500       11.7183869300        1.1650400200
  O         0.7657496700        7.2779284900        1.1650400200
  O         3.3294498900        2.8374700500        1.1650400200
  O         6.0627194200       10.3425368500        1.1660399400
  O         8.6264196400        5.9020784100        1.1660399400
  O        11.1901198600        1.4616199700        1.1660399400
  O         0.9353195000       10.3425368500        1.1660399400
  O         3.4990197200        5.9020784100        1.1660399400
  O         6.0627199400        1.4616199700        1.1660399400
  O        -4.1920804200       10.3425368500        1.1660399400
  O        -1.6283802000        5.9020784100        1.1660399400
  O         0.9353200200        1.4616199700        1.1660399400
 Fe         7.6576695000       13.2997167500        1.9292099500
 Fe        10.2213697200        8.8592583200        1.9292099500
 Fe        12.7850699400        4.4187998800        1.9292099500
 Fe         2.5302695800       13.2997167500        1.9292099500
 Fe         5.0939698000        8.8592583200        1.9292099500
 Fe         7.6576700200        4.4187998800        1.9292099500
 Fe        -2.5971303400       13.2997167500        1.9292099500
 Fe        -0.0334301200        8.8592583200        1.9292099500
 Fe         2.5302701000        4.4187998800        1.9292099500
 Fe         7.6573893600       10.3392168700        2.7128999200
 Fe        10.2210895800        5.8987584300        2.7128999200
 Fe        12.7847898000        1.4582999900        2.7128999200
 Fe         2.5299894400       10.3392168700        2.7128999200
 Fe         5.0936896600        5.8987584300        2.7128999200
 Fe         7.6573898800        1.4582999900        2.7128999200
 Fe        -2.5974104800       10.3392168700        2.7128999200
 Fe        -0.0337102600        5.8987584300        2.7128999200
 Fe         2.5299899600        1.4582999900        2.7128999200
  O         4.1040450533       13.3197311724        3.4782567309
  O         6.7723291432        8.8725160390        3.5955657479
  O         9.2561155497        4.4092128027        3.4968898602
  O        -0.9812843162       13.2974058292        3.5110387386
  O         1.5678649250        8.8558264959        3.4868249935
  O         4.1371680363        4.4183502131        3.5016891321
  O        -6.1211775441       13.3120190846        3.4812688839
  O        -3.5334120589        8.8656606715        3.5395962685
  O        -0.9904612490        4.4206798653        3.5078017737
  O         6.8193171751       11.9190386951        3.4757297972
  O         9.4327588127        7.4389772816        3.5159335912
  O        11.9837348854        3.0314467472        3.5021186319
  O         1.7254110479       11.9131554916        3.4977979373
  O         4.2073512252        7.3164779912        3.5869935647
  O         6.8581683457        3.0245600377        3.5159770056
  O        -3.3981076435       11.9141914840        3.5000196708
  O        -0.8306764129        7.4740479495        3.5100817294
  O         1.7291517701        3.0328004127        3.5012956927
  O         9.4413871870       10.2522748336        3.4748082755
  O        11.9873214037        5.8040790554        3.4999573759
  O        14.5392626429        1.3672241272        3.5070119783
  O         4.2094782414       10.3243912125        3.6440031261
  O         6.8467780047        5.8091985659        3.5134807782
  O         9.4102069141        1.3728220594        3.5184315675
  O        -0.8347833587       10.2436038642        3.5034510355
  O         1.7209738468        5.7969061703        3.4982674473
  O         4.3003059464        1.3740511801        3.4987515561
 Fe         5.0889998916       11.9006010121        4.4671306461
 Fe         7.7036200182        7.3704773141        4.5334653272
 Fe        10.2228671477        2.9441758494        4.5039236432
 Fe        -0.0269761271       11.8030628560        4.5089664072
 Fe         2.4586125741        7.3593298030        4.5102083195
 Fe         5.0936312105        2.9454437966        4.5071561492
 Fe        -5.1874658388       11.8216734721        4.5117719491
 Fe        -2.5927726326        7.3747702491        4.5060219646
 Fe        -0.0343134649        2.9326613345        4.4988290532
 Fe         7.6761763228       13.2791090192        4.8241828250
 Fe        10.1992255353        8.8628650593        4.8348608157
 Fe        12.7872596343        4.4178246628        4.8186146414
 Fe         2.5206051259       13.3054790497        4.8127013716
 Fe         5.0398645751        8.7179249672        4.6920955414
 Fe         7.6381827321        4.4175427519        4.8231764690
 Fe        -2.5927156948       13.2943906563        4.8174767287
 Fe        -0.0222179241        8.8762167063        4.8242266323
 Fe         2.5302821935        4.4128603102        4.8143011247
  O         5.8838621884       10.2402190814        5.6041129141
  O         8.4278829003        5.9040865917        5.7482067980
  O        10.9983053269        1.5019154246        5.7222624626
  O         0.8270098392       10.3751307277        5.7233530306
  O         3.2995105120        5.9444057050        5.6946410311
  O         5.8666903250        1.5081104262        5.7332869265
  O        -4.3722978107       10.3840931981        5.7153081330
  O        -1.8198322934        5.9394295674        5.7279499431
  O         0.7364204844        1.5168890218        5.7216008023
  O         5.9455818923       13.2002644676        5.7175504056
  O         8.5667056287        8.6661947008        5.7331910059
  O        11.0797956482        4.3336046741        5.7285745363
  O         0.8214522394       13.2030024600        5.7298976519
  O         3.3791499250        8.7491300378        5.6335228687
  O         5.9195154194        4.3684830604        5.7775317262
  O        -4.2853315001       13.2182608226        5.7273000634
  O        -1.7305215066        8.7679403092        5.7263308519
  O         0.8234289179        4.3290011261        5.7243825574
  O         3.4624993477       11.8710751709        5.6615053992
  O         6.0463893675        7.4694983526        5.7051130373
  O         8.5837975055        2.9911805299        5.7395608621
  O        -1.6544303165       11.8636356321        5.7312141345
  O         0.8817044365        7.4333913525        5.7401143208
  O         3.4635916330        2.9888478109        5.7424528427
  O        -6.7281333304       11.9634392973        5.7353431972
  O        -4.2136008839        7.4224957670        5.7227697721
  O        -1.6693712928        2.9808136467        5.7298145174
 Fe         7.8024454329       10.3365856514        6.1305640909
 Fe        10.2174257946        5.9090320412        6.0007268620
 Fe        12.7876127734        1.4482672310        6.0148972703
 Fe         2.6088333205       10.3320661108        6.2343591936
 Fe         5.0820225971        5.9842523717        6.0130396338
 Fe         7.6579343552        1.4544177396        5.9966807137
 Fe        -2.5968034040       10.3381375618        6.0119967682
 Fe        -0.0329401880        5.8980386699        6.0097079684
 Fe         2.5243093523        1.4514177138        6.0054089289
  C         4.3587136122        9.3654232823        8.9305911736
  C         5.6498310520        8.7603939226        9.5277849890
  H         3.6367587886        8.5638507557        8.6821190319
  O         4.5575918453       10.2504558614        7.9052828286
  H         3.9447089118       10.0304098972        9.7279752963
  C         5.4054223255        8.0314061004       10.8480780707
  C         4.6318444013        6.7023919429       10.7073199460
  O         4.6717467303        8.8777420647       11.7406207034
  H         6.4041524798        7.8106909149       11.2785173332
  C         5.2853096222        5.5942312727        9.8613673479
  H         3.6371206673        6.8930889631       10.2788621167
  O         4.3858682391        6.1785392651       12.0337456822
  C         6.7755616454        5.3542503135       10.1292474217
  O         5.0918386180        5.8221100771        8.4361735042
  H         4.7292683852        4.6674210653       10.0937265308
  H         7.1387143741        4.5187031256        9.5059000982
  O         6.9046317866        5.0352947484       11.5348890734
  H         7.3463204996        6.2573625022        9.8675118584
  H         5.3474710637       10.3218577360        6.7238237478
  H         4.3565473817        8.2735192118       12.4421031943
  H         5.2404048590        5.7974209432       12.3325567802
  H         5.2383331879        4.8898042451        8.0924060695
  H         7.8475386584        5.0649889049       11.7706319286
  O         6.6264526197        9.7770290192        9.7670482753
  H         6.0487929488        8.0619389113        8.7676615878
  H         6.5082308833       10.4185132777        9.0320070184
     161
 i =        3, E =     -8104.4871089007
 Fe         5.0938794100       11.8196869300        0.3885799900
 Fe         7.6575796300        7.3792284900        0.3885799900
 Fe        10.2212798400        2.9387700600        0.3885799900
 Fe        -0.0335205200       11.8196869300        0.3885799900
 Fe         2.5301797000        7.3792284900        0.3885799900
 Fe         5.0938799200        2.9387700600        0.3885799900
 Fe        -5.1609204400       11.8196869300        0.3885799900
 Fe        -2.5972202200        7.3792284900        0.3885799900
 Fe        -0.0335200000        2.9387700600        0.3885799900
  O         8.4519195100        8.9577468800        1.1642700400
  O        11.0156197300        4.5172884400        1.1642700400
  O        13.5793199500        0.0768300000        1.1642700400
  O         3.3245195900        8.9577468800        1.1642700400
  O         5.8882198100        4.5172884400        1.1642700400
  O         8.4519200300        0.0768300000        1.1642700400
  O        -1.8028803300        8.9577468800        1.1642700400
  O         0.7608198900        4.5172884400        1.1642700400
  O         3.3245201100        0.0768300000        1.1642700400
  O         8.4568493000       11.7183869300        1.1650400200
  O        11.0205495200        7.2779284900        1.1650400200
  O        13.5842497300        2.8374700500        1.1650400200
  O         3.3294493700       11.7183869300        1.1650400200
  O         5.8931495900        7.2779284900        1.1650400200
  O         8.4568498100        2.8374700500        1.1650400200
  O        -1.7979505500       11.7183869300        1.1650400200
  O         0.7657496700        7.2779284900        1.1650400200
  O         3.3294498900        2.8374700500        1.1650400200
  O         6.0627194200       10.3425368500        1.1660399400
  O         8.6264196400        5.9020784100        1.1660399400
  O        11.1901198600        1.4616199700        1.1660399400
  O         0.9353195000       10.3425368500        1.1660399400
  O         3.4990197200        5.9020784100        1.1660399400
  O         6.0627199400        1.4616199700        1.1660399400
  O        -4.1920804200       10.3425368500        1.1660399400
  O        -1.6283802000        5.9020784100        1.1660399400
  O         0.9353200200        1.4616199700        1.1660399400
 Fe         7.6576695000       13.2997167500        1.9292099500
 Fe        10.2213697200        8.8592583200        1.9292099500
 Fe        12.7850699400        4.4187998800        1.9292099500
 Fe         2.5302695800       13.2997167500        1.9292099500
 Fe         5.0939698000        8.8592583200        1.9292099500
 Fe         7.6576700200        4.4187998800        1.9292099500
 Fe        -2.5971303400       13.2997167500        1.9292099500
 Fe        -0.0334301200        8.8592583200        1.9292099500
 Fe         2.5302701000        4.4187998800        1.9292099500
 Fe         7.6573893600       10.3392168700        2.7128999200
 Fe        10.2210895800        5.8987584300        2.7128999200
 Fe        12.7847898000        1.4582999900        2.7128999200
 Fe         2.5299894400       10.3392168700        2.7128999200
 Fe         5.0936896600        5.8987584300        2.7128999200
 Fe         7.6573898800        1.4582999900        2.7128999200
 Fe        -2.5974104800       10.3392168700        2.7128999200
 Fe        -0.0337102600        5.8987584300        2.7128999200
 Fe         2.5299899600        1.4582999900        2.7128999200
  O         4.1188832212       13.3177632362        3.4925842093
  O         6.7349230628        8.8572641068        3.5457847507
  O         9.2524617578        4.4147975028        3.4973149458
  O        -0.9832856078       13.2986276511        3.5100767053
  O         1.5603879487        8.8493226452        3.4774777804
  O         4.1346415368        4.4136250456        3.4944539448
  O        -6.1246230845       13.3103437103        3.4830504525
  O        -3.5409947037        8.8629339963        3.5208420599
  O        -0.9927059770        4.4222409669        3.5054618252
  O         6.8282737484       11.9200885174        3.4822520531
  O         9.4300973631        7.4472789752        3.5091470283
  O        11.9856399734        3.0327086854        3.4998238853
  O         1.7218412583       11.9163092774        3.4893108542
  O         4.2457529003        7.3780093373        3.5643563140
  O         6.8573356174        3.0277911844        3.5135703480
  O        -3.3904816065       11.9173866115        3.4965066448
  O        -0.8257288459        7.4751062087        3.5110191642
  O         1.7319141768        3.0333520274        3.5005417910
  O         9.4364714887       10.2443429204        3.4823013260
  O        11.9874040466        5.8025278927        3.4984563553
  O        14.5392167806        1.3653519033        3.5054312780
  O         4.2410096134       10.2881405997        3.5738438183
  O         6.8504335439        5.8074122359        3.5111196970
  O         9.4065124066        1.3732159523        3.5234865151
  O        -0.8332256398       10.2446833537        3.5037162669
  O         1.7175119696        5.7953277427        3.5026465463
  O         4.2977175862        1.3702929215        3.4989009664
 Fe         5.0813199316       11.8603263529        4.4617479982
 Fe         7.6917694844        7.3835108811        4.5265227566
 Fe        10.2221029212        2.9465035580        4.4942569171
 Fe        -0.0202983467       11.8037992386        4.5028182654
 Fe         2.4782690225        7.3644759018        4.4968818725
 Fe         5.0911909595        2.9448423396        4.4985019039
 Fe        -5.1789966952       11.8209001094        4.4983451214
 Fe        -2.5936955613        7.3805831171        4.4939270018
 Fe        -0.0348462019        2.9333919365        4.4894937325
 Fe         7.6722074619       13.2818839205        4.8279694344
 Fe        10.2100250051        8.8614708127        4.8345466044
 Fe        12.7875823681        4.4173423775        4.8168371513
 Fe         2.5206506064       13.2989986200        4.8139698598
 Fe         5.0661174525        8.7848898148        4.7461419201
 Fe         7.6390274343        4.4173629197        4.8258282853
 Fe        -2.5911899268       13.2946601875        4.8158152068
 Fe        -0.0189048282        8.8799539404        4.8279494729
 Fe         2.5336040172        4.4139794715        4.8147141300
  O         5.8629531979       10.3264717446        5.7195519381
  O         8.4258568666        5.9135913900        5.7467670632
  O        10.9960925756        1.5043851258        5.7215547557
  O         0.8304314933       10.3784031361        5.7326663363
  O         3.2896775255        5.9456733530        5.7097654945
  O         5.8635166096        1.5108887800        5.7330160374
  O        -4.3797550539       10.3905651557        5.7251114440
  O        -1.8259709019        5.9442122736        5.7279162307
  O         0.7354142844        1.5208480728        5.7219579366
  O         5.9356655227       13.1902420159        5.7149176658
  O         8.5719348580        8.6732554205        5.7458603533
  O        11.0797338969        4.3284406377        5.7289558375
  O         0.8211082018       13.2008548402        5.7345367053
  O         3.3762380413        8.7413279139        5.6593393782
  O         5.9203604076        4.3595789217        5.7708819609
  O        -4.2863133932       13.2151536944        5.7266488690
  O        -1.7303175042        8.7653461372        5.7321259691
  O         0.8232339380        4.3248221535        5.7256154410
  O         3.4689442997       11.8811074306        5.6888071430
  O         6.0395327045        7.4577574040        5.7112315220
  O         8.5892667861        2.9899555405        5.7407054586
  O        -1.6494488925       11.8626185370        5.7301428564
  O         0.8881263274        7.4309687709        5.7426432574
  O         3.4659380783        2.9882309261        5.7421153114
  O        -6.7297887166       11.9473839270        5.7344495023
  O        -4.2075203143        7.4205204306        5.7274767927
  O        -1.6653728294        2.9820115665        5.7320411530
 Fe         7.7828039988       10.3321961036        6.1023242119
 Fe        10.2189203994        5.9061013162        5.9882245826
 Fe        12.7873768026        1.4494347209        6.0045783732
 Fe         2.6183974871       10.3358702998        6.2003676216
 Fe         5.0755056777        5.9684886873        6.0201601863
 Fe         7.6569275762        1.4550703459        5.9827806173
 Fe        -2.5977181792       10.3382169801        5.9953924024
 Fe        -0.0364844270        5.8953007224        5.9990920323
 Fe         2.5253334192        1.4522346695        5.9925246283
  C         4.3671961711        9.3965265056        8.9147821732
  C         5.6426441019        8.7652495159        9.5126781210
  H         3.6532196939        8.5771570557        8.6895366704
  O         4.5492924190       10.2587603145        7.8442333809
  H         3.9276790209       10.0091343027        9.7395374474
  C         5.4040390650        8.0321753361       10.8361751760
  C         4.6363213296        6.6985919133       10.7063689030
  O         4.6767066706        8.8746497825       11.7387584469
  H         6.3990672607        7.8111976042       11.2787053630
  C         5.2844274290        5.5851702621        9.8629589096
  H         3.6403692863        6.8959212005       10.2811372986
  O         4.3843675887        6.1823348578       12.0344696666
  C         6.7751481243        5.3572385778       10.1327224092
  O         5.0994102595        5.8021136697        8.4362607272
  H         4.7280383924        4.6649971470       10.1101729195
  H         7.1360399795        4.5213704755        9.5070160993
  O         6.9069099384        5.0345004670       11.5362634354
  H         7.3479925503        6.2584636032        9.8665311867
  H         5.3308739139       10.2169774234        6.6940072976
  H         4.3569528741        8.2741623913       12.4420752221
  H         5.2386647362        5.7980783209       12.3304601454
  H         5.2332021502        4.9039246575        8.0527302386
  H         7.8495333318        5.0648217706       11.7714964541
  O         6.6236999863        9.7770371419        9.7630919352
  H         6.0511268210        8.0504830754        8.7737759525
  H         6.5067167794       10.4237352465        9.0352914093
     161
 i =        4, E =     -8104.5004808563
 Fe         5.0938794100       11.8196869300        0.3885799900
 Fe         7.6575796300        7.3792284900        0.3885799900
 Fe        10.2212798400        2.9387700600        0.3885799900
 Fe        -0.0335205200       11.8196869300        0.3885799900
 Fe         2.5301797000        7.3792284900        0.3885799900
 Fe         5.0938799200        2.9387700600        0.3885799900
 Fe        -5.1609204400       11.8196869300        0.3885799900
 Fe        -2.5972202200        7.3792284900        0.3885799900
 Fe        -0.0335200000        2.9387700600        0.3885799900
  O         8.4519195100        8.9577468800        1.1642700400
  O        11.0156197300        4.5172884400        1.1642700400
  O        13.5793199500        0.0768300000        1.1642700400
  O         3.3245195900        8.9577468800        1.1642700400
  O         5.8882198100        4.5172884400        1.1642700400
  O         8.4519200300        0.0768300000        1.1642700400
  O        -1.8028803300        8.9577468800        1.1642700400
  O         0.7608198900        4.5172884400        1.1642700400
  O         3.3245201100        0.0768300000        1.1642700400
  O         8.4568493000       11.7183869300        1.1650400200
  O        11.0205495200        7.2779284900        1.1650400200
  O        13.5842497300        2.8374700500        1.1650400200
  O         3.3294493700       11.7183869300        1.1650400200
  O         5.8931495900        7.2779284900        1.1650400200
  O         8.4568498100        2.8374700500        1.1650400200
  O        -1.7979505500       11.7183869300        1.1650400200
  O         0.7657496700        7.2779284900        1.1650400200
  O         3.3294498900        2.8374700500        1.1650400200
  O         6.0627194200       10.3425368500        1.1660399400
  O         8.6264196400        5.9020784100        1.1660399400
  O        11.1901198600        1.4616199700        1.1660399400
  O         0.9353195000       10.3425368500        1.1660399400
  O         3.4990197200        5.9020784100        1.1660399400
  O         6.0627199400        1.4616199700        1.1660399400
  O        -4.1920804200       10.3425368500        1.1660399400
  O        -1.6283802000        5.9020784100        1.1660399400
  O         0.9353200200        1.4616199700        1.1660399400
 Fe         7.6576695000       13.2997167500        1.9292099500
 Fe        10.2213697200        8.8592583200        1.9292099500
 Fe        12.7850699400        4.4187998800        1.9292099500
 Fe         2.5302695800       13.2997167500        1.9292099500
 Fe         5.0939698000        8.8592583200        1.9292099500
 Fe         7.6576700200        4.4187998800        1.9292099500
 Fe        -2.5971303400       13.2997167500        1.9292099500
 Fe        -0.0334301200        8.8592583200        1.9292099500
 Fe         2.5302701000        4.4187998800        1.9292099500
 Fe         7.6573893600       10.3392168700        2.7128999200
 Fe        10.2210895800        5.8987584300        2.7128999200
 Fe        12.7847898000        1.4582999900        2.7128999200
 Fe         2.5299894400       10.3392168700        2.7128999200
 Fe         5.0936896600        5.8987584300        2.7128999200
 Fe         7.6573898800        1.4582999900        2.7128999200
 Fe        -2.5974104800       10.3392168700        2.7128999200
 Fe        -0.0337102600        5.8987584300        2.7128999200
 Fe         2.5299899600        1.4582999900        2.7128999200
  O         4.1237854330       13.3064656287        3.4856318149
  O         6.6990522058        8.8549667367        3.5165730716
  O         9.2486335592        4.4193138624        3.5010175458
  O        -0.9811692676       13.3016602894        3.5146759399
  O         1.5562993278        8.8449920346        3.4755455401
  O         4.1316211359        4.4109315784        3.4923666248
  O        -6.1276252668       13.3120031481        3.4870426506
  O        -3.5450816666        8.8617980881        3.5093183023
  O        -0.9924743988        4.4220005809        3.5062840402
  O         6.8394719244       11.9128666875        3.4975988037
  O         9.4320915848        7.4528788565        3.5048529545
  O        11.9854085116        3.0337500680        3.4987314831
  O         1.7241556675       11.9313277105        3.4662112232
  O         4.2784229712        7.4277937794        3.5337654291
  O         6.8565895489        3.0313395484        3.5167270905
  O        -3.3827794883       11.9204899075        3.4950630785
  O        -0.8193730400        7.4722843667        3.5225373489
  O         1.7339551385        3.0294477628        3.5050671675
  O         9.4308400069       10.2345677648        3.4953391107
  O        11.9859653627        5.8018595389        3.5000422303
  O        14.5391283341        1.3662579837        3.5052986366
  O         4.2820192495       10.2607508066        3.5109285140
  O         6.8530307698        5.7999335394        3.5083637154
  O         9.4064955703        1.3707055339        3.5187609117
  O        -0.8352664086       10.2469024013        3.5195721432
  O         1.7144232480        5.7990177748        3.5114518749
  O         4.2958738980        1.3679292939        3.5002207527
 Fe         5.0789710362       11.8347855753        4.4637102871
 Fe         7.6840359447        7.3933471466        4.5175597496
 Fe        10.2180550007        2.9450926206        4.4855355076
 Fe        -0.0000472629       11.8036930405        4.4951296303
 Fe         2.5025631950        7.3732622707        4.4856463449
 Fe         5.0876699894        2.9467677958        4.4910870263
 Fe        -5.1738394642       11.8224321958        4.4864035369
 Fe        -2.5921749621        7.3860127490        4.4857992700
 Fe        -0.0358066842        2.9321381409        4.4860982218
 Fe         7.6688453155       13.2798702308        4.8333207658
 Fe        10.2181820501        8.8576800539        4.8402275620
 Fe        12.7873879226        4.4172338313        4.8123393783
 Fe         2.5195943572       13.2960509989        4.8071799282
 Fe         5.0805447244        8.8202802265        4.7827139569
 Fe         7.6331381415        4.4199768478        4.8313886217
 Fe        -2.5845948590       13.2942339501        4.8103288406
 Fe        -0.0059383263        8.8854713574        4.8412861880
 Fe         2.5344399112        4.4132783316        4.8143201490
  O         5.8435922423       10.3689121393        5.8027760384
  O         8.4237952254        5.9193337364        5.7476523932
  O        10.9915405725        1.5073738438        5.7202922011
  O         0.8637221969       10.3804076553        5.7364560824
  O         3.2793157198        5.9435583855        5.7174624325
  O         5.8615639287        1.5149485876        5.7326635594
  O        -4.3845531019       10.3975179793        5.7300509133
  O        -1.8312682390        5.9454910722        5.7287984431
  O         0.7345692486        1.5217083407        5.7199069919
  O         5.9321094741       13.1875899446        5.7160185303
  O         8.5760194402        8.6675659075        5.7540742515
  O        11.0774624431        4.3243186128        5.7253836902
  O         0.8231167852       13.1983505832        5.7414481712
  O         3.3719797258        8.7413874183        5.6796113827
  O         5.9112864993        4.3624044906        5.7681457499
  O        -4.2800687518       13.2153926977        5.7212175796
  O        -1.7257979210        8.7666456382        5.7360991363
  O         0.8220199390        4.3217045447        5.7272869918
  O         3.4666792247       11.8868881845        5.6889602136
  O         6.0436128981        7.4484191994        5.7214186383
  O         8.5902459709        2.9924205943        5.7442948544
  O        -1.6370964963       11.8597007810        5.7251648478
  O         0.9013749581        7.4255585151        5.7426113249
  O         3.4674252421        2.9867733675        5.7427198158
  O        -6.7223001314       11.9408536185        5.7314611443
  O        -4.1966256138        7.4174058134        5.7315560006
  O        -1.6645112248        2.9842609885        5.7329806425
 Fe         7.7776949184       10.3291635495        6.0963345175
 Fe        10.2208510202        5.9053918980        5.9808258511
 Fe        12.7843415702        1.4511152302        5.9841242710
 Fe         2.6490937620       10.3409796695        6.2765946538
 Fe         5.0639684203        5.9686151207        6.0536302703
 Fe         7.6577891047        1.4551973529        5.9749666960
 Fe        -2.5970084659       10.3397270106        5.9765780263
 Fe        -0.0389474784        5.8943124347        5.9832931551
 Fe         2.5258682011        1.4512494922        5.9822604782
  C         4.3512170817        9.4030358619        8.9318535423
  C         5.6464042951        8.7770430242        9.4951025886
  H         3.6512496314        8.5790621147        8.6790367503
  O         4.4632547537       10.2456900786        7.8130320926
  H         3.8990108687        9.9889730073        9.7603347389
  C         5.3955686753        8.0348387385       10.8205695259
  C         4.6361770500        6.6963124872       10.6867485959
  O         4.6778633017        8.8777904397       11.7332646703
  H         6.3929850200        7.8178854244       11.2621156594
  C         5.2829489745        5.5728399266        9.8526052642
  H         3.6354830226        6.9007448436       10.2767908800
  O         4.3906256960        6.1890331267       12.0212581883
  C         6.7721363235        5.3571259814       10.1337311660
  O         5.1041639151        5.7626755316        8.4183406903
  H         4.7317938141        4.6621364704       10.1384614598
  H         7.1353303163        4.5240019026        9.5059127081
  O         6.9121492125        5.0383231075       11.5366744633
  H         7.3467505277        6.2584852832        9.8666118940
  H         5.3158869619       10.2220996231        6.7237391119
  H         4.3602835186        8.2729917974       12.4348768038
  H         5.2373361709        5.7978152380       12.3297901670
  H         5.2395636190        4.8644811951        8.0466282834
  H         7.8543344303        5.0635091434       11.7731602935
  O         6.6350370061        9.7841672570        9.7490690381
  H         6.0493101306        8.0417045327        8.7713986209
  H         6.5035230048       10.4411593619        9.0370134499
     161
 i =        5, E =     -8104.4864558720
 Fe         5.0938794100       11.8196869300        0.3885799900
 Fe         7.6575796300        7.3792284900        0.3885799900
 Fe        10.2212798400        2.9387700600        0.3885799900
 Fe        -0.0335205200       11.8196869300        0.3885799900
 Fe         2.5301797000        7.3792284900        0.3885799900
 Fe         5.0938799200        2.9387700600        0.3885799900
 Fe        -5.1609204400       11.8196869300        0.3885799900
 Fe        -2.5972202200        7.3792284900        0.3885799900
 Fe        -0.0335200000        2.9387700600        0.3885799900
  O         8.4519195100        8.9577468800        1.1642700400
  O        11.0156197300        4.5172884400        1.1642700400
  O        13.5793199500        0.0768300000        1.1642700400
  O         3.3245195900        8.9577468800        1.1642700400
  O         5.8882198100        4.5172884400        1.1642700400
  O         8.4519200300        0.0768300000        1.1642700400
  O        -1.8028803300        8.9577468800        1.1642700400
  O         0.7608198900        4.5172884400        1.1642700400
  O         3.3245201100        0.0768300000        1.1642700400
  O         8.4568493000       11.7183869300        1.1650400200
  O        11.0205495200        7.2779284900        1.1650400200
  O        13.5842497300        2.8374700500        1.1650400200
  O         3.3294493700       11.7183869300        1.1650400200
  O         5.8931495900        7.2779284900        1.1650400200
  O         8.4568498100        2.8374700500        1.1650400200
  O        -1.7979505500       11.7183869300        1.1650400200
  O         0.7657496700        7.2779284900        1.1650400200
  O         3.3294498900        2.8374700500        1.1650400200
  O         6.0627194200       10.3425368500        1.1660399400
  O         8.6264196400        5.9020784100        1.1660399400
  O        11.1901198600        1.4616199700        1.1660399400
  O         0.9353195000       10.3425368500        1.1660399400
  O         3.4990197200        5.9020784100        1.1660399400
  O         6.0627199400        1.4616199700        1.1660399400
  O        -4.1920804200       10.3425368500        1.1660399400
  O        -1.6283802000        5.9020784100        1.1660399400
  O         0.9353200200        1.4616199700        1.1660399400
 Fe         7.6576695000       13.2997167500        1.9292099500
 Fe        10.2213697200        8.8592583200        1.9292099500
 Fe        12.7850699400        4.4187998800        1.9292099500
 Fe         2.5302695800       13.2997167500        1.9292099500
 Fe         5.0939698000        8.8592583200        1.9292099500
 Fe         7.6576700200        4.4187998800        1.9292099500
 Fe        -2.5971303400       13.2997167500        1.9292099500
 Fe        -0.0334301200        8.8592583200        1.9292099500
 Fe         2.5302701000        4.4187998800        1.9292099500
 Fe         7.6573893600       10.3392168700        2.7128999200
 Fe        10.2210895800        5.8987584300        2.7128999200
 Fe        12.7847898000        1.4582999900        2.7128999200
 Fe         2.5299894400       10.3392168700        2.7128999200
 Fe         5.0936896600        5.8987584300        2.7128999200
 Fe         7.6573898800        1.4582999900        2.7128999200
 Fe        -2.5974104800       10.3392168700        2.7128999200
 Fe        -0.0337102600        5.8987584300        2.7128999200
 Fe         2.5299899600        1.4582999900        2.7128999200
  O         4.1985511645       13.3127113440        3.5764791401
  O         6.6268817213        8.8570593678        3.4658252128
  O         9.2398217945        4.4287665586        3.5094043529
  O        -0.9719925924       13.3077772100        3.5273366259
  O         1.5417854731        8.8337759794        3.4614787656
  O         4.1208301947        4.4039135598        3.4848884237
  O        -6.1339493033       13.3124677088        3.4911231427
  O        -3.5514714789        8.8592562868        3.4906921444
  O        -0.9897305502        4.4227180217        3.5127801754
  O         6.8625887584       11.8976907415        3.5281149146
  O         9.4379222435        7.4643851263        3.4964246407
  O        11.9838650071        3.0355405768        3.4967131275
  O         1.7191559817       11.8946500886        3.5236878655
  O         4.3389442284        7.5266100576        3.4652809817
  O         6.8542735733        3.0377228213        3.5288836555
  O        -3.3707813146       11.9258758108        3.4941909030
  O        -0.8055798191        7.4734751770        3.5421688742
  O         1.7371875516        3.0244902018        3.5115667335
  O         9.4239411742       10.2149574543        3.5186161312
  O        11.9845624984        5.8037709555        3.5035962054
  O        14.5383359238        1.3659174481        3.5043454642
  O         4.3699382727       10.2025391666        3.3835140208
  O         6.8581226215        5.7821126877        3.5008355398
  O         9.3541514799        1.4056585475        3.6122431426
  O        -0.8330276423       10.2459031739        3.5472802133
  O         1.7126410073        5.8093271749        3.5261303409
  O         4.2914289576        1.3657462192        3.5054638684
 Fe         5.0902300678       11.7635351722        4.4877013823
 Fe         7.6684355520        7.4128700011        4.4971804730
 Fe        10.2186634519        2.9681316272        4.4908355516
 Fe         0.0179588196       11.7923074583        4.5052680448
 Fe         2.5471850698        7.3974116278        4.4662553513
 Fe         5.0788791352        2.9544080107        4.4806017930
 Fe        -5.1674778943       11.8257057439        4.4720488163
 Fe        -2.5826474296        7.3979794024        4.4756763249
 Fe        -0.0380903934        2.9257283167        4.4812313033
 Fe         7.6622233171       13.2716867751        4.8453453917
 Fe        10.2327085930        8.8502888504        4.8562441260
 Fe        12.7884480533        4.4180650941        4.7997670137
 Fe         2.5202659024       13.2861184722        4.8333496444
 Fe         5.1077956423        8.8790898274        4.8487608292
 Fe         7.6152009069        4.4296187511        4.8462734233
 Fe        -2.5669693084       13.2951927569        4.7945516693
 Fe         0.0319899081        8.9024790077        4.8782927552
 Fe         2.5349148147        4.4143122251        4.8127378606
  O         5.8113964660       10.4283688564        5.9693042359
  O         8.4192285719        5.9299871691        5.7497262000
  O        10.9857921877        1.5218631075        5.7168797195
  O         0.9644554023       10.3815087112        5.7521055643
  O         3.2635535433        5.9416670758        5.7260843238
  O         5.8579792949        1.5249052258        5.7331409799
  O        -4.3885056767       10.4096462693        5.7390173610
  O        -1.8389619901        5.9435551558        5.7322192750
  O         0.7332924703        1.5212533024        5.7152708631
  O         5.9266083655       13.1861051179        5.7184615763
  O         8.5857566289        8.6457429140        5.7691417326
  O        11.0822622862        4.3270981864        5.7254559555
  O         0.8199526868       13.1912885870        5.7562721474
  O         3.3676327059        8.7416019222        5.7081047822
  O         5.8856995021        4.3779518503        5.7657888582
  O        -4.2595166188       13.2192182203        5.7083906179
  O        -1.7099339786        8.7731760694        5.7454944345
  O         0.8193147881        4.3121481536        5.7301895950
  O         3.4691892609       11.8860158541        5.6826889402
  O         6.0528152470        7.4309156795        5.7405114196
  O         8.5855624429        2.9991968799        5.7530050400
  O        -1.6224542547       11.8568072511        5.7244481199
  O         0.9286010738        7.4141965403        5.7494924858
  O         3.4672862193        2.9848213461        5.7451090934
  O        -6.7036863780       11.9356025184        5.7290671615
  O        -4.1723954000        7.4104106379        5.7377047183
  O        -1.6657347997        2.9879566792        5.7326854036
 Fe         7.7818016259       10.3213936378        6.0886309347
 Fe        10.2228372618        5.9067130702        5.9704471505
 Fe        12.7779942318        1.4544937006        5.9551557164
 Fe         2.7414422857       10.3464790034        6.4952361783
 Fe         5.0391356633        5.9792759596        6.1612613577
 Fe         7.6586115015        1.4548734209        5.9650188083
 Fe        -2.5928419145       10.3416618022        5.9522099444
 Fe        -0.0407603038        5.8899732516        5.9544427871
 Fe         2.5271915202        1.4475346662        5.9667699759
  C         4.2853384598        9.4132492581        8.9529778889
  C         5.6288203243        8.8079630722        9.4445389919
  H         3.6386931815        8.5491909387        8.6802722443
  O         4.2132547537       10.2504510288        7.7500833681
  H         3.8316491489        9.9290157147        9.8177473735
  C         5.3897568634        8.0470435087       10.7835215108
  C         4.6324987343        6.7055008018       10.6471971811
  O         4.6752613671        8.8806093009       11.7137684279
  H         6.3890627353        7.8290309460       11.2224078501
  C         5.2836117339        5.5531113520        9.8458044266
  H         3.6227051282        6.9077547797       10.2585692285
  O         4.3986152617        6.1995639345       11.9893723731
  C         6.7729597840        5.3564152285       10.1321211695
  O         5.1148450567        5.6399478767        8.3846788058
  H         4.7416547213        4.6575891242       10.1946978120
  H         7.1373339895        4.5261822259        9.5019819741
  O         6.9192268934        5.0483579308       11.5355519928
  H         7.3428608807        6.2624473756        9.8628816877
  H         5.2700776818       10.2991395739        6.8290865632
  H         4.3691480610        8.2684175816       12.4159013721
  H         5.2367607964        5.8027854682       12.3161242198
  H         5.2608319402        4.7407401927        8.0419920623
  H         7.8621466031        5.0609929827       11.7700053300
  O         6.6475142703        9.7937792814        9.7033926037
  H         6.0426042634        8.0363213020        8.7571086655
  H         6.4985107104       10.4924267421        9.0411911930
     161
 i =        6, E =     -8104.5086889156
 Fe         5.0938794100       11.8196869300        0.3885799900
 Fe         7.6575796300        7.3792284900        0.3885799900
 Fe        10.2212798400        2.9387700600        0.3885799900
 Fe        -0.0335205200       11.8196869300        0.3885799900
 Fe         2.5301797000        7.3792284900        0.3885799900
 Fe         5.0938799200        2.9387700600        0.3885799900
 Fe        -5.1609204400       11.8196869300        0.3885799900
 Fe        -2.5972202200        7.3792284900        0.3885799900
 Fe        -0.0335200000        2.9387700600        0.3885799900
  O         8.4519195100        8.9577468800        1.1642700400
  O        11.0156197300        4.5172884400        1.1642700400
  O        13.5793199500        0.0768300000        1.1642700400
  O         3.3245195900        8.9577468800        1.1642700400
  O         5.8882198100        4.5172884400        1.1642700400
  O         8.4519200300        0.0768300000        1.1642700400
  O        -1.8028803300        8.9577468800        1.1642700400
  O         0.7608198900        4.5172884400        1.1642700400
  O         3.3245201100        0.0768300000        1.1642700400
  O         8.4568493000       11.7183869300        1.1650400200
  O        11.0205495200        7.2779284900        1.1650400200
  O        13.5842497300        2.8374700500        1.1650400200
  O         3.3294493700       11.7183869300        1.1650400200
  O         5.8931495900        7.2779284900        1.1650400200
  O         8.4568498100        2.8374700500        1.1650400200
  O        -1.7979505500       11.7183869300        1.1650400200
  O         0.7657496700        7.2779284900        1.1650400200
  O         3.3294498900        2.8374700500        1.1650400200
  O         6.0627194200       10.3425368500        1.1660399400
  O         8.6264196400        5.9020784100        1.1660399400
  O        11.1901198600        1.4616199700        1.1660399400
  O         0.9353195000       10.3425368500        1.1660399400
  O         3.4990197200        5.9020784100        1.1660399400
  O         6.0627199400        1.4616199700        1.1660399400
  O        -4.1920804200       10.3425368500        1.1660399400
  O        -1.6283802000        5.9020784100        1.1660399400
  O         0.9353200200        1.4616199700        1.1660399400
 Fe         7.6576695000       13.2997167500        1.9292099500
 Fe        10.2213697200        8.8592583200        1.9292099500
 Fe        12.7850699400        4.4187998800        1.9292099500
 Fe         2.5302695800       13.2997167500        1.9292099500
 Fe         5.0939698000        8.8592583200        1.9292099500
 Fe         7.6576700200        4.4187998800        1.9292099500
 Fe        -2.5971303400       13.2997167500        1.9292099500
 Fe        -0.0334301200        8.8592583200        1.9292099500
 Fe         2.5302701000        4.4187998800        1.9292099500
 Fe         7.6573893600       10.3392168700        2.7128999200
 Fe        10.2210895800        5.8987584300        2.7128999200
 Fe        12.7847898000        1.4582999900        2.7128999200
 Fe         2.5299894400       10.3392168700        2.7128999200
 Fe         5.0936896600        5.8987584300        2.7128999200
 Fe         7.6573898800        1.4582999900        2.7128999200
 Fe        -2.5974104800       10.3392168700        2.7128999200
 Fe        -0.0337102600        5.8987584300        2.7128999200
 Fe         2.5299899600        1.4582999900        2.7128999200
  O         4.1591594601       13.3149411554        3.5334828833
  O         6.6715463288        8.8626103787        3.5019657602
  O         9.2450628377        4.4249989195        3.5073246042
  O        -0.9739589564       13.3020699120        3.5222212679
  O         1.5498003655        8.8387354277        3.4622056797
  O         4.1224489789        4.4080721126        3.4872827417
  O        -6.1297132994       13.3093201351        3.4869642234
  O        -3.5465370943        8.8602281314        3.5026417619
  O        -0.9907158907        4.4211396369        3.5103845295
  O         6.8513396106       11.9011085757        3.5179730053
  O         9.4333416031        7.4587218724        3.5000616023
  O        11.9820092502        3.0355221226        3.4984747052
  O         1.7233155769       11.9146837268        3.4971280164
  O         4.3001382442        7.4720630548        3.4915319672
  O         6.8528071968        3.0344812950        3.5245569005
  O        -3.3790185239       11.9231934636        3.4959160007
  O        -0.8140080596        7.4737628463        3.5296420059
  O         1.7353911171        3.0291653474        3.5063883351
  O         9.4300024609       10.2260442457        3.5019693393
  O        11.9870274625        5.8049244329        3.5011963857
  O        14.5406269594        1.3659356468        3.5024312115
  O         4.3225951557       10.2378596635        3.4604329158
  O         6.8555948317        5.7895892215        3.5011570352
  O         9.3803079586        1.3870860949        3.5720992274
  O        -0.8317077995       10.2464160153        3.5327740096
  O         1.7173776897        5.8074881881        3.5154497934
  O         4.2961530519        1.3695881053        3.5019611964
 Fe         5.0843803404       11.8097630970        4.4801965942
 Fe         7.6742300299        7.3985260878        4.5076427939
 Fe        10.2136494062        2.9569073733        4.4936137233
 Fe         0.0148562074       11.7922107378        4.5076583994
 Fe         2.5223894401        7.3914405348        4.4805884682
 Fe         5.0825937191        2.9544262651        4.4908957590
 Fe        -5.1728297733       11.8229959289        4.4860390494
 Fe        -2.5820823930        7.3925961582        4.4861430775
 Fe        -0.0361241310        2.9266914528        4.4862306264
 Fe         7.6650651403       13.2736986210        4.8401477986
 Fe        10.2230832462        8.8547708059        4.8469351485
 Fe        12.7883156195        4.4193739569        4.8072625300
 Fe         2.5249407548       13.2855527495        4.8370009153
 Fe         5.0928564981        8.8396022370        4.8021697631
 Fe         7.6198273685        4.4281391945        4.8406153439
 Fe        -2.5726520460       13.2958374500        4.8042374189
 Fe         0.0233284922        8.8968045928        4.8592674098
 Fe         2.5331282265        4.4182074267        4.8135887475
  O         5.8311308001       10.3818045157        5.8753087276
  O         8.4222778979        5.9234508734        5.7494902711
  O        10.9881861167        1.5185620445        5.7237461185
  O         0.9153574845       10.3749945550        5.7600058493
  O         3.2794145150        5.9459893666        5.7162863553
  O         5.8608635551        1.5222718554        5.7352027698
  O        -4.3832327058       10.3999629156        5.7338931711
  O        -1.8316921111        5.9431496255        5.7323622150
  O         0.7341627260        1.5183340573        5.7186846329
  O         5.9371651895       13.1877973538        5.7267544536
  O         8.5785061288        8.6529875804        5.7598687739
  O        11.0787698115        4.3272366396        5.7250220564
  O         0.8213983603       13.1930437027        5.7551057754
  O         3.3774436260        8.7466266740        5.6797906473
  O         5.8963846702        4.3753747018        5.7701224458
  O        -4.2681519989       13.2182740813        5.7148960275
  O        -1.7089656484        8.7733930860        5.7407207425
  O         0.8204212406        4.3158085372        5.7287069645
  O         3.4720647018       11.8712946287        5.6874761414
  O         6.0459928519        7.4440284787        5.7306300693
  O         8.5829558959        3.0028592219        5.7558985382
  O        -1.6268973005       11.8580751472        5.7272031686
  O         0.9142370431        7.4228902204        5.7503162921
  O         3.4643211432        2.9881497944        5.7441265039
  O        -6.7130280616       11.9406911458        5.7359331871
  O        -4.1848220538        7.4159332927        5.7316701180
  O        -1.6665244436        2.9845162618        5.7310119169
 Fe         7.7843689279       10.3240385712        6.0925002508
 Fe        10.2217832575        5.9078320965        5.9778881401
 Fe        12.7809887990        1.4503669569        5.9688703809
 Fe         2.6975690120       10.3381204625        6.3783722124
 Fe         5.0542751585        5.9792579585        6.1212146750
 Fe         7.6600887959        1.4563004018        5.9664481924
 Fe        -2.5916090906       10.3405288658        5.9660490209
 Fe        -0.0363842923        5.8934483958        5.9674273207
 Fe         2.5270849544        1.4495528162        5.9777713078
  C         4.2849811396        9.3905837183        8.9431905309
  C         5.6219502709        8.7975725637        9.4599745279
  H         3.6288768493        8.5321116832        8.6976213136
  O         4.3287255971       10.2699313162        7.8174591894
  H         3.8563500132        9.9509100477        9.7917054380
  C         5.3938521989        8.0441234109       10.7950378380
  C         4.6343620457        6.7039961205       10.6647157495
  O         4.6746987641        8.8782488467       11.7169625310
  H         6.3935228630        7.8259797169       11.2293191894
  C         5.2862723279        5.5609895648        9.8538910539
  H         3.6305917286        6.9018351475       10.2593503910
  O         4.3900742052        6.1962412812       12.0022840880
  C         6.7774930539        5.3569937502       10.1305381379
  O         5.1067319582        5.6743780270        8.4019446284
  H         4.7379047401        4.6586870821       10.1680603165
  H         7.1399357466        4.5231040771        9.5041989783
  O         6.9138935927        5.0454461442       11.5346562987
  H         7.3441492152        6.2630233971        9.8610075951
  H         5.2735793080       10.3073228740        6.7973469653
  H         4.3673893175        8.2691742503       12.4199214592
  H         5.2381041238        5.8062857273       12.3098386016
  H         5.2575865920        4.7703612083        8.0542560539
  H         7.8576482252        5.0622700527       11.7668623734
  O         6.6314196113        9.7901964963        9.7127737373
  H         6.0366334664        8.0522819826        8.7498352574
  H         6.5037809709       10.4823690904        9.0385523006
     161
 i =        7, E =     -8104.5151378383
 Fe         5.0938794100       11.8196869300        0.3885799900
 Fe         7.6575796300        7.3792284900        0.3885799900
 Fe        10.2212798400        2.9387700600        0.3885799900
 Fe        -0.0335205200       11.8196869300        0.3885799900
 Fe         2.5301797000        7.3792284900        0.3885799900
 Fe         5.0938799200        2.9387700600        0.3885799900
 Fe        -5.1609204400       11.8196869300        0.3885799900
 Fe        -2.5972202200        7.3792284900        0.3885799900
 Fe        -0.0335200000        2.9387700600        0.3885799900
  O         8.4519195100        8.9577468800        1.1642700400
  O        11.0156197300        4.5172884400        1.1642700400
  O        13.5793199500        0.0768300000        1.1642700400
  O         3.3245195900        8.9577468800        1.1642700400
  O         5.8882198100        4.5172884400        1.1642700400
  O         8.4519200300        0.0768300000        1.1642700400
  O        -1.8028803300        8.9577468800        1.1642700400
  O         0.7608198900        4.5172884400        1.1642700400
  O         3.3245201100        0.0768300000        1.1642700400
  O         8.4568493000       11.7183869300        1.1650400200
  O        11.0205495200        7.2779284900        1.1650400200
  O        13.5842497300        2.8374700500        1.1650400200
  O         3.3294493700       11.7183869300        1.1650400200
  O         5.8931495900        7.2779284900        1.1650400200
  O         8.4568498100        2.8374700500        1.1650400200
  O        -1.7979505500       11.7183869300        1.1650400200
  O         0.7657496700        7.2779284900        1.1650400200
  O         3.3294498900        2.8374700500        1.1650400200
  O         6.0627194200       10.3425368500        1.1660399400
  O         8.6264196400        5.9020784100        1.1660399400
  O        11.1901198600        1.4616199700        1.1660399400
  O         0.9353195000       10.3425368500        1.1660399400
  O         3.4990197200        5.9020784100        1.1660399400
  O         6.0627199400        1.4616199700        1.1660399400
  O        -4.1920804200       10.3425368500        1.1660399400
  O        -1.6283802000        5.9020784100        1.1660399400
  O         0.9353200200        1.4616199700        1.1660399400
 Fe         7.6576695000       13.2997167500        1.9292099500
 Fe        10.2213697200        8.8592583200        1.9292099500
 Fe        12.7850699400        4.4187998800        1.9292099500
 Fe         2.5302695800       13.2997167500        1.9292099500
 Fe         5.0939698000        8.8592583200        1.9292099500
 Fe         7.6576700200        4.4187998800        1.9292099500
 Fe        -2.5971303400       13.2997167500        1.9292099500
 Fe        -0.0334301200        8.8592583200        1.9292099500
 Fe         2.5302701000        4.4187998800        1.9292099500
 Fe         7.6573893600       10.3392168700        2.7128999200
 Fe        10.2210895800        5.8987584300        2.7128999200
 Fe        12.7847898000        1.4582999900        2.7128999200
 Fe         2.5299894400       10.3392168700        2.7128999200
 Fe         5.0936896600        5.8987584300        2.7128999200
 Fe         7.6573898800        1.4582999900        2.7128999200
 Fe        -2.5974104800       10.3392168700        2.7128999200
 Fe        -0.0337102600        5.8987584300        2.7128999200
 Fe         2.5299899600        1.4582999900        2.7128999200
  O         4.1275431491       13.3139848272        3.4969500442
  O         6.7058121647        8.8731515050        3.5411780860
  O         9.2465691951        4.4224702489        3.5076669047
  O        -0.9723068622       13.2993546158        3.5217217394
  O         1.5489032891        8.8408710480        3.4596270284
  O         4.1211739418        4.4096563174        3.4862105976
  O        -6.1289745141       13.3057068514        3.4814824949
  O        -3.5460541189        8.8600612496        3.5078198922
  O        -0.9910861248        4.4192839003        3.5093017555
  O         6.8444229991       11.9028679878        3.5148628374
  O         9.4326775602        7.4604895655        3.4940744401
  O        11.9799839350        3.0365262726        3.4980768456
  O         1.7280206994       11.9403069899        3.4663109841
  O         4.2800953865        7.4363323914        3.5125780994
  O         6.8513697460        3.0328396944        3.5279221301
  O        -3.3828094516       11.9222411276        3.4979678363
  O        -0.8164238746        7.4772824356        3.5221076124
  O         1.7340217941        3.0327477067        3.5029504743
  O         9.4409055713       10.2297584132        3.4864548759
  O        11.9903418994        5.8064293449        3.4980216748
  O        14.5436622582        1.3622926901        3.5013894831
  O         4.2945185452       10.2653906081        3.5139989464
  O         6.8564365604        5.7920570622        3.5005234336
  O         9.3996966181        1.3722148118        3.5423355178
  O        -0.8257108618       10.2460330530        3.5268954259
  O         1.7190713817        5.8078967856        3.5111589559
  O         4.3008213595        1.3729267528        3.4977032322
 Fe         5.0802588933       11.8430471085        4.4795497492
 Fe         7.6820716488        7.3895470009        4.5131293643
 Fe        10.2072723926        2.9478530904        4.4946378525
 Fe         0.0241823744       11.7876859806        4.5135402442
 Fe         2.5086162304        7.3919154984        4.4903298906
 Fe         5.0822836705        2.9578026113        4.4977068142
 Fe        -5.1768823548       11.8220971740        4.4974693319
 Fe        -2.5759463230        7.3915849431        4.4920121710
 Fe        -0.0348226861        2.9253456519        4.4900913448
 Fe         7.6673348062       13.2690105026        4.8433765674
 Fe        10.2178292311        8.8566037864        4.8431027225
 Fe        12.7878413718        4.4207844701        4.8082876086
 Fe         2.5282453069       13.2848672002        4.8451196524
 Fe         5.0859142464        8.8192548159        4.7722451376
 Fe         7.6155592993        4.4296586995        4.8441580374
 Fe        -2.5699683398       13.2970987781        4.8062001776
 Fe         0.0264751306        8.8998960894        4.8625438529
 Fe         2.5326614380        4.4248043821        4.8126613134
  O         5.8248888458       10.3594331630        5.8500431478
  O         8.4231914569        5.9190656349        5.7507270770
  O        10.9897427317        1.5185120701        5.7324569789
  O         0.9285332078       10.3670630175        5.7687767811
  O         3.2947826800        5.9505114029        5.7070506914
  O         5.8615828538        1.5235099492        5.7376531408
  O        -4.3763111785       10.3932274209        5.7297885223
  O        -1.8264283899        5.9416038029        5.7320469687
  O         0.7355016026        1.5158322262        5.7198072316
  O         5.9445372003       13.1920444126        5.7367358938
  O         8.5800610218        8.6500107615        5.7559067828
  O        11.0752710431        4.3282366306        5.7224041120
  O         0.8238567857       13.1921936182        5.7609349208
  O         3.3864988624        8.7457247613        5.6523386468
  O         5.8925816485        4.3841086283        5.7748241667
  O        -4.2675576708       13.2204993648        5.7159304316
  O        -1.7072510073        8.7755120943        5.7417890434
  O         0.8210739899        4.3194453387        5.7269767992
  O         3.4758999253       11.8616282580        5.6808993390
  O         6.0403240171        7.4495081118        5.7180419223
  O         8.5781674692        3.0080513706        5.7621734215
  O        -1.6253044135       11.8578364381        5.7287144915
  O         0.9093432814        7.4266638665        5.7547755585
  O         3.4602439186        2.9918373412        5.7434032564
  O        -6.7110263408       11.9450966245        5.7444830537
  O        -4.1878735535        7.4191552353        5.7274265684
  O        -1.6689566469        2.9816265736        5.7271174074
 Fe         7.7865651524       10.3232723310        6.1004228534
 Fe        10.2208792894        5.9098216761        5.9846804525
 Fe        12.7818084161        1.4488664891        5.9939697586
 Fe         2.7130648539       10.3293096240        6.3831510546
 Fe         5.0598513682        5.9887041396        6.1590837574
 Fe         7.6611466837        1.4564663639        5.9672421858
 Fe        -2.5879219601       10.3412362185        5.9901725573
 Fe        -0.0332795649        5.8966694973        5.9893700436
 Fe         2.5277353289        1.4505601250        5.9896181795
  C         4.2751525627        9.3911753933        8.9294139795
  C         5.6086094355        8.7938998806        9.4527566162
  H         3.6252059985        8.5178220811        8.7174537808
  O         4.2720875334       10.2992679631        7.8197314530
  H         3.8407194279        9.9295004311        9.7985624793
  C         5.3934905115        8.0443194800       10.7893522114
  C         4.6346061514        6.7037774029       10.6592780614
  O         4.6773036529        8.8755233135       11.7144729276
  H         6.3967737173        7.8308335400       11.2161940690
  C         5.2869440276        5.5583157185        9.8516349184
  H         3.6333104868        6.8986192061       10.2470681941
  O         4.3882194161        6.1979586397       11.9973208076
  C         6.7786412443        5.3576161676       10.1268070418
  O         5.1015636382        5.6551248961        8.3982086699
  H         4.7402743221        4.6558012332       10.1683150127
  H         7.1460413974        4.5221867497        9.5058117323
  O         6.9147293198        5.0486627339       11.5315314313
  H         7.3440154142        6.2630808312        9.8563065572
  H         5.2566009526       10.3407005974        6.8186029350
  H         4.3692814401        8.2671563590       12.4164853890
  H         5.2401583869        5.8125158956       12.2993781735
  H         5.2664527082        4.7328426144        8.0792350554
  H         7.8585005200        5.0623848907       11.7643472827
  O         6.6080298869        9.7951287078        9.7079590177
  H         6.0186033933        8.0676495269        8.7235357155
  H         6.4937126337       10.4900870571        9.0331531074
     161
 i =        8, E =     -8104.5192594433
 Fe         5.0938794100       11.8196869300        0.3885799900
 Fe         7.6575796300        7.3792284900        0.3885799900
 Fe        10.2212798400        2.9387700600        0.3885799900
 Fe        -0.0335205200       11.8196869300        0.3885799900
 Fe         2.5301797000        7.3792284900        0.3885799900
 Fe         5.0938799200        2.9387700600        0.3885799900
 Fe        -5.1609204400       11.8196869300        0.3885799900
 Fe        -2.5972202200        7.3792284900        0.3885799900
 Fe        -0.0335200000        2.9387700600        0.3885799900
  O         8.4519195100        8.9577468800        1.1642700400
  O        11.0156197300        4.5172884400        1.1642700400
  O        13.5793199500        0.0768300000        1.1642700400
  O         3.3245195900        8.9577468800        1.1642700400
  O         5.8882198100        4.5172884400        1.1642700400
  O         8.4519200300        0.0768300000        1.1642700400
  O        -1.8028803300        8.9577468800        1.1642700400
  O         0.7608198900        4.5172884400        1.1642700400
  O         3.3245201100        0.0768300000        1.1642700400
  O         8.4568493000       11.7183869300        1.1650400200
  O        11.0205495200        7.2779284900        1.1650400200
  O        13.5842497300        2.8374700500        1.1650400200
  O         3.3294493700       11.7183869300        1.1650400200
  O         5.8931495900        7.2779284900        1.1650400200
  O         8.4568498100        2.8374700500        1.1650400200
  O        -1.7979505500       11.7183869300        1.1650400200
  O         0.7657496700        7.2779284900        1.1650400200
  O         3.3294498900        2.8374700500        1.1650400200
  O         6.0627194200       10.3425368500        1.1660399400
  O         8.6264196400        5.9020784100        1.1660399400
  O        11.1901198600        1.4616199700        1.1660399400
  O         0.9353195000       10.3425368500        1.1660399400
  O         3.4990197200        5.9020784100        1.1660399400
  O         6.0627199400        1.4616199700        1.1660399400
  O        -4.1920804200       10.3425368500        1.1660399400
  O        -1.6283802000        5.9020784100        1.1660399400
  O         0.9353200200        1.4616199700        1.1660399400
 Fe         7.6576695000       13.2997167500        1.9292099500
 Fe        10.2213697200        8.8592583200        1.9292099500
 Fe        12.7850699400        4.4187998800        1.9292099500
 Fe         2.5302695800       13.2997167500        1.9292099500
 Fe         5.0939698000        8.8592583200        1.9292099500
 Fe         7.6576700200        4.4187998800        1.9292099500
 Fe        -2.5971303400       13.2997167500        1.9292099500
 Fe        -0.0334301200        8.8592583200        1.9292099500
 Fe         2.5302701000        4.4187998800        1.9292099500
 Fe         7.6573893600       10.3392168700        2.7128999200
 Fe        10.2210895800        5.8987584300        2.7128999200
 Fe        12.7847898000        1.4582999900        2.7128999200
 Fe         2.5299894400       10.3392168700        2.7128999200
 Fe         5.0936896600        5.8987584300        2.7128999200
 Fe         7.6573898800        1.4582999900        2.7128999200
 Fe        -2.5974104800       10.3392168700        2.7128999200
 Fe        -0.0337102600        5.8987584300        2.7128999200
 Fe         2.5299899600        1.4582999900        2.7128999200
  O         4.1282477774       13.3150692923        3.4992732426
  O         6.6984069003        8.8784512696        3.5410118435
  O         9.2464751873        4.4238507089        3.5095197942
  O        -0.9709720153       13.3027719625        3.5248199438
  O         1.5479746789        8.8431353429        3.4589398822
  O         4.1191604135        4.4113129733        3.4870563099
  O        -6.1304402503       13.3042212149        3.4817300312
  O        -3.5440243943        8.8618113404        3.5113336529
  O        -0.9906059939        4.4193410352        3.5106458439
  O         6.8487106228       11.8994889944        3.5234259981
  O         9.4329894395        7.4618172679        3.4946689125
  O        11.9803067508        3.0355702202        3.4995232863
  O         1.7317833319       11.9430391709        3.4661083493
  O         4.2912549329        7.4568646288        3.4922480258
  O         6.8517336135        3.0326517419        3.5329808003
  O        -3.3796672724       11.9221702601        3.4996427504
  O        -0.8150294195        7.4766390956        3.5229570655
  O         1.7345009763        3.0312782132        3.5055047440
  O         9.4382152266       10.2302197112        3.4926926332
  O        11.9899066900        5.8075951650        3.4985810975
  O        14.5442974829        1.3586032407        3.5018014053
  O         4.3105335132       10.2562312034        3.4976904584
  O         6.8588765313        5.7890753937        3.4969329099
  O         9.3999354397        1.3725517214        3.5425510161
  O        -0.8225381039       10.2469745560        3.5313507543
  O         1.7184452596        5.8115143486        3.5148343437
  O         4.3007191657        1.3727965776        3.4975842415
 Fe         5.0792803688       11.8386097453        4.4828154285
 Fe         7.6765414023        7.3889238756        4.5058254581
 Fe        10.2048520870        2.9477469917        4.4941768635
 Fe         0.0310376414       11.7863306283        4.5159675013
 Fe         2.5216320716        7.3994117282        4.4853753467
 Fe         5.0806132042        2.9608352832        4.4961776853
 Fe        -5.1729947758       11.8242683819        4.4953225301
 Fe        -2.5695780782        7.3922003387        4.4911907617
 Fe        -0.0346940193        2.9234474666        4.4892776703
 Fe         7.6651942957       13.2669400710        4.8482782518
 Fe        10.2205044503        8.8558042846        4.8425620643
 Fe        12.7871282528        4.4212186360        4.8057714450
 Fe         2.5308870731       13.2828039056        4.8519150350
 Fe         5.0897678127        8.8265790318        4.7826829876
 Fe         7.6116840793        4.4336224406        4.8496413263
 Fe        -2.5647030994       13.2978804170        4.8042206636
 Fe         0.0363123104        8.9024446090        4.8687646099
 Fe         2.5335101622        4.4308951051        4.8127078252
  O         5.8129772122       10.3674587188        5.8783002656
  O         8.4230944450        5.9239787141        5.7499264247
  O        10.9878464446        1.5197752294        5.7354517984
  O         0.9424059668       10.3635901453        5.7737456173
  O         3.3007141463        5.9549414256        5.7059272471
  O         5.8603795149        1.5258253106        5.7383186787
  O        -4.3745657794       10.3928084786        5.7275348871
  O        -1.8251878046        5.9399281209        5.7314990757
  O         0.7367425096        1.5138647840        5.7201736164
  O         5.9459366883       13.1942644878        5.7416803859
  O         8.5773483878        8.6543814483        5.7520987186
  O        11.0746024744        4.3288908879        5.7212875803
  O         0.8263658814       13.1911345126        5.7643380626
  O         3.3873005578        8.7481021805        5.6503500558
  O         5.8892004445        4.3861235233        5.7736392983
  O        -4.2643895097       13.2205863484        5.7137103062
  O        -1.7023400036        8.7772093645        5.7424860251
  O         0.8218518816        4.3183976894        5.7264739418
  O         3.4764917565       11.8555932103        5.6752321185
  O         6.0410168043        7.4450076488        5.7212399482
  O         8.5749806854        3.0101548953        5.7645045321
  O        -1.6210383899       11.8580805472        5.7298692668
  O         0.9174038040        7.4265563157        5.7550488137
  O         3.4589195005        2.9938518828        5.7417919750
  O        -6.7109720126       11.9363277726        5.7445066022
  O        -4.1851275580        7.4195607534        5.7248363959
  O        -1.6685520010        2.9823071766        5.7246663767
 Fe         7.7747923287       10.3216644534        6.0964829283
 Fe        10.2215926008        5.9104496856        5.9807040536
 Fe        12.7804937066        1.4509497338        5.9873866861
 Fe         2.7277149569       10.3274831959        6.3992560558
 Fe         5.0599542195        5.9888950877        6.1775992296
 Fe         7.6609647950        1.4557446436        5.9650637219
 Fe        -2.5843472248       10.3421980709        5.9848202228
 Fe        -0.0304206184        5.8983820352        5.9825044943
 Fe         2.5300048831        1.4507025155        5.9840410036
  C         4.2345190805        9.3833312868        8.9424452936
  C         5.5954642867        8.8096250931        9.4315113343
  H         3.6074920782        8.4982927574        8.7183856043
  O         4.2315265296       10.2817928958        7.8232441053
  H         3.8157076296        9.9257178740        9.8035993538
  C         5.3903008610        8.0497382404       10.7679655414
  C         4.6325715743        6.7072313074       10.6457528924
  O         4.6790417455        8.8742420994       11.7029079266
  H         6.3958416521        7.8382853044       11.1899932477
  C         5.2901850699        5.5506005473        9.8542780471
  H         3.6306906028        6.8965868873       10.2329977083
  O         4.3901588536        6.2022714108       11.9853816262
  C         6.7833379751        5.3558554420       10.1246361092
  O         5.1000914794        5.6156411343        8.3967643315
  H         4.7444892950        4.6509783317       10.1812307001
  H         7.1520770722        4.5200556609        9.5053024201
  O         6.9156919076        5.0541836764       11.5307004255
  H         7.3419198125        6.2649962301        9.8515345352
  H         5.2268757540       10.3502341964        6.8241361647
  H         4.3755098809        8.2638730853       12.4055401521
  H         5.2414671451        5.8177823104       12.2907319726
  H         5.2727259430        4.6979557358        8.0798987650
  H         7.8603243198        5.0626754825       11.7608658391
  O         6.6020123021        9.8034217232        9.6954923601
  H         6.0046346503        8.0781545589        8.7056127506
  H         6.4869119585       10.5068873785        9.0308905060
     161
 i =        9, E =     -8104.5191074155
 Fe         5.0938794100       11.8196869300        0.3885799900
 Fe         7.6575796300        7.3792284900        0.3885799900
 Fe        10.2212798400        2.9387700600        0.3885799900
 Fe        -0.0335205200       11.8196869300        0.3885799900
 Fe         2.5301797000        7.3792284900        0.3885799900
 Fe         5.0938799200        2.9387700600        0.3885799900
 Fe        -5.1609204400       11.8196869300        0.3885799900
 Fe        -2.5972202200        7.3792284900        0.3885799900
 Fe        -0.0335200000        2.9387700600        0.3885799900
  O         8.4519195100        8.9577468800        1.1642700400
  O        11.0156197300        4.5172884400        1.1642700400
  O        13.5793199500        0.0768300000        1.1642700400
  O         3.3245195900        8.9577468800        1.1642700400
  O         5.8882198100        4.5172884400        1.1642700400
  O         8.4519200300        0.0768300000        1.1642700400
  O        -1.8028803300        8.9577468800        1.1642700400
  O         0.7608198900        4.5172884400        1.1642700400
  O         3.3245201100        0.0768300000        1.1642700400
  O         8.4568493000       11.7183869300        1.1650400200
  O        11.0205495200        7.2779284900        1.1650400200
  O        13.5842497300        2.8374700500        1.1650400200
  O         3.3294493700       11.7183869300        1.1650400200
  O         5.8931495900        7.2779284900        1.1650400200
  O         8.4568498100        2.8374700500        1.1650400200
  O        -1.7979505500       11.7183869300        1.1650400200
  O         0.7657496700        7.2779284900        1.1650400200
  O         3.3294498900        2.8374700500        1.1650400200
  O         6.0627194200       10.3425368500        1.1660399400
  O         8.6264196400        5.9020784100        1.1660399400
  O        11.1901198600        1.4616199700        1.1660399400
  O         0.9353195000       10.3425368500        1.1660399400
  O         3.4990197200        5.9020784100        1.1660399400
  O         6.0627199400        1.4616199700        1.1660399400
  O        -4.1920804200       10.3425368500        1.1660399400
  O        -1.6283802000        5.9020784100        1.1660399400
  O         0.9353200200        1.4616199700        1.1660399400
 Fe         7.6576695000       13.2997167500        1.9292099500
 Fe        10.2213697200        8.8592583200        1.9292099500
 Fe        12.7850699400        4.4187998800        1.9292099500
 Fe         2.5302695800       13.2997167500        1.9292099500
 Fe         5.0939698000        8.8592583200        1.9292099500
 Fe         7.6576700200        4.4187998800        1.9292099500
 Fe        -2.5971303400       13.2997167500        1.9292099500
 Fe        -0.0334301200        8.8592583200        1.9292099500
 Fe         2.5302701000        4.4187998800        1.9292099500
 Fe         7.6573893600       10.3392168700        2.7128999200
 Fe        10.2210895800        5.8987584300        2.7128999200
 Fe        12.7847898000        1.4582999900        2.7128999200
 Fe         2.5299894400       10.3392168700        2.7128999200
 Fe         5.0936896600        5.8987584300        2.7128999200
 Fe         7.6573898800        1.4582999900        2.7128999200
 Fe        -2.5974104800       10.3392168700        2.7128999200
 Fe        -0.0337102600        5.8987584300        2.7128999200
 Fe         2.5299899600        1.4582999900        2.7128999200
  O         4.1282477774       13.3150692923        3.4992732426
  O         6.6984069003        8.8784512696        3.5410118435
  O         9.2464751873        4.4238507089        3.5095197942
  O        -0.9709720153       13.3027719625        3.5248199438
  O         1.5479746789        8.8431353429        3.4589398822
  O         4.1191604135        4.4113129733        3.4870563099
  O        -6.1304402503       13.3042212149        3.4817300312
  O        -3.5440243943        8.8618113404        3.5113336529
  O        -0.9906059939        4.4193410352        3.5106458439
  O         6.8487106228       11.8994889944        3.5234259981
  O         9.4329894395        7.4618172679        3.4946689125
  O        11.9803067508        3.0355702202        3.4995232863
  O         1.7317833319       11.9430391709        3.4661083493
  O         4.2912549329        7.4568646288        3.4922480258
  O         6.8517336135        3.0326517419        3.5329808003
  O        -3.3796672724       11.9221702601        3.4996427504
  O        -0.8150294195        7.4766390956        3.5229570655
  O         1.7345009763        3.0312782132        3.5055047440
  O         9.4382152266       10.2302197112        3.4926926332
  O        11.9899066900        5.8075951650        3.4985810975
  O        14.5442974829        1.3586032407        3.5018014053
  O         4.3105335132       10.2562312034        3.4976904584
  O         6.8588765313        5.7890753937        3.4969329099
  O         9.3999354397        1.3725517214        3.5425510161
  O        -0.8225381039       10.2469745560        3.5313507543
  O         1.7184452596        5.8115143486        3.5148343437
  O         4.3007191657        1.3727965776        3.4975842415
 Fe         5.0792803688       11.8386097453        4.4828154285
 Fe         7.6765414023        7.3889238756        4.5058254581
 Fe        10.2048520870        2.9477469917        4.4941768635
 Fe         0.0310376414       11.7863306283        4.5159675013
 Fe         2.5216320716        7.3994117282        4.4853753467
 Fe         5.0806132042        2.9608352832        4.4961776853
 Fe        -5.1729947758       11.8242683819        4.4953225301
 Fe        -2.5695780782        7.3922003387        4.4911907617
 Fe        -0.0346940193        2.9234474666        4.4892776703
 Fe         7.6651942957       13.2669400710        4.8482782518
 Fe        10.2205044503        8.8558042846        4.8425620643
 Fe        12.7871282528        4.4212186360        4.8057714450
 Fe         2.5308870731       13.2828039056        4.8519150350
 Fe         5.0897678127        8.8265790318        4.7826829876
 Fe         7.6116840793        4.4336224406        4.8496413263
 Fe        -2.5647030994       13.2978804170        4.8042206636
 Fe         0.0363123104        8.9024446090        4.8687646099
 Fe         2.5335101622        4.4308951051        4.8127078252
  O         5.8129772122       10.3674587188        5.8783002656
  O         8.4230944450        5.9239787141        5.7499264247
  O        10.9878464446        1.5197752294        5.7354517984
  O         0.9424059668       10.3635901453        5.7737456173
  O         3.3007141463        5.9549414256        5.7059272471
  O         5.8603795149        1.5258253106        5.7383186787
  O        -4.3745657794       10.3928084786        5.7275348871
  O        -1.8251878046        5.9399281209        5.7314990757
  O         0.7367425096        1.5138647840        5.7201736164
  O         5.9459366883       13.1942644878        5.7416803859
  O         8.5773483878        8.6543814483        5.7520987186
  O        11.0746024744        4.3288908879        5.7212875803
  O         0.8263658814       13.1911345126        5.7643380626
  O         3.3873005578        8.7481021805        5.6503500558
  O         5.8892004445        4.3861235233        5.7736392983
  O        -4.2643895097       13.2205863484        5.7137103062
  O        -1.7023400036        8.7772093645        5.7424860251
  O         0.8218518816        4.3183976894        5.7264739418
  O         3.4764917565       11.8555932103        5.6752321185
  O         6.0410168043        7.4450076488        5.7212399482
  O         8.5749806854        3.0101548953        5.7645045321
  O        -1.6210383899       11.8580805472        5.7298692668
  O         0.9174038040        7.4265563157        5.7550488137
  O         3.4589195005        2.9938518828        5.7417919750
  O        -6.7109720126       11.9363277726        5.7445066022
  O        -4.1851275580        7.4195607534        5.7248363959
  O        -1.6685520010        2.9823071766        5.7246663767
 Fe         7.7747923287       10.3216644534        6.0964829283
 Fe        10.2215926008        5.9104496856        5.9807040536
 Fe        12.7804937066        1.4509497338        5.9873866861
 Fe         2.7277149569       10.3274831959        6.3992560558
 Fe         5.0599542195        5.9888950877        6.1775992296
 Fe         7.6609647950        1.4557446436        5.9650637219
 Fe        -2.5843472248       10.3421980709        5.9848202228
 Fe        -0.0304206184        5.8983820352        5.9825044943
 Fe         2.5300048831        1.4507025155        5.9840410036
  C         4.2345190805        9.3833312868        8.9424452936
  C         5.5954642867        8.8096250931        9.4315113343
  H         3.6074920782        8.4982927574        8.7183856043
  O         4.2315265296       10.2817928958        7.8232441053
  H         3.8157076296        9.9257178740        9.8035993538
  C         5.3903008610        8.0497382404       10.7679655414
  C         4.6325715743        6.7072313074       10.6457528924
  O         4.6790417455        8.8742420994       11.7029079266
  H         6.3958416521        7.8382853044       11.1899932477
  C         5.2901850699        5.5506005473        9.8542780471
  H         3.6306906028        6.8965868873       10.2329977083
  O         4.3901588536        6.2022714108       11.9853816262
  C         6.7833379751        5.3558554420       10.1246361092
  O         5.1000914794        5.6156411343        8.3967643315
  H         4.7444892950        4.6509783317       10.1812307001
  H         7.1520770722        4.5200556609        9.5053024201
  O         6.9156919076        5.0541836764       11.5307004255
  H         7.3419198125        6.2649962301        9.8515345352
  H         5.2268757540       10.3502341964        6.8241361647
  H         4.3755098809        8.2638730853       12.4055401521
  H         5.2414671451        5.8177823104       12.2907319726
  H         5.2727259430        4.6979557358        8.0798987650
  H         7.8603243198        5.0626754825       11.7608658391
  O         6.6020123021        9.8034217232        9.6954923601
  H         6.0046346503        8.0781545589        8.7056127506
  H         6.4869119585       10.5068873785        9.0308905060
