 DBCSR| Multiplication driver                                               XSMM
 DBCSR| Multrec recursion limit                                              512
 DBCSR| Multiplication stack size                                           1000
 DBCSR| Maximum elements for images                                    UNLIMITED
 DBCSR| Multiplicative factor virtual images                                   1
 DBCSR| Multiplication size stacks                                             3
 DBCSR| Number of 3D layers                                               SINGLE
 DBCSR| Use MPI memory allocation                                              T
 DBCSR| Use RMA algorithm                                                      F
 DBCSR| Use Communication thread                                               T
 DBCSR| Communication thread load                                             87


  **** **** ******  **  PROGRAM STARTED AT               2020-10-29 20:14:30.782
 ***** ** ***  *** **   PROGRAM STARTED ON                             irene3820
 **    ****   ******    PROGRAM STARTED BY                              marticar
 ***** **    ** ** **   PROGRAM PROCESS ID                                239953
  **** **  *******  **  PROGRAM STARTED IN /ccc/scratch/cont003/gen0609/marticar
                                           /5730752

 CP2K| version string:                                          CP2K version 6.1
 CP2K| source code revision number:                                    svn:18464
 CP2K| cp2kflags: libint fftw3 parallel mpi3 scalapack xsmm mkl                 
 CP2K| is freely available from                            https://www.cp2k.org/
 CP2K| Program compiled at                          Mon Dec 24 15:18:38 CET 2018
 CP2K| Program compiled on                                             cobalt170
 CP2K| Program compiled for                                   Linux-x86-64-iomkl
 CP2K| Data directory path          /tmp/cp2k/6.1/iomkl-174196.202/cp2k-6.1/data
 CP2K| Input file name                                             screening.inp
 
 GLOBAL| Force Environment number                                              1
 GLOBAL| Basis set file name            /ccc/work/cont003/gen0609/marticar/data/
 GLOBAL| Potential file name            /ccc/work/cont003/gen0609/marticar/data/
 GLOBAL| MM Potential file name                                     MM_POTENTIAL
 GLOBAL| Coordinate file name                                          coord.xyz
 GLOBAL| Method name                                                        CP2K
 GLOBAL| Project name                                         sorbitol_screening
 GLOBAL| Preferred FFT library                                             FFTW3
 GLOBAL| Preferred diagonalization lib.                                       SL
 GLOBAL| Run type                                                        GEO_OPT
 GLOBAL| All-to-all communication in single precision                          F
 GLOBAL| FFTs using library dependent lengths                                  F
 GLOBAL| Global print level                                                  LOW
 GLOBAL| Total number of message passing processes                            64
 GLOBAL| Number of threads for this process                                    1
 GLOBAL| This output is from process                                           0
 GLOBAL| CPU model name :  Intel(R) Xeon Phi(TM) CPU 7250 @ 1.40GHz

 MEMORY| system memory details [Kb]
 MEMORY|                        rank 0           min           max       average
 MEMORY| MemTotal             98253756      98253756      98253756      98253756
 MEMORY| MemFree              70128112      70128112      70128112      70128112
 MEMORY| Buffers                     0             0             0             0
 MEMORY| Cached                1283696       1283696       1283696       1283696
 MEMORY| Slab                   895944        895944        895944        895944
 MEMORY| SReclaimable           108688        108688        108688        108688
 MEMORY| MemLikelyFree        71520496      71520496      71520496      71520496

 
 GENERATE|  Preliminary Number of Bonds generated:                             0
 GENERATE|  Achieved consistency in connectivity generation.

 *******************************************************************************
 *******************************************************************************
 **                                                                           **
 **     #####                         ##              ##                      **
 **    ##   ##            ##          ##              ##                      **
 **   ##     ##                       ##            ######                    **
 **   ##     ##  ##   ##  ##   #####  ##  ##   ####   ##    #####    #####    **
 **   ##     ##  ##   ##  ##  ##      ## ##   ##      ##   ##   ##  ##   ##   **
 **   ##  ## ##  ##   ##  ##  ##      ####     ###    ##   ######   ######    **
 **    ##  ###   ##   ##  ##  ##      ## ##      ##   ##   ##       ##        **
 **     #######   #####   ##   #####  ##  ##  ####    ##    #####   ##        **
 **           ##                                                    ##        **
 **                                                                           **
 **                                                ... make the atoms dance   **
 **                                                                           **
 **            Copyright (C) by CP2K developers group (2000 - 2018)           **
 **                                                                           **
 *******************************************************************************


 TOTAL NUMBERS AND MAXIMUM NUMBERS

  Total number of            - Atomic kinds:                                   6
                             - Atoms:                                        161
                             - Shell sets:                                   161
                             - Shells:                                       939
                             - Primitive Cartesian functions:               1073
                             - Cartesian basis functions:                   3046
                             - Spherical basis functions:                   2683

  Maximum angular momentum of- Orbital basis functions:                        3
                             - Local part of the GTH pseudopotential:          2
                             - Non-local part of the GTH pseudopotential:      3


 SCF PARAMETERS         Density guess:                                   RESTART
                        --------------------------------------------------------
                        max_scf:                                             500
                        max_scf_history:                                       0
                        max_diis:                                              4
                        --------------------------------------------------------
                        eps_scf:                                        1.00E-05
                        eps_scf_history:                                0.00E+00
                        eps_diis:                                       1.00E-01
                        eps_eigval:                                     1.00E-05
                        --------------------------------------------------------
                        level_shift [a.u.]:                                 0.00
                        --------------------------------------------------------
                        Outer loop SCF in use 
                        No variables optimised in outer loop
                        eps_scf                                         1.00E-05
                        max_scf                                               10
                        No outer loop optimization
                        step_size                                       5.00E-01

 BFGS| Use rational function optimization for step estimation:                NO
 BFGS| Use model Hessian for initial guess:                                  YES
 BFGS| Restart Hessian:                                                       NO
 BFGS| Trust radius:                                                       0.472

 *******************************************************************************
 ***                     STARTING GEOMETRY OPTIMIZATION                      ***
 ***                                   BFGS                                  ***
 *******************************************************************************

 Spin 1

 Number of electrons:                                                        712
 Number of occupied orbitals:                                                712
 Number of molecular orbitals:                                               712

 Spin 2

 Number of electrons:                                                        712
 Number of occupied orbitals:                                                712
 Number of molecular orbitals:                                               712

 Number of orbital functions:                                               2683
 Number of independent orbital functions:                                   2683

 Extrapolation method: initial_guess

 *** WARNING in qs_initial_guess.F:263 :: User requested to restart the  ***
 *** wavefunction from the file named: sorbitol_screening-RESTART.wfn.   ***
 *** This file does not exist. Please check the existence of the file or ***
 *** change properly the value of the keyword WFN_RESTART_FILE_NAME.     ***
 *** Calculation continues using ATOMIC GUESS.                           ***



 SCF WAVEFUNCTION OPTIMIZATION

  ----------------------------------- OT ---------------------------------------
  Minimizer      : CG                  : conjugate gradient
  Preconditioner : FULL_ALL            : diagonalization, state selective
  Precond_solver : DEFAULT
  Line search    : 3PNT                : 3 energies
  stepsize       :    0.15000000                  energy_gap     :    0.08000000
  eps_taylor     :   0.10000E-15                  max_taylor     :             4
  ----------------------------------- OT ---------------------------------------

  Step     Update method      Time    Convergence         Total energy    Change
  ------------------------------------------------------------------------------
     1 OT CG       0.12E+00   21.9     0.01848554     -7999.0648876924 -8.00E+03
     2 OT LS       0.17E+00    9.8                    -8078.5492987611
     3 OT LS       0.14E+00    9.8                    -8077.2881516320
     4 OT CG       0.11E+00   18.6     0.00470664     -8079.1090329147 -8.00E+01
     5 OT LS       0.16E+00    9.8                    -8086.8129794316
     6 OT LS       0.31E+00    9.8                    -8088.9404086982
     7 OT CG       0.25E+00   18.6     0.00309057     -8092.0699109090 -1.30E+01

 *** WARNING in dft_plus_u.F:2007 :: DFT+U energy contibution is negative ***
 *** possibly due to unphysical Mulliken charges. Check your input, if    ***
 *** this warning persists or try a different method!                     ***

     8 OT LS       0.35E+00    9.8                    -8097.5027615115

 *** WARNING in dft_plus_u.F:2007 :: DFT+U energy contibution is negative ***
 *** possibly due to unphysical Mulliken charges. Check your input, if    ***
 *** this warning persists or try a different method!                     ***

     9 OT LS       0.31E+00    9.8                    -8097.6619476857

 *** WARNING in dft_plus_u.F:2007 :: DFT+U energy contibution is negative ***
 *** possibly due to unphysical Mulliken charges. Check your input, if    ***
 *** this warning persists or try a different method!                     ***

    10 OT CG       0.25E+00   18.6     0.00242799     -8097.7354246288 -5.67E+00
    11 OT LS       0.35E+00    9.8                    -8099.1315157309
    12 OT LS       0.17E+00    9.8                    -8097.3180966908
    13 OT CG       0.13E+00   18.6     0.00212141     -8099.6076397304 -1.87E+00
    14 OT LS       0.19E+00    9.8                    -8101.2341979853
    15 OT LS       0.23E+00    9.8                    -8101.5153076356
    16 OT CG       0.18E+00   18.6     0.00169077     -8101.5879369944 -1.98E+00
    17 OT LS       0.26E+00    9.8                    -8102.4173357270
    18 OT LS       0.16E+00    9.8                    -8102.0809650860
    19 OT CG       0.12E+00   18.6     0.00125985     -8102.4444243298 -8.56E-01
    20 OT LS       0.17E+00    9.8                    -8102.9612098142
    21 OT LS       0.19E+00    9.8                    -8103.0309502912
    22 OT CG       0.16E+00   18.6     0.00103055     -8103.0367078084 -5.92E-01
    23 OT LS       0.22E+00    9.8                    -8103.3727277091
    24 OT LS       0.17E+00    9.8                    -8103.3413957420
    25 OT CG       0.13E+00   18.6     0.00080858     -8103.3741280679 -3.37E-01
    26 OT LS       0.19E+00    9.8                    -8103.5978495933
    27 OT LS       0.20E+00    9.8                    -8103.6263423378
    28 OT CG       0.16E+00   18.6     0.00075846     -8103.6280527718 -2.54E-01
    29 OT LS       0.23E+00    9.8                    -8103.8325263688
    30 OT LS       0.19E+00    9.8                    -8103.8286128133
    31 OT CG       0.15E+00   18.6     0.00064631     -8103.8368988607 -2.09E-01
    32 OT LS       0.21E+00    9.8                    -8103.9828229246
    33 OT LS       0.19E+00    9.8                    -8103.9867645804
    34 OT CG       0.15E+00   18.6     0.00058130     -8103.9889711773 -1.52E-01
    35 OT LS       0.21E+00    9.8                    -8104.1091106412
    36 OT LS       0.19E+00    9.8                    -8104.1141803874
    37 OT CG       0.16E+00   18.6     0.00050004     -8104.1152771832 -1.26E-01
    38 OT LS       0.22E+00    9.8                    -8104.2009741458
    39 OT LS       0.18E+00    9.8                    -8104.1996940942
    40 OT CG       0.15E+00   18.6     0.00043400     -8104.2029379581 -8.77E-02
    41 OT LS       0.20E+00    9.8                    -8104.2693418411
    42 OT LS       0.20E+00    9.8                    -8104.2740036138
    43 OT CG       0.16E+00   18.6     0.00039129     -8104.2741097612 -7.12E-02
    44 OT LS       0.22E+00    9.8                    -8104.3265219099
    45 OT LS       0.18E+00    9.8                    -8104.3250773832
    46 OT CG       0.15E+00   18.6     0.00032749     -8104.3274878160 -5.34E-02
    47 OT LS       0.20E+00    9.8                    -8104.3642649488
    48 OT LS       0.19E+00    9.8                    -8104.3660774677
    49 OT CG       0.15E+00   18.6     0.00028954     -8104.3663167856 -3.88E-02
    50 OT LS       0.21E+00    9.8                    -8104.3955925883
    51 OT LS       0.19E+00    9.8                    -8104.3965158872
    52 OT CG       0.15E+00   18.6     0.00025016     -8104.3968950107 -3.06E-02
    53 OT LS       0.21E+00    9.8                    -8104.4187927384
    54 OT LS       0.19E+00    9.8                    -8104.4193633092
    55 OT CG       0.15E+00   18.6     0.00022144     -8104.4196983999 -2.28E-02
    56 OT LS       0.21E+00    9.8                    -8104.4369923418
    57 OT LS       0.19E+00    9.8                    -8104.4375853890
    58 OT CG       0.15E+00   18.6     0.00019316     -8104.4377897873 -1.81E-02
    59 OT LS       0.22E+00    9.8                    -8104.4508144113
    60 OT LS       0.19E+00    9.8                    -8104.4509844222
    61 OT CG       0.15E+00   18.6     0.00017014     -8104.4512648266 -1.35E-02
    62 OT LS       0.21E+00    9.8                    -8104.4616483493
    63 OT LS       0.20E+00    9.8                    -8104.4622495985
    64 OT CG       0.16E+00   18.6     0.00015436     -8104.4622919552 -1.10E-02
    65 OT LS       0.22E+00    9.8                    -8104.4709610267
    66 OT LS       0.20E+00    9.8                    -8104.4711506008
    67 OT CG       0.16E+00   18.6     0.00013921     -8104.4712999041 -9.01E-03
    68 OT LS       0.22E+00    9.8                    -8104.4783989588
    69 OT LS       0.20E+00    9.8                    -8104.4786478662
    70 OT CG       0.16E+00   18.6     0.00012834     -8104.4787297093 -7.43E-03
    71 OT LS       0.22E+00    9.8                    -8104.4848117367
    72 OT LS       0.20E+00    9.8                    -8104.4849915756
    73 OT CG       0.16E+00   18.6     0.00011646     -8104.4850755346 -6.35E-03
    74 OT LS       0.23E+00    9.8                    -8104.4900701140
    75 OT LS       0.20E+00    9.8                    -8104.4901827256
    76 OT CG       0.16E+00   18.6     0.00010610     -8104.4902673208 -5.19E-03
    77 OT LS       0.22E+00    9.8                    -8104.4944280361
    78 OT LS       0.20E+00    9.8                    -8104.4945620352
    79 OT CG       0.16E+00   18.6     0.00009664     -8104.4946148434 -4.35E-03
    80 OT LS       0.23E+00    9.8                    -8104.4980014073
    81 OT LS       0.20E+00    9.8                    -8104.4980221494
    82 OT CG       0.16E+00   18.6     0.00008739     -8104.4981074750 -3.49E-03
    83 OT LS       0.22E+00    9.8                    -8104.5008764794
    84 OT LS       0.20E+00    9.8                    -8104.5009760742
    85 OT CG       0.16E+00   18.6     0.00007985     -8104.5010069412 -2.90E-03
    86 OT LS       0.22E+00    9.8                    -8104.5033106303
    87 OT LS       0.20E+00    9.8                    -8104.5033537694
    88 OT CG       0.16E+00   18.6     0.00007185     -8104.5033968316 -2.39E-03
    89 OT LS       0.22E+00    9.8                    -8104.5052547336
    90 OT LS       0.20E+00    9.8                    -8104.5053047518
    91 OT CG       0.16E+00   18.6     0.00006466     -8104.5053324381 -1.94E-03
    92 OT LS       0.22E+00    9.8                    -8104.5068440947
    93 OT LS       0.20E+00    9.8                    -8104.5068908017
    94 OT CG       0.16E+00   18.6     0.00005870     -8104.5069107427 -1.58E-03
    95 OT LS       0.22E+00    9.8                    -8104.5081506733
    96 OT LS       0.20E+00    9.8                    -8104.5081755909
    97 OT CG       0.16E+00   18.6     0.00005273     -8104.5081979460 -1.29E-03
    98 OT LS       0.22E+00    9.8                    -8104.5092086276
    99 OT LS       0.20E+00    9.8                    -8104.5092482773
   100 OT CG       0.16E+00   18.6     0.00004738     -8104.5092582758 -1.06E-03
   101 OT LS       0.22E+00    9.8                    -8104.5100727088
   102 OT LS       0.20E+00    9.8                    -8104.5100874157
   103 OT CG       0.16E+00   18.6     0.00004225     -8104.5101028932 -8.45E-04
   104 OT LS       0.22E+00    9.8                    -8104.5107549588
   105 OT LS       0.20E+00    9.8                    -8104.5107790804
   106 OT CG       0.16E+00   18.6     0.00003833     -8104.5107860793 -6.83E-04
   107 OT LS       0.22E+00    9.8                    -8104.5113198624
   108 OT LS       0.20E+00    9.8                    -8104.5113285342
   109 OT CG       0.16E+00   18.6     0.00003418     -8104.5113391517 -5.53E-04
   110 OT LS       0.22E+00    9.8                    -8104.5117563283
   111 OT LS       0.19E+00    9.8                    -8104.5117627839
   112 OT CG       0.15E+00   18.6     0.00003031     -8104.5117712418 -4.32E-04
   113 OT LS       0.22E+00    9.8                    -8104.5121025760
   114 OT LS       0.20E+00    9.8                    -8104.5121161544
   115 OT CG       0.16E+00   18.6     0.00002714     -8104.5121192183 -3.48E-04
   116 OT LS       0.22E+00    9.8                    -8104.5123820058
   117 OT LS       0.19E+00    9.8                    -8104.5123843178
   118 OT CG       0.15E+00   18.6     0.00002388     -8104.5123905506 -2.71E-04
   119 OT LS       0.22E+00    9.8                    -8104.5125954826
   120 OT LS       0.20E+00    9.8                    -8104.5126039833
   121 OT CG       0.16E+00   18.6     0.00002154     -8104.5126058416 -2.15E-04
   122 OT LS       0.22E+00    9.8                    -8104.5127743624
   123 OT LS       0.20E+00    9.8                    -8104.5127792237
   124 OT CG       0.16E+00   18.6     0.00001943     -8104.5127815912 -1.76E-04
   125 OT LS       0.22E+00    9.8                    -8104.5129187648
   126 OT LS       0.20E+00    9.8                    -8104.5129222753
   127 OT CG       0.16E+00   18.6     0.00001772     -8104.5129243984 -1.43E-04
   128 OT LS       0.22E+00    9.8                    -8104.5130392356
   129 OT LS       0.20E+00    9.8                    -8104.5130430764
   130 OT CG       0.16E+00   18.6     0.00001621     -8104.5130444693 -1.20E-04
   131 OT LS       0.22E+00    9.8                    -8104.5131413881
   132 OT LS       0.20E+00    9.8                    -8104.5131444082
   133 OT CG       0.16E+00   18.6     0.00001483     -8104.5131456748 -1.01E-04
   134 OT LS       0.23E+00    9.8                    -8104.5132273955
   135 OT LS       0.20E+00    9.8                    -8104.5132299422
   136 OT CG       0.16E+00   18.6     0.00001375     -8104.5132310102 -8.53E-05
   137 OT LS       0.23E+00    9.8                    -8104.5133011528
   138 OT LS       0.20E+00    9.8                    -8104.5133027351
   139 OT CG       0.16E+00   18.6     0.00001270     -8104.5133039178 -7.29E-05
   140 OT LS       0.23E+00    9.8                    -8104.5133634991
   141 OT LS       0.20E+00    9.8                    -8104.5133650066
   142 OT CG       0.16E+00   18.6     0.00001176     -8104.5133659365 -6.20E-05
   143 OT LS       0.23E+00    9.8                    -8104.5134175479
   144 OT LS       0.20E+00    9.8                    -8104.5134194581
   145 OT CG       0.16E+00   18.6     0.00001096     -8104.5134200115 -5.41E-05
   146 OT LS       0.23E+00    9.8                    -8104.5134648900
   147 OT LS       0.20E+00    9.8                    -8104.5134658582
   148 OT CG       0.16E+00   18.6     0.00001019     -8104.5134666355 -4.66E-05
   149 OT LS       0.23E+00    9.8                    -8104.5135056579
   150 OT LS       0.21E+00    9.8                    -8104.5135070407
   151 OT CG       0.16E+00   18.6     0.00000961     -8104.5135074831 -4.08E-05

  *** SCF run converged in   151 steps ***


  Electronic density on regular grids:      -1423.9999923633        0.0000076367
  Core density on regular grids:             1423.9999996427       -0.0000003573
  Total charge density on r-space grids:        0.0000072795
  Total charge density g-space grids:           0.0000072795

  Overlap energy of the core charge distribution:               0.00000189619008
  Self energy of the core charge distribution:             -14544.97670297458353
  Core Hamiltonian energy:                                   4078.55052844343436
  Hartree energy:                                            3395.03066902983301
  Exchange-correlation energy:                              -1034.05836030321393
  Dispersion energy:                                           -0.55179715620611

  DFT+U energy:                                                 1.49215358147197

  Total energy:                                             -8104.51350748307232

  outer SCF iter =    1 RMS gradient =   0.96E-05 energy =      -8104.5135074831
  outer SCF loop converged in   1 iterations or  151 steps


  Integrated absolute spin density  :                             232.1703196674
  Ideal and single determinant S**2 :                    0.000000     127.229151

 ENERGY| Total FORCE_EVAL ( QS ) energy (a.u.):            -8104.513542223504373


 --------  Informations at step =     0 ------------
  Optimization Method        =                 BFGS
  Total Energy               =     -8104.5135422235
  Used time                  =             1984.906
 ---------------------------------------------------

 --------------------------
 OPTIMIZATION STEP:      1
 --------------------------

 Spin 1

 Number of electrons:                                                        712
 Number of occupied orbitals:                                                712
 Number of molecular orbitals:                                               712

 Spin 2

 Number of electrons:                                                        712
 Number of occupied orbitals:                                                712
 Number of molecular orbitals:                                               712

 Number of orbital functions:                                               2683
 Number of independent orbital functions:                                   2683

 Extrapolation method: PS Nth order


 SCF WAVEFUNCTION OPTIMIZATION

  ----------------------------------- OT ---------------------------------------
  Minimizer      : CG                  : conjugate gradient
  Preconditioner : FULL_ALL            : diagonalization, state selective
  Precond_solver : DEFAULT
  Line search    : 3PNT                : 3 energies
  stepsize       :    0.15000000                  energy_gap     :    0.08000000
  eps_taylor     :   0.10000E-15                  max_taylor     :             4
  ----------------------------------- OT ---------------------------------------

  Step     Update method      Time    Convergence         Total energy    Change
  ------------------------------------------------------------------------------
     1 OT CG       0.12E+00   20.5     0.00008072     -8104.5154965322 -8.10E+03
     2 OT LS       0.17E+00    8.9                    -8104.5177733984
     3 OT LS       0.25E+00    8.9                    -8104.5182861751
     4 OT CG       0.20E+00   17.7     0.00007188     -8104.5186364145 -3.14E-03
     5 OT LS       0.28E+00    8.8                    -8104.5202746484
     6 OT LS       0.17E+00    8.8                    -8104.5196177687
     7 OT CG       0.14E+00   17.7     0.00002545     -8104.5203277938 -1.69E-03
     8 OT LS       0.19E+00    8.8                    -8104.5203825117
     9 OT LS       0.82E-01    8.8                    -8104.5202446226
    10 OT CG       0.65E-01   17.6     0.00001014     -8104.5204290173 -1.01E-04
    11 OT LS       0.92E-01    8.8                    -8104.5204487333
    12 OT LS       0.14E+00    8.8                    -8104.5204532788
    13 OT CG       0.11E+00   17.6     0.00000526     -8104.5204566571 -2.76E-05

  *** SCF run converged in    13 steps ***


  Electronic density on regular grids:      -1423.9999923288        0.0000076712
  Core density on regular grids:             1423.9999996427       -0.0000003573
  Total charge density on r-space grids:        0.0000073139
  Total charge density g-space grids:           0.0000073139

  Overlap energy of the core charge distribution:               0.00000190243636
  Self energy of the core charge distribution:             -14544.97670297458353
  Core Hamiltonian energy:                                   4078.46516196993616
  Hartree energy:                                            3395.08676261246364
  Exchange-correlation energy:                              -1034.03694655233494
  Dispersion energy:                                           -0.55195109440617

  DFT+U energy:                                                 1.49321747935945

  Total energy:                                             -8104.52045665712922

  outer SCF iter =    1 RMS gradient =   0.53E-05 energy =      -8104.5204566571
  outer SCF loop converged in   1 iterations or   13 steps


  Integrated absolute spin density  :                             232.1636496243
  Ideal and single determinant S**2 :                    0.000000     127.231806

 ENERGY| Total FORCE_EVAL ( QS ) energy (a.u.):            -8104.520463441189349


 --------  Informations at step =     1 ------------
  Optimization Method        =                 BFGS
  Total Energy               =     -8104.5204634412
  Real energy change         =        -0.0069212177
  Predicted change in energy =        -0.0046295004
  Scaling factor             =         0.0000000000
  Step size                  =         0.1391189971
  Trust radius               =         0.4724315332
  Decrease in energy         =                  YES
  Used time                  =              212.997

  Convergence check :
  Max. step size             =         0.1391189971
  Conv. limit for step size  =         1.0000000000
  Convergence in step size   =                  YES
  RMS step size              =         0.0132238410
  Conv. limit for RMS step   =         1.0000000000
  Convergence in RMS step    =                  YES
  Max. gradient              =         0.0095448550
  Conv. limit for gradients  =         0.0100000000
  Conv. in gradients         =                  YES
  RMS gradient               =         0.0011610331
  Conv. limit for RMS grad.  =         1.0000000000
  Conv. in RMS gradients     =                  YES
 ---------------------------------------------------

 *******************************************************************************
 ***                    GEOMETRY OPTIMIZATION COMPLETED                      ***
 *******************************************************************************

                    Reevaluating energy at the minimum

 Spin 1

 Number of electrons:                                                        712
 Number of occupied orbitals:                                                712
 Number of molecular orbitals:                                               712

 Spin 2

 Number of electrons:                                                        712
 Number of occupied orbitals:                                                712
 Number of molecular orbitals:                                               712

 Number of orbital functions:                                               2683
 Number of independent orbital functions:                                   2683

 Extrapolation method: PS Nth order


 SCF WAVEFUNCTION OPTIMIZATION

  ----------------------------------- OT ---------------------------------------
  Minimizer      : CG                  : conjugate gradient
  Preconditioner : FULL_ALL            : diagonalization, state selective
  Precond_solver : DEFAULT
  Line search    : 3PNT                : 3 energies
  stepsize       :    0.15000000                  energy_gap     :    0.08000000
  eps_taylor     :   0.10000E-15                  max_taylor     :             4
  ----------------------------------- OT ---------------------------------------

  Step     Update method      Time    Convergence         Total energy    Change
  ------------------------------------------------------------------------------
     1 OT CG       0.12E+00   20.4     0.00008103     -8104.5155096687 -8.10E+03
     2 OT LS       0.17E+00    8.8                    -8104.5177895614
     3 OT LS       0.25E+00    8.8                    -8104.5182927367
     4 OT CG       0.20E+00   17.6     0.00007194     -8104.5186126315 -3.10E-03
     5 OT LS       0.28E+00    8.8                    -8104.5202983887
     6 OT LS       0.17E+00    8.8                    -8104.5197206365
     7 OT CG       0.14E+00   17.6     0.00002516     -8104.5203319456 -1.72E-03
     8 OT LS       0.19E+00    8.8                    -8104.5203799200
     9 OT LS       0.81E-01    8.8                    -8104.5202381916
    10 OT CG       0.65E-01   17.6     0.00001003     -8104.5204298684 -9.79E-05
    11 OT LS       0.91E-01    8.8                    -8104.5204491734
    12 OT LS       0.14E+00    8.8                    -8104.5204537616
    13 OT CG       0.12E+00   17.6     0.00000525     -8104.5204575686 -2.77E-05

  *** SCF run converged in    13 steps ***


  Electronic density on regular grids:      -1423.9999923288        0.0000076712
  Core density on regular grids:             1423.9999996427       -0.0000003573
  Total charge density on r-space grids:        0.0000073140
  Total charge density g-space grids:           0.0000073140

  Overlap energy of the core charge distribution:               0.00000190243636
  Self energy of the core charge distribution:             -14544.97670297458353
  Core Hamiltonian energy:                                   4078.44995165074397
  Hartree energy:                                            3395.09783337254203
  Exchange-correlation energy:                              -1034.03351872251596
  Dispersion energy:                                           -0.55195109440617

  DFT+U energy:                                                 1.49392829715762

  Total energy:                                             -8104.52045756862663

  outer SCF iter =    1 RMS gradient =   0.53E-05 energy =      -8104.5204575686
  outer SCF loop converged in   1 iterations or   13 steps


  Integrated absolute spin density  :                             232.1649694703
  Ideal and single determinant S**2 :                    0.000000     127.232112

 ENERGY| Total FORCE_EVAL ( QS ) energy (a.u.):            -8104.520457568626625


 -------------------------------------------------------------------------------
 -                                                                             -
 -                                DBCSR STATISTICS                             -
 -                                                                             -
 -------------------------------------------------------------------------------
 COUNTER                                    TOTAL       BLAS       SMM       ACC
 flops     5 x     8 x     8                53760       0.0%    100.0%      0.0%
 flops    13 x     8 x     8               928512       0.0%    100.0%      0.0%
 flops    26 x     8 x     8              1078272       0.0%    100.0%      0.0%
 flops     5 x    32 x    32             18923520       0.0%    100.0%      0.0%
 flops     5 x     8 x     5             41160000       0.0%    100.0%      0.0%
 flops     5 x     5 x    64            122304000       0.0%    100.0%      0.0%
 flops     5 x     5 x    72            137592000       0.0%    100.0%      0.0%
 flops    13 x    32 x    32            326836224       0.0%    100.0%      0.0%
 flops    26 x    32 x    32            379551744       0.0%    100.0%      0.0%
 flops     5 x     8 x    13            710892000       0.0%    100.0%      0.0%
 flops    13 x     8 x     5            710892000       0.0%    100.0%      0.0%
 flops    64 x    64 x    64            756023296       0.0%    100.0%      0.0%
 flops     5 x     8 x    26            825552000       0.0%    100.0%      0.0%
 flops    26 x     8 x     5            825552000       0.0%    100.0%      0.0%
 flops    64 x    64 x    72            850526208       0.0%    100.0%      0.0%
 flops    64 x    72 x    64            850526208       0.0%    100.0%      0.0%
 flops    72 x    64 x    64            850526208       0.0%    100.0%      0.0%
 flops    64 x    72 x    72            956841984       0.0%    100.0%      0.0%
 flops    72 x    64 x    72            956841984       0.0%    100.0%      0.0%
 flops    72 x    72 x    64            956841984       0.0%    100.0%      0.0%
 flops    72 x    72 x    72           1076447232       0.0%    100.0%      0.0%
 flops     5 x     5 x    96           1100736000       0.0%    100.0%      0.0%
 flops     5 x    13 x    64           1959426560       0.0%    100.0%      0.0%
 flops    13 x     5 x    64           1983654400       0.0%    100.0%      0.0%
 flops    64 x    64 x   338           2010218496       0.0%    100.0%      0.0%
 flops     5 x    13 x    72           2204354880       0.0%    100.0%      0.0%
 flops    13 x     5 x    72           2231611200       0.0%    100.0%      0.0%
 flops    64 x    72 x   338           2261495808       0.0%    100.0%      0.0%
 flops    72 x    64 x   338           2261495808       0.0%    100.0%      0.0%
 flops    26 x     5 x    64           2265303040       0.0%    100.0%      0.0%
 flops     5 x    26 x    64           2313758720       0.0%    100.0%      0.0%
 flops    72 x    72 x   338           2544182784       0.0%    100.0%      0.0%
 flops    26 x     5 x    72           2548465920       0.0%    100.0%      0.0%
 flops     5 x    26 x    72           2602978560       0.0%    100.0%      0.0%
 flops   338 x    64 x    64           2973794304       0.0%    100.0%      0.0%
 flops   338 x    64 x    72           3345518592       0.0%    100.0%      0.0%
 flops   338 x    72 x    64           3345518592       0.0%    100.0%      0.0%
 flops     5 x    32 x     5           3622080000       0.0%    100.0%      0.0%
 flops   338 x    64 x   338           3743547392     100.0%      0.0%      0.0%
 flops   338 x    72 x    72           3763708416       0.0%    100.0%      0.0%
 flops   338 x    72 x   338           4211490816     100.0%      0.0%      0.0%
 flops    64 x    64 x    96           6804209664       0.0%    100.0%      0.0%
 flops    64 x    96 x    64           6804209664       0.0%    100.0%      0.0%
 flops    96 x    64 x    64           6804209664       0.0%    100.0%      0.0%
 flops    64 x    72 x    96           7654735872       0.0%    100.0%      0.0%
 flops    64 x    96 x    72           7654735872       0.0%    100.0%      0.0%
 flops    72 x    64 x    96           7654735872       0.0%    100.0%      0.0%
 flops    72 x    96 x    64           7654735872       0.0%    100.0%      0.0%
 flops    96 x    64 x    72           7654735872       0.0%    100.0%      0.0%
 flops    96 x    72 x    64           7654735872       0.0%    100.0%      0.0%
 flops    72 x    72 x    96           8611577856       0.0%    100.0%      0.0%
 flops    72 x    96 x    72           8611577856       0.0%    100.0%      0.0%
 flops    96 x    72 x    72           8611577856       0.0%    100.0%      0.0%
 flops    13 x     8 x    13          12235532400       0.0%    100.0%      0.0%
 flops    64 x    64 x   335          13946634240       0.0%    100.0%      0.0%
 flops    26 x     8 x    13          14238047200       0.0%    100.0%      0.0%
 flops    13 x     8 x    26          14238047200       0.0%    100.0%      0.0%
 flops    64 x    72 x   335          15689963520       0.0%    100.0%      0.0%
 flops    72 x    64 x   335          15689963520       0.0%    100.0%      0.0%
 flops    26 x     8 x    26          16558214400       0.0%    100.0%      0.0%
 flops     5 x    13 x    96          17634839040       0.0%    100.0%      0.0%
 flops    72 x    72 x   335          17651208960       0.0%    100.0%      0.0%
 flops    13 x     5 x    96          17852889600       0.0%    100.0%      0.0%
 flops    64 x    96 x   338          18091966464       0.0%    100.0%      0.0%
 flops    96 x    64 x   338          18091966464       0.0%    100.0%      0.0%
 flops    72 x    96 x   338          20353462272     100.0%      0.0%      0.0%
 flops    96 x    72 x   338          20353462272     100.0%      0.0%      0.0%
 flops    26 x     5 x    96          20387727360       0.0%    100.0%      0.0%
 flops   335 x    64 x    64          20631797760       0.0%    100.0%      0.0%
 flops     5 x    26 x    96          20823828480       0.0%    100.0%      0.0%
 flops   335 x    64 x    72          23210772480       0.0%    100.0%      0.0%
 flops   335 x    72 x    64          23210772480       0.0%    100.0%      0.0%
 flops   335 x    64 x   338          25972244480     100.0%      0.0%      0.0%
 flops   338 x    64 x   335          25972244480     100.0%      0.0%      0.0%
 flops   335 x    72 x    72          26112119040       0.0%    100.0%      0.0%
 flops   338 x    64 x    96          26764148736       0.0%    100.0%      0.0%
 flops   338 x    96 x    64          26764148736       0.0%    100.0%      0.0%
 flops   335 x    72 x   338          29218775040     100.0%      0.0%      0.0%
 flops   338 x    72 x   335          29218775040     100.0%      0.0%      0.0%
 flops   338 x    72 x    96          30109667328     100.0%      0.0%      0.0%
 flops   338 x    96 x    72          30109667328     100.0%      0.0%      0.0%
 flops   338 x    96 x   338          33691926528     100.0%      0.0%      0.0%
 flops    13 x    13 x    64          34299353088       0.0%    100.0%      0.0%
 flops    13 x    13 x    72          38586772224       0.0%    100.0%      0.0%
 flops    13 x    26 x    64          39446471168       0.0%    100.0%      0.0%
 flops    26 x    13 x    64          39527720960       0.0%    100.0%      0.0%
 flops    13 x    26 x    72          44377280064       0.0%    100.0%      0.0%
 flops    26 x    13 x    72          44468686080       0.0%    100.0%      0.0%
 flops    26 x    26 x    64          46771845120       0.0%    100.0%      0.0%
 flops    26 x    26 x    72          52618325760       0.0%    100.0%      0.0%
 flops    96 x    96 x    64          61237886976       0.0%    100.0%      0.0%
 flops    64 x    96 x    96          61237886976       0.0%    100.0%      0.0%
 flops    96 x    64 x    96          61237886976       0.0%    100.0%      0.0%
 flops     5 x    32 x    13          62558496000       0.0%    100.0%      0.0%
 flops    13 x    32 x     5          62558496000       0.0%    100.0%      0.0%
 flops    96 x    96 x    72          68892622848       0.0%    100.0%      0.0%
 flops    72 x    96 x    96          68892622848       0.0%    100.0%      0.0%
 flops    96 x    72 x    96          68892622848       0.0%    100.0%      0.0%
 flops     5 x    32 x    26          72648576000       0.0%    100.0%      0.0%
 flops    26 x    32 x     5          72648576000       0.0%    100.0%      0.0%
 flops    64 x    96 x   335         125519708160       0.0%    100.0%      0.0%
 flops    96 x    64 x   335         125519708160       0.0%    100.0%      0.0%
 flops    72 x    96 x   335         141209671680     100.0%      0.0%      0.0%
 flops    96 x    72 x   335         141209671680     100.0%      0.0%      0.0%
 flops    96 x    96 x   338         162827698176     100.0%      0.0%      0.0%
 flops   335 x    64 x   335         180192051200     100.0%      0.0%      0.0%
 flops   335 x    96 x    64         185686179840       0.0%    100.0%      0.0%
 flops   335 x    64 x    96         185686179840       0.0%    100.0%      0.0%
 flops   335 x    72 x   335         202716057600     100.0%      0.0%      0.0%
 flops   335 x    96 x    72         208896952320     100.0%      0.0%      0.0%
 flops   335 x    72 x    96         208896952320     100.0%      0.0%      0.0%
 flops   335 x    96 x   338         233750200320     100.0%      0.0%      0.0%
 flops   338 x    96 x   335         233750200320     100.0%      0.0%      0.0%
 flops   338 x    96 x    96         240877338624     100.0%      0.0%      0.0%
 flops    13 x    13 x    96         308694177792       0.0%    100.0%      0.0%
 flops    13 x    26 x    96         355018240512       0.0%    100.0%      0.0%
 flops    26 x    13 x    96         355749488640       0.0%    100.0%      0.0%
 flops    26 x    26 x    96         420946606080       0.0%    100.0%      0.0%
 flops    96 x    96 x    96         551140982784       0.0%    100.0%      0.0%
 flops    13 x    32 x    13        1076726851200       0.0%    100.0%      0.0%
 flops    96 x    96 x   335        1129677373440     100.0%      0.0%      0.0%
 flops    26 x    32 x    13        1252948153600       0.0%    100.0%      0.0%
 flops    13 x    32 x    26        1252948153600       0.0%    100.0%      0.0%
 flops    26 x    32 x    26        1457122867200       0.0%    100.0%      0.0%
 flops   335 x    96 x   335        1621728460800     100.0%      0.0%      0.0%
 flops   335 x    96 x    96        1671175618560     100.0%      0.0%      0.0%
 flops inhomo. stacks                           0       0.0%      0.0%      0.0%
 flops total                        15.813167E+12      41.9%     58.1%      0.0%
 flops max/rank                    286.925325E+09      43.8%     56.2%      0.0%
 matmuls inhomo. stacks                         0       0.0%      0.0%      0.0%
 matmuls total                          352184233       0.2%     99.8%      0.0%
 number of processed stacks               5832191      14.1%     85.9%      0.0%
 average stack size                                     1.0      70.1       0.0
 marketing flops                    17.706638E+12
 -------------------------------------------------------------------------------
 # multiplications                           4399
 max memory usage/rank             777.379840E+06
 # max total images/rank                        1
 # max 3D layers                                1
 # MPI messages exchanged                 3941504
 MPI messages size (bytes):
  total size                       859.156447E+09
  min size                           0.000000E+00
  max size                         913.952000E+03
  average size                     217.976797E+03
 MPI breakdown and total messages size (bytes):
             size <=      128                7728                        0
       128 < size <=     8192                   0                        0
      8192 < size <=    32768               28042                915461120
     32768 < size <=   131072             1745478             111455253504
    131072 < size <=  4194304             2160256             746833494120
   4194304 < size <= 16777216                   0                        0
  16777216 < size                               0                        0
 -------------------------------------------------------------------------------
 
 MEMORY| Estimated peak process memory [MiB]                                 742

 -------------------------------------------------------------------------------
 -                                                                             -
 -                         MESSAGE PASSING PERFORMANCE                         -
 -                                                                             -
 -------------------------------------------------------------------------------

 ROUTINE             CALLS      AVE VOLUME [Bytes]
 MP_Group              393
 MP_Bcast            20318                  55425.
 MP_Allreduce        75012                    419.
 MP_Sync               327
 MP_Alltoall         20472                 785112.
 MP_SendRecv          4376                 489622.
 MP_ISendRecv        91854                  29184.
 MP_Wait            518988
 MP_comm_split         322
 MP_ISend           211078                 123918.
 MP_IRecv           211078                 122735.
 MP_Recv                15                 123648.
 MP_Memory          177812
 -------------------------------------------------------------------------------


 -------------------------------------------------------------------------------
 -                                                                             -
 -                           R E F E R E N C E S                               -
 -                                                                             -
 -------------------------------------------------------------------------------
 
 CP2K version 6.1, the CP2K developers group (2018).
 CP2K is freely available from https://www.cp2k.org/ .

 Schuett, Ole; Messmer, Peter; Hutter, Juerg; VandeVondele, Joost. 
 Electronic Structure Calculations on Graphics Processing Units, John Wiley & Sons, Ltd, 173-190 (2016). 
 GPU-Accelerated Sparse Matrix-Matrix Multiplication for Linear Scaling Density Functional Theory.
 http://dx.doi.org/10.1002/9781118670712.ch8


 Borstnik, U; VandeVondele, J; Weber, V; Hutter, J. 
 PARALLEL COMPUTING, 40 (5-6), 47-58 (2014). 
 Sparse matrix multiplication: The distributed block-compressed sparse
 row library.
 http://dx.doi.org/10.1016/j.parco.2014.03.012


 Hutter, J; Iannuzzi, M; Schiffmann, F; VandeVondele, J. 
 WILEY INTERDISCIPLINARY REVIEWS-COMPUTATIONAL MOLECULAR SCIENCE, 4 (1), 15-25 (2014). 
 CP2K: atomistic simulations of condensed matter systems.
 http://dx.doi.org/10.1002/wcms.1159


 Grimme, S; Ehrlich, S; Goerigk, L. 
 JOURNAL OF COMPUTATIONAL CHEMISTRY, 32, 1456 (2011). 
 Effect of the damping function in dispersion corrected density functional theory.
 http://dx.doi.org/10.1002/jcc.21759


 Grimme, S; Antony, J; Ehrlich, S; Krieg, H. 
 JOURNAL OF CHEMICAL PHYSICS, 132 (15), 154104 (2010). 
 A consistent and accurate ab initio parametrization of density
 functional dispersion correction (DFT-D) for the 94 elements H-Pu.
 http://dx.doi.org/10.1063/1.3382344


 VandeVondele, J; Hutter, J. 
 JOURNAL OF CHEMICAL PHYSICS, 127 (11), 114105 (2007). 
 Gaussian basis sets for accurate calculations on molecular systems in
 gas and condensed phases.
 http://dx.doi.org/10.1063/1.2770708


 Krack, M. 
 THEORETICAL CHEMISTRY ACCOUNTS, 114 (1-3), 145-152 (2005). 
 Pseudopotentials for H to Kr optimized for gradient-corrected
 exchange-correlation functionals.
 http://dx.doi.org/10.1007/s00214-005-0655-y


 VandeVondele, J; Krack, M; Mohamed, F; Parrinello, M; Chassaing, T;
 Hutter, J. COMPUTER PHYSICS COMMUNICATIONS, 167 (2), 103-128 (2005). 
 QUICKSTEP: Fast and accurate density functional calculations using a
 mixed Gaussian and plane waves approach.
 http://dx.doi.org/10.1016/j.cpc.2004.12.014


 Frigo, M; Johnson, SG. 
 PROCEEDINGS OF THE IEEE, 93 (2), 216-231 (2005). 
 The design and implementation of FFTW3.
 http://dx.doi.org/10.1109/JPROC.2004.840301


 VandeVondele, J; Hutter, J. 
 JOURNAL OF CHEMICAL PHYSICS, 118 (10), 4365-4369 (2003). 
 An efficient orbital transformation method for electronic structure
 calculations.
 http://dx.doi.org/10.1063/1.1543154


 Hartwigsen, C; Goedecker, S; Hutter, J. 
 PHYSICAL REVIEW B, 58 (7), 3641-3662 (1998). 
 Relativistic separable dual-space Gaussian pseudopotentials from H to Rn.
 http://dx.doi.org/10.1103/PhysRevB.58.3641


 Dudarev, SL; Botton, GA; Savrasov, SY; Humphreys, CJ; Sutton, AP. 
 PHYSICAL REVIEW B, 57 (3), 1505-1509 (1998). 
 Electron-energy-loss spectra and the structural stability of
 nickel oxide: An LSDA+U study.
 http://dx.doi.org/10.1103/PhysRevB.57.1505


 Lippert, G; Hutter, J; Parrinello, M. 
 MOLECULAR PHYSICS, 92 (3), 477-487 (1997). 
 A hybrid Gaussian and plane wave density functional scheme.
 http://dx.doi.org/10.1080/002689797170220


 Dudarev, SL; Manh, DN; Sutton, AP. 
 PHILOSOPHICAL MAGAZINE B, 75 (5), 613-628 (1997). 
 Effect of Mott-Hubbard correlations on the electronic
 structure and structural stability of uranium dioxide.
 http://dx.doi.org/10.1080/13642819708202343


 Perdew, JP; Burke, K; Ernzerhof, M. 
 PHYSICAL REVIEW LETTERS, 77 (18), 3865-3868 (1996). 
 Generalized gradient approximation made simple.
 http://dx.doi.org/10.1103/PhysRevLett.77.3865


 Goedecker, S; Teter, M; Hutter, J. 
 PHYSICAL REVIEW B, 54 (3), 1703-1710 (1996). 
 Separable dual-space Gaussian pseudopotentials.
 http://dx.doi.org/10.1103/PhysRevB.54.1703


 -------------------------------------------------------------------------------
 -                                                                             -
 -                                T I M I N G                                  -
 -                                                                             -
 -------------------------------------------------------------------------------
 SUBROUTINE                       CALLS  ASD         SELF TIME        TOTAL TIME
                                MAXIMUM       AVERAGE  MAXIMUM  AVERAGE  MAXIMUM
 CP2K                                 1  1.0    0.278    0.358 2380.625 2380.643
 cp_geo_opt                           1  2.0    0.014    0.014 2377.172 2377.192
 geoopt_bfgs                          1  3.0    0.100    0.147 2377.158 2377.180
 cp_eval_at                           3  4.0    0.005    0.007 2376.122 2376.148
 qs_energies                          3  5.7    0.004    0.005 2322.265 2322.291
 scf_env_do_scf                       3  6.7    0.002    0.002 2277.917 2277.933
 scf_env_do_scf_inner_loop          177  7.9    0.028    0.073 2218.275 2218.292
 qs_forces                            2  5.0    0.008    0.010 2196.924 2196.940
 qs_rho_update_rho                  180  8.9    0.006    0.007 1400.211 1400.226
 calculate_rho_elec                 360  9.9 1169.665 1301.094 1400.205 1400.221
 rebuild_ks_matrix                  179  9.9    0.008    0.009  708.605  708.653
 qs_ks_build_kohn_sham_matrix       179 10.9    0.097    0.106  708.598  708.645
 qs_ks_update_qs_env                180  8.9    0.012    0.014  660.130  660.176
 sum_up_and_integrate                63 11.8    0.690    0.692  516.032  516.129
 integrate_v_rspace                 126 12.8  416.413  478.182  515.342  515.439
 density_rs2pw                      360 10.9    0.067    0.071  221.713  424.376
 rs_pw_transfer                    2435 12.7    0.091    0.100  217.301  419.980
 rs_pw_transfer_RS2PW_200           363 12.9   17.880   20.670  156.507  359.144
 mp_waitany                       70334 14.7  153.747  352.779  153.747  352.779
 qs_scf_new_mos                     177  8.9    0.004    0.005  208.946  209.166
 qs_scf_loop_do_ot                  177  9.9    0.005    0.005  208.941  209.162
 ot_scf_mini                        177 10.9    0.038    0.041  201.305  201.590
 qs_vxc_create                      179 11.9    0.010    0.012  181.264  181.278
 cp_fm_syevd                        322 14.8    0.010    0.016  153.554  153.624
 cp_fm_redistribute_end             322 15.8  114.056  151.869  114.332  151.966
 qs_ot_get_p                        360 11.9    0.011    0.013  150.138  150.875
 cp_fm_syevd_base                   322 15.6   37.507  150.419   37.507  150.419
 xc_rho_set_and_dset_create         179 13.9    5.217    5.230  146.733  149.063
 rs_distribute_matrix               490 11.7    1.653    3.246   67.702  148.600
 mp_alltoall_d11v                  4372 16.2   65.673  147.458   65.673  147.458
 qs_ot_p2m_diag                     302 13.0    1.123    1.330  139.083  139.366
 cp_dbcsr_syevd                     314 13.9    0.128    0.136  137.543  137.559
 pw_nn_compose_r                   1936 14.6   95.826   96.565   98.904  100.415
 xc_exc_calc                        116 12.9    0.442    0.443   96.624   96.628
 xc_vxc_pw_create                    63 12.8    4.473    4.532   84.630   84.642
 dbcsr_multiply_generic            4399 13.6    0.978    1.000   75.727   76.886
 xc_functional_eval                 179 14.9    0.004    0.004   66.666   69.067
 pbe_lsd_eval                       179 15.9   66.662   69.063   66.662   69.063
 init_scf_loop                        3  7.7    0.001    0.002   59.598   59.599
 multiply_cannon                   4399 14.6    3.634    3.827   50.040   54.245
 qs_ks_update_qs_env_forces           2  6.0    0.000    0.000   48.781   48.783
 -------------------------------------------------------------------------------

 The number of warnings for this run is : 4
 
 -------------------------------------------------------------------------------
  **** **** ******  **  PROGRAM ENDED AT                 2020-10-29 20:54:44.416
 ***** ** ***  *** **   PROGRAM RAN ON                                 irene3820
 **    ****   ******    PROGRAM RAN BY                                  marticar
 ***** **    ** ** **   PROGRAM PROCESS ID                                239953
  **** **  *******  **  PROGRAM STOPPED IN /ccc/scratch/cont003/gen0609/marticar
                                           /5730752
