      40
 i =        1, E =     -1284.4939699023
 Au        15.0672737870       14.8664196002       16.4526456101
 Au        17.2665286134       11.3861624412       14.3536529057
 Au        14.4324078753       12.0745159358       17.3817081289
 Au        18.0366532279       15.3080948396       17.1381684166
 Au        12.4418582303       14.0126589562       17.3159986848
 Au        11.2588762547       14.8399248811       14.9977257140
 Au        12.9614856495       18.0760571869       13.3630396037
 Au        15.3170175800       18.8383941154       14.5373382832
 Au        14.8923684065       15.9916225158       13.9283214027
 Au        14.2445349364       13.8694001226       19.4100681351
 Au        14.8936429415       12.3228247570       13.1612366286
 Au        12.8410753527       14.1581419851       12.7987393633
 Au        15.1754357255       14.2884512055       11.2900212098
 Au        16.8257151618       14.2076320411       14.4348676296
 Au        12.8407883582       12.5256264080       15.0140859818
 Au        14.7156007945       10.4594465718       15.2105952834
 Au        17.6835190411       16.8718743110       14.9058753849
 Au        19.6110976115       14.7420050830       14.7861784025
 Au        15.9829129580       17.5607855737       17.0383367519
 Au        18.9861520740       16.2193829043       12.5721254347
 Au        13.2953440060       17.9306407453       16.1741927231
 Au        16.8610846034       10.6892116167       17.0511144119
 Au        10.9618365629       16.2620053887       12.5764197373
 Au        15.2947293819       18.0905163973       11.8287777647
 Au        11.2059121373       16.4369774378       17.3734471939
 Au        10.7322364215       17.6727127670       14.9736032282
 Au        16.8640447072       13.1208382623       18.4385480792
 Au        15.5430474461       16.4426177340        9.5373530215
 Au        18.7213766653       12.6789859560       16.3385270627
 Au        16.4406354783       15.8393576493       19.2438348021
 Au        17.7677173465       14.9527698479       10.4443255660
 Au        14.4765581122       15.8862741819       21.2215770640
 Au        13.7312990156       16.6791794702       18.5958284105
 Au        13.2331881973       16.3255021031       11.0503683820
 Au        17.5251964583       12.8352538845       12.0609316455
 Au        17.7988687513       17.7744071535       10.5030674130
 Au        17.7515284252       18.8736693476       12.9996743874
 Au        17.6481228521       19.5375897630       15.7934147043
  C        12.6837979941       18.4294294092       19.8648674833
  O        12.1808635364       19.2633537593       20.4611640480
      40
 i =        2, E =     -1284.4936024409
 Au        15.0672737870       14.8664196002       16.4526456101
 Au        17.2665286134       11.3861624412       14.3536529057
 Au        14.4324078753       12.0745159358       17.3817081289
 Au        18.0366532279       15.3080948396       17.1381684166
 Au        12.4418582303       14.0126589562       17.3159986848
 Au        11.2588762547       14.8399248811       14.9977257140
 Au        12.9614856495       18.0760571869       13.3630396037
 Au        15.3170175800       18.8383941154       14.5373382832
 Au        14.8923684065       15.9916225158       13.9283214027
 Au        14.2445349364       13.8694001226       19.4100681351
 Au        14.8936429415       12.3228247570       13.1612366286
 Au        12.8410753527       14.1581419851       12.7987393633
 Au        15.1754357255       14.2884512055       11.2900212098
 Au        16.8257151618       14.2076320411       14.4348676296
 Au        12.8407883582       12.5256264080       15.0140859818
 Au        14.7156007945       10.4594465718       15.2105952834
 Au        17.6835190411       16.8718743110       14.9058753849
 Au        19.6110976115       14.7420050830       14.7861784025
 Au        15.9829129580       17.5607855737       17.0383367519
 Au        18.9861520740       16.2193829043       12.5721254347
 Au        13.2953440060       17.9306407453       16.1741927231
 Au        16.8610846034       10.6892116167       17.0511144119
 Au        10.9618365629       16.2620053887       12.5764197373
 Au        15.2947293819       18.0905163973       11.8287777647
 Au        11.2059121373       16.4369774378       17.3734471939
 Au        10.7322364215       17.6727127670       14.9736032282
 Au        16.8640447072       13.1208382623       18.4385480792
 Au        15.5430474461       16.4426177340        9.5373530215
 Au        18.7213766653       12.6789859560       16.3385270627
 Au        16.4406354783       15.8393576493       19.2438348021
 Au        17.7677173465       14.9527698479       10.4443255660
 Au        14.4765581122       15.8862741819       21.2215770640
 Au        13.7312990156       16.6791794702       18.5958284105
 Au        13.2331881973       16.3255021031       11.0503683820
 Au        17.5251964583       12.8352538845       12.0609316455
 Au        17.7988687513       17.7744071535       10.5030674130
 Au        17.7515284252       18.8736693476       12.9996743874
 Au        17.6481228521       19.5375897630       15.7934147043
  C        12.6837979941       18.4294294092       19.8648674833
  O        12.1808635364       19.2633537593       20.4611640480
