      40
 i =        1, E =     -1284.5143892087
 Au        15.0704183360       14.8529985057       16.4432427976
 Au        17.2665644043       11.3861404765       14.3521304842
 Au        14.4317246552       12.0767370198       17.3847226975
 Au        18.0368784782       15.3091639376       17.1413960687
 Au        12.4407082804       14.0114105508       17.3169102809
 Au        11.2588365709       14.8412212888       14.9982502849
 Au        12.9608383837       18.0760290909       13.3594734544
 Au        15.3353758097       18.8327692700       14.5458095564
 Au        14.8895101084       15.9850059533       13.9264148591
 Au        14.2443192833       13.8677820507       19.4134128579
 Au        14.8926792738       12.3225204375       13.1608384541
 Au        12.8395363931       14.1575809094       12.7989071419
 Au        15.1763451863       14.2885590920       11.2889318667
 Au        16.8253677418       14.2060245863       14.4314547713
 Au        12.8410733482       12.5273693488       15.0119835271
 Au        14.7154547347       10.4599645280       15.2103588488
 Au        17.6740178066       16.8960553943       14.9119644280
 Au        19.6088072819       14.7400626927       14.7874450471
 Au        15.9850970254       17.5654759773       17.0323747051
 Au        18.9848713086       16.2160447638       12.5685357396
 Au        13.2928424465       17.9309321810       16.1894534019
 Au        16.8609430532       10.6902357237       17.0527953824
 Au        10.9620832064       16.2586249688       12.5776049782
 Au        15.2895345819       18.0890784310       11.8271424333
 Au        11.2200111789       16.4430425863       17.3839011470
 Au        10.7313226493       17.6712278174       14.9736814000
 Au        16.8634690212       13.1229150838       18.4383706234
 Au        15.5438820303       16.4422139006        9.5380473801
 Au        18.7214667335       12.6804760929       16.3390067452
 Au        16.4384293467       15.8402658016       19.2451098681
 Au        17.7696155964       14.9556664574       10.4470149395
 Au        14.4691613741       15.8948770416       21.2032558027
 Au        13.7463034545       16.6436313041       18.5691961761
 Au        13.2335223787       16.3280196161       11.0521020840
 Au        17.5248751192       12.8344168321       12.0616318435
 Au        17.7999973881       17.7741181065       10.5001837130
 Au        17.7480697478       18.8692704885       13.0019388027
 Au        17.6976148515       19.6269659148       15.8384881509
  C        18.7732595157       21.4246950061       16.7279617000
  O        19.2999105178       22.3324459493       17.1763491015
      40
 i =        2, E =     -1284.5183851138
 Au        15.0267883460       14.8368945744       16.4216507825
 Au        17.2970149414       11.3376050992       14.3618032067
 Au        14.4404606250       12.0564228263       17.3864067646
 Au        18.0803118340       15.3256199420       17.1619677974
 Au        12.4196193784       14.0104500076       17.3501055501
 Au        11.2470784386       14.8618125046       15.0055343689
 Au        12.9482359835       18.0910193250       13.3420230842
 Au        15.4026897284       18.8681330196       14.5879452954
 Au        14.8406457891       15.9891369409       13.8971638770
 Au        14.2372299428       13.8431128349       19.4760321804
 Au        14.9012850966       12.2980332659       13.1528897749
 Au        12.8163854859       14.1580234955       12.7768832432
 Au        15.1893260810       14.3014301917       11.2633137994
 Au        16.8385584981       14.1707609062       14.4318056326
 Au        12.8099843220       12.4949157748       15.0168962104
 Au        14.7133916828       10.4032002355       15.1963552963
 Au        17.6674842629       16.9553279223       14.9110265267
 Au        19.6335803100       14.7303712643       14.7768780760
 Au        15.9978380694       17.5910002920       17.0330465562
 Au        18.9930771946       16.2169988221       12.5526851846
 Au        13.2644973817       17.9465065078       16.1958258974
 Au        16.8716415385       10.6467785540       17.0650205432
 Au        10.9046680552       16.2522676402       12.5608463024
 Au        15.3018269128       18.0842565501       11.8167169802
 Au        11.1783073493       16.4621146329       17.4094581862
 Au        10.7007768884       17.6962670504       14.9668708269
 Au        16.8729528431       13.1224679830       18.4537122452
 Au        15.5551311646       16.4572607295        9.4851080065
 Au        18.7457681887       12.6650374746       16.3517897465
 Au        16.4661036502       15.8628023578       19.2915392352
 Au        17.7853998060       14.9583061730       10.4149029474
 Au        14.4617192719       15.9131511946       21.2312660111
 Au        13.7526014580       16.6610080853       18.6095756837
 Au        13.2028513478       16.3429539277       11.0050643381
 Au        17.5709280808       12.8154937572       12.0604022812
 Au        17.8155323071       17.8006178814       10.4613960571
 Au        17.7688237856       18.9072706329       13.0088206529
 Au        17.8047147032       19.8312107596       15.9487618204
  C        18.7182606708       21.2853994579       16.6732094302
  O        19.2226597242       22.2227728878       17.1145661949
      40
 i =        3, E =     -1284.5242204393
 Au        15.0359125702       14.8431207323       16.4280974420
 Au        17.2839551373       11.3515079598       14.3607307983
 Au        14.4411670037       12.0678306511       17.3856286283
 Au        18.0631633172       15.3222721961       17.1532991532
 Au        12.4300444420       14.0124689986       17.3407913482
 Au        11.2557116734       14.8609772126       15.0072210380
 Au        12.9638003585       18.0846785915       13.3532192533
 Au        15.3854734057       18.8507287080       14.5783336637
 Au        14.8569533115       15.9890297758       13.9036038242
 Au        14.2434672425       13.8539734530       19.4544006521
 Au        14.9029360456       12.3094420169       13.1560402208
 Au        12.8245388583       14.1575978202       12.7826863595
 Au        15.1878437855       14.2997983444       11.2740063139
 Au        16.8368220869       14.1896364833       14.4337703413
 Au        12.8206111267       12.5066689653       15.0149093907
 Au        14.7187262112       10.4258754289       15.2032008400
 Au        17.6766488183       16.9322232164       14.9138400752
 Au        19.6109114218       14.7364900722       14.7809715039
 Au        15.9923779976       17.5800110542       17.0373921612
 Au        18.9825463157       16.2208963538       12.5614029055
 Au        13.2767976644       17.9410241551       16.1911182454
 Au        16.8665455303       10.6650394018       17.0580955045
 Au        10.9265128956       16.2555302543       12.5704851637
 Au        15.3002590018       18.0803198343       11.8275104287
 Au        11.1957090498       16.4566812187       17.3962904429
 Au        10.7141460958       17.6833918769       14.9665040050
 Au        16.8671974487       13.1266991922       18.4420581584
 Au        15.5557040817       16.4533796761        9.5071115212
 Au        18.7330065481       12.6719671517       16.3496163909
 Au        16.4542592257       15.8538332962       19.2715738650
 Au        17.7759062653       14.9615133239       10.4258969912
 Au        14.4658675462       15.9050704718       21.2170418665
 Au        13.7549234508       16.6540743372       18.5934104693
 Au        13.2131487556       16.3382046042       11.0195691901
 Au        17.5550714899       12.8253493146       12.0648788070
 Au        17.8066185977       17.7909035392       10.4805717051
 Au        17.7616939311       18.8951892243       12.9996337415
 Au        17.7122879528       19.6878495871       15.8716064118
  C        18.7565848721       21.3500743494       16.7059320665
  O        19.2599346779       22.2825712500       17.1447334051
      40
 i =        4, E =     -1284.5270235041
 Au        15.0252734295       14.8436109698       16.4157995840
 Au        17.2875368954       11.3447561138       14.3602975313
 Au        14.4440756537       12.0710269274       17.3846856456
 Au        18.0659999671       15.3279112404       17.1561906422
 Au        12.4304354470       14.0126974903       17.3472206062
 Au        11.2632357997       14.8660657057       15.0124455827
 Au        12.9703797063       18.0851052750       13.3552425508
 Au        15.3944555677       18.8467388620       14.5856314266
 Au        14.8565513056       15.9814265981       13.9002184241
 Au        14.2464067322       13.8492505553       19.4609602518
 Au        14.9061257924       12.3126923384       13.1575228860
 Au        12.8235195601       14.1548277342       12.7797216669
 Au        15.1899787026       14.3039066589       11.2758059123
 Au        16.8294685524       14.1957182877       14.4371128939
 Au        12.8182009488       12.5050423979       15.0135204560
 Au        14.7198165170       10.4231293765       15.2026652724
 Au        17.6800309784       16.9403041960       14.9176502785
 Au        19.6033638767       14.7365132987       14.7802158061
 Au        15.9927818459       17.5777010759       17.0431906048
 Au        18.9753260077       16.2250897355       12.5599455925
 Au        13.2767672701       17.9423752454       16.1926189983
 Au        16.8678466922       10.6611207758       17.0602903419
 Au        10.9244098939       16.2567005622       12.5691095940
 Au        15.3040700267       18.0720086662       11.8333097548
 Au        11.1954580622       16.4618089944       17.3978043231
 Au        10.7129118300       17.6859203373       14.9622678177
 Au        16.8661654432       13.1315628641       18.4371587364
 Au        15.5575722736       16.4588237671        9.5018714685
 Au        18.7323133227       12.6720164024       16.3538801735
 Au        16.4586232195       15.8558084149       19.2737406675
 Au        17.7773538459       14.9615246415       10.4236330884
 Au        14.4663911791       15.9080272292       21.2204392215
 Au        13.7569998500       16.6571941570       18.5929486361
 Au        13.2078643364       16.3409694246       11.0117914680
 Au        17.5627001743       12.8283262216       12.0698714181
 Au        17.8072334260       17.7966515748       10.4785968386
 Au        17.7663481003       18.9032802207       12.9949205942
 Au        17.7184448602       19.7133936759       15.8848965941
  C        18.7456844654       21.3095415222       16.6945885782
  O        19.2350468121       22.2529475215       17.1294719468
      40
 i =        5, E =     -1284.5272732422
 Au        15.0252734295       14.8436109698       16.4157995840
 Au        17.2875368954       11.3447561138       14.3602975313
 Au        14.4440756537       12.0710269274       17.3846856456
 Au        18.0659999671       15.3279112404       17.1561906422
 Au        12.4304354470       14.0126974903       17.3472206062
 Au        11.2632357997       14.8660657057       15.0124455827
 Au        12.9703797063       18.0851052750       13.3552425508
 Au        15.3944555677       18.8467388620       14.5856314266
 Au        14.8565513056       15.9814265981       13.9002184241
 Au        14.2464067322       13.8492505553       19.4609602518
 Au        14.9061257924       12.3126923384       13.1575228860
 Au        12.8235195601       14.1548277342       12.7797216669
 Au        15.1899787026       14.3039066589       11.2758059123
 Au        16.8294685524       14.1957182877       14.4371128939
 Au        12.8182009488       12.5050423979       15.0135204560
 Au        14.7198165170       10.4231293765       15.2026652724
 Au        17.6800309784       16.9403041960       14.9176502785
 Au        19.6033638767       14.7365132987       14.7802158061
 Au        15.9927818459       17.5777010759       17.0431906048
 Au        18.9753260077       16.2250897355       12.5599455925
 Au        13.2767672701       17.9423752454       16.1926189983
 Au        16.8678466922       10.6611207758       17.0602903419
 Au        10.9244098939       16.2567005622       12.5691095940
 Au        15.3040700267       18.0720086662       11.8333097548
 Au        11.1954580622       16.4618089944       17.3978043231
 Au        10.7129118300       17.6859203373       14.9622678177
 Au        16.8661654432       13.1315628641       18.4371587364
 Au        15.5575722736       16.4588237671        9.5018714685
 Au        18.7323133227       12.6720164024       16.3538801735
 Au        16.4586232195       15.8558084149       19.2737406675
 Au        17.7773538459       14.9615246415       10.4236330884
 Au        14.4663911791       15.9080272292       21.2204392215
 Au        13.7569998500       16.6571941570       18.5929486361
 Au        13.2078643364       16.3409694246       11.0117914680
 Au        17.5627001743       12.8283262216       12.0698714181
 Au        17.8072334260       17.7966515748       10.4785968386
 Au        17.7663481003       18.9032802207       12.9949205942
 Au        17.7184448602       19.7133936759       15.8848965941
  C        18.7456844654       21.3095415222       16.6945885782
  O        19.2350468121       22.2529475215       17.1294719468
