     161
 i =        1, E =     -8104.5155410890
 Fe         5.0938794100       11.8196869300        0.3885799900
 Fe         7.6575796300        7.3792284900        0.3885799900
 Fe        10.2212798400        2.9387700600        0.3885799900
 Fe        -0.0335205200       11.8196869300        0.3885799900
 Fe         2.5301797000        7.3792284900        0.3885799900
 Fe         5.0938799200        2.9387700600        0.3885799900
 Fe        -5.1609204400       11.8196869300        0.3885799900
 Fe        -2.5972202200        7.3792284900        0.3885799900
 Fe        -0.0335200000        2.9387700600        0.3885799900
  O         8.4519195100        8.9577468800        1.1642700400
  O        11.0156197300        4.5172884400        1.1642700400
  O        13.5793199500        0.0768300000        1.1642700400
  O         3.3245195900        8.9577468800        1.1642700400
  O         5.8882198100        4.5172884400        1.1642700400
  O         8.4519200300        0.0768300000        1.1642700400
  O        -1.8028803300        8.9577468800        1.1642700400
  O         0.7608198900        4.5172884400        1.1642700400
  O         3.3245201100        0.0768300000        1.1642700400
  O         8.4568493000       11.7183869300        1.1650400200
  O        11.0205495200        7.2779284900        1.1650400200
  O        13.5842497300        2.8374700500        1.1650400200
  O         3.3294493700       11.7183869300        1.1650400200
  O         5.8931495900        7.2779284900        1.1650400200
  O         8.4568498100        2.8374700500        1.1650400200
  O        -1.7979505500       11.7183869300        1.1650400200
  O         0.7657496700        7.2779284900        1.1650400200
  O         3.3294498900        2.8374700500        1.1650400200
  O         6.0627194200       10.3425368500        1.1660399400
  O         8.6264196400        5.9020784100        1.1660399400
  O        11.1901198600        1.4616199700        1.1660399400
  O         0.9353195000       10.3425368500        1.1660399400
  O         3.4990197200        5.9020784100        1.1660399400
  O         6.0627199400        1.4616199700        1.1660399400
  O        -4.1920804200       10.3425368500        1.1660399400
  O        -1.6283802000        5.9020784100        1.1660399400
  O         0.9353200200        1.4616199700        1.1660399400
 Fe         7.6576695000       13.2997167500        1.9292099500
 Fe        10.2213697200        8.8592583200        1.9292099500
 Fe        12.7850699400        4.4187998800        1.9292099500
 Fe         2.5302695800       13.2997167500        1.9292099500
 Fe         5.0939698000        8.8592583200        1.9292099500
 Fe         7.6576700200        4.4187998800        1.9292099500
 Fe        -2.5971303400       13.2997167500        1.9292099500
 Fe        -0.0334301200        8.8592583200        1.9292099500
 Fe         2.5302701000        4.4187998800        1.9292099500
 Fe         7.6573893600       10.3392168700        2.7128999200
 Fe        10.2210895800        5.8987584300        2.7128999200
 Fe        12.7847898000        1.4582999900        2.7128999200
 Fe         2.5299894400       10.3392168700        2.7128999200
 Fe         5.0936896600        5.8987584300        2.7128999200
 Fe         7.6573898800        1.4582999900        2.7128999200
 Fe        -2.5974104800       10.3392168700        2.7128999200
 Fe        -0.0337102600        5.8987584300        2.7128999200
 Fe         2.5299899600        1.4582999900        2.7128999200
  O         4.1328548608       13.3042046337        3.4995638493
  O         6.6962169705        8.8641833319        3.4983959205
  O         9.2600699201        4.4228286531        3.4996812888
  O        -0.9945669067       13.3039223639        3.4994180793
  O         1.5693470803        8.8629054314        3.4996758703
  O         4.1317878793        4.4216011747        3.4968882463
  O        -6.1220214548       13.3039464561        3.4995293332
  O        -3.5584767424        8.8629817587        3.4989950497
  O        -0.9948030329        4.4227621090        3.4994054645
  O         6.8606052642       11.9105515564        3.5005325851
  O         9.4244137029        7.4693452194        3.5015112481
  O        11.9882493715        3.0290654911        3.5011646348
  O         1.7332032711       11.9103810417        3.5005551316
  O         4.2967500797        7.4706975235        3.4985122732
  O         6.8611346044        3.0287452996        3.4996917829
  O        -3.3941917993       11.9103639487        3.5004654847
  O        -0.8301845397        7.4694860522        3.5009018687
  O         1.7335370287        3.0289168313        3.5015100051
  O         9.4155283084       10.2448413804        3.5011147655
  O        11.9793733498        5.8044460143        3.5014493384
  O        14.5427497749        1.3640234178        3.5017657588
  O         4.2887929288       10.2444610460        3.5011603647
  O         6.8531909975        5.8042396934        3.4987452421
  O         9.4156123673        1.3638791232        3.5015138587
  O        -0.8392510132       10.2448401545        3.5008899124
  O         1.7236657201        5.8041690060        3.5004662607
  O         4.2881267125        1.3646272926        3.5023012514
 Fe         5.0942157204       11.8188204778        4.4862528773
 Fe         7.6564404928        7.3783801423        4.4864238748
 Fe        10.2213212557        2.9383384307        4.4862334719
 Fe        -0.0332346388       11.8188596957        4.4862840480
 Fe         2.5320904151        7.3770932436        4.4872213364
 Fe         5.0952207111        2.9405598055        4.4872797108
 Fe        -5.1604005625       11.8188648608        4.4862083520
 Fe        -2.5962625350        7.3785399413        4.4866107926
 Fe        -0.0328730221        2.9385056714        4.4861920848
 Fe         7.6591878286       13.2992485639        4.8224037385
 Fe        10.2223319150        8.8591948927        4.8227276241
 Fe        12.7862964563        4.4182439181        4.8222437831
 Fe         2.5316803550       13.2988452271        4.8224581317
 Fe         5.0962918426        8.8559658403        4.8241527714
 Fe         7.6563659569        4.4187197094        4.8224692662
 Fe        -2.5955582939       13.2991690223        4.8227061313
 Fe        -0.0320668110        8.8590326204        4.8227605457
 Fe         2.5318444673        4.4196057953        4.8227750303
  O         5.8657029373       10.3889113068        5.7275023434
  O         8.4280854474        5.9472205838        5.7327080467
  O        10.9925426699        1.5079373232        5.7279566741
  O         0.7387513018       10.3889074080        5.7267680355
  O         3.3068157280        5.9464779046        5.7205244700
  O         5.8648689170        1.5079973524        5.7294637348
  O        -4.3880717025       10.3888841212        5.7261205895
  O        -1.8244710506        5.9468154369        5.7286736692
  O         0.7376413494        1.5081315864        5.7291007765
  O         5.9488262547       13.2030637537        5.7285418010
  O         8.5120137180        8.7619051181        5.7293339595
  O        11.0761154128        4.3215103139        5.7293972573
  O         0.8212654282       13.2028285479        5.7280195515
  O         3.3844472013        8.7629624112        5.7284358062
  O         5.9450938482        4.3285812987        5.7229922700
  O        -4.3063371619       13.2030104661        5.7281931211
  O        -1.7432489368        8.7629056711        5.7254493251
  O         0.8203838024        4.3212244385        5.7314763947
  O         3.4696712184       11.8657598752        5.7299671948
  O         6.0318962008        7.4183286125        5.7239716117
  O         8.5969477873        2.9858617532        5.7322328887
  O        -1.6583523827       11.8649367061        5.7291113923
  O         0.9066122401        7.4267142254        5.7312895725
  O         3.4696044220        2.9864489747        5.7346163131
  O        -6.7852015362       11.8661105407        5.7300266237
  O        -4.2213163637        7.4256596733        5.7292220596
  O        -1.6573659251        2.9855819969        5.7324938112
 Fe         7.6577417326       10.3389466273        5.9784044744
 Fe        10.2220660151        5.8989888226        5.9758089411
 Fe        12.7847753365        1.4578700491        5.9762921305
 Fe         2.5303372429       10.3389557428        5.9812018654
 Fe         5.0916818868        5.8994790961        6.0603484746
 Fe         7.6576790048        1.4577529251        5.9762340479
 Fe        -2.5967929505       10.3381798056        5.9857983441
 Fe        -0.0318471339        5.9000181819        5.9790503573
 Fe         2.5303935684        1.4580053700        5.9765770308
  C        -0.5200487694        6.8555978240       11.0315926837
  C         0.9456594318        7.0757342151       10.6722618941
  H        -0.9498540632        6.0216632783       10.4516120387
  O        -1.3138913225        8.0000075137       10.7378965142
  H        -0.5823538513        6.5898795942       12.1065868711
  C         1.7983248647        5.8138510564       10.9102646789
  C         3.3114579769        6.1456935610       10.9904304552
  O         1.5688859806        4.8424892137        9.8537123647
  H         1.5247148113        5.3571683075       11.8802359025
  C         4.2505091169        4.9675278167       10.6191755877
  H         3.4965669651        6.3798601341       12.0518881009
  O         3.6658898842        7.3382928156       10.2668054126
  C         4.4679234418        4.7456800442        9.1074510748
  O         3.7992096952        3.7424713666       11.2035335104
  H         5.2304866026        5.1680695681       11.0879567921
  H         5.0949179047        3.8522845050        8.9693989679
  O         5.1003307839        5.8794109212        8.4417523940
  H         3.5177233017        4.6090607482        8.5799897042
  H        -0.8070402124        8.7601911077       11.0848676324
  H         0.6111999727        4.6768156921        9.7932723136
  H         4.1154146185        7.0844363087        9.4263935278
  H         2.9238872033        3.5597788249       10.8009431643
  H         6.0256058419        5.9556512615        8.7476675760
  O         1.3741315902        8.1777514586       11.4873437636
  H         1.0249444218        7.3325650862        9.6001016712
  H         2.2405916637        8.4438316775       11.1129058244
     161
 i =        2, E =     -8104.5172200058
 Fe         5.0938794100       11.8196869300        0.3885799900
 Fe         7.6575796300        7.3792284900        0.3885799900
 Fe        10.2212798400        2.9387700600        0.3885799900
 Fe        -0.0335205200       11.8196869300        0.3885799900
 Fe         2.5301797000        7.3792284900        0.3885799900
 Fe         5.0938799200        2.9387700600        0.3885799900
 Fe        -5.1609204400       11.8196869300        0.3885799900
 Fe        -2.5972202200        7.3792284900        0.3885799900
 Fe        -0.0335200000        2.9387700600        0.3885799900
  O         8.4519195100        8.9577468800        1.1642700400
  O        11.0156197300        4.5172884400        1.1642700400
  O        13.5793199500        0.0768300000        1.1642700400
  O         3.3245195900        8.9577468800        1.1642700400
  O         5.8882198100        4.5172884400        1.1642700400
  O         8.4519200300        0.0768300000        1.1642700400
  O        -1.8028803300        8.9577468800        1.1642700400
  O         0.7608198900        4.5172884400        1.1642700400
  O         3.3245201100        0.0768300000        1.1642700400
  O         8.4568493000       11.7183869300        1.1650400200
  O        11.0205495200        7.2779284900        1.1650400200
  O        13.5842497300        2.8374700500        1.1650400200
  O         3.3294493700       11.7183869300        1.1650400200
  O         5.8931495900        7.2779284900        1.1650400200
  O         8.4568498100        2.8374700500        1.1650400200
  O        -1.7979505500       11.7183869300        1.1650400200
  O         0.7657496700        7.2779284900        1.1650400200
  O         3.3294498900        2.8374700500        1.1650400200
  O         6.0627194200       10.3425368500        1.1660399400
  O         8.6264196400        5.9020784100        1.1660399400
  O        11.1901198600        1.4616199700        1.1660399400
  O         0.9353195000       10.3425368500        1.1660399400
  O         3.4990197200        5.9020784100        1.1660399400
  O         6.0627199400        1.4616199700        1.1660399400
  O        -4.1920804200       10.3425368500        1.1660399400
  O        -1.6283802000        5.9020784100        1.1660399400
  O         0.9353200200        1.4616199700        1.1660399400
 Fe         7.6576695000       13.2997167500        1.9292099500
 Fe        10.2213697200        8.8592583200        1.9292099500
 Fe        12.7850699400        4.4187998800        1.9292099500
 Fe         2.5302695800       13.2997167500        1.9292099500
 Fe         5.0939698000        8.8592583200        1.9292099500
 Fe         7.6576700200        4.4187998800        1.9292099500
 Fe        -2.5971303400       13.2997167500        1.9292099500
 Fe        -0.0334301200        8.8592583200        1.9292099500
 Fe         2.5302701000        4.4187998800        1.9292099500
 Fe         7.6573893600       10.3392168700        2.7128999200
 Fe        10.2210895800        5.8987584300        2.7128999200
 Fe        12.7847898000        1.4582999900        2.7128999200
 Fe         2.5299894400       10.3392168700        2.7128999200
 Fe         5.0936896600        5.8987584300        2.7128999200
 Fe         7.6573898800        1.4582999900        2.7128999200
 Fe        -2.5974104800       10.3392168700        2.7128999200
 Fe        -0.0337102600        5.8987584300        2.7128999200
 Fe         2.5299899600        1.4582999900        2.7128999200
  O         4.1348348791       13.3017732513        3.5005981885
  O         6.6991128673        8.8634797483        3.4998701049
  O         9.2622920322        4.4212105038        3.5037702275
  O        -0.9932565416       13.3017042535        3.5003658800
  O         1.5719708985        8.8586903201        3.5009389661
  O         4.1270128358        4.4125600580        3.4819901710
  O        -6.1207147651       13.3016190797        3.5004626161
  O        -3.5584086530        8.8593864246        3.4966486180
  O        -0.9934296836        4.4195195286        3.4999261001
  O         6.8592701307       11.9123524498        3.5002007008
  O         9.4207462728        7.4686601157        3.5046249839
  O        11.9866374823        3.0296724119        3.5024876894
  O         1.7315615733       11.9120399364        3.4997456593
  O         4.2934350992        7.4788215822        3.4847883082
  O         6.8605987572        3.0268041602        3.5018038216
  O        -3.3959667812       11.9131815634        3.4981443055
  O        -0.8313227282        7.4698020056        3.5016073276
  O         1.7317739869        3.0289014511        3.5056066994
  O         9.4182480934       10.2463197373        3.5005887244
  O        11.9823680718        5.8055592208        3.5014135431
  O        14.5454053826        1.3664975033        3.5020185282
  O         4.2914635456       10.2457687169        3.5020427932
  O         6.8646126515        5.8039641195        3.4826988722
  O         9.4184202492        1.3657985592        3.5013310222
  O        -0.8350698179       10.2460910508        3.4977787135
  O         1.7230144472        5.8050990709        3.5014605864
  O         4.2905459381        1.3686079875        3.5047106723
 Fe         5.0949831241       11.8165048112        4.4942062337
 Fe         7.6484670731        7.3722686044        4.4944817781
 Fe        10.2200909057        2.9383745347        4.4952637242
 Fe        -0.0330143345       11.8175768729        4.4933562616
 Fe         2.5416297563        7.3722558132        4.4946726739
 Fe         5.0939851548        2.9510197812        4.4952066978
 Fe        -5.1588883254       11.8181719809        4.4935126390
 Fe        -2.5957550223        7.3791284200        4.4935708305
 Fe        -0.0324440610        2.9393586682        4.4957300700
 Fe         7.6599825472       13.2993894508        4.8195204303
 Fe        10.2223371513        8.8595017522        4.8202096353
 Fe        12.7874937276        4.4184031050        4.8193930362
 Fe         2.5321775954       13.2983464789        4.8192578195
 Fe         5.0976537906        8.8468404812        4.8224018526
 Fe         7.6485904486        4.4232144380        4.8186708122
 Fe        -2.5946240383       13.3004875526        4.8203022095
 Fe        -0.0297654254        8.8590559233        4.8199550620
 Fe         2.5393435250        4.4249425621        4.8196347351
  O         5.8654260219       10.3829247532        5.7332712284
  O         8.4249406405        5.9428275739        5.7502986000
  O        10.9919928296        1.5052988724        5.7340999224
  O         0.7395908001       10.3867589945        5.7320286125
  O         3.3209603642        5.9419636903        5.7206825830
  O         5.8631466711        1.5095605549        5.7369115459
  O        -4.3860449491       10.3864802359        5.7299043220
  O        -1.8229779217        5.9434350310        5.7359083734
  O         0.7369623125        1.5058670186        5.7374695200
  O         5.9508607847       13.2049043445        5.7336477472
  O         8.5119091389        8.7611129345        5.7344302960
  O        11.0789393865        4.3230963914        5.7359061499
  O         0.8231443168       13.2042275414        5.7328141511
  O         3.3875321730        8.7634424558        5.7378378526
  O         5.9409316191        4.3412087409        5.7226892387
  O        -4.3043612770       13.2050001375        5.7336697427
  O        -1.7407333562        8.7641498181        5.7263465114
  O         0.8256658046        4.3235092850        5.7409715365
  O         3.4675907469       11.8675949939        5.7364186585
  O         6.0245906893        7.4074256403        5.7253303365
  O         8.5909953841        2.9906970826        5.7414621802
  O        -1.6611793754       11.8660391905        5.7339242049
  O         0.9086222295        7.4292040926        5.7395348215
  O         3.4671149398        2.9921633135        5.7533719834
  O        -6.7871479781       11.8678609533        5.7362701641
  O        -4.2234948494        7.4268554679        5.7344649587
  O        -1.6597960556        2.9878220918        5.7436955447
 Fe         7.6575885888       10.3389071274        5.9898572339
 Fe        10.2217652747        5.8995433592        5.9861166539
 Fe        12.7837023908        1.4575871844        5.9882560472
 Fe         2.5309704639       10.3386092670        5.9920940940
 Fe         5.0921220286        5.9001005340        6.2217744257
 Fe         7.6567711110        1.4576312247        5.9870286068
 Fe        -2.5952721524       10.3368815965        6.0007470615
 Fe        -0.0297543499        5.9024224324        5.9908260389
 Fe         2.5302742081        1.4586271633        5.9867915347
  C        -0.5219902599        6.8576303053       11.0294232039
  C         0.9450257991        7.0715509774       10.6714769311
  H        -0.9511370355        6.0237590802       10.4487853196
  O        -1.3170014462        8.0019379230       10.7415141070
  H        -0.5792905705        6.5883686278       12.1044757042
  C         1.8072517135        5.8154414822       10.9063523877
  C         3.3220640169        6.1491765300       10.9823508439
  O         1.5692002918        4.8426297780        9.8556523333
  H         1.5221150489        5.3611230322       11.8756328592
  C         4.2444404216        4.9623300673       10.6037372601
  H         3.4930179333        6.3785245751       12.0479673549
  O         3.6757919555        7.3499591029       10.2728015892
  C         4.4749447463        4.7419119715        9.0902770383
  O         3.8055299504        3.7380316046       11.2003224588
  H         5.2217634562        5.1716381258       11.0764793208
  H         5.0853883536        3.8407780831        8.9558180468
  O         5.1063180300        5.8755744371        8.3871766830
  H         3.5204404053        4.6044035162        8.5715827902
  H        -0.8055721807        8.7621302997       11.0811082482
  H         0.6130146472        4.6691047519        9.7859500739
  H         4.0909451468        7.0996609332        9.4167455202
  H         2.9289511074        3.5684596517       10.7935117575
  H         6.0260773408        5.9572033156        8.7199075315
  O         1.3767470045        8.1726457767       11.4875394491
  H         1.0258142017        7.3363560729        9.6007181396
  H         2.2389710044        8.4464454936       11.1091959382
     161
 i =        3, E =     -8104.5184173244
 Fe         5.0938794100       11.8196869300        0.3885799900
 Fe         7.6575796300        7.3792284900        0.3885799900
 Fe        10.2212798400        2.9387700600        0.3885799900
 Fe        -0.0335205200       11.8196869300        0.3885799900
 Fe         2.5301797000        7.3792284900        0.3885799900
 Fe         5.0938799200        2.9387700600        0.3885799900
 Fe        -5.1609204400       11.8196869300        0.3885799900
 Fe        -2.5972202200        7.3792284900        0.3885799900
 Fe        -0.0335200000        2.9387700600        0.3885799900
  O         8.4519195100        8.9577468800        1.1642700400
  O        11.0156197300        4.5172884400        1.1642700400
  O        13.5793199500        0.0768300000        1.1642700400
  O         3.3245195900        8.9577468800        1.1642700400
  O         5.8882198100        4.5172884400        1.1642700400
  O         8.4519200300        0.0768300000        1.1642700400
  O        -1.8028803300        8.9577468800        1.1642700400
  O         0.7608198900        4.5172884400        1.1642700400
  O         3.3245201100        0.0768300000        1.1642700400
  O         8.4568493000       11.7183869300        1.1650400200
  O        11.0205495200        7.2779284900        1.1650400200
  O        13.5842497300        2.8374700500        1.1650400200
  O         3.3294493700       11.7183869300        1.1650400200
  O         5.8931495900        7.2779284900        1.1650400200
  O         8.4568498100        2.8374700500        1.1650400200
  O        -1.7979505500       11.7183869300        1.1650400200
  O         0.7657496700        7.2779284900        1.1650400200
  O         3.3294498900        2.8374700500        1.1650400200
  O         6.0627194200       10.3425368500        1.1660399400
  O         8.6264196400        5.9020784100        1.1660399400
  O        11.1901198600        1.4616199700        1.1660399400
  O         0.9353195000       10.3425368500        1.1660399400
  O         3.4990197200        5.9020784100        1.1660399400
  O         6.0627199400        1.4616199700        1.1660399400
  O        -4.1920804200       10.3425368500        1.1660399400
  O        -1.6283802000        5.9020784100        1.1660399400
  O         0.9353200200        1.4616199700        1.1660399400
 Fe         7.6576695000       13.2997167500        1.9292099500
 Fe        10.2213697200        8.8592583200        1.9292099500
 Fe        12.7850699400        4.4187998800        1.9292099500
 Fe         2.5302695800       13.2997167500        1.9292099500
 Fe         5.0939698000        8.8592583200        1.9292099500
 Fe         7.6576700200        4.4187998800        1.9292099500
 Fe        -2.5971303400       13.2997167500        1.9292099500
 Fe        -0.0334301200        8.8592583200        1.9292099500
 Fe         2.5302701000        4.4187998800        1.9292099500
 Fe         7.6573893600       10.3392168700        2.7128999200
 Fe        10.2210895800        5.8987584300        2.7128999200
 Fe        12.7847898000        1.4582999900        2.7128999200
 Fe         2.5299894400       10.3392168700        2.7128999200
 Fe         5.0936896600        5.8987584300        2.7128999200
 Fe         7.6573898800        1.4582999900        2.7128999200
 Fe        -2.5974104800       10.3392168700        2.7128999200
 Fe        -0.0337102600        5.8987584300        2.7128999200
 Fe         2.5299899600        1.4582999900        2.7128999200
  O         4.1342058079       13.3032605294        3.5015706712
  O         6.6999211759        8.8654107823        3.5037073473
  O         9.2627646124        4.4244152188        3.5081917789
  O        -0.9942150744       13.3034384569        3.5011784509
  O         1.5721435563        8.8602701083        3.5023361704
  O         4.1258313953        4.4141040587        3.4828195922
  O        -6.1216314762       13.3033669882        3.5013274432
  O        -3.5596155773        8.8611829225        3.4974211564
  O        -0.9942884707        4.4212639138        3.5011290448
  O         6.8613928459       11.9121983553        3.5010826589
  O         9.4218147373        7.4675409808        3.5060389174
  O        11.9886566023        3.0294064067        3.5035746568
  O         1.7334853062       11.9119057236        3.5005768690
  O         4.2949410127        7.4787300769        3.4853367667
  O         6.8619747030        3.0252263548        3.5054404937
  O        -3.3937836693       11.9134421623        3.4988947859
  O        -0.8295838458        7.4694372585        3.5024442562
  O         1.7344271431        3.0269750441        3.5099085650
  O         9.4174719072       10.2449808208        3.5014228535
  O        11.9817066159        5.8039604946        3.5021541402
  O        14.5444301933        1.3653978345        3.5031177850
  O         4.2885663131       10.2448737324        3.5062237373
  O         6.8637468998        5.8022128054        3.4839843115
  O         9.4173940827        1.3644792012        3.5022490050
  O        -0.8358155913       10.2444013486        3.4988488408
  O         1.7210308824        5.8046224006        3.5054452439
  O         4.2891655792        1.3681860918        3.5062546692
 Fe         5.0954299236       11.8160647759        4.4898483020
 Fe         7.6467094978        7.3707887456        4.4911768827
 Fe        10.2199558770        2.9384240924        4.4909428602
 Fe        -0.0330171345       11.8177636085        4.4885569433
 Fe         2.5439788757        7.3718504682        4.4908401536
 Fe         5.0934278295        2.9533089285        4.4915334467
 Fe        -5.1585949733       11.8184244549        4.4887141281
 Fe        -2.5958571174        7.3794610870        4.4887860604
 Fe        -0.0319892031        2.9397150664        4.4914147097
 Fe         7.6599946075       13.2995209826        4.8191437445
 Fe        10.2212635415        8.8585337405        4.8194378720
 Fe        12.7874961042        4.4183124059        4.8193003998
 Fe         2.5322589509       13.2985326052        4.8187286680
 Fe         5.0975509513        8.8444947230        4.8224837536
 Fe         7.6465866216        4.4240537008        4.8193253117
 Fe        -2.5945410653       13.3020256971        4.8198621953
 Fe        -0.0284171461        8.8580983825        4.8191701832
 Fe         2.5414540206        4.4260716040        4.8201371777
  O         5.8645902844       10.3825185687        5.7324221702
  O         8.4233081803        5.9441630052        5.7507609255
  O        10.9919265700        1.5065890010        5.7332507880
  O         0.7387221841       10.3879350253        5.7312117564
  O         3.3186756585        5.9439119945        5.7253522168
  O         5.8629578647        1.5119991874        5.7367321523
  O        -4.3873974108       10.3870700760        5.7285346278
  O        -1.8237332446        5.9451560755        5.7346495530
  O         0.7367835240        1.5070142294        5.7367226949
  O         5.9501322596       13.2031096790        5.7326837277
  O         8.5105000532        8.7592423939        5.7340973273
  O        11.0781203245        4.3218933244        5.7350031319
  O         0.8224329396       13.2027482943        5.7318332887
  O         3.3877538000        8.7610037695        5.7392427672
  O         5.9398687245        4.3394684731        5.7260475573
  O        -4.3049618637       13.2036407098        5.7328346819
  O        -1.7406721128        8.7632681074        5.7253963750
  O         0.8263242918        4.3227636566        5.7396035985
  O         3.4691744016       11.8676875313        5.7358051728
  O         6.0252488934        7.4073082880        5.7295374943
  O         8.5920148819        2.9915140334        5.7401447345
  O        -1.6599798456       11.8665479406        5.7327785331
  O         0.9116291078        7.4287455110        5.7397545794
  O         3.4695541980        2.9932660304        5.7540928801
  O        -6.7853596832       11.8678734612        5.7354114517
  O        -4.2217378824        7.4269820001        5.7340203358
  O        -1.6576205315        2.9879041756        5.7426706032
 Fe         7.6578993292       10.3388586478        5.9815227218
 Fe        10.2214822869        5.8995042474        5.9783039840
 Fe        12.7848296755        1.4576289817        5.9814154778
 Fe         2.5313821947       10.3382337017        5.9825487651
 Fe         5.0908029453        5.8994933120        6.1840574750
 Fe         7.6577364312        1.4580083675        5.9794309940
 Fe        -2.5956654932       10.3372055792        5.9906892636
 Fe        -0.0296289987        5.9021273542        5.9813559886
 Fe         2.5312612372        1.4592916594        5.9786890065
  C        -0.5204560281        6.8556065087       11.0300560694
  C         0.9448798425        7.0777113920       10.6694446872
  H        -0.9522639166        6.0240834812       10.4479619847
  O        -1.3140497592        8.0006159934       10.7413509818
  H        -0.5795267164        6.5877135234       12.1050487077
  C         1.7956934787        5.8144205444       10.9033292011
  C         3.3109413174        6.1466089859       10.9813093531
  O         1.5741086970        4.8386500667        9.8516966802
  H         1.5259966782        5.3614480831       11.8772203787
  C         4.2540384490        4.9742136041       10.6063439671
  H         3.4972612799        6.3761336427       12.0442837953
  O         3.6786588809        7.3445794057       10.2731626825
  C         4.4631925618        4.7311231706        9.0916417389
  O         3.8053774285        3.7458593375       11.1858731779
  H         5.2338590847        5.1735902850       11.0760169820
  H         5.0885322651        3.8396014976        8.9528557849
  O         5.1060963519        5.8728541869        8.4116582870
  H         3.5122840028        4.6021840608        8.5637751589
  H        -0.8053828604        8.7626717448       11.0810719567
  H         0.6166275846        4.6707041954        9.7869922013
  H         4.0864160464        7.1040675621        9.4118485584
  H         2.9245951616        3.5641389578       10.7937332445
  H         6.0332899562        5.9611149421        8.7162931152
  O         1.3769599241        8.1750668546       11.4903129990
  H         1.0254940666        7.3368913221        9.5977083129
  H         2.2382775697        8.4473001026       11.1091206086
     161
 i =        4, E =     -8104.5184104850
 Fe         5.0938794100       11.8196869300        0.3885799900
 Fe         7.6575796300        7.3792284900        0.3885799900
 Fe        10.2212798400        2.9387700600        0.3885799900
 Fe        -0.0335205200       11.8196869300        0.3885799900
 Fe         2.5301797000        7.3792284900        0.3885799900
 Fe         5.0938799200        2.9387700600        0.3885799900
 Fe        -5.1609204400       11.8196869300        0.3885799900
 Fe        -2.5972202200        7.3792284900        0.3885799900
 Fe        -0.0335200000        2.9387700600        0.3885799900
  O         8.4519195100        8.9577468800        1.1642700400
  O        11.0156197300        4.5172884400        1.1642700400
  O        13.5793199500        0.0768300000        1.1642700400
  O         3.3245195900        8.9577468800        1.1642700400
  O         5.8882198100        4.5172884400        1.1642700400
  O         8.4519200300        0.0768300000        1.1642700400
  O        -1.8028803300        8.9577468800        1.1642700400
  O         0.7608198900        4.5172884400        1.1642700400
  O         3.3245201100        0.0768300000        1.1642700400
  O         8.4568493000       11.7183869300        1.1650400200
  O        11.0205495200        7.2779284900        1.1650400200
  O        13.5842497300        2.8374700500        1.1650400200
  O         3.3294493700       11.7183869300        1.1650400200
  O         5.8931495900        7.2779284900        1.1650400200
  O         8.4568498100        2.8374700500        1.1650400200
  O        -1.7979505500       11.7183869300        1.1650400200
  O         0.7657496700        7.2779284900        1.1650400200
  O         3.3294498900        2.8374700500        1.1650400200
  O         6.0627194200       10.3425368500        1.1660399400
  O         8.6264196400        5.9020784100        1.1660399400
  O        11.1901198600        1.4616199700        1.1660399400
  O         0.9353195000       10.3425368500        1.1660399400
  O         3.4990197200        5.9020784100        1.1660399400
  O         6.0627199400        1.4616199700        1.1660399400
  O        -4.1920804200       10.3425368500        1.1660399400
  O        -1.6283802000        5.9020784100        1.1660399400
  O         0.9353200200        1.4616199700        1.1660399400
 Fe         7.6576695000       13.2997167500        1.9292099500
 Fe        10.2213697200        8.8592583200        1.9292099500
 Fe        12.7850699400        4.4187998800        1.9292099500
 Fe         2.5302695800       13.2997167500        1.9292099500
 Fe         5.0939698000        8.8592583200        1.9292099500
 Fe         7.6576700200        4.4187998800        1.9292099500
 Fe        -2.5971303400       13.2997167500        1.9292099500
 Fe        -0.0334301200        8.8592583200        1.9292099500
 Fe         2.5302701000        4.4187998800        1.9292099500
 Fe         7.6573893600       10.3392168700        2.7128999200
 Fe        10.2210895800        5.8987584300        2.7128999200
 Fe        12.7847898000        1.4582999900        2.7128999200
 Fe         2.5299894400       10.3392168700        2.7128999200
 Fe         5.0936896600        5.8987584300        2.7128999200
 Fe         7.6573898800        1.4582999900        2.7128999200
 Fe        -2.5974104800       10.3392168700        2.7128999200
 Fe        -0.0337102600        5.8987584300        2.7128999200
 Fe         2.5299899600        1.4582999900        2.7128999200
  O         4.1342058079       13.3032605294        3.5015706712
  O         6.6999211759        8.8654107823        3.5037073473
  O         9.2627646124        4.4244152188        3.5081917789
  O        -0.9942150744       13.3034384569        3.5011784509
  O         1.5721435563        8.8602701083        3.5023361704
  O         4.1258313953        4.4141040587        3.4828195922
  O        -6.1216314762       13.3033669882        3.5013274432
  O        -3.5596155773        8.8611829225        3.4974211564
  O        -0.9942884707        4.4212639138        3.5011290448
  O         6.8613928459       11.9121983553        3.5010826589
  O         9.4218147373        7.4675409808        3.5060389174
  O        11.9886566023        3.0294064067        3.5035746568
  O         1.7334853062       11.9119057236        3.5005768690
  O         4.2949410127        7.4787300769        3.4853367667
  O         6.8619747030        3.0252263548        3.5054404937
  O        -3.3937836693       11.9134421623        3.4988947859
  O        -0.8295838458        7.4694372585        3.5024442562
  O         1.7344271431        3.0269750441        3.5099085650
  O         9.4174719072       10.2449808208        3.5014228535
  O        11.9817066159        5.8039604946        3.5021541402
  O        14.5444301933        1.3653978345        3.5031177850
  O         4.2885663131       10.2448737324        3.5062237373
  O         6.8637468998        5.8022128054        3.4839843115
  O         9.4173940827        1.3644792012        3.5022490050
  O        -0.8358155913       10.2444013486        3.4988488408
  O         1.7210308824        5.8046224006        3.5054452439
  O         4.2891655792        1.3681860918        3.5062546692
 Fe         5.0954299236       11.8160647759        4.4898483020
 Fe         7.6467094978        7.3707887456        4.4911768827
 Fe        10.2199558770        2.9384240924        4.4909428602
 Fe        -0.0330171345       11.8177636085        4.4885569433
 Fe         2.5439788757        7.3718504682        4.4908401536
 Fe         5.0934278295        2.9533089285        4.4915334467
 Fe        -5.1585949733       11.8184244549        4.4887141281
 Fe        -2.5958571174        7.3794610870        4.4887860604
 Fe        -0.0319892031        2.9397150664        4.4914147097
 Fe         7.6599946075       13.2995209826        4.8191437445
 Fe        10.2212635415        8.8585337405        4.8194378720
 Fe        12.7874961042        4.4183124059        4.8193003998
 Fe         2.5322589509       13.2985326052        4.8187286680
 Fe         5.0975509513        8.8444947230        4.8224837536
 Fe         7.6465866216        4.4240537008        4.8193253117
 Fe        -2.5945410653       13.3020256971        4.8198621953
 Fe        -0.0284171461        8.8580983825        4.8191701832
 Fe         2.5414540206        4.4260716040        4.8201371777
  O         5.8645902844       10.3825185687        5.7324221702
  O         8.4233081803        5.9441630052        5.7507609255
  O        10.9919265700        1.5065890010        5.7332507880
  O         0.7387221841       10.3879350253        5.7312117564
  O         3.3186756585        5.9439119945        5.7253522168
  O         5.8629578647        1.5119991874        5.7367321523
  O        -4.3873974108       10.3870700760        5.7285346278
  O        -1.8237332446        5.9451560755        5.7346495530
  O         0.7367835240        1.5070142294        5.7367226949
  O         5.9501322596       13.2031096790        5.7326837277
  O         8.5105000532        8.7592423939        5.7340973273
  O        11.0781203245        4.3218933244        5.7350031319
  O         0.8224329396       13.2027482943        5.7318332887
  O         3.3877538000        8.7610037695        5.7392427672
  O         5.9398687245        4.3394684731        5.7260475573
  O        -4.3049618637       13.2036407098        5.7328346819
  O        -1.7406721128        8.7632681074        5.7253963750
  O         0.8263242918        4.3227636566        5.7396035985
  O         3.4691744016       11.8676875313        5.7358051728
  O         6.0252488934        7.4073082880        5.7295374943
  O         8.5920148819        2.9915140334        5.7401447345
  O        -1.6599798456       11.8665479406        5.7327785331
  O         0.9116291078        7.4287455110        5.7397545794
  O         3.4695541980        2.9932660304        5.7540928801
  O        -6.7853596832       11.8678734612        5.7354114517
  O        -4.2217378824        7.4269820001        5.7340203358
  O        -1.6576205315        2.9879041756        5.7426706032
 Fe         7.6578993292       10.3388586478        5.9815227218
 Fe        10.2214822869        5.8995042474        5.9783039840
 Fe        12.7848296755        1.4576289817        5.9814154778
 Fe         2.5313821947       10.3382337017        5.9825487651
 Fe         5.0908029453        5.8994933120        6.1840574750
 Fe         7.6577364312        1.4580083675        5.9794309940
 Fe        -2.5956654932       10.3372055792        5.9906892636
 Fe        -0.0296289987        5.9021273542        5.9813559886
 Fe         2.5312612372        1.4592916594        5.9786890065
  C        -0.5204560281        6.8556065087       11.0300560694
  C         0.9448798425        7.0777113920       10.6694446872
  H        -0.9522639166        6.0240834812       10.4479619847
  O        -1.3140497592        8.0006159934       10.7413509818
  H        -0.5795267164        6.5877135234       12.1050487077
  C         1.7956934787        5.8144205444       10.9033292011
  C         3.3109413174        6.1466089859       10.9813093531
  O         1.5741086970        4.8386500667        9.8516966802
  H         1.5259966782        5.3614480831       11.8772203787
  C         4.2540384490        4.9742136041       10.6063439671
  H         3.4972612799        6.3761336427       12.0442837953
  O         3.6786588809        7.3445794057       10.2731626825
  C         4.4631925618        4.7311231706        9.0916417389
  O         3.8053774285        3.7458593375       11.1858731779
  H         5.2338590847        5.1735902850       11.0760169820
  H         5.0885322651        3.8396014976        8.9528557849
  O         5.1060963519        5.8728541869        8.4116582870
  H         3.5122840028        4.6021840608        8.5637751589
  H        -0.8053828604        8.7626717448       11.0810719567
  H         0.6166275846        4.6707041954        9.7869922013
  H         4.0864160464        7.1040675621        9.4118485584
  H         2.9245951616        3.5641389578       10.7937332445
  H         6.0332899562        5.9611149421        8.7162931152
  O         1.3769599241        8.1750668546       11.4903129990
  H         1.0254940666        7.3368913221        9.5977083129
  H         2.2382775697        8.4473001026       11.1091206086
