10

O       0.000300000000000     -1.317100000000000     -0.000200000000000
C       0.000000000000000     -0.087200000000000      0.000600000000000
C       1.281000000000000      0.702400000000000     -0.000200000000000
C      -1.281300000000000      0.701900000000000     -0.000200000000000
H       1.327900000000000      1.323500000000000     -0.898000000000000
H       1.326000000000000      1.328200000000000      0.894500000000000
H       2.135100000000000      0.019600000000000      0.002700000000000
H      -2.135200000000000      0.018700000000000      0.002700000000000
H      -1.328400000000000      1.323000000000000     -0.898000000000000
H      -1.326600000000000      1.327800000000000      0.894500000000000
