36

Cu      0.000000000000000      0.000000000000000     15.000000000000000
Cu      2.556191013989370      0.000000000000000     15.000000000000000
Cu      5.112382027978740      0.000000000000000     15.000000000000000
Cu      1.278095506994685      2.213726355040297     15.000000000000000
Cu      3.834286520984055      2.213726355040297     15.000000000000000
Cu      6.390477534973424      2.213726355040297     15.000000000000000
Cu      2.556191013989370      4.427452710080594     15.000000000000000
Cu      5.112382027978740      4.427452710080594     15.000000000000000
Cu      7.668573041968109      4.427452710080594     15.000000000000000
Cu      1.278095506994685      0.737908785013432     17.087121223120498
Cu      3.834286520984055      0.737908785013432     17.087121223120498
Cu      6.390477534973424      0.737908785013432     17.087121223120498
Cu      2.556191013989370      2.951635140053729     17.087121223120498
Cu      5.112382027978740      2.951635140053729     17.087121223120498
Cu      7.668573041968109      2.951635140053729     17.087121223120498
Cu      3.834286520984055      5.165361495094027     17.087121223120498
Cu      6.390477534973424      5.165361495094027     17.087121223120498
Cu      8.946668548962794      5.165361495094027     17.087121223120498
Cu     -0.000000000000000      1.475817570026865     19.174242446240996
Cu      2.556191013989370      1.475817570026865     19.174242446240996
Cu      5.112382027978740      1.475817570026865     19.174242446240996
Cu      1.278095506994685      3.689543925067162     19.174242446240996
Cu      3.834286520984055      3.689543925067162     19.174242446240996
Cu      6.390477534973424      3.689543925067162     19.174242446240996
Cu      2.556191013989370      5.903270280107458     19.174242446240996
Cu      5.112382027978740      5.903270280107458     19.174242446240996
Cu      7.668573041968109      5.903270280107458     19.174242446240996
Cu      0.000000000000000      0.000000000000000     21.261363669361494
Cu      2.556191013989370      0.000000000000000     21.261363669361494
Cu      5.112382027978740      0.000000000000000     21.261363669361494
Cu      1.278095506994685      2.213726355040297     21.261363669361494
Cu      3.834286520984055      2.213726355040297     21.261363669361494
Cu      6.390477534973424      2.213726355040297     21.261363669361494
Cu      2.556191013989370      4.427452710080594     21.261363669361494
Cu      5.112382027978740      4.427452710080594     21.261363669361494
Cu      7.668573041968109      4.427452710080594     21.261363669361494
