      40
 i =        1, E =     -1284.5000454312
 Au        15.0739192834       14.8543829379       16.4469519035
 Au        17.2665120014       11.3882397780       14.3524059601
 Au        14.4317004452       12.0753212320       17.3824814659
 Au        18.0355361622       15.3111497011       17.1390813754
 Au        12.4414562108       14.0124623588       17.3184736017
 Au        11.2587925179       14.8422617270       14.9981297436
 Au        12.9449582487       18.1448374511       13.3380198968
 Au        15.3218698589       18.8342224325       14.5422292269
 Au        14.8760932451       16.0040081880       13.9280953275
 Au        14.2458435667       13.8683216483       19.4135025615
 Au        14.8931592040       12.3236646299       13.1616611499
 Au        12.8417570990       14.1575414942       12.8016381907
 Au        15.1783197366       14.2877486604       11.2901807123
 Au        16.8246685493       14.2107792914       14.4301229465
 Au        12.8413993020       12.5273824662       15.0125828164
 Au        14.7139837104       10.4586187757       15.2103592247
 Au        17.6820285190       16.8721309708       14.9084323533
 Au        19.6102088439       14.7378626233       14.7875667438
 Au        15.9830805636       17.5621242248       17.0411938038
 Au        18.9831205673       16.2186635603       12.5713131031
 Au        13.2983918274       17.9246279040       16.1883162992
 Au        16.8637848281       10.6900212083       17.0537736553
 Au        10.9603876407       16.2510875555       12.5772205844
 Au        15.2997996441       18.0873680554       11.8258545145
 Au        11.2198257692       16.4421615677       17.3841859858
 Au        10.7199614828       17.6623066090       14.9863315104
 Au        16.8639173136       13.1208094636       18.4389992698
 Au        15.5431683977       16.4434595735        9.5378637896
 Au        18.7205105319       12.6784366181       16.3391124661
 Au        16.4377038500       15.8370213579       19.2448775936
 Au        17.7688858825       14.9545359834       10.4448922518
 Au        14.4689354746       15.8961038062       21.2028879799
 Au        13.7444285197       16.6439619696       18.5712781554
 Au        13.2312233641       16.3230921050       11.0478416863
 Au        17.5256707199       12.8325341643       12.0623927405
 Au        17.7991139089       17.7752520202       10.5043964764
 Au        17.7529401604       18.8757722687       12.9990642479
 Au        17.6484699466       19.5379886614       15.7919652559
  C        11.7942545104       20.1130395191       12.6893691411
  O        11.2398095046       21.0653055707       12.3915212323
      40
 i =        2, E =     -1284.5096867784
 Au        15.0416122902       14.8429629704       16.4322484933
 Au        17.2896393693       11.3516626932       14.3638455025
 Au        14.4398304629       12.0585679995       17.3821250242
 Au        18.0713773956       15.3192368142       17.1615073594
 Au        12.4271536411       14.0128679491       17.3475316482
 Au        11.2505522330       14.8607134498       15.0060417804
 Au        12.8756819322       18.2882072736       13.2786706499
 Au        15.3272803454       18.8595333649       14.5503949165
 Au        14.8109814929       16.0410432040       13.9095367860
 Au        14.2437261191       13.8485022356       19.4647683982
 Au        14.9030769475       12.3048822824       13.1584700185
 Au        12.8283566617       14.1612429682       12.7877339536
 Au        15.1930887696       14.2999023274       11.2720412007
 Au        16.8224371665       14.1890010917       14.4202287079
 Au        12.8157996005       12.5005843627       15.0196108523
 Au        14.7122454215       10.4088412527       15.1982486186
 Au        17.6780885751       16.8767547248       14.8902325737
 Au        19.6372239263       14.7188380805       14.7782143091
 Au        15.9853672897       17.5676517960       17.0583128145
 Au        18.9898117722       16.2201559593       12.5524150767
 Au        13.2718705175       17.9203071171       16.1816764544
 Au        16.8760119841       10.6537183644       17.0637150269
 Au        10.9240637747       16.2464476009       12.5709051709
 Au        15.3171369607       18.0736165338       11.8171649028
 Au        11.1867528118       16.4557326812       17.4112296319
 Au        10.6887840875       17.6674537083       14.9875018856
 Au        16.8724957788       13.1179019749       18.4516391749
 Au        15.5530460214       16.4573057283        9.4952657594
 Au        18.7390497061       12.6637048033       16.3506207391
 Au        16.4579233812       15.8472285822       19.2873731567
 Au        17.7804312332       14.9568782357       10.4162423975
 Au        14.4629698679       15.9128026463       21.2237196488
 Au        13.7447394515       16.6567799955       18.6111968466
 Au        13.2032492154       16.3338543226       11.0121280316
 Au        17.5655487389       12.8169640850       12.0619556636
 Au        17.8127221364       17.7954860791       10.4751388330
 Au        17.7803671681       18.9119073962       12.9966691167
 Au        17.6707621295       19.5550041009       15.8142373720
  C        11.8325504694       20.0551287771       12.6768100931
  O        11.2665600764       21.0190911552       12.4155342514
      40
 i =        3, E =     -1284.5102048316
 Au        15.0215292674       14.8429332440       16.4073275142
 Au        17.2977886478       11.3356520680       14.3680510085
 Au        14.4487156282       12.0592846648       17.3801649720
 Au        18.0844408225       15.3253367618       17.1727158342
 Au        12.4291711184       14.0137124230       17.3649160279
 Au        11.2608929687       14.8711186905       15.0209835826
 Au        12.8384511716       18.4175499005       13.2324009483
 Au        15.3195702460       18.8529009753       14.5517336662
 Au        14.7693867764       16.0671257416       13.9080680722
 Au        14.2500397461       13.8345607706       19.4844733541
 Au        14.9109033677       12.3083126033       13.1615272918
 Au        12.8329347246       14.1594935580       12.7862970552
 Au        15.2016513860       14.3105551823       11.2752903694
 Au        16.7974834209       14.2046213303       14.4119937489
 Au        12.8076411692       12.4920959202       15.0199614155
 Au        14.7144267084       10.3917723768       15.1964000969
 Au        17.6665746848       16.8685266950       14.8843769820
 Au        19.6290228346       14.7067877584       14.7694970155
 Au        15.9816905428       17.5582449630       17.0605872424
 Au        18.9868879482       16.2208138683       12.5433356882
 Au        13.2624966095       17.9014210595       16.1662325568
 Au        16.8811444368       10.6403482720       17.0686899097
 Au        10.9227202192       16.2497173839       12.5740408205
 Au        15.3226985906       18.0489727439       11.8272087649
 Au        11.1780892913       16.4647830092       17.4257626519
 Au        10.6754802552       17.6591265102       14.9884329045
 Au        16.8723291909       13.1208685012       18.4471418135
 Au        15.5594280734       16.4681932644        9.4790395823
 Au        18.7418811236       12.6587670823       16.3615746067
 Au        16.4696030593       15.8430565908       19.3025546998
 Au        17.7826959456       14.9560758643       10.4029555983
 Au        14.4608403998       15.9221609519       21.2357706155
 Au        13.7424709228       16.6643926301       18.6208996091
 Au        13.1913631231       16.3431976803       10.9993003224
 Au        17.5886476357       12.8181267425       12.0697393670
 Au        17.8176848194       17.8085264376       10.4683985760
 Au        17.7941050846       18.9270912182       12.9924695315
 Au        17.6759117054       19.5461611785       15.8191571766
  C        11.8655353973       19.9942817151       12.6586226516
  O        11.2951801206       20.9729434309       12.4439059235
      40
 i =        4, E =     -1284.5135529122
 Au        15.0229640604       14.8470623057       16.4090978844
 Au        17.2902243141       11.3469656142       14.3673764162
 Au        14.4494030116       12.0668042955       17.3790789883
 Au        18.0751389278       15.3232845647       17.1677963387
 Au        12.4368994062       14.0148045626       17.3603993833
 Au        11.2694436877       14.8690167326       15.0225421811
 Au        12.8791966283       18.3566220788       13.2590732689
 Au        15.3190418401       18.8400503885       14.5496564833
 Au        14.7755336206       16.0651793240       13.9121746989
 Au        14.2549457110       13.8410766440       19.4721522982
 Au        14.9127756304       12.3160728056       13.1652664716
 Au        12.8386049393       14.1605602051       12.7909172327
 Au        15.2005427718       14.3120876756       11.2834892099
 Au        16.7933976973       14.2151173125       14.4086711764
 Au        12.8155058273       12.4997126003       15.0193279226
 Au        14.7177302689       10.4076567389       15.2008776175
 Au        17.6645114030       16.8662014686       14.8871641950
 Au        19.6108640265       14.7086615434       14.7698677667
 Au        15.9794462426       17.5516008961       17.0552735810
 Au        18.9811483743       16.2211232146       12.5471020055
 Au        13.2670023007       17.8937558450       16.1607022231
 Au        16.8777633486       10.6517911485       17.0647014888
 Au        10.9416876586       16.2537671354       12.5819176903
 Au        15.3201462205       18.0429084878       11.8331339461
 Au        11.1897767329       16.4622390393       17.4196093704
 Au        10.6874763552       17.6522873038       14.9857935006
 Au        16.8680441489       13.1237065172       18.4389943293
 Au        15.5593049636       16.4664705407        9.4938790319
 Au        18.7334812214       12.6628550995       16.3600747333
 Au        16.4617038210       15.8364440221       19.2915772688
 Au        17.7771258532       14.9574369665       10.4098430693
 Au        14.4634561186       15.9168914935       21.2260962923
 Au        13.7432616961       16.6595220627       18.6098915550
 Au        13.1998254139       16.3413414951       11.0100629523
 Au        17.5804635077       12.8269523514       12.0749694581
 Au        17.8121015661       17.8026917438       10.4787424787
 Au        17.7866270513       18.9158478106       12.9940843354
 Au        17.6663343043       19.5327140660       15.8095818533
  C        11.8443941333       20.0202124741       12.6466045531
  O        11.2826339967       21.0008508341       12.4350798443
      40
 i =        5, E =     -1284.5139221846
 Au        15.0229640604       14.8470623057       16.4090978844
 Au        17.2902243141       11.3469656142       14.3673764162
 Au        14.4494030116       12.0668042955       17.3790789883
 Au        18.0751389278       15.3232845647       17.1677963387
 Au        12.4368994062       14.0148045626       17.3603993833
 Au        11.2694436877       14.8690167326       15.0225421811
 Au        12.8791966283       18.3566220788       13.2590732689
 Au        15.3190418401       18.8400503885       14.5496564833
 Au        14.7755336206       16.0651793240       13.9121746989
 Au        14.2549457110       13.8410766440       19.4721522982
 Au        14.9127756304       12.3160728056       13.1652664716
 Au        12.8386049393       14.1605602051       12.7909172327
 Au        15.2005427718       14.3120876756       11.2834892099
 Au        16.7933976973       14.2151173125       14.4086711764
 Au        12.8155058273       12.4997126003       15.0193279226
 Au        14.7177302689       10.4076567389       15.2008776175
 Au        17.6645114030       16.8662014686       14.8871641950
 Au        19.6108640265       14.7086615434       14.7698677667
 Au        15.9794462426       17.5516008961       17.0552735810
 Au        18.9811483743       16.2211232146       12.5471020055
 Au        13.2670023007       17.8937558450       16.1607022231
 Au        16.8777633486       10.6517911485       17.0647014888
 Au        10.9416876586       16.2537671354       12.5819176903
 Au        15.3201462205       18.0429084878       11.8331339461
 Au        11.1897767329       16.4622390393       17.4196093704
 Au        10.6874763552       17.6522873038       14.9857935006
 Au        16.8680441489       13.1237065172       18.4389943293
 Au        15.5593049636       16.4664705407        9.4938790319
 Au        18.7334812214       12.6628550995       16.3600747333
 Au        16.4617038210       15.8364440221       19.2915772688
 Au        17.7771258532       14.9574369665       10.4098430693
 Au        14.4634561186       15.9168914935       21.2260962923
 Au        13.7432616961       16.6595220627       18.6098915550
 Au        13.1998254139       16.3413414951       11.0100629523
 Au        17.5804635077       12.8269523514       12.0749694581
 Au        17.8121015661       17.8026917438       10.4787424787
 Au        17.7866270513       18.9158478106       12.9940843354
 Au        17.6663343043       19.5327140660       15.8095818533
  C        11.8443941333       20.0202124741       12.6466045531
  O        11.2826339967       21.0008508341       12.4350798443
