     168
 i =        1, E =     -8144.3362298109
 Fe         5.0938794100       11.8196869300        0.3885799900
 Fe         7.6575796300        7.3792284900        0.3885799900
 Fe        10.2212798400        2.9387700600        0.3885799900
 Fe        -0.0335205200       11.8196869300        0.3885799900
 Fe         2.5301797000        7.3792284900        0.3885799900
 Fe         5.0938799200        2.9387700600        0.3885799900
 Fe        -5.1609204400       11.8196869300        0.3885799900
 Fe        -2.5972202200        7.3792284900        0.3885799900
 Fe        -0.0335200000        2.9387700600        0.3885799900
  O         8.4519195100        8.9577468800        1.1642700400
  O        11.0156197300        4.5172884400        1.1642700400
  O        13.5793199500        0.0768300000        1.1642700400
  O         3.3245195900        8.9577468800        1.1642700400
  O         5.8882198100        4.5172884400        1.1642700400
  O         8.4519200300        0.0768300000        1.1642700400
  O        -1.8028803300        8.9577468800        1.1642700400
  O         0.7608198900        4.5172884400        1.1642700400
  O         3.3245201100        0.0768300000        1.1642700400
  O         8.4568493000       11.7183869300        1.1650400200
  O        11.0205495200        7.2779284900        1.1650400200
  O        13.5842497300        2.8374700500        1.1650400200
  O         3.3294493700       11.7183869300        1.1650400200
  O         5.8931495900        7.2779284900        1.1650400200
  O         8.4568498100        2.8374700500        1.1650400200
  O        -1.7979505500       11.7183869300        1.1650400200
  O         0.7657496700        7.2779284900        1.1650400200
  O         3.3294498900        2.8374700500        1.1650400200
  O         6.0627194200       10.3425368500        1.1660399400
  O         8.6264196400        5.9020784100        1.1660399400
  O        11.1901198600        1.4616199700        1.1660399400
  O         0.9353195000       10.3425368500        1.1660399400
  O         3.4990197200        5.9020784100        1.1660399400
  O         6.0627199400        1.4616199700        1.1660399400
  O        -4.1920804200       10.3425368500        1.1660399400
  O        -1.6283802000        5.9020784100        1.1660399400
  O         0.9353200200        1.4616199700        1.1660399400
 Fe         7.6576695000       13.2997167500        1.9292099500
 Fe        10.2213697200        8.8592583200        1.9292099500
 Fe        12.7850699400        4.4187998800        1.9292099500
 Fe         2.5302695800       13.2997167500        1.9292099500
 Fe         5.0939698000        8.8592583200        1.9292099500
 Fe         7.6576700200        4.4187998800        1.9292099500
 Fe        -2.5971303400       13.2997167500        1.9292099500
 Fe        -0.0334301200        8.8592583200        1.9292099500
 Fe         2.5302701000        4.4187998800        1.9292099500
 Fe         7.6573893600       10.3392168700        2.7128999200
 Fe        10.2210895800        5.8987584300        2.7128999200
 Fe        12.7847898000        1.4582999900        2.7128999200
 Fe         2.5299894400       10.3392168700        2.7128999200
 Fe         5.0936896600        5.8987584300        2.7128999200
 Fe         7.6573898800        1.4582999900        2.7128999200
 Fe        -2.5974104800       10.3392168700        2.7128999200
 Fe        -0.0337102600        5.8987584300        2.7128999200
 Fe         2.5299899600        1.4582999900        2.7128999200
  O         4.0943587269       13.3163646515        3.5139717959
  O         6.6561486972        8.8765523707        3.5107585319
  O         9.2223822812        4.4374099284        3.5146936926
  O        -1.0330246756       13.3161427062        3.5153342363
  O         1.5327724943        8.8727985506        3.5137643755
  O         4.0916819678        4.4350547494        3.5101765051
  O        -6.1622027884       13.3153150247        3.5121876103
  O        -3.5982479390        8.8745600954        3.5124626228
  O        -1.0351426031        4.4336817244        3.5123166387
  O         6.8118980223       11.8720976652        3.4950076537
  O         9.3786369589        7.4290875524        3.4950597069
  O        11.9394905988        2.9908505777        3.4958162436
  O         1.6834110305       11.8728190270        3.4945711347
  O         4.2478909255        7.4323674764        3.4924516100
  O         6.8116619247        2.9877796117        3.4958166235
  O        -3.4426765069       11.8702735415        3.4957981224
  O        -0.8792333202        7.4318236601        3.4943090261
  O         1.6891314618        2.9880924814        3.4992251846
  O         9.4279451982       10.2246884552        3.4869248924
  O        11.9914719571        5.7832041722        3.4869652247
  O        14.5548686434        1.3438634305        3.4878182096
  O         4.2949154928       10.2240840020        3.4902414867
  O         6.8641278289        5.7851288055        3.4850608790
  O         9.4265727082        1.3436599891        3.4897034810
  O        -0.8278237287       10.2231816292        3.4865111535
  O         1.7366220890        5.7834240209        3.4854163461
  O         4.3006209952        1.3444392133        3.4876058587
 Fe         5.0353849223       11.8340747800        4.4200630931
 Fe         7.6044575550        7.3977079678        4.4135067308
 Fe        10.1632470643        2.9562263130        4.4177709039
 Fe        -0.0934395219       11.8322781114        4.4181123456
 Fe         2.4730131011        7.3938974574        4.4219756264
 Fe         5.0331781122        2.9570334920        4.4174876346
 Fe        -5.2193053979       11.8363645360        4.4205053153
 Fe        -2.6545224938        7.3954841360        4.4196673989
 Fe        -0.0893690719        2.9555452199        4.4197709985
 Fe         7.6086757427       13.1849348040        4.8073018872
 Fe        10.1706750397        8.7446370027        4.8050741175
 Fe        12.7360103738        4.3047707816        4.8074085396
 Fe         2.4850834378       13.1845359943        4.8037373539
 Fe         5.0415934594        8.7511946684        4.8025188929
 Fe         7.6098844060        4.3069238406        4.7960403756
 Fe        -2.6478346810       13.1841068054        4.8049180912
 Fe        -0.0817053783        8.7451834518        4.8064851109
 Fe         2.4804299987        4.3022982720        4.8055897243
  O         5.8551589229       10.3487727363        5.8699147766
  O         8.4200762311        5.8985734202        5.8757488797
  O        10.9823797758        1.4660707446        5.8707557174
  O         0.7282455996       10.3485600557        5.8703092804
  O         3.2576214970        5.9076969621        5.8512996108
  O         5.8532226728        1.4636843201        5.8730327932
  O        -4.4001607058       10.3438641569        5.8705881810
  O        -1.8355645237        5.9056347425        5.8707773838
  O         0.7271771645        1.4650877335        5.8705462403
  O         5.9239232558       13.1738214218        5.6841488818
  O         8.4892570387        8.7334130791        5.6862358612
  O        11.0507634896        4.2920372651        5.6867339008
  O         0.8020458806       13.1663268332        5.6828481386
  O         3.3605890189        8.7352867007        5.6840179073
  O         5.9414429280        4.2677299840        5.6859532772
  O        -4.3290274434       13.1747854201        5.6860991405
  O        -1.7658290003        8.7340676086        5.6856122452
  O         0.7976307830        4.2932431192        5.6839743680
  O         3.4656707000       11.7746816981        5.6687231306
  O         6.0491490262        7.3629287821        5.6530302167
  O         8.5947402424        2.9017496356        5.6741831574
  O        -1.6600501551       11.7757274407        5.6697572992
  O         0.9011624359        7.3341732575        5.6675711599
  O         3.4675009285        2.8915160130        5.6669094882
  O        -6.7879382122       11.7733184758        5.6679010961
  O        -4.2236257732        7.3350949044        5.6674744514
  O        -1.6602033131        2.8929355732        5.6668839012
 Fe         7.7810561355       10.2713489372        6.4333415137
 Fe        10.3495870825        5.8333482219        6.4315419422
 Fe        12.9115516941        1.3906727045        6.4330334481
 Fe         2.6553795479       10.2707491930        6.4343704968
 Fe         5.1930059964        5.8420140330        6.3129052870
 Fe         7.7828061872        1.3848176077        6.4016893859
 Fe        -2.4730252496       10.2719754377        6.4330035874
 Fe         0.0925506105        5.8306604806        6.4337437355
 Fe         2.6535424388        1.3914440900        6.4327787415
  O         7.8402440045       10.3818540762        8.2615168569
  H         7.8854955553        9.5558243648        8.7762866589
  H         5.3490887729       10.6124739012        6.6710765126
  O        10.3973143179        5.9395624662        8.2624799725
  H        10.4597013202        5.1148842340        8.7762713336
  H         7.9100399210        6.1863805412        6.6662544548
  O        12.9636359033        1.5011339330        8.2621473786
  H        13.0151661617        0.6750231125        8.7762569256
  H        10.4774470539        1.7323549217        6.6712616621
  O         2.7100422699       10.3827434497        8.2621957671
  H         2.7608485310        9.5559535888        8.7758512714
  H         0.2212111491       10.6117488766        6.6710734135
  O         5.2263344835        6.0035362226        8.1098196527
  H         5.2830345284        5.2494556995        8.7957675199
  H         2.7884204811        6.1718259053        6.6740828284
  O         7.8610412822        1.4397800059        8.2408148282
  H         7.8904999524        0.6378634445        8.7920557531
  H         5.3419268746        1.7317345088        6.6691393566
  O        -2.4156649772       10.3821408496        8.2618486485
  H        -2.3674271373        9.5561250388        8.7764440471
  H        -4.9062952845       10.6125131401        6.6702373367
  O         0.1443330506        5.9410829916        8.2610943890
  H         0.1988411528        5.1165766526        8.7775644379
  H        -2.3419423752        6.1735951181        6.6703529497
  O         2.7146285542        1.4996171289        8.2604848064
  H         2.7577962202        0.6750970999        8.7776030788
  H         0.2217114934        1.7322518058        6.6709892871
  C         7.2900110963        4.0093909132        8.9908845812
  C         6.2262851810        4.5800183457        9.7903684799
  H         7.1397468570        2.9175218545        8.9013055103
  H         7.3562170186        4.3854765881        7.9602956970
  H         8.2541698702        4.1550637263        9.4928077654
  N         5.3522808011        4.9939153898       10.4556284839
     168
 i =        2, E =     -8144.3498431474
 Fe         5.0938794100       11.8196869300        0.3885799900
 Fe         7.6575796300        7.3792284900        0.3885799900
 Fe        10.2212798400        2.9387700600        0.3885799900
 Fe        -0.0335205200       11.8196869300        0.3885799900
 Fe         2.5301797000        7.3792284900        0.3885799900
 Fe         5.0938799200        2.9387700600        0.3885799900
 Fe        -5.1609204400       11.8196869300        0.3885799900
 Fe        -2.5972202200        7.3792284900        0.3885799900
 Fe        -0.0335200000        2.9387700600        0.3885799900
  O         8.4519195100        8.9577468800        1.1642700400
  O        11.0156197300        4.5172884400        1.1642700400
  O        13.5793199500        0.0768300000        1.1642700400
  O         3.3245195900        8.9577468800        1.1642700400
  O         5.8882198100        4.5172884400        1.1642700400
  O         8.4519200300        0.0768300000        1.1642700400
  O        -1.8028803300        8.9577468800        1.1642700400
  O         0.7608198900        4.5172884400        1.1642700400
  O         3.3245201100        0.0768300000        1.1642700400
  O         8.4568493000       11.7183869300        1.1650400200
  O        11.0205495200        7.2779284900        1.1650400200
  O        13.5842497300        2.8374700500        1.1650400200
  O         3.3294493700       11.7183869300        1.1650400200
  O         5.8931495900        7.2779284900        1.1650400200
  O         8.4568498100        2.8374700500        1.1650400200
  O        -1.7979505500       11.7183869300        1.1650400200
  O         0.7657496700        7.2779284900        1.1650400200
  O         3.3294498900        2.8374700500        1.1650400200
  O         6.0627194200       10.3425368500        1.1660399400
  O         8.6264196400        5.9020784100        1.1660399400
  O        11.1901198600        1.4616199700        1.1660399400
  O         0.9353195000       10.3425368500        1.1660399400
  O         3.4990197200        5.9020784100        1.1660399400
  O         6.0627199400        1.4616199700        1.1660399400
  O        -4.1920804200       10.3425368500        1.1660399400
  O        -1.6283802000        5.9020784100        1.1660399400
  O         0.9353200200        1.4616199700        1.1660399400
 Fe         7.6576695000       13.2997167500        1.9292099500
 Fe        10.2213697200        8.8592583200        1.9292099500
 Fe        12.7850699400        4.4187998800        1.9292099500
 Fe         2.5302695800       13.2997167500        1.9292099500
 Fe         5.0939698000        8.8592583200        1.9292099500
 Fe         7.6576700200        4.4187998800        1.9292099500
 Fe        -2.5971303400       13.2997167500        1.9292099500
 Fe        -0.0334301200        8.8592583200        1.9292099500
 Fe         2.5302701000        4.4187998800        1.9292099500
 Fe         7.6573893600       10.3392168700        2.7128999200
 Fe        10.2210895800        5.8987584300        2.7128999200
 Fe        12.7847898000        1.4582999900        2.7128999200
 Fe         2.5299894400       10.3392168700        2.7128999200
 Fe         5.0936896600        5.8987584300        2.7128999200
 Fe         7.6573898800        1.4582999900        2.7128999200
 Fe        -2.5974104800       10.3392168700        2.7128999200
 Fe        -0.0337102600        5.8987584300        2.7128999200
 Fe         2.5299899600        1.4582999900        2.7128999200
  O         4.0900986033       13.3145968442        3.5067975272
  O         6.6571688556        8.8795132296        3.5049086469
  O         9.2253441653        4.4342544217        3.5169983969
  O        -1.0367805525       13.3128739859        3.5079907173
  O         1.5238283041        8.8765416087        3.5050271961
  O         4.0982207775        4.4372046486        3.5234326585
  O        -6.1641586854       13.3141092307        3.5083408589
  O        -3.5977784232        8.8747908714        3.5109105941
  O        -1.0363174719        4.4330298304        3.5091116276
  O         6.8115045980       11.8750181190        3.4900540225
  O         9.3795868909        7.4312503281        3.4936724764
  O        11.9377869625        2.9924838865        3.4930734237
  O         1.6837448428       11.8774380779        3.4873273452
  O         4.2482917622        7.4265101350        3.5030593498
  O         6.8154728539        2.9875579262        3.4971324481
  O        -3.4416494930       11.8763822169        3.4877373316
  O        -0.8796790387        7.4354712118        3.4880121938
  O         1.6844594663        2.9865372644        3.4964925603
  O         9.4290262308       10.2230507348        3.4853628138
  O        11.9922344973        5.7823477972        3.4863197848
  O        14.5572770896        1.3423412096        3.4821638977
  O         4.2957133335       10.2291184402        3.4901791590
  O         6.8616778892        5.7852455192        3.4959991326
  O         9.4292224135        1.3444195293        3.4874324291
  O        -0.8248297424       10.2224798227        3.4812781170
  O         1.7353800995        5.7819748814        3.4818788494
  O         4.3055126474        1.3371814657        3.4757474430
 Fe         5.0369730097       11.8382431578        4.4203923528
 Fe         7.6081449185        7.4071025574        4.4143835627
 Fe        10.1662977186        2.9546734671        4.4228252394
 Fe        -0.0933244370       11.8302287155        4.4151411040
 Fe         2.4622362676        7.3987985134        4.4161638283
 Fe         5.0338139114        2.9449193024        4.4167695690
 Fe        -5.2190002475       11.8363853682        4.4179281126
 Fe        -2.6532278333        7.3961879468        4.4185535293
 Fe        -0.0929485479        2.9540169468        4.4193078622
 Fe         7.6086875200       13.1848310834        4.8053918294
 Fe        10.1753409193        8.7459369574        4.8053284195
 Fe        12.7378965946        4.3043167554        4.8057692474
 Fe         2.4881919365       13.1826720976        4.8007505692
 Fe         5.0441743664        8.7589362531        4.8026348185
 Fe         7.6148157497        4.3038574793        4.8016012793
 Fe        -2.6490327881       13.1833268834        4.8019475650
 Fe        -0.0823502911        8.7451457728        4.8041305148
 Fe         2.4720323350        4.2997232366        4.8060739304
  O         5.8555109052       10.3553604804        5.8692150056
  O         8.4193093349        5.9000085622        5.8775179802
  O        10.9818761962        1.4660034957        5.8695632756
  O         0.7277142486       10.3476387166        5.8697372848
  O         3.2494469788        5.9148482254        5.8318991686
  O         5.8540741118        1.4589626389        5.8738716075
  O        -4.3989901271       10.3463812237        5.8708330677
  O        -1.8366909220        5.9058309505        5.8695675342
  O         0.7272568566        1.4648133155        5.8708346266
  O         5.9255300004       13.1756633221        5.6852528727
  O         8.4972136931        8.7362135997        5.6877862481
  O        11.0531584490        4.2948271022        5.6881147369
  O         0.8028219830       13.1657145936        5.6745401459
  O         3.3603507706        8.7329895924        5.6805206880
  O         5.9407059894        4.2606232872        5.6734607087
  O        -4.3294751040       13.1738229097        5.6850925931
  O        -1.7656523012        8.7346197391        5.6843685792
  O         0.7902527865        4.2898350794        5.6844839605
  O         3.4663284683       11.7741861942        5.6687300479
  O         6.0503176451        7.3609911302        5.6297212381
  O         8.5949543050        2.8936162577        5.6826202059
  O        -1.6602249794       11.7759282174        5.6680616690
  O         0.8958934679        7.3363719599        5.6684964308
  O         3.4679890987        2.8930756791        5.6661961997
  O        -6.7877985530       11.7729379870        5.6668332996
  O        -4.2229840992        7.3325282987        5.6680786727
  O        -1.6618789533        2.8926722212        5.6682346413
 Fe         7.7805841585       10.2705531193        6.4336528289
 Fe        10.3473330521        5.8337440891        6.4331303516
 Fe        12.9100851676        1.3905162592        6.4333929413
 Fe         2.6562266428       10.2684217936        6.4342275322
 Fe         5.1888508507        5.8413814461        6.2827626434
 Fe         7.7788198924        1.3736249121        6.3929356469
 Fe        -2.4720808912       10.2718214798        6.4334904436
 Fe         0.0921938424        5.8306168117        6.4343571863
 Fe         2.6547909924        1.3918274409        6.4331217553
  O         7.8425915958       10.3821500525        8.2609231058
  H         7.8831002776        9.5564912920        8.7767540565
  H         5.3488823275       10.6116896567        6.6724413802
  O        10.3899105589        5.9385686616        8.2653440642
  H        10.4715817530        5.1137789578        8.7760213200
  H         7.9042181636        6.1982305196        6.6610645774
  O        12.9607417447        1.5012142327        8.2620851720
  H        13.0159470318        0.6754696941        8.7762089590
  H        10.4783499541        1.7310850188        6.6713278201
  O         2.7075275092       10.3827465549        8.2616534860
  H         2.7629705047        9.5565431568        8.7760055585
  H         0.2215657069       10.6114384469        6.6711127733
  O         5.1832295717        6.0749204206        8.0573105884
  H         5.2302665035        5.3674393084        8.7903812700
  H         2.8001403909        6.1668147489        6.6736866683
  O         7.8791673366        1.3942250071        8.2342351047
  H         7.8959088641        0.5964608868        8.7870343255
  H         5.3398696513        1.7320217979        6.6665678113
  O        -2.4154567585       10.3824611247        8.2619120878
  H        -2.3670049883        9.5567219579        8.7766612301
  H        -4.9069410527       10.6118837453        6.6704537361
  O         0.1386963650        5.9406716581        8.2605270761
  H         0.2025966934        5.1182062525        8.7793027022
  H        -2.3399468402        6.1740594842        6.6710239896
  O         2.7165910610        1.4981247496        8.2596854413
  H         2.7570675190        0.6749515237        8.7789485518
  H         0.2219267061        1.7326174265        6.6714048846
  C         7.3095386379        4.0020157070        9.0236244157
  C         6.2453728927        4.5536895281        9.8213207049
  H         7.1563776134        2.9124209289        8.9160112029
  H         7.3217179194        4.4123161677        8.0028438024
  H         8.2798297669        4.1659589785        9.5018600513
  N         5.3878462423        4.9064980286       10.5524635931
     168
 i =        3, E =     -8144.3520765590
 Fe         5.0938794100       11.8196869300        0.3885799900
 Fe         7.6575796300        7.3792284900        0.3885799900
 Fe        10.2212798400        2.9387700600        0.3885799900
 Fe        -0.0335205200       11.8196869300        0.3885799900
 Fe         2.5301797000        7.3792284900        0.3885799900
 Fe         5.0938799200        2.9387700600        0.3885799900
 Fe        -5.1609204400       11.8196869300        0.3885799900
 Fe        -2.5972202200        7.3792284900        0.3885799900
 Fe        -0.0335200000        2.9387700600        0.3885799900
  O         8.4519195100        8.9577468800        1.1642700400
  O        11.0156197300        4.5172884400        1.1642700400
  O        13.5793199500        0.0768300000        1.1642700400
  O         3.3245195900        8.9577468800        1.1642700400
  O         5.8882198100        4.5172884400        1.1642700400
  O         8.4519200300        0.0768300000        1.1642700400
  O        -1.8028803300        8.9577468800        1.1642700400
  O         0.7608198900        4.5172884400        1.1642700400
  O         3.3245201100        0.0768300000        1.1642700400
  O         8.4568493000       11.7183869300        1.1650400200
  O        11.0205495200        7.2779284900        1.1650400200
  O        13.5842497300        2.8374700500        1.1650400200
  O         3.3294493700       11.7183869300        1.1650400200
  O         5.8931495900        7.2779284900        1.1650400200
  O         8.4568498100        2.8374700500        1.1650400200
  O        -1.7979505500       11.7183869300        1.1650400200
  O         0.7657496700        7.2779284900        1.1650400200
  O         3.3294498900        2.8374700500        1.1650400200
  O         6.0627194200       10.3425368500        1.1660399400
  O         8.6264196400        5.9020784100        1.1660399400
  O        11.1901198600        1.4616199700        1.1660399400
  O         0.9353195000       10.3425368500        1.1660399400
  O         3.4990197200        5.9020784100        1.1660399400
  O         6.0627199400        1.4616199700        1.1660399400
  O        -4.1920804200       10.3425368500        1.1660399400
  O        -1.6283802000        5.9020784100        1.1660399400
  O         0.9353200200        1.4616199700        1.1660399400
 Fe         7.6576695000       13.2997167500        1.9292099500
 Fe        10.2213697200        8.8592583200        1.9292099500
 Fe        12.7850699400        4.4187998800        1.9292099500
 Fe         2.5302695800       13.2997167500        1.9292099500
 Fe         5.0939698000        8.8592583200        1.9292099500
 Fe         7.6576700200        4.4187998800        1.9292099500
 Fe        -2.5971303400       13.2997167500        1.9292099500
 Fe        -0.0334301200        8.8592583200        1.9292099500
 Fe         2.5302701000        4.4187998800        1.9292099500
 Fe         7.6573893600       10.3392168700        2.7128999200
 Fe        10.2210895800        5.8987584300        2.7128999200
 Fe        12.7847898000        1.4582999900        2.7128999200
 Fe         2.5299894400       10.3392168700        2.7128999200
 Fe         5.0936896600        5.8987584300        2.7128999200
 Fe         7.6573898800        1.4582999900        2.7128999200
 Fe        -2.5974104800       10.3392168700        2.7128999200
 Fe        -0.0337102600        5.8987584300        2.7128999200
 Fe         2.5299899600        1.4582999900        2.7128999200
  O         4.0975820629       13.3197918860        3.5223418382
  O         6.6565331967        8.8857169282        3.4895261782
  O         9.2260350296        4.4288494470        3.5160660562
  O        -1.0066027876       13.3247826900        3.5608507613
  O         1.5343123559        8.8950625635        3.5376284946
  O         4.1063644010        4.4417891180        3.5422117617
  O        -6.1560704920       13.3178112807        3.5219770482
  O        -3.5943002638        8.8775796614        3.5134865970
  O        -1.0352200819        4.4346280083        3.5108422925
  O         6.8099611511       11.8679171168        3.5004411408
  O         9.3812636424        7.4333567191        3.4963359211
  O        11.9347452062        2.9916289032        3.4948388348
  O         1.6849392804       11.8694205782        3.4979485668
  O         4.2491161031        7.4183638685        3.5176537736
  O         6.8244461270        2.9908034051        3.4930629652
  O        -3.4433211051       11.8465453056        3.5349770535
  O        -0.8817691720        7.4133891840        3.5219378909
  O         1.6763995460        2.9869486597        3.4867002686
  O         9.4271647890       10.2197382524        3.4880023937
  O        11.9902652225        5.7832475332        3.4912979583
  O        14.5501433127        1.3454816435        3.4931459170
  O         4.2998878150       10.2362167505        3.4848446899
  O         6.8605044343        5.7831904753        3.5107804122
  O         9.4205570338        1.3550309576        3.5097443941
  O        -0.8434782198       10.2339234866        3.5150042400
  O         1.7345949465        5.7765380750        3.4697067409
  O         4.2819437365        1.3449072156        3.5184843663
 Fe         5.0394373934       11.8376384818        4.4290468695
 Fe         7.6122371289        7.4257525499        4.4149204654
 Fe        10.1721982785        2.9601690266        4.4358382225
 Fe        -0.0828117434       11.8181515364        4.4342809365
 Fe         2.4504795494        7.3939894938        4.4163698576
 Fe         5.0430819177        2.9403107253        4.4246290406
 Fe        -5.2294006410       11.8304457627        4.4280705171
 Fe        -2.6593872087        7.3972065540        4.4259191760
 Fe        -0.0956343262        2.9542672720        4.4228455605
 Fe         7.6086691272       13.1854167404        4.8096499595
 Fe        10.1847281611        8.7501847605        4.8084002720
 Fe        12.7415783809        4.3043914419        4.8056983093
 Fe         2.4952733911       13.1785711093        4.8053559416
 Fe         5.0488684860        8.7734678847        4.8012178214
 Fe         7.6249079432        4.2979853277        4.8099491415
 Fe        -2.6509483765       13.1797308653        4.8230445137
 Fe        -0.0844947705        8.7458966716        4.8192112023
 Fe         2.4563768753        4.2950104377        4.8044149550
  O         5.8577409239       10.3661769365        5.8687367554
  O         8.4174569635        5.9027158208        5.8807181753
  O        10.9816659182        1.4668431005        5.8675315651
  O         0.7295095648       10.3443121212        5.8704061465
  O         3.2369237195        5.9242428772        5.7939324169
  O         5.8568843144        1.4517967472        5.8758218772
  O        -4.3946514378       10.3511881400        5.8718429686
  O        -1.8377006647        5.9062805393        5.8674161175
  O         0.7283788961        1.4647610694        5.8720644194
  O         5.9266305439       13.1789439038        5.6871934061
  O         8.5122035215        8.7413014827        5.6894871883
  O        11.0587498550        4.3016485031        5.6935033592
  O         0.8055337255       13.1674112099        5.6609669108
  O         3.3599046059        8.7314615363        5.6728036052
  O         5.9445023772        4.2553252004        5.6551879957
  O        -4.3366172561       13.1718893060        5.6849629175
  O        -1.7708868538        8.7360846479        5.6835540330
  O         0.7785033165        4.2858786782        5.6858730243
  O         3.4666882816       11.7711039430        5.6706488873
  O         6.0506553467        7.3543019221        5.5818395725
  O         8.5938187965        2.8772383763        5.6996236860
  O        -1.6593125059       11.7709726670        5.6683118927
  O         0.8859745065        7.3384667212        5.6700020937
  O         3.4683199657        2.8954706807        5.6630318329
  O        -6.7937096466       11.7718437052        5.6694350488
  O        -4.2271445584        7.3281448043        5.6724251762
  O        -1.6652443494        2.8915327125        5.6702330293
 Fe         7.7797177692       10.2672446274        6.4342045853
 Fe        10.3414119571        5.8341614212        6.4365512566
 Fe        12.9073994666        1.3901250211        6.4344057857
 Fe         2.6556852305       10.2640719881        6.4335194678
 Fe         5.1804576421        5.8421222373        6.2331110172
 Fe         7.7700413029        1.3515027294        6.3749411777
 Fe        -2.4716115710       10.2711571843        6.4348236881
 Fe         0.0914114977        5.8310851615        6.4352662417
 Fe         2.6564938353        1.3933496496        6.4340993053
  O         7.8475167955       10.3826254304        8.2585756327
  H         7.8777992474        9.5583819101        8.7774477066
  H         5.3489537736       10.6104339734        6.6744820026
  O        10.3733798476        5.9361423662        8.2708532976
  H        10.4987740442        5.1114967341        8.7751765763
  H         7.8921719092        6.2241014690        6.6493449012
  O        12.9543381802        1.5014318715        8.2620801911
  H        13.0175688210        0.6764570286        8.7762969327
  H        10.4795424472        1.7276953549        6.6714279922
  O         2.7020357235       10.3820747160        8.2589802865
  H         2.7677597549        9.5581912738        8.7762360915
  H         0.2230949102       10.6107757284        6.6700022039
  O         5.0898812853        6.2299204456        7.9625839819
  H         5.1220578801        5.6174393084        8.7761659191
  H         2.8265872527        6.1564948421        6.6702691076
  O         7.9167929333        1.2961525732        8.2197988180
  H         7.9080088240        0.5041911609        8.7724701132
  H         5.3361303391        1.7323536910        6.6613441910
  O        -2.4149910616       10.3826872519        8.2607806517
  H        -2.3660289067        9.5584321735        8.7770345707
  H        -4.9077954735       10.6105076080        6.6699807016
  O         0.1262474669        5.9393563989        8.2585272982
  H         0.2108735729        5.1220831940        8.7833339958
  H        -2.3357691062        6.1749430833        6.6717564702
  O         2.7208387033        1.4947593262        8.2575573887
  H         2.7555534873        0.6748015060        8.7819582558
  H         0.2223562289        1.7333236500        6.6720441589
  C         7.3463811495        3.9891255978        9.0908136180
  C         6.2814128485        4.4877311181        9.8994353262
  H         7.1985267520        2.9023736394        8.9488990499
  H         7.2514027135        4.4709639144        8.0919679265
  H         8.3318392279        4.1898418036        9.5186998355
  N         5.4606187622        4.7313447244       10.7478393181
     168
 i =        4, E =     -8144.3580780746
 Fe         5.0938794100       11.8196869300        0.3885799900
 Fe         7.6575796300        7.3792284900        0.3885799900
 Fe        10.2212798400        2.9387700600        0.3885799900
 Fe        -0.0335205200       11.8196869300        0.3885799900
 Fe         2.5301797000        7.3792284900        0.3885799900
 Fe         5.0938799200        2.9387700600        0.3885799900
 Fe        -5.1609204400       11.8196869300        0.3885799900
 Fe        -2.5972202200        7.3792284900        0.3885799900
 Fe        -0.0335200000        2.9387700600        0.3885799900
  O         8.4519195100        8.9577468800        1.1642700400
  O        11.0156197300        4.5172884400        1.1642700400
  O        13.5793199500        0.0768300000        1.1642700400
  O         3.3245195900        8.9577468800        1.1642700400
  O         5.8882198100        4.5172884400        1.1642700400
  O         8.4519200300        0.0768300000        1.1642700400
  O        -1.8028803300        8.9577468800        1.1642700400
  O         0.7608198900        4.5172884400        1.1642700400
  O         3.3245201100        0.0768300000        1.1642700400
  O         8.4568493000       11.7183869300        1.1650400200
  O        11.0205495200        7.2779284900        1.1650400200
  O        13.5842497300        2.8374700500        1.1650400200
  O         3.3294493700       11.7183869300        1.1650400200
  O         5.8931495900        7.2779284900        1.1650400200
  O         8.4568498100        2.8374700500        1.1650400200
  O        -1.7979505500       11.7183869300        1.1650400200
  O         0.7657496700        7.2779284900        1.1650400200
  O         3.3294498900        2.8374700500        1.1650400200
  O         6.0627194200       10.3425368500        1.1660399400
  O         8.6264196400        5.9020784100        1.1660399400
  O        11.1901198600        1.4616199700        1.1660399400
  O         0.9353195000       10.3425368500        1.1660399400
  O         3.4990197200        5.9020784100        1.1660399400
  O         6.0627199400        1.4616199700        1.1660399400
  O        -4.1920804200       10.3425368500        1.1660399400
  O        -1.6283802000        5.9020784100        1.1660399400
  O         0.9353200200        1.4616199700        1.1660399400
 Fe         7.6576695000       13.2997167500        1.9292099500
 Fe        10.2213697200        8.8592583200        1.9292099500
 Fe        12.7850699400        4.4187998800        1.9292099500
 Fe         2.5302695800       13.2997167500        1.9292099500
 Fe         5.0939698000        8.8592583200        1.9292099500
 Fe         7.6576700200        4.4187998800        1.9292099500
 Fe        -2.5971303400       13.2997167500        1.9292099500
 Fe        -0.0334301200        8.8592583200        1.9292099500
 Fe         2.5302701000        4.4187998800        1.9292099500
 Fe         7.6573893600       10.3392168700        2.7128999200
 Fe        10.2210895800        5.8987584300        2.7128999200
 Fe        12.7847898000        1.4582999900        2.7128999200
 Fe         2.5299894400       10.3392168700        2.7128999200
 Fe         5.0936896600        5.8987584300        2.7128999200
 Fe         7.6573898800        1.4582999900        2.7128999200
 Fe        -2.5974104800       10.3392168700        2.7128999200
 Fe        -0.0337102600        5.8987584300        2.7128999200
 Fe         2.5299899600        1.4582999900        2.7128999200
  O         4.0937215149       13.3188928996        3.5161814322
  O         6.6539551628        8.8866809375        3.4869429213
  O         9.2192374709        4.4263937715        3.5068364573
  O        -1.0123318955       13.3280740067        3.5569234313
  O         1.5314223665        8.8883685016        3.5325567313
  O         4.0967348955        4.4377292643        3.5184348452
  O        -6.1617241107       13.3154801022        3.5141977132
  O        -3.5951253788        8.8731750032        3.5124384322
  O        -1.0369576410        4.4323119311        3.5096145952
  O         6.8128697610       11.8717390953        3.4967197112
  O         9.3832363741        7.4347480415        3.4940843726
  O        11.9382254396        2.9926066606        3.4959053515
  O         1.6875037834       11.8714927075        3.4931975297
  O         4.2439903306        7.4275897146        3.4940595237
  O         6.8232498168        2.9961555410        3.4805810300
  O        -3.4449516692       11.8468136669        3.5311654705
  O        -0.8805508728        7.4163407278        3.5170858261
  O         1.6762681047        2.9934275170        3.4776112904
  O         9.4275926071       10.2216529878        3.4881406603
  O        11.9902414536        5.7820958599        3.4879293374
  O        14.5526135212        1.3425355304        3.4875099005
  O         4.3062979933       10.2330392515        3.4748739813
  O         6.8709843495        5.7755438830        3.4837933700
  O         9.4250934149        1.3526013744        3.4980565400
  O        -0.8396054785       10.2298015844        3.5071362574
  O         1.7385511268        5.7756861174        3.4626324520
  O         4.2860462155        1.3444843131        3.5175160843
 Fe         5.0398711380       11.8381451605        4.4213828168
 Fe         7.6092922860        7.4178196167        4.4023138558
 Fe        10.1696446037        2.9574791272        4.4275039210
 Fe        -0.0856787141       11.8190119042        4.4234108324
 Fe         2.4575554804        7.3934499996        4.4180335273
 Fe         5.0406841890        2.9498038548        4.4165660252
 Fe        -5.2276518171       11.8344747059        4.4252106435
 Fe        -2.6565737051        7.3938571913        4.4235293292
 Fe        -0.0955352747        2.9520527752        4.4194426720
 Fe         7.6075257170       13.1864844282        4.8096256941
 Fe        10.1814170149        8.7496373695        4.8096491478
 Fe        12.7387051112        4.3073719902        4.8073034408
 Fe         2.4938177141       13.1808778133        4.8036386501
 Fe         5.0437831725        8.7666058719        4.7937310789
 Fe         7.6190576587        4.3000242090        4.8031275582
 Fe        -2.6498550109       13.1724670119        4.8303990036
 Fe        -0.0876481736        8.7443208626        4.8241777522
 Fe         2.4620463462        4.2935252411        4.7964903314
  O         5.8565262624       10.3596888936        5.8699567028
  O         8.4158943220        5.9050016687        5.8799631236
  O        10.9832209231        1.4686186972        5.8693125772
  O         0.7275043153       10.3471871257        5.8721661131
  O         3.2440207585        5.9160160939        5.8005212004
  O         5.8550143012        1.4559760146        5.8779340220
  O        -4.3984293305       10.3505038037        5.8723808710
  O        -1.8374393201        5.9067444235        5.8690736168
  O         0.7267215161        1.4656082097        5.8715652184
  O         5.9247660070       13.1743460934        5.6892168440
  O         8.5021797093        8.7363674889        5.6867108343
  O        11.0537227841        4.2972423380        5.6942062987
  O         0.8065450514       13.1538813066        5.6641201502
  O         3.3617863952        8.7345115732        5.6778203198
  O         5.9417845924        4.2582957663        5.6693298852
  O        -4.3370801261       13.1711967860        5.6909934059
  O        -1.7756365529        8.7327044724        5.6890711647
  O         0.7837156907        4.2868626843        5.6816541514
  O         3.4693585570       11.7727105937        5.6688838273
  O         6.0553433471        7.3535209677        5.5848365314
  O         8.5930979468        2.8830170067        5.7000889672
  O        -1.6497444565       11.7703439662        5.6791715684
  O         0.8893753463        7.3369495508        5.6704799183
  O         3.4696941742        2.8962410040        5.6667254940
  O        -6.7913950606       11.7735553755        5.6684046136
  O        -4.2249900936        7.3301174967        5.6726396957
  O        -1.6656363511        2.8933568154        5.6684214306
 Fe         7.7833858216       10.2693837852        6.4350818795
 Fe        10.3419016619        5.8344748447        6.4366129057
 Fe        12.9100754254        1.3903098471        6.4347169815
 Fe         2.6557448515       10.2672683991        6.4348586254
 Fe         5.1891180765        5.8455845198        6.2592293981
 Fe         7.7780347406        1.3475906255        6.3766825959
 Fe        -2.4743264710       10.2720262464        6.4358416998
 Fe         0.0915202336        5.8299372834        6.4352679534
 Fe         2.6538895841        1.3936060203        6.4345999173
  O         7.8472096545       10.3829953968        8.2604657295
  H         7.8769975449        9.5584645182        8.7788282888
  H         5.3492629721       10.6120900292        6.6748359225
  O        10.3694464294        5.9350021717        8.2723749024
  H        10.5083971161        5.1110218208        8.7749119746
  H         7.8918373577        6.2284609931        6.6477729854
  O        12.9530362461        1.5018373702        8.2630495775
  H        13.0174724213        0.6766636869        8.7770218724
  H        10.4759222988        1.7246433983        6.6722562261
  O         2.7013219530       10.3819636912        8.2608057646
  H         2.7692110490        9.5577145478        8.7768703909
  H         0.2227800110       10.6112305763        6.6739561637
  O         5.0682254747        6.2617484065        7.9996351825
  H         5.1408310289        5.6393151422        8.7541835236
  H         2.8288362257        6.1598840274        6.6640273651
  O         7.9216417901        1.2847339993        8.2209895415
  H         7.9106613514        0.4781368335        8.7569487370
  H         5.3354876880        1.7328415824        6.6659323081
  O        -2.4145684317       10.3830878761        8.2624088451
  H        -2.3656789199        9.5583069032        8.7781193045
  H        -4.9076681533       10.6103230446        6.6726606279
  O         0.1240743296        5.9395199870        8.2595665545
  H         0.2123160107        5.1230614204        8.7846008497
  H        -2.3373693550        6.1741552969        6.6723692300
  O         2.7215953204        1.4951687987        8.2582192214
  H         2.7556753618        0.6749696567        8.7825218758
  H         0.2222004537        1.7334198186        6.6725005991
  C         7.3211438788        4.0088742866        9.0883393813
  C         6.2630869804        4.4214196881        9.9973613074
  H         7.2312018243        2.9125450751        8.9540179524
  H         7.2668740444        4.4720332468        8.0925955077
  H         8.3191731571        4.1931492775        9.5087653790
  N         5.4549561106        4.7671638002       10.7318934570
     168
 i =        5, E =     -8144.3196313311
 Fe         5.0938794100       11.8196869300        0.3885799900
 Fe         7.6575796300        7.3792284900        0.3885799900
 Fe        10.2212798400        2.9387700600        0.3885799900
 Fe        -0.0335205200       11.8196869300        0.3885799900
 Fe         2.5301797000        7.3792284900        0.3885799900
 Fe         5.0938799200        2.9387700600        0.3885799900
 Fe        -5.1609204400       11.8196869300        0.3885799900
 Fe        -2.5972202200        7.3792284900        0.3885799900
 Fe        -0.0335200000        2.9387700600        0.3885799900
  O         8.4519195100        8.9577468800        1.1642700400
  O        11.0156197300        4.5172884400        1.1642700400
  O        13.5793199500        0.0768300000        1.1642700400
  O         3.3245195900        8.9577468800        1.1642700400
  O         5.8882198100        4.5172884400        1.1642700400
  O         8.4519200300        0.0768300000        1.1642700400
  O        -1.8028803300        8.9577468800        1.1642700400
  O         0.7608198900        4.5172884400        1.1642700400
  O         3.3245201100        0.0768300000        1.1642700400
  O         8.4568493000       11.7183869300        1.1650400200
  O        11.0205495200        7.2779284900        1.1650400200
  O        13.5842497300        2.8374700500        1.1650400200
  O         3.3294493700       11.7183869300        1.1650400200
  O         5.8931495900        7.2779284900        1.1650400200
  O         8.4568498100        2.8374700500        1.1650400200
  O        -1.7979505500       11.7183869300        1.1650400200
  O         0.7657496700        7.2779284900        1.1650400200
  O         3.3294498900        2.8374700500        1.1650400200
  O         6.0627194200       10.3425368500        1.1660399400
  O         8.6264196400        5.9020784100        1.1660399400
  O        11.1901198600        1.4616199700        1.1660399400
  O         0.9353195000       10.3425368500        1.1660399400
  O         3.4990197200        5.9020784100        1.1660399400
  O         6.0627199400        1.4616199700        1.1660399400
  O        -4.1920804200       10.3425368500        1.1660399400
  O        -1.6283802000        5.9020784100        1.1660399400
  O         0.9353200200        1.4616199700        1.1660399400
 Fe         7.6576695000       13.2997167500        1.9292099500
 Fe        10.2213697200        8.8592583200        1.9292099500
 Fe        12.7850699400        4.4187998800        1.9292099500
 Fe         2.5302695800       13.2997167500        1.9292099500
 Fe         5.0939698000        8.8592583200        1.9292099500
 Fe         7.6576700200        4.4187998800        1.9292099500
 Fe        -2.5971303400       13.2997167500        1.9292099500
 Fe        -0.0334301200        8.8592583200        1.9292099500
 Fe         2.5302701000        4.4187998800        1.9292099500
 Fe         7.6573893600       10.3392168700        2.7128999200
 Fe        10.2210895800        5.8987584300        2.7128999200
 Fe        12.7847898000        1.4582999900        2.7128999200
 Fe         2.5299894400       10.3392168700        2.7128999200
 Fe         5.0936896600        5.8987584300        2.7128999200
 Fe         7.6573898800        1.4582999900        2.7128999200
 Fe        -2.5974104800       10.3392168700        2.7128999200
 Fe        -0.0337102600        5.8987584300        2.7128999200
 Fe         2.5299899600        1.4582999900        2.7128999200
  O         4.0870213804       13.3186362294        3.5053077052
  O         6.6991499030        8.9124973128        3.5779716307
  O         9.2600431205        4.4468721778        3.5848361573
  O        -1.0258561775       13.3342861272        3.5475811685
  O         1.5250541611        8.8733786014        3.5190097762
  O         4.1243495358        4.4505054950        3.5513110525
  O        -6.1720176244       13.3149932236        3.5037898956
  O        -3.5965365892        8.8664373845        3.5151830778
  O        -1.0395441920        4.4308727153        3.5129348213
  O         6.8193519821       11.8785288053        3.4923739010
  O         9.3884932480        7.4353472520        3.4897736613
  O        11.9478379322        2.9911777620        3.5027706095
  O         1.6948528114       11.8745754347        3.4873991411
  O         4.2311659564        7.3984881482        3.5210516666
  O         6.8152339914        2.9464516480        3.5480189970
  O        -3.4467538929       11.8486577130        3.5261720869
  O        -0.8779022381        7.4240708569        3.5067576781
  O         1.6741445040        2.9503875759        3.5505626121
  O         9.4271893278       10.2283112504        3.4916553813
  O        11.9856960400        5.7796211704        3.4885831205
  O        14.5544096847        1.3367857455        3.4818568094
  O         4.2743561293       10.2526743998        3.5426849131
  O         6.8475840136        5.7873657786        3.5091082511
  O         9.4318651241        1.3421841843        3.4736350556
  O        -0.8315988429       10.2199049506        3.4918590700
  O         1.6989946059        5.8033074971        3.5415795665
  O         4.2933321387        1.3427164793        3.5153403689
 Fe         5.0492607153       11.8587291199        4.4227318999
 Fe         7.6264602477        7.3932410523        4.4114546886
 Fe        10.1780551520        2.9247326536        4.4281097762
 Fe        -0.0917305120       11.8226374979        4.4018886496
 Fe         2.4688250708        7.4120513331        4.4498967595
 Fe         5.0281593341        2.9493781553        4.4340409131
 Fe        -5.2230981837       11.8445579001        4.4208742786
 Fe        -2.6507121360        7.3869514833        4.4199306449
 Fe        -0.1144023711        2.9470127663        4.4275952777
 Fe         7.6076216010       13.1893009261        4.8101757990
 Fe        10.1730684103        8.7466907340        4.8116358203
 Fe        12.7309475892        4.3139671990        4.8133058619
 Fe         2.4892671656       13.1881442409        4.8013912779
 Fe         5.0335043294        8.7472484958        4.8158270132
 Fe         7.6043689041        4.3051877355        4.8232363259
 Fe        -2.6462390319       13.1607565341        4.8507406227
 Fe        -0.0926062063        8.7419055042        4.8358306047
 Fe         2.4799404724        4.2933224521        4.8172963471
  O         5.8559080606       10.3434136817        5.8737347397
  O         8.4169874532        5.9068177175        5.8797693234
  O        10.9890724807        1.4665805256        5.8749093317
  O         0.7249465976       10.3526549630        5.8773331658
  O         3.2687410053        5.8991337530        5.8271648285
  O         5.8552783228        1.4648831156        5.8858621101
  O        -4.4076298848       10.3450685813        5.8745955506
  O        -1.8352558456        5.9065107607        5.8737250570
  O         0.7244666233        1.4666495382        5.8701362205
  O         5.9283682977       13.1750422687        5.6966186852
  O         8.4841087422        8.7340868437        5.6874548300
  O        11.0412746511        4.2890253574        5.6930152092
  O         0.8091047485       13.1267451413        5.6735717568
  O         3.3642060360        8.7483287240        5.6997151461
  O         5.9266895398        4.2718809594        5.7115606905
  O        -4.3381507177       13.1711781864        5.7044339202
  O        -1.7832274199        8.7258367281        5.7013205426
  O         0.7911212673        4.2900033773        5.6746258968
  O         3.4717389807       11.7765886771        5.6625764818
  O         6.0679835557        7.3445761877        5.6077653961
  O         8.5937105219        2.8928054994        5.6965695953
  O        -1.6311691081       11.7698383264        5.7035600328
  O         0.8918433029        7.3325223279        5.6771535764
  O         3.4657586655        2.8928210440        5.6847345133
  O        -6.7875789388       11.7769907045        5.6659379683
  O        -4.2219303906        7.3343141395        5.6724979636
  O        -1.6762049501        2.8969002964        5.6693935510
 Fe         7.7879165171       10.2778058559        6.4362036087
 Fe        10.3418001760        5.8346245973        6.4344262194
 Fe        12.9108654676        1.3914532998        6.4346625174
 Fe         2.6544131422       10.2791092991        6.4380003399
 Fe         5.2079528510        5.8548922783        6.3370395102
 Fe         7.7978611494        1.3447399649        6.3865334742
 Fe        -2.4801399526       10.2734294601        6.4376838321
 Fe         0.0905698933        5.8258221955        6.4358869381
 Fe         2.6459270118        1.3914005210        6.4359137146
  O         7.8456408336       10.3825615319        8.2630067875
  H         7.8762892058        9.5588604150        8.7820479122
  H         5.3510733638       10.6161579978        6.6735921562
  O        10.3648306891        5.9314491423        8.2714037276
  H        10.5248810502        5.1113659388        8.7742918313
  H         7.8966769776        6.2329212245        6.6451587928
  O        12.9521124637        1.5016040424        8.2618213860
  H        13.0165728741        0.6779547239        8.7781935779
  H        10.4690906659        1.7179543710        6.6718729661
  O         2.7008411850       10.3809858985        8.2636923211
  H         2.7717527864        9.5566308844        8.7780527810
  H         0.2222465229       10.6132033210        6.6819634356
  O         5.0419379579        6.2994831450        8.1084380317
  H         5.1803632885        5.6359842313        8.7258077240
  H         2.8283773486        6.1704541393        6.6500006441
  O         7.9220721184        1.2846184517        8.2251363191
  H         7.9142768488        0.4405038211        8.7188019488
  H         5.3367276664        1.7342836872        6.6768504863
  O        -2.4139870688       10.3836467867        8.2660312869
  H        -2.3651360192        9.5576312826        8.7808186406
  H        -4.9071560271       10.6106023891        6.6787845327
  O         0.1219855417        5.9399814527        8.2615176287
  H         0.2136230368        5.1248883447        8.7862653918
  H        -2.3418255413        6.1721710251        6.6727995471
  O         2.7220078297        1.4969809188        8.2588515960
  H         2.7564312597        0.6760598625        8.7823221645
  H         0.2223719972        1.7334805042        6.6720012135
  C         7.2662928498        4.0339686180        9.0728301940
  C         6.2463210797        4.3470187325       10.1535259993
  H         7.2980257693        2.9221812654        8.9479491889
  H         7.3010867577        4.4636225380        8.0857369571
  H         8.2788140067        4.2027592324        9.4917778018
  N         5.4222200595        4.8463405416       10.6820074414
     168
 i =        6, E =     -8144.3472597975
 Fe         5.0938794100       11.8196869300        0.3885799900
 Fe         7.6575796300        7.3792284900        0.3885799900
 Fe        10.2212798400        2.9387700600        0.3885799900
 Fe        -0.0335205200       11.8196869300        0.3885799900
 Fe         2.5301797000        7.3792284900        0.3885799900
 Fe         5.0938799200        2.9387700600        0.3885799900
 Fe        -5.1609204400       11.8196869300        0.3885799900
 Fe        -2.5972202200        7.3792284900        0.3885799900
 Fe        -0.0335200000        2.9387700600        0.3885799900
  O         8.4519195100        8.9577468800        1.1642700400
  O        11.0156197300        4.5172884400        1.1642700400
  O        13.5793199500        0.0768300000        1.1642700400
  O         3.3245195900        8.9577468800        1.1642700400
  O         5.8882198100        4.5172884400        1.1642700400
  O         8.4519200300        0.0768300000        1.1642700400
  O        -1.8028803300        8.9577468800        1.1642700400
  O         0.7608198900        4.5172884400        1.1642700400
  O         3.3245201100        0.0768300000        1.1642700400
  O         8.4568493000       11.7183869300        1.1650400200
  O        11.0205495200        7.2779284900        1.1650400200
  O        13.5842497300        2.8374700500        1.1650400200
  O         3.3294493700       11.7183869300        1.1650400200
  O         5.8931495900        7.2779284900        1.1650400200
  O         8.4568498100        2.8374700500        1.1650400200
  O        -1.7979505500       11.7183869300        1.1650400200
  O         0.7657496700        7.2779284900        1.1650400200
  O         3.3294498900        2.8374700500        1.1650400200
  O         6.0627194200       10.3425368500        1.1660399400
  O         8.6264196400        5.9020784100        1.1660399400
  O        11.1901198600        1.4616199700        1.1660399400
  O         0.9353195000       10.3425368500        1.1660399400
  O         3.4990197200        5.9020784100        1.1660399400
  O         6.0627199400        1.4616199700        1.1660399400
  O        -4.1920804200       10.3425368500        1.1660399400
  O        -1.6283802000        5.9020784100        1.1660399400
  O         0.9353200200        1.4616199700        1.1660399400
 Fe         7.6576695000       13.2997167500        1.9292099500
 Fe        10.2213697200        8.8592583200        1.9292099500
 Fe        12.7850699400        4.4187998800        1.9292099500
 Fe         2.5302695800       13.2997167500        1.9292099500
 Fe         5.0939698000        8.8592583200        1.9292099500
 Fe         7.6576700200        4.4187998800        1.9292099500
 Fe        -2.5971303400       13.2997167500        1.9292099500
 Fe        -0.0334301200        8.8592583200        1.9292099500
 Fe         2.5302701000        4.4187998800        1.9292099500
 Fe         7.6573893600       10.3392168700        2.7128999200
 Fe        10.2210895800        5.8987584300        2.7128999200
 Fe        12.7847898000        1.4582999900        2.7128999200
 Fe         2.5299894400       10.3392168700        2.7128999200
 Fe         5.0936896600        5.8987584300        2.7128999200
 Fe         7.6573898800        1.4582999900        2.7128999200
 Fe        -2.5974104800       10.3392168700        2.7128999200
 Fe        -0.0337102600        5.8987584300        2.7128999200
 Fe         2.5299899600        1.4582999900        2.7128999200
  O         4.1244750206       13.3330951152        3.5667296151
  O         6.6921885268        8.9046114420        3.5656950210
  O         9.2515749689        4.4502510481        3.5741032755
  O        -1.0413333881       13.3192662425        3.5135262093
  O         1.5163206101        8.8687483179        3.5003169613
  O         4.1205290624        4.4443888732        3.5476012040
  O        -6.1421449326       13.3237201361        3.5500539726
  O        -3.5983567103        8.8678086932        3.5115082554
  O        -1.0434824992        4.4338914442        3.5084700492
  O         6.8147073367       11.8513640582        3.5324717605
  O         9.3858461177        7.4362583356        3.4887955852
  O        11.9459438826        2.9911944512        3.4985619075
  O         1.6851001351       11.8375355294        3.5403690279
  O         4.2356201284        7.4065449547        3.5218988723
  O         6.8137604265        2.9508911812        3.5465917923
  O        -3.4405405241       11.8692972298        3.5009106108
  O        -0.8790574449        7.4382963071        3.4867871598
  O         1.6798094542        2.9552811608        3.5461260536
  O         9.4294768201       10.2248846749        3.4854002498
  O        11.9897768301        5.7809121410        3.4850567792
  O        14.5321587516        1.3529291890        3.5263746423
  O         4.2759772410       10.2420148435        3.5333343178
  O         6.8520471426        5.7870977337        3.5086837975
  O         9.4022387374        1.3618748869        3.5353700240
  O        -0.8213958526       10.2161169304        3.4747894115
  O         1.7045706226        5.8011488411        3.5335729838
  O         4.3048017105        1.3341849839        3.4878557462
 Fe         5.0455772959       11.8338700606        4.4411074101
 Fe         7.6225162867        7.3960949222        4.4154075490
 Fe        10.1806623505        2.9488281337        4.4350017555
 Fe        -0.1101139644       11.8251957305        4.4115753566
 Fe         2.4650921440        7.4128090269        4.4422747741
 Fe         5.0270587163        2.9426931351        4.4315005472
 Fe        -5.2089543553       11.8284514087        4.4266884880
 Fe        -2.6491575184        7.3901436499        4.4175059163
 Fe        -0.1055143243        2.9631801298        4.4304411863
 Fe         7.6097342548       13.1865421910        4.8269739600
 Fe        10.1740420234        8.7474504648        4.8093025655
 Fe        12.7328348705        4.3110340664        4.8098166023
 Fe         2.4887317827       13.1829735861        4.8233310958
 Fe         5.0375611963        8.7500291194        4.8213554868
 Fe         7.6074486946        4.3015845894        4.8275538717
 Fe        -2.6454982428       13.1695673369        4.8385966480
 Fe        -0.0893500490        8.7417055232        4.8269175407
 Fe         2.4793082439        4.2962825277        4.8224357819
  O         5.8582347473       10.3432349903        5.8774495978
  O         8.4171284688        5.9072511691        5.8788752936
  O        10.9861357756        1.4681036067        5.8740495690
  O         0.7265402546       10.3486172401        5.8777500521
  O         3.2672776810        5.9034912195        5.8340052856
  O         5.8544956786        1.4641697657        5.8868691714
  O        -4.4044259181       10.3423259670        5.8768560456
  O        -1.8372077927        5.9046571727        5.8726574846
  O         0.7242989893        1.4684305295        5.8727000598
  O         5.9227919461       13.1751004473        5.6942461059
  O         8.4893703928        8.7333264829        5.6910637839
  O        11.0525236370        4.2936603437        5.6998348718
  O         0.8036694725       13.1323686651        5.6755876447
  O         3.3625056382        8.7431833879        5.6982377793
  O         5.9282857277        4.2733368006        5.7149502223
  O        -4.3341338319       13.1713299427        5.7020410195
  O        -1.7772578270        8.7281614924        5.6975754156
  O         0.7936692021        4.2917734873        5.6869933067
  O         3.4714684798       11.7759839015        5.6741985519
  O         6.0644777028        7.3478586262        5.6243124749
  O         8.5963390701        2.8887888826        5.6953638057
  O        -1.6473311267       11.7735485643        5.7021160172
  O         0.8951436837        7.3368493940        5.6826411848
  O         3.4670525403        2.8939056972        5.6859563774
  O        -6.7826632554       11.7723903829        5.6679137072
  O        -4.2231841126        7.3340129407        5.6695520552
  O        -1.6716667461        2.8954414570        5.6696969236
 Fe         7.7854509063       10.2752831764        6.4340233002
 Fe        10.3425721375        5.8345881243        6.4337913224
 Fe        12.9089597846        1.3923069041        6.4360753893
 Fe         2.6558555707       10.2768174433        6.4379828232
 Fe         5.2026382177        5.8548041610        6.3373148419
 Fe         7.7943158320        1.3501027502        6.3941330972
 Fe        -2.4792786936       10.2708485230        6.4376862847
 Fe         0.0889454224        5.8285550160        6.4365903882
 Fe         2.6480776745        1.3915675645        6.4361420921
  O         7.8452871449       10.3820707699        8.2608690423
  H         7.8771056458        9.5592921073        8.7814169464
  H         5.3502883443       10.6162732183        6.6738060820
  O        10.3701328177        5.9310292882        8.2688384527
  H        10.5184796800        5.1123355843        8.7745806361
  H         7.9013669365        6.2292133037        6.6494272294
  O        12.9542004616        1.5021182161        8.2633330030
  H        13.0159902834        0.6775355591        8.7785371681
  H        10.4708030694        1.7195113057        6.6733866381
  O         2.7013548103       10.3820527829        8.2637062777
  H         2.7712322603        9.5566339957        8.7767279655
  H         0.2219849292       10.6149194244        6.6796140330
  O         5.0576857130        6.2642696564        8.1088176968
  H         5.1766116813        5.5819128056        8.7559160890
  H         2.8221277284        6.1726571696        6.6588340148
  O         7.9129106840        1.3094832303        8.2293872328
  H         7.9127923143        0.4639432593        8.7179331280
  H         5.3399809070        1.7344710299        6.6799356097
  O        -2.4146963566       10.3832046036        8.2653278785
  H        -2.3655658812        9.5575453077        8.7803504777
  H        -4.9074685883       10.6108250560        6.6776816147
  O         0.1243288541        5.9400245399        8.2625770364
  H         0.2119295853        5.1237474317        8.7860614820
  H        -2.3417616512        6.1728157640        6.6726700640
  O         2.7200708331        1.4981413714        8.2606165759
  H         2.7569083065        0.6758781122        8.7817528659
  H         0.2209271203        1.7333203979        6.6741021104
  C         7.2951404541        3.9897762029        9.0886987000
  C         6.2795433907        4.4198967514       10.0606454500
  H         7.2724082379        2.8970242109        8.9288891404
  H         7.2705591679        4.4590525581        8.1005501081
  H         8.2894053914        4.2118597358        9.5104067031
  N         5.4067633809        4.8647100579       10.6579749406
     168
 i =        7, E =     -8144.2962013412
 Fe         5.0938794100       11.8196869300        0.3885799900
 Fe         7.6575796300        7.3792284900        0.3885799900
 Fe        10.2212798400        2.9387700600        0.3885799900
 Fe        -0.0335205200       11.8196869300        0.3885799900
 Fe         2.5301797000        7.3792284900        0.3885799900
 Fe         5.0938799200        2.9387700600        0.3885799900
 Fe        -5.1609204400       11.8196869300        0.3885799900
 Fe        -2.5972202200        7.3792284900        0.3885799900
 Fe        -0.0335200000        2.9387700600        0.3885799900
  O         8.4519195100        8.9577468800        1.1642700400
  O        11.0156197300        4.5172884400        1.1642700400
  O        13.5793199500        0.0768300000        1.1642700400
  O         3.3245195900        8.9577468800        1.1642700400
  O         5.8882198100        4.5172884400        1.1642700400
  O         8.4519200300        0.0768300000        1.1642700400
  O        -1.8028803300        8.9577468800        1.1642700400
  O         0.7608198900        4.5172884400        1.1642700400
  O         3.3245201100        0.0768300000        1.1642700400
  O         8.4568493000       11.7183869300        1.1650400200
  O        11.0205495200        7.2779284900        1.1650400200
  O        13.5842497300        2.8374700500        1.1650400200
  O         3.3294493700       11.7183869300        1.1650400200
  O         5.8931495900        7.2779284900        1.1650400200
  O         8.4568498100        2.8374700500        1.1650400200
  O        -1.7979505500       11.7183869300        1.1650400200
  O         0.7657496700        7.2779284900        1.1650400200
  O         3.3294498900        2.8374700500        1.1650400200
  O         6.0627194200       10.3425368500        1.1660399400
  O         8.6264196400        5.9020784100        1.1660399400
  O        11.1901198600        1.4616199700        1.1660399400
  O         0.9353195000       10.3425368500        1.1660399400
  O         3.4990197200        5.9020784100        1.1660399400
  O         6.0627199400        1.4616199700        1.1660399400
  O        -4.1920804200       10.3425368500        1.1660399400
  O        -1.6283802000        5.9020784100        1.1660399400
  O         0.9353200200        1.4616199700        1.1660399400
 Fe         7.6576695000       13.2997167500        1.9292099500
 Fe        10.2213697200        8.8592583200        1.9292099500
 Fe        12.7850699400        4.4187998800        1.9292099500
 Fe         2.5302695800       13.2997167500        1.9292099500
 Fe         5.0939698000        8.8592583200        1.9292099500
 Fe         7.6576700200        4.4187998800        1.9292099500
 Fe        -2.5971303400       13.2997167500        1.9292099500
 Fe        -0.0334301200        8.8592583200        1.9292099500
 Fe         2.5302701000        4.4187998800        1.9292099500
 Fe         7.6573893600       10.3392168700        2.7128999200
 Fe        10.2210895800        5.8987584300        2.7128999200
 Fe        12.7847898000        1.4582999900        2.7128999200
 Fe         2.5299894400       10.3392168700        2.7128999200
 Fe         5.0936896600        5.8987584300        2.7128999200
 Fe         7.6573898800        1.4582999900        2.7128999200
 Fe        -2.5974104800       10.3392168700        2.7128999200
 Fe        -0.0337102600        5.8987584300        2.7128999200
 Fe         2.5299899600        1.4582999900        2.7128999200
  O         4.1083951429       13.3266267088        3.5420938347
  O         6.6450455753        8.8717851687        3.4690934473
  O         9.2106850869        4.4368565568        3.5043717945
  O        -1.0593305096       13.2844204885        3.4573230797
  O         1.5925287859        8.9088531513        3.6253014100
  O         4.0961398001        4.4222701792        3.5216599750
  O        -6.1505856157       13.3163426879        3.5270698528
  O        -3.5855514139        8.8881481535        3.5300226501
  O        -1.0283485788        4.4401581992        3.5257806609
  O         6.8082968363       11.8655805969        3.5108414436
  O         9.3731017008        7.4212335768        3.5116920105
  O        11.9266556642        2.9809575312        3.5069413542
  O         1.6770066418       11.8571809989        3.5078557708
  O         4.2541216887        7.4389787120        3.5027544117
  O         6.8196923434        2.9960652530        3.4948825007
  O        -3.4265705308       11.9026015890        3.4642163268
  O        -0.8903794053        7.3623479334        3.6008309093
  O         1.6904474748        2.9969697902        3.4862746025
  O         9.4224499973       10.2266165252        3.5017757612
  O        11.9863714830        5.7892039442        3.5003967369
  O        14.5500124177        1.3485715928        3.4991510509
  O         4.3069418530       10.2192713262        3.4723913969
  O         6.8743626217        5.7727598039        3.4946137845
  O         9.4159566670        1.3594256549        3.5271337762
  O        -0.8868311200       10.2677359613        3.6003044323
  O         1.7391937741        5.7654387912        3.4569518763
  O         4.3224776286        1.3234768885        3.4385782000
 Fe         5.0337401148       11.8253298089        4.4309090583
 Fe         7.5963686646        7.4223106503        4.4157094904
 Fe        10.1567054416        2.9759584658        4.4338843941
 Fe        -0.0852596855       11.8612273852        4.4454680086
 Fe         2.4706893846        7.3576958174        4.4295456348
 Fe         5.0390146949        2.9291095964        4.4165035647
 Fe        -5.2058224616       11.8349881935        4.4169248300
 Fe        -2.6776584279        7.3972058139        4.4426877165
 Fe        -0.0846835906        2.9555440000        4.4211386702
 Fe         7.6143200096       13.1814368161        4.8290193613
 Fe        10.1847362742        8.7499173624        4.8122901446
 Fe        12.7400736070        4.3018926953        4.8107998517
 Fe         2.4947107432       13.1663319164        4.8233450752
 Fe         5.0542840656        8.7668002485        4.8176967016
 Fe         7.6232189844        4.2898818311        4.8293764194
 Fe        -2.6472432427       13.1945687965        4.8023241083
 Fe        -0.0785215717        8.7426981249        4.8540910631
 Fe         2.4596294373        4.3011063536        4.8235340217
  O         5.8558473529       10.3640779937        5.8811023044
  O         8.4179659102        5.9094487662        5.8797545743
  O        10.9731239204        1.4674998551        5.8728217569
  O         0.7268042394       10.3391668854        5.8772206080
  O         3.2467256584        5.9228135445        5.8175408304
  O         5.8522801909        1.4523078204        5.8815582690
  O        -4.3924327279       10.3512129969        5.8767216808
  O        -1.8376577643        5.9071744687        5.8679346568
  O         0.7261062943        1.4682612861        5.8840837192
  O         5.9260967884       13.1692233869        5.7004541867
  O         8.5164558711        8.7302034078        5.6981121845
  O        11.0653613617        4.2972740801        5.7014987708
  O         0.8103620849       13.1729387840        5.6806940442
  O         3.3559275741        8.7227953060        5.6787469723
  O         5.9403475496        4.2675123768        5.6909980690
  O        -4.3216684533       13.1696806006        5.6923597948
  O        -1.7722887690        8.7363979906        5.6860395366
  O         0.7767997937        4.2837948957        5.7042916004
  O         3.4777140646       11.7752393214        5.6991236221
  O         6.0502640707        7.3520347926        5.6269355326
  O         8.5977729130        2.8788182681        5.7145813551
  O        -1.6744337257       11.7777602126        5.6646831070
  O         0.9026341754        7.3416241166        5.6887151482
  O         3.4729735598        2.8966889563        5.6714298514
  O        -6.7762532543       11.7657048151        5.6775401908
  O        -4.2380112780        7.3285111267        5.6780510079
  O        -1.6551204597        2.8968873492        5.6784959370
 Fe         7.7806692932       10.2612493260        6.4334700828
 Fe        10.3438830175        5.8281871916        6.4380563250
 Fe        12.9074549234        1.3923048309        6.4364396804
 Fe         2.6537291809       10.2640943648        6.4367646468
 Fe         5.1735601048        5.8481415998        6.2774698724
 Fe         7.7683671894        1.3600601497        6.3948202355
 Fe        -2.4676438566       10.2702483759        6.4393506702
 Fe         0.0911774583        5.8349275705        6.4390920099
 Fe         2.6593943871        1.3921027465        6.4347201504
  O         7.8483672471       10.3840395637        8.2600387239
  H         7.8764488332        9.5593854365        8.7788247389
  H         5.3466389574       10.6129576431        6.6838889201
  O        10.3747803816        5.9337055457        8.2693090682
  H        10.5101995119        5.1125169811        8.7736098851
  H         7.9023373750        6.2311537605        6.6548293446
  O        12.9556349199        1.5034986802        8.2666639857
  H        13.0160617833        0.6764957762        8.7786048606
  H        10.4773593567        1.7282358073        6.6809947544
  O         2.7002736299       10.3850881460        8.2641383405
  H         2.7710269999        9.5568927579        8.7747190828
  H         0.2219185384       10.6154571759        6.6735772726
  O         5.0775239823        6.2353579345        8.0106156458
  H         5.0846411917        5.5862823459        8.8323085504
  H         2.8226014115        6.1667030565        6.6835105782
  O         7.9079561771        1.3154283851        8.2308743067
  H         7.9134022924        0.4904512326        8.7324654504
  H         5.3451352982        1.7328110184        6.6757451983
  O        -2.4166348515       10.3822349804        8.2652694712
  H        -2.3660732286        9.5572283804        8.7801570273
  H        -4.9100801866       10.6102955898        6.6730979782
  O         0.1232656727        5.9401505286        8.2636835499
  H         0.2117216734        5.1220952025        8.7864141003
  H        -2.3383672156        6.1752315385        6.6715843888
  O         2.7178314313        1.4970799168        8.2613966119
  H         2.7567082548        0.6750129319        8.7823954536
  H         0.2166120584        1.7351378930        6.6818186514
  C         7.3909343797        3.9201103543        9.1460472292
  C         6.3410869662        4.5622051275        9.8277775549
  H         7.2126194599        2.8597831170        8.9304796106
  H         7.1748773280        4.4784343782        8.1567140723
  H         8.3583921787        4.2179295021        9.5523486400
  N         5.4365611505        4.7583355362       10.7334067201
     168
 i =        8, E =     -8144.3527206859
 Fe         5.0938794100       11.8196869300        0.3885799900
 Fe         7.6575796300        7.3792284900        0.3885799900
 Fe        10.2212798400        2.9387700600        0.3885799900
 Fe        -0.0335205200       11.8196869300        0.3885799900
 Fe         2.5301797000        7.3792284900        0.3885799900
 Fe         5.0938799200        2.9387700600        0.3885799900
 Fe        -5.1609204400       11.8196869300        0.3885799900
 Fe        -2.5972202200        7.3792284900        0.3885799900
 Fe        -0.0335200000        2.9387700600        0.3885799900
  O         8.4519195100        8.9577468800        1.1642700400
  O        11.0156197300        4.5172884400        1.1642700400
  O        13.5793199500        0.0768300000        1.1642700400
  O         3.3245195900        8.9577468800        1.1642700400
  O         5.8882198100        4.5172884400        1.1642700400
  O         8.4519200300        0.0768300000        1.1642700400
  O        -1.8028803300        8.9577468800        1.1642700400
  O         0.7608198900        4.5172884400        1.1642700400
  O         3.3245201100        0.0768300000        1.1642700400
  O         8.4568493000       11.7183869300        1.1650400200
  O        11.0205495200        7.2779284900        1.1650400200
  O        13.5842497300        2.8374700500        1.1650400200
  O         3.3294493700       11.7183869300        1.1650400200
  O         5.8931495900        7.2779284900        1.1650400200
  O         8.4568498100        2.8374700500        1.1650400200
  O        -1.7979505500       11.7183869300        1.1650400200
  O         0.7657496700        7.2779284900        1.1650400200
  O         3.3294498900        2.8374700500        1.1650400200
  O         6.0627194200       10.3425368500        1.1660399400
  O         8.6264196400        5.9020784100        1.1660399400
  O        11.1901198600        1.4616199700        1.1660399400
  O         0.9353195000       10.3425368500        1.1660399400
  O         3.4990197200        5.9020784100        1.1660399400
  O         6.0627199400        1.4616199700        1.1660399400
  O        -4.1920804200       10.3425368500        1.1660399400
  O        -1.6283802000        5.9020784100        1.1660399400
  O         0.9353200200        1.4616199700        1.1660399400
 Fe         7.6576695000       13.2997167500        1.9292099500
 Fe        10.2213697200        8.8592583200        1.9292099500
 Fe        12.7850699400        4.4187998800        1.9292099500
 Fe         2.5302695800       13.2997167500        1.9292099500
 Fe         5.0939698000        8.8592583200        1.9292099500
 Fe         7.6576700200        4.4187998800        1.9292099500
 Fe        -2.5971303400       13.2997167500        1.9292099500
 Fe        -0.0334301200        8.8592583200        1.9292099500
 Fe         2.5302701000        4.4187998800        1.9292099500
 Fe         7.6573893600       10.3392168700        2.7128999200
 Fe        10.2210895800        5.8987584300        2.7128999200
 Fe        12.7847898000        1.4582999900        2.7128999200
 Fe         2.5299894400       10.3392168700        2.7128999200
 Fe         5.0936896600        5.8987584300        2.7128999200
 Fe         7.6573898800        1.4582999900        2.7128999200
 Fe        -2.5974104800       10.3392168700        2.7128999200
 Fe        -0.0337102600        5.8987584300        2.7128999200
 Fe         2.5299899600        1.4582999900        2.7128999200
  O         4.1114539440       13.3274402130        3.5472181161
  O         6.6801202132        8.8917155053        3.5345708966
  O         9.2264973227        4.4391970975        3.5330755335
  O        -1.0520893182       13.2986202513        3.4787070964
  O         1.5609203953        8.8960845075        3.5798902494
  O         4.1194014137        4.4387397400        3.5552552288
  O        -6.1501733776       13.3204619755        3.5342863006
  O        -3.5933986506        8.8772529881        3.5203800171
  O        -1.0370185445        4.4337292648        3.5132101194
  O         6.8135089851       11.8625863446        3.5177870246
  O         9.3801549603        7.4305174571        3.4976609629
  O        11.9354302408        2.9880455018        3.5011741395
  O         1.6820840223       11.8525729186        3.5207526667
  O         4.2455497108        7.4111083918        3.5290762147
  O         6.8199596763        2.9777529039        3.5171187335
  O        -3.4356843201       11.8912749436        3.4725793508
  O        -0.8838593646        7.3887301931        3.5636169830
  O         1.6828196942        2.9621750466        3.5369292745
  O         9.4284324112       10.2263742868        3.4918950880
  O        11.9873687779        5.7838595853        3.4928265539
  O        14.5449365896        1.3481352931        3.5066889048
  O         4.2852698273       10.2393417575        3.5188228948
  O         6.8666744739        5.7739139666        3.4927353146
  O         9.4106239763        1.3574272282        3.5267023890
  O        -0.8639490801       10.2454683358        3.5535704163
  O         1.7122734491        5.7900171452        3.5160270859
  O         4.3163947626        1.3272805651        3.4575025059
 Fe         5.0435931380       11.8375196931        4.4379167076
 Fe         7.6119292245        7.4010073094        4.4156385633
 Fe        10.1665291020        2.9602881406        4.4323860773
 Fe        -0.0972147676       11.8428182874        4.4293324122
 Fe         2.4684382207        7.3904218105        4.4432828168
 Fe         5.0398042154        2.9324965807        4.4251530594
 Fe        -5.2084405220       11.8344076572        4.4195335912
 Fe        -2.6651738831        7.3930968815        4.4331955889
 Fe        -0.1017487854        2.9569236264        4.4286704396
 Fe         7.6136015800       13.1834219626        4.8321762209
 Fe        10.1778694379        8.7483589201        4.8128734084
 Fe        12.7366334234        4.3069103020        4.8111795374
 Fe         2.4934497727       13.1747231109        4.8284519585
 Fe         5.0469324192        8.7574920681        4.8277076826
 Fe         7.6123711457        4.2968357154        4.8327584590
 Fe        -2.6468582300       13.1818207541        4.8126567294
 Fe        -0.0836629121        8.7417476123        4.8587014849
 Fe         2.4700321415        4.2958812755        4.8351063505
  O         5.8566410224       10.3528011068        5.8817050954
  O         8.4175124640        5.9086655667        5.8805660776
  O        10.9794958444        1.4689678502        5.8767828852
  O         0.7264282937       10.3461223165        5.8831500475
  O         3.2603704869        5.9128102524        5.8283569464
  O         5.8528425748        1.4557903856        5.8836058856
  O        -4.3977831894       10.3477613342        5.8766956975
  O        -1.8391003187        5.9059751546        5.8727487850
  O         0.7251297544        1.4680281539        5.8814830877
  O         5.9287348461       13.1729289458        5.7036114805
  O         8.5008421997        8.7294402830        5.6960828503
  O        11.0581778686        4.2946265920        5.7007219889
  O         0.8034800722       13.1514685972        5.6769855789
  O         3.3639331936        8.7313620391        5.6976838059
  O         5.9323149658        4.2755524933        5.7134438473
  O        -4.3246173536       13.1722118399        5.6941446313
  O        -1.7784183352        8.7299619880        5.7002580989
  O         0.7831728794        4.2859126222        5.6982614192
  O         3.4769561543       11.7752765649        5.6903922565
  O         6.0589707410        7.3452785746        5.6270973202
  O         8.5966760145        2.8875986300        5.7101138267
  O        -1.6619072890       11.7838323513        5.6870720439
  O         0.9018056309        7.3372576424        5.6941893327
  O         3.4746781158        2.8897817110        5.6782712812
  O        -6.7772645510       11.7689057139        5.6762051245
  O        -4.2311445032        7.3314541609        5.6763718500
  O        -1.6658867043        2.8978989229        5.6779829101
 Fe         7.7836500810       10.2679352575        6.4348802811
 Fe        10.3424362655        5.8306330676        6.4369096606
 Fe        12.9080085216        1.3925116745        6.4366732786
 Fe         2.6540278367       10.2694953999        6.4376969798
 Fe         5.1901163694        5.8547299058        6.3276697761
 Fe         7.7822395184        1.3561184232        6.3957994869
 Fe        -2.4719537548       10.2742930844        6.4385000393
 Fe         0.0881730267        5.8301824619        6.4391909778
 Fe         2.6536690685        1.3899356817        6.4367178914
  O         7.8478583875       10.3836800707        8.2614958784
  H         7.8753269753        9.5597644745        8.7809521264
  H         5.3490920084       10.6152088077        6.6816717367
  O        10.3690026716        5.9312796295        8.2704846458
  H        10.5244316376        5.1118016095        8.7736944359
  H         7.9024123022        6.2365230793        6.6513782278
  O        12.9538165841        1.5032435634        8.2651991904
  H        13.0157732386        0.6775908567        8.7788175147
  H        10.4729928156        1.7234299096        6.6802758225
  O         2.6992654854       10.3834302785        8.2642545402
  H         2.7729998710        9.5567448638        8.7758386161
  H         0.2209132618       10.6169128050        6.6811970517
  O         5.0455651396        6.2723528447        8.0774619425
  H         5.1377093386        5.6035971114        8.7991088906
  H         2.8256468836        6.1719181495        6.6733582039
  O         7.9138148908        1.2986775471        8.2324893999
  H         7.9170075588        0.4520438190        8.7118655270
  H         5.3437234338        1.7325372983        6.6785778001
  O        -2.4158238925       10.3825068897        8.2660781252
  H        -2.3655021618        9.5574301366        8.7815859762
  H        -4.9089839109       10.6109763548        6.6753449855
  O         0.1206803228        5.9402973538        8.2642811142
  H         0.2133845058        5.1238152372        8.7877069491
  H        -2.3410497450        6.1735713158        6.6747619519
  O         2.7192279134        1.4975667199        8.2617910987
  H         2.7569000584        0.6754772493        8.7829429830
  H         0.2182476316        1.7353675668        6.6804045881
  C         7.3373936231        3.9720424996        9.1319906262
  C         6.2800658372        4.4085859523       10.0148971749
  H         7.2639574502        2.8892543778        8.9469133039
  H         7.2289599805        4.4667329001        8.1393811739
  H         8.3325023704        4.2143477241        9.5259616472
  N         5.4252136103        4.8743209187       10.6838353657
     168
 i =        9, E =     -8144.3615093106
 Fe         5.0938794100       11.8196869300        0.3885799900
 Fe         7.6575796300        7.3792284900        0.3885799900
 Fe        10.2212798400        2.9387700600        0.3885799900
 Fe        -0.0335205200       11.8196869300        0.3885799900
 Fe         2.5301797000        7.3792284900        0.3885799900
 Fe         5.0938799200        2.9387700600        0.3885799900
 Fe        -5.1609204400       11.8196869300        0.3885799900
 Fe        -2.5972202200        7.3792284900        0.3885799900
 Fe        -0.0335200000        2.9387700600        0.3885799900
  O         8.4519195100        8.9577468800        1.1642700400
  O        11.0156197300        4.5172884400        1.1642700400
  O        13.5793199500        0.0768300000        1.1642700400
  O         3.3245195900        8.9577468800        1.1642700400
  O         5.8882198100        4.5172884400        1.1642700400
  O         8.4519200300        0.0768300000        1.1642700400
  O        -1.8028803300        8.9577468800        1.1642700400
  O         0.7608198900        4.5172884400        1.1642700400
  O         3.3245201100        0.0768300000        1.1642700400
  O         8.4568493000       11.7183869300        1.1650400200
  O        11.0205495200        7.2779284900        1.1650400200
  O        13.5842497300        2.8374700500        1.1650400200
  O         3.3294493700       11.7183869300        1.1650400200
  O         5.8931495900        7.2779284900        1.1650400200
  O         8.4568498100        2.8374700500        1.1650400200
  O        -1.7979505500       11.7183869300        1.1650400200
  O         0.7657496700        7.2779284900        1.1650400200
  O         3.3294498900        2.8374700500        1.1650400200
  O         6.0627194200       10.3425368500        1.1660399400
  O         8.6264196400        5.9020784100        1.1660399400
  O        11.1901198600        1.4616199700        1.1660399400
  O         0.9353195000       10.3425368500        1.1660399400
  O         3.4990197200        5.9020784100        1.1660399400
  O         6.0627199400        1.4616199700        1.1660399400
  O        -4.1920804200       10.3425368500        1.1660399400
  O        -1.6283802000        5.9020784100        1.1660399400
  O         0.9353200200        1.4616199700        1.1660399400
 Fe         7.6576695000       13.2997167500        1.9292099500
 Fe        10.2213697200        8.8592583200        1.9292099500
 Fe        12.7850699400        4.4187998800        1.9292099500
 Fe         2.5302695800       13.2997167500        1.9292099500
 Fe         5.0939698000        8.8592583200        1.9292099500
 Fe         7.6576700200        4.4187998800        1.9292099500
 Fe        -2.5971303400       13.2997167500        1.9292099500
 Fe        -0.0334301200        8.8592583200        1.9292099500
 Fe         2.5302701000        4.4187998800        1.9292099500
 Fe         7.6573893600       10.3392168700        2.7128999200
 Fe        10.2210895800        5.8987584300        2.7128999200
 Fe        12.7847898000        1.4582999900        2.7128999200
 Fe         2.5299894400       10.3392168700        2.7128999200
 Fe         5.0936896600        5.8987584300        2.7128999200
 Fe         7.6573898800        1.4582999900        2.7128999200
 Fe        -2.5974104800       10.3392168700        2.7128999200
 Fe        -0.0337102600        5.8987584300        2.7128999200
 Fe         2.5299899600        1.4582999900        2.7128999200
  O         4.0982443174       13.3186814952        3.5260104772
  O         6.6710152314        8.8903742746        3.5243681264
  O         9.2285328971        4.4359485125        3.5363003983
  O        -1.0235071216       13.3172535364        3.5296337747
  O         1.5291649937        8.8820537193        3.5304353649
  O         4.1071123913        4.4394333115        3.5364307703
  O        -6.1610633597       13.3168011163        3.5177868561
  O        -3.6041734300        8.8712130994        3.5043508085
  O        -1.0440401233        4.4237601399        3.4975877773
  O         6.8174518279       11.8730940705        3.5052307991
  O         9.3841390387        7.4418608310        3.4803402962
  O        11.9376478019        2.9967291172        3.4892939975
  O         1.6885264979       11.8684074958        3.5040622350
  O         4.2461221782        7.4186738945        3.5150177991
  O         6.8230532609        2.9751850654        3.5212248659
  O        -3.4467868393       11.8631593511        3.5063116600
  O        -0.8777887864        7.4190623656        3.5199268990
  O         1.6830782997        2.9716560777        3.5239450089
  O         9.4384316240       10.2227106544        3.4742857018
  O        11.9919864394        5.7790350303        3.4814534740
  O        14.5505050620        1.3396883794        3.4943126621
  O         4.2955620314       10.2367306443        3.5054061298
  O         6.8650988818        5.7751068296        3.4921013730
  O         9.4182953938        1.3478113041        3.5052663788
  O        -0.8406500309       10.2226244580        3.5032681172
  O         1.7230018313        5.7860005874        3.5048388880
  O         4.2950596483        1.3453512512        3.5010896404
 Fe         5.0448472158       11.8401326287        4.4292623705
 Fe         7.6165469161        7.4046783687        4.4059232833
 Fe        10.1686387901        2.9489513112        4.4249182853
 Fe        -0.0941477871       11.8138134428        4.4157864132
 Fe         2.4634745533        7.4037093541        4.4318314632
 Fe         5.0408056535        2.9547858061        4.4251732451
 Fe        -5.2253491350       11.8348312596        4.4209023082
 Fe        -2.6540507790        7.3946844737        4.4182026800
 Fe        -0.1023041993        2.9531471942        4.4217468354
 Fe         7.6136438892       13.1849978240        4.8306272494
 Fe        10.1754945969        8.7479345098        4.8084079949
 Fe        12.7352329788        4.3078289147        4.8076778195
 Fe         2.4917149247       13.1787472747        4.8270548228
 Fe         5.0445869748        8.7549760913        4.8272269946
 Fe         7.6097245559        4.3014953245        4.8323823416
 Fe        -2.6482706952       13.1773368681        4.8149721426
 Fe        -0.0873546846        8.7412238053        4.8545974301
 Fe         2.4744505732        4.2912900648        4.8367686102
  O         5.8572903084       10.3516827875        5.8817488847
  O         8.4167299355        5.9085880139        5.8807872222
  O        10.9809202964        1.4690353881        5.8793463050
  O         0.7248540220       10.3483041500        5.8884871197
  O         3.2602915070        5.9114908744        5.8307511180
  O         5.8550334238        1.4587799528        5.8784440924
  O        -4.3995266749       10.3480516804        5.8731584958
  O        -1.8423976197        5.9059435192        5.8756868779
  O         0.7243591023        1.4670299180        5.8821155396
  O         5.9295729893       13.1734550372        5.7019105173
  O         8.4983659723        8.7302913994        5.6945597843
  O        11.0516207909        4.2929775979        5.6960937961
  O         0.7913940861       13.1454898633        5.6663493407
  O         3.3674226553        8.7300540806        5.7052881987
  O         5.9373324804        4.2784753844        5.7220191109
  O        -4.3276421053       13.1731982570        5.6854564266
  O        -1.7813408856        8.7273878654        5.7094599767
  O         0.7855481346        4.2836282064        5.6959519763
  O         3.4764034447       11.7773498527        5.6870598955
  O         6.0654278212        7.3417306560        5.6198560622
  O         8.5959322476        2.8922297152        5.7091881870
  O        -1.6563302352       11.7887420700        5.6883788223
  O         0.9029497816        7.3390458044        5.6987563370
  O         3.4782736589        2.8815365730        5.6785293500
  O        -6.7831235364       11.7716230507        5.6787586880
  O        -4.2240440596        7.3327735853        5.6722281275
  O        -1.6670303119        2.8978447344        5.6748472911
 Fe         7.7853550470       10.2688493270        6.4362521179
 Fe        10.3433838229        5.8331744671        6.4371198031
 Fe        12.9090047346        1.3924535083        6.4370102338
 Fe         2.6546785278       10.2698431409        6.4380467527
 Fe         5.1957828273        5.8567154004        6.3396958081
 Fe         7.7863077132        1.3563323278        6.3955142786
 Fe        -2.4733878654       10.2800295759        6.4375006338
 Fe         0.0878316086        5.8281367592        6.4397607248
 Fe         2.6514591648        1.3849332760        6.4373067921
  O         7.8487024882       10.3839890693        8.2622094075
  H         7.8739176916        9.5600855015        8.7816062416
  H         5.3504572188       10.6157953049        6.6828092534
  O        10.3646579358        5.9298196320        8.2733199308
  H        10.5344512326        5.1104989324        8.7744722546
  H         7.9014299066        6.2419755103        6.6491662483
  O        12.9521191645        1.5038677583        8.2658145055
  H        13.0157117142        0.6779129428        8.7789351719
  H        10.4719754097        1.7231668777        6.6816310743
  O         2.6977233176       10.3830767649        8.2651230845
  H         2.7746146916        9.5564975227        8.7764499277
  H         0.2207760316       10.6191525616        6.6877823866
  O         5.0369615490        6.2956613198        8.0874510543
  H         5.1093694161        5.6445478360        8.8053315803
  H         2.8281143256        6.1733542433        6.6750316701
  O         7.9180452674        1.2800173547        8.2339343078
  H         7.9207024379        0.4270725689        8.7033558675
  H         5.3422184420        1.7295050195        6.6740103909
  O        -2.4152648464       10.3831121369        8.2666243416
  H        -2.3650766892        9.5576803850        8.7820064774
  H        -4.9076033511       10.6121813978        6.6736212622
  O         0.1175002022        5.9406019508        8.2660792697
  H         0.2147127810        5.1243141977        8.7892991301
  H        -2.3426657527        6.1725289868        6.6789080096
  O         2.7204671067        1.4967995512        8.2613416137
  H         2.7567600376        0.6754798053        8.7839218485
  H         0.2193261813        1.7360707761        6.6819581205
  C         7.3193936484        3.9778862620        9.1296431574
  C         6.2998617438        4.4325082810       10.0493261196
  H         7.2968197109        2.8850383141        8.9618135821
  H         7.2328918404        4.4721780286        8.1512922445
  H         8.3164096939        4.2140408219        9.5271965844
  N         5.4294237609        4.8275308565       10.7168940098
     168
 i =       10, E =     -8144.3112591616
 Fe         5.0938794100       11.8196869300        0.3885799900
 Fe         7.6575796300        7.3792284900        0.3885799900
 Fe        10.2212798400        2.9387700600        0.3885799900
 Fe        -0.0335205200       11.8196869300        0.3885799900
 Fe         2.5301797000        7.3792284900        0.3885799900
 Fe         5.0938799200        2.9387700600        0.3885799900
 Fe        -5.1609204400       11.8196869300        0.3885799900
 Fe        -2.5972202200        7.3792284900        0.3885799900
 Fe        -0.0335200000        2.9387700600        0.3885799900
  O         8.4519195100        8.9577468800        1.1642700400
  O        11.0156197300        4.5172884400        1.1642700400
  O        13.5793199500        0.0768300000        1.1642700400
  O         3.3245195900        8.9577468800        1.1642700400
  O         5.8882198100        4.5172884400        1.1642700400
  O         8.4519200300        0.0768300000        1.1642700400
  O        -1.8028803300        8.9577468800        1.1642700400
  O         0.7608198900        4.5172884400        1.1642700400
  O         3.3245201100        0.0768300000        1.1642700400
  O         8.4568493000       11.7183869300        1.1650400200
  O        11.0205495200        7.2779284900        1.1650400200
  O        13.5842497300        2.8374700500        1.1650400200
  O         3.3294493700       11.7183869300        1.1650400200
  O         5.8931495900        7.2779284900        1.1650400200
  O         8.4568498100        2.8374700500        1.1650400200
  O        -1.7979505500       11.7183869300        1.1650400200
  O         0.7657496700        7.2779284900        1.1650400200
  O         3.3294498900        2.8374700500        1.1650400200
  O         6.0627194200       10.3425368500        1.1660399400
  O         8.6264196400        5.9020784100        1.1660399400
  O        11.1901198600        1.4616199700        1.1660399400
  O         0.9353195000       10.3425368500        1.1660399400
  O         3.4990197200        5.9020784100        1.1660399400
  O         6.0627199400        1.4616199700        1.1660399400
  O        -4.1920804200       10.3425368500        1.1660399400
  O        -1.6283802000        5.9020784100        1.1660399400
  O         0.9353200200        1.4616199700        1.1660399400
 Fe         7.6576695000       13.2997167500        1.9292099500
 Fe        10.2213697200        8.8592583200        1.9292099500
 Fe        12.7850699400        4.4187998800        1.9292099500
 Fe         2.5302695800       13.2997167500        1.9292099500
 Fe         5.0939698000        8.8592583200        1.9292099500
 Fe         7.6576700200        4.4187998800        1.9292099500
 Fe        -2.5971303400       13.2997167500        1.9292099500
 Fe        -0.0334301200        8.8592583200        1.9292099500
 Fe         2.5302701000        4.4187998800        1.9292099500
 Fe         7.6573893600       10.3392168700        2.7128999200
 Fe        10.2210895800        5.8987584300        2.7128999200
 Fe        12.7847898000        1.4582999900        2.7128999200
 Fe         2.5299894400       10.3392168700        2.7128999200
 Fe         5.0936896600        5.8987584300        2.7128999200
 Fe         7.6573898800        1.4582999900        2.7128999200
 Fe        -2.5974104800       10.3392168700        2.7128999200
 Fe        -0.0337102600        5.8987584300        2.7128999200
 Fe         2.5299899600        1.4582999900        2.7128999200
  O         4.0639334607       13.2969941554        3.4716919996
  O         6.6428137033        8.8844093338        3.4897164200
  O         9.2266567752        4.4279139687        3.5345935714
  O        -0.9577895367       13.3638669006        3.6503183123
  O         1.4372876507        8.8444010026        3.3880848347
  O         4.0730680897        4.4381799585        3.4845809369
  O        -6.1907076085       13.3081696879        3.4746822595
  O        -3.5716310797        8.8816447340        3.5645831322
  O        -1.0038646596        4.4235481851        3.5592405983
  O         6.8302693473       11.9002011281        3.4748548130
  O         9.3873993813        7.4061095645        3.5353976235
  O        11.9396806710        2.9575274823        3.5532850183
  O         1.7031365375       11.9076696384        3.4605501077
  O         4.2472897369        7.4440156006        3.4725837009
  O         6.8290164097        2.9758586488        3.5260601637
  O        -3.4704790235       11.7973533832        3.5859495590
  O        -0.8587075426        7.5090580788        3.3896731924
  O         1.6874033092        3.0014554603        3.4835705294
  O         9.4115604057       10.2461421927        3.5288894686
  O        11.9562032253        5.7958815775        3.5426965110
  O        14.5631801689        1.3156002067        3.4626349425
  O         4.3217125337       10.2246486190        3.4686522712
  O         6.8622211132        5.7733774007        3.4871059101
  O         9.4393132092        1.3243694326        3.4491095399
  O        -0.7708531203       10.1599035628        3.3605069925
  O         1.7517289680        5.7718630789        3.4719220756
  O         4.2451417124        1.3889247538        3.6033995511
 Fe         5.0471950837       11.8444158436        4.4029677378
 Fe         7.6020583342        7.4115448905        4.3956475547
 Fe        10.1506727194        2.9232765126        4.4170327970
 Fe        -0.0898388858       11.7426250265        4.3796207058
 Fe         2.4472054462        7.4390369400        4.3933816206
 Fe         5.0416011971        3.0091396701        4.4254840668
 Fe        -5.2541074160       11.8597324612        4.4396637079
 Fe        -2.5943127081        7.3939467544        4.4169962077
 Fe        -0.0830773990        2.9172343120        4.4243458545
 Fe         7.6128729574       13.1906595430        4.8267648629
 Fe        10.1719568799        8.7462572418        4.8355465608
 Fe        12.7317756916        4.3096063365        4.8366823374
 Fe         2.4865383793       13.1885229253        4.8210080526
 Fe         5.0392457820        8.7496320474        4.8233698605
 Fe         7.6041984477        4.3153217700        4.8317282177
 Fe        -2.6494671330       13.1684375170        4.8190174584
 Fe        -0.0934537074        8.7387183077        4.8362215743
 Fe         2.4852071898        4.2810889100        4.8414967726
  O         5.8599167825       10.3489400845        5.8819984971
  O         8.4177483971        5.9106879256        5.8809097611
  O        10.9840002934        1.4678186643        5.8850509159
  O         0.7200973117       10.3506722022        5.9013184953
  O         3.2621115467        5.9072147220        5.8389813035
  O         5.8618293587        1.4667416170        5.8655413716
  O        -4.4023398867       10.3521551404        5.8648017151
  O        -1.8452379330        5.9034429688        5.8857337847
  O         0.7250759307        1.4579784697        5.8855678225
  O         5.9293549968       13.1763595807        5.6930579627
  O         8.4828371316        8.7320279399        5.6907462105
  O        11.0260284088        4.2880854390        5.6861139536
  O         0.7631966801       13.1311152714        5.6391900548
  O         3.3755738154        8.7270076354        5.7186088705
  O         5.9503796285        4.2896082308        5.7421447806
  O        -4.3279706844       13.1841108615        5.6704891786
  O        -1.7760197770        8.7327627971        5.7367456409
  O         0.7920353139        4.2813490741        5.6907922247
  O         3.4738642546       11.7822156514        5.6767892187
  O         6.0688879253        7.3345492138        5.6115875928
  O         8.5835997152        2.9038022568        5.7125382651
  O        -1.6461285704       11.7966337726        5.6877804210
  O         0.9047300313        7.3427117494        5.7071798170
  O         3.4850191644        2.8631644849        5.6797240617
  O        -6.7992258592       11.7788115924        5.6810832397
  O        -4.2016670517        7.3282096235        5.6614054734
  O        -1.6650862294        2.8905322670        5.6663765981
 Fe         7.7899093732       10.2726089521        6.4396010449
 Fe        10.3460794826        5.8392033106        6.4374981862
 Fe        12.9111450529        1.3921013490        6.4378270891
 Fe         2.6576156452       10.2697151341        6.4396359842
 Fe         5.2100886855        5.8601522900        6.3795133491
 Fe         7.7940841903        1.3542802723        6.3968159518
 Fe        -2.4815902077       10.2956021613        6.4355573763
 Fe         0.0849302580        5.8240074290        6.4401850394
 Fe         2.6440402364        1.3752279840        6.4368798215
  O         7.8510198855       10.3842866566        8.2635601833
  H         7.8699035501        9.5612511578        8.7841205701
  H         5.3544935155       10.6177543307        6.6854469328
  O        10.3541920448        5.9242986082        8.2787405939
  H        10.5626530388        5.1077675162        8.7762522245
  H         7.9005306158        6.2575384909        6.6422756576
  O        12.9477510351        1.5053171939        8.2667610566
  H        13.0152387711        0.6792380765        8.7796061664
  H        10.4704291912        1.7232628641        6.6849114667
  O         2.6931907171       10.3825225104        8.2682542215
  H         2.7794456790        9.5556582557        8.7779507138
  H         0.2216440544       10.6261807336        6.7044770667
  O         5.0154660616        6.3560492837        8.1186495998
  H         5.0206133694        5.7531367984        8.8379547037
  H         2.8344160746        6.1785999647        6.6799844009
  O         7.9295867825        1.2319706105        8.2388749130
  H         7.9316175149        0.3582256786        8.6754287098
  H         5.3385913937        1.7212748650        6.6614886801
  O        -2.4134301044       10.3847057434        8.2668130132
  H        -2.3640560346        9.5588843473        8.7824389077
  H        -4.9032707320       10.6154111180        6.6687820591
  O         0.1084941332        5.9400807078        8.2686612356
  H         0.2181112518        5.1263075482        8.7940548412
  H        -2.3458336405        6.1700507680        6.6867191060
  O         2.7229744371        1.4927512887        8.2572132647
  H         2.7566479939        0.6761669820        8.7873980688
  H         0.2238251636        1.7380309172        6.6841940664
  C         7.2870318437        3.9938054785        9.1307866028
  C         6.3470395667        4.4857146575       10.1261584705
  H         7.3747096183        2.8777152961        9.0075374670
  H         7.2351238878        4.4850385703        8.1858116215
  H         8.2866314697        4.2191998120        9.5362409361
  N         5.4469681939        4.7080965875       10.8095075653
     168
 i =       11, E =     -8144.3613499793
 Fe         5.0938794100       11.8196869300        0.3885799900
 Fe         7.6575796300        7.3792284900        0.3885799900
 Fe        10.2212798400        2.9387700600        0.3885799900
 Fe        -0.0335205200       11.8196869300        0.3885799900
 Fe         2.5301797000        7.3792284900        0.3885799900
 Fe         5.0938799200        2.9387700600        0.3885799900
 Fe        -5.1609204400       11.8196869300        0.3885799900
 Fe        -2.5972202200        7.3792284900        0.3885799900
 Fe        -0.0335200000        2.9387700600        0.3885799900
  O         8.4519195100        8.9577468800        1.1642700400
  O        11.0156197300        4.5172884400        1.1642700400
  O        13.5793199500        0.0768300000        1.1642700400
  O         3.3245195900        8.9577468800        1.1642700400
  O         5.8882198100        4.5172884400        1.1642700400
  O         8.4519200300        0.0768300000        1.1642700400
  O        -1.8028803300        8.9577468800        1.1642700400
  O         0.7608198900        4.5172884400        1.1642700400
  O         3.3245201100        0.0768300000        1.1642700400
  O         8.4568493000       11.7183869300        1.1650400200
  O        11.0205495200        7.2779284900        1.1650400200
  O        13.5842497300        2.8374700500        1.1650400200
  O         3.3294493700       11.7183869300        1.1650400200
  O         5.8931495900        7.2779284900        1.1650400200
  O         8.4568498100        2.8374700500        1.1650400200
  O        -1.7979505500       11.7183869300        1.1650400200
  O         0.7657496700        7.2779284900        1.1650400200
  O         3.3294498900        2.8374700500        1.1650400200
  O         6.0627194200       10.3425368500        1.1660399400
  O         8.6264196400        5.9020784100        1.1660399400
  O        11.1901198600        1.4616199700        1.1660399400
  O         0.9353195000       10.3425368500        1.1660399400
  O         3.4990197200        5.9020784100        1.1660399400
  O         6.0627199400        1.4616199700        1.1660399400
  O        -4.1920804200       10.3425368500        1.1660399400
  O        -1.6283802000        5.9020784100        1.1660399400
  O         0.9353200200        1.4616199700        1.1660399400
 Fe         7.6576695000       13.2997167500        1.9292099500
 Fe        10.2213697200        8.8592583200        1.9292099500
 Fe        12.7850699400        4.4187998800        1.9292099500
 Fe         2.5302695800       13.2997167500        1.9292099500
 Fe         5.0939698000        8.8592583200        1.9292099500
 Fe         7.6576700200        4.4187998800        1.9292099500
 Fe        -2.5971303400       13.2997167500        1.9292099500
 Fe        -0.0334301200        8.8592583200        1.9292099500
 Fe         2.5302701000        4.4187998800        1.9292099500
 Fe         7.6573893600       10.3392168700        2.7128999200
 Fe        10.2210895800        5.8987584300        2.7128999200
 Fe        12.7847898000        1.4582999900        2.7128999200
 Fe         2.5299894400       10.3392168700        2.7128999200
 Fe         5.0936896600        5.8987584300        2.7128999200
 Fe         7.6573898800        1.4582999900        2.7128999200
 Fe        -2.5974104800       10.3392168700        2.7128999200
 Fe        -0.0337102600        5.8987584300        2.7128999200
 Fe         2.5299899600        1.4582999900        2.7128999200
  O         4.0876321855       13.3121203528        3.5070188771
  O         6.6604821679        8.8843135639        3.5080640445
  O         9.2115156256        4.4261955326        3.5079391140
  O        -1.0118724670       13.3266556403        3.5505229855
  O         1.5099515801        8.8707032917        3.4931973180
  O         4.1092573257        4.4391625987        3.5390595227
  O        -6.1714090705       13.3125364358        3.5031845896
  O        -3.5821292766        8.8808102170        3.5404266029
  O        -1.0244066534        4.4353911697        3.5378312467
  O         6.8187584618       11.8825473468        3.4915234756
  O         9.3813890749        7.4194832096        3.5166948591
  O        11.9363564207        2.9716659150        3.5275351151
  O         1.6921134016       11.8779286810        3.4866093133
  O         4.2470353088        7.4307499715        3.4984814218
  O         6.8247633446        2.9943453585        3.5012933155
  O        -3.4465769670       11.8481145836        3.5284393792
  O        -0.8748281640        7.4450657925        3.4812748366
  O         1.6865109916        2.9735649228        3.5244943570
  O         9.4172324647       10.2319341111        3.5126545042
  O        11.9767028712        5.7896059550        3.5147952988
  O        14.5566082178        1.3331581757        3.4815355707
  O         4.3012941473       10.2284182725        3.4942968542
  O         6.8739435084        5.7646763818        3.4728708556
  O         9.4276480434        1.3438751257        3.4863670775
  O        -0.8203446835       10.2113108046        3.4660924563
  O         1.7230938714        5.7846650373        3.5049319442
  O         4.2844519982        1.3560609683        3.5200276980
 Fe         5.0433678502       11.8397529920        4.4190582305
 Fe         7.6042784666        7.4010977819        4.4041508949
 Fe        10.1554701893        2.9508963183        4.4213967026
 Fe        -0.0912063077       11.8058152601        4.4054791725
 Fe         2.4623988620        7.4078022596        4.4216581384
 Fe         5.0473917027        2.9598090428        4.4282595701
 Fe        -5.2285985855       11.8435584282        4.4259220043
 Fe        -2.6372533357        7.3951870409        4.4268060318
 Fe        -0.0957891740        2.9423365680        4.4239157366
 Fe         7.6108439439       13.1856070077        4.8264736249
 Fe        10.1781479902        8.7458464404        4.8290459946
 Fe        12.7340488767        4.3049336827        4.8297311350
 Fe         2.4901865628       13.1793963513        4.8171859603
 Fe         5.0445049753        8.7539937084        4.8228302100
 Fe         7.6110990222        4.3055965112        4.8295833320
 Fe        -2.6465002071       13.1794407815        4.8179246518
 Fe        -0.0859077524        8.7417140578        4.8384577526
 Fe         2.4757399334        4.2926657781        4.8439523342
  O         5.8575365072       10.3500688191        5.8811433995
  O         8.4180079201        5.9112545937        5.8804119783
  O        10.9766992940        1.4639775099        5.8794032460
  O         0.7227599820       10.3461270306        5.8881823341
  O         3.2623044735        5.9077760156        5.8354894961
  O         5.8589377463        1.4625675306        5.8772449527
  O        -4.3997835110       10.3514742748        5.8750545248
  O        -1.8390116453        5.9061264571        5.8796027728
  O         0.7250563583        1.4627898598        5.8834717777
  O         5.9269761705       13.1755293255        5.6954849152
  O         8.4913978865        8.7302072752        5.6927240840
  O        11.0433534163        4.2906773022        5.6971123994
  O         0.7936613163       13.1444879807        5.6629567519
  O         3.3681699821        8.7331651436        5.7002627784
  O         5.9415604568        4.2865899243        5.7255908297
  O        -4.3296295490       13.1744625228        5.6841398287
  O        -1.7695096891        8.7326938191        5.7118998768
  O         0.7877931349        4.2819456554        5.6992671929
  O         3.4723730056       11.7778324152        5.6812104739
  O         6.0616062163        7.3419346953        5.6210485711
  O         8.5893042133        2.8916258854        5.7104272721
  O        -1.6565231864       11.7821045369        5.6806335721
  O         0.8991996159        7.3416898762        5.6929710521
  O         3.4800374492        2.8844363300        5.6813924882
  O        -6.7866945837       11.7766326873        5.6799096774
  O        -4.2173911177        7.3307294413        5.6774896365
  O        -1.6624010461        2.8907153210        5.6762018097
 Fe         7.7862664696       10.2706168865        6.4367693668
 Fe        10.3433882747        5.8332662202        6.4366172268
 Fe        12.9057708825        1.3911848115        6.4377380490
 Fe         2.6555130285       10.2699805749        6.4397625993
 Fe         5.1977511944        5.8597529325        6.3533538565
 Fe         7.7851149621        1.3529740104        6.3975714722
 Fe        -2.4764622564       10.2801660021        6.4380095054
 Fe         0.0905684450        5.8277625218        6.4396719026
 Fe         2.6536498696        1.3851876951        6.4362494789
  O         7.8499974070       10.3840630873        8.2628720947
  H         7.8718205950        9.5608127432        8.7835568457
  H         5.3528432658       10.6172048405        6.6833244050
  O        10.3627274448        5.9259618841        8.2735858006
  H        10.5478446600        5.1102729350        8.7742382730
  H         7.9033533422        6.2500692131        6.6466914445
  O        12.9509263501        1.5047249526        8.2664864994
  H        13.0150006810        0.6788336717        8.7797210764
  H        10.4732113687        1.7238694817        6.6838572575
  O         2.6953511962       10.3831961690        8.2669442732
  H         2.7773984653        9.5561174201        8.7768177092
  H         0.2233381505       10.6222646435        6.6904313195
  O         5.0332071746        6.3169786834        8.0940402630
  H         5.0474460288        5.6950678951        8.8466398402
  H         2.8304557232        6.1776418234        6.6770040123
  O         7.9225600485        1.2617277969        8.2370610150
  H         7.9270525741        0.3953989312        8.6847383144
  H         5.3403783186        1.7270277520        6.6701697837
  O        -2.4145396775       10.3850999638        8.2668207571
  H        -2.3647629080        9.5587449127        8.7808239308
  H        -4.9075966196       10.6144574583        6.6748848282
  O         0.1127891749        5.9394536344        8.2663888353
  H         0.2161376091        5.1254981869        8.7921339221
  H        -2.3434410993        6.1732295954        6.6801603024
  O         2.7198189844        1.4942812060        8.2603123138
  H         2.7571969878        0.6755921078        8.7869812857
  H         0.2212808593        1.7369456852        6.6832149674
  C         7.3329694389        3.9861119552        9.1461117782
  C         6.3104877994        4.4359793347       10.0607109131
  H         7.3090875709        2.8910536459        8.9897562241
  H         7.2188987461        4.4776694872        8.1711379787
  H         8.3302255841        4.2275251138        9.5385955778
  N         5.4481084815        4.7733594659       10.7674647985
     168
 i =       12, E =     -8144.2612453160
 Fe         5.0938794100       11.8196869300        0.3885799900
 Fe         7.6575796300        7.3792284900        0.3885799900
 Fe        10.2212798400        2.9387700600        0.3885799900
 Fe        -0.0335205200       11.8196869300        0.3885799900
 Fe         2.5301797000        7.3792284900        0.3885799900
 Fe         5.0938799200        2.9387700600        0.3885799900
 Fe        -5.1609204400       11.8196869300        0.3885799900
 Fe        -2.5972202200        7.3792284900        0.3885799900
 Fe        -0.0335200000        2.9387700600        0.3885799900
  O         8.4519195100        8.9577468800        1.1642700400
  O        11.0156197300        4.5172884400        1.1642700400
  O        13.5793199500        0.0768300000        1.1642700400
  O         3.3245195900        8.9577468800        1.1642700400
  O         5.8882198100        4.5172884400        1.1642700400
  O         8.4519200300        0.0768300000        1.1642700400
  O        -1.8028803300        8.9577468800        1.1642700400
  O         0.7608198900        4.5172884400        1.1642700400
  O         3.3245201100        0.0768300000        1.1642700400
  O         8.4568493000       11.7183869300        1.1650400200
  O        11.0205495200        7.2779284900        1.1650400200
  O        13.5842497300        2.8374700500        1.1650400200
  O         3.3294493700       11.7183869300        1.1650400200
  O         5.8931495900        7.2779284900        1.1650400200
  O         8.4568498100        2.8374700500        1.1650400200
  O        -1.7979505500       11.7183869300        1.1650400200
  O         0.7657496700        7.2779284900        1.1650400200
  O         3.3294498900        2.8374700500        1.1650400200
  O         6.0627194200       10.3425368500        1.1660399400
  O         8.6264196400        5.9020784100        1.1660399400
  O        11.1901198600        1.4616199700        1.1660399400
  O         0.9353195000       10.3425368500        1.1660399400
  O         3.4990197200        5.9020784100        1.1660399400
  O         6.0627199400        1.4616199700        1.1660399400
  O        -4.1920804200       10.3425368500        1.1660399400
  O        -1.6283802000        5.9020784100        1.1660399400
  O         0.9353200200        1.4616199700        1.1660399400
 Fe         7.6576695000       13.2997167500        1.9292099500
 Fe        10.2213697200        8.8592583200        1.9292099500
 Fe        12.7850699400        4.4187998800        1.9292099500
 Fe         2.5302695800       13.2997167500        1.9292099500
 Fe         5.0939698000        8.8592583200        1.9292099500
 Fe         7.6576700200        4.4187998800        1.9292099500
 Fe        -2.5971303400       13.2997167500        1.9292099500
 Fe        -0.0334301200        8.8592583200        1.9292099500
 Fe         2.5302701000        4.4187998800        1.9292099500
 Fe         7.6573893600       10.3392168700        2.7128999200
 Fe        10.2210895800        5.8987584300        2.7128999200
 Fe        12.7847898000        1.4582999900        2.7128999200
 Fe         2.5299894400       10.3392168700        2.7128999200
 Fe         5.0936896600        5.8987584300        2.7128999200
 Fe         7.6573898800        1.4582999900        2.7128999200
 Fe        -2.5974104800       10.3392168700        2.7128999200
 Fe        -0.0337102600        5.8987584300        2.7128999200
 Fe         2.5299899600        1.4582999900        2.7128999200
  O         4.1387226858       13.3453120501        3.5874294235
  O         6.6767283394        8.8815136325        3.5179071039
  O         9.2634620752        4.4544407639        3.5937539060
  O        -1.1408713674       13.2490829218        3.3220608994
  O         1.6670244015        8.9345954075        3.7431973180
  O         4.1278913061        4.4333607427        3.5657615208
  O        -6.0897621606       13.3392986762        3.6340767274
  O        -3.6095557109        8.8779590229        3.4909936091
  O        -1.0655331525        4.4456853101        3.4844712054
  O         6.7971641801       11.8001717387        3.6012670593
  O         9.3784090675        7.4492325794        3.4751420489
  O        11.9364931151        3.0070129148        3.4699402170
  O         1.6715377717       11.8176878256        3.5525755876
  O         4.2483673981        7.4200308743        3.5210269180
  O         6.8076204564        2.9441672213        3.5754404721
  O        -3.4075613513       11.9764176867        3.3627211848
  O        -0.9048667750        7.2911890527        3.7088368439
  O         1.6869889421        2.9653409756        3.5365309840
  O         9.4343269521       10.2041847010        3.4711986350
  O        12.0133163106        5.7712635305        3.4562204152
  O        14.5055555476        1.3916186203        3.5915367061
  O         4.2797550140       10.2302961496        3.5133754261
  O         6.8361500553        5.7948208282        3.5602294656
  O         9.3944906455        1.3762306006        3.5659461048
  O        -0.9355372567       10.3194577622        3.7123359013
  O         1.7035988696        5.7819825065        3.5078675213
  O         4.3848023586        1.2772968809        3.3224188172
 Fe         5.0206179564       11.8224704014        4.4567161365
 Fe         7.6223018567        7.4192595731        4.4316347295
 Fe        10.1910015070        2.9616199452        4.4550553411
 Fe        -0.1018069576       11.9388155932        4.4582092805
 Fe         2.4964694241        7.3288474841        4.4657239489
 Fe         5.0085704006        2.8849575225        4.4199980951
 Fe        -5.1591595131       11.7950954952        4.4100362646
 Fe        -2.7275267025        7.3931298853        4.4450536572
 Fe        -0.0967536279        3.0042161646        4.4314163755
 Fe         7.6095304578       13.1768394298        4.8603438362
 Fe        10.1860112629        8.7483218645        4.8118166172
 Fe        12.7391204221        4.2995636940        4.8116362128
 Fe         2.4981380602       13.1693458864        4.8195724719
 Fe         5.0507871345        8.7607028587        4.8141517532
 Fe         7.6172900126        4.2880613975        4.8656105122
 Fe        -2.6436469452       13.1921155091        4.7955741309
 Fe        -0.0744915879        8.7431470736        4.8848946684
 Fe         2.4641738967        4.3096661607        4.8295675906
  O         5.8535060474       10.3504121073        5.8795236877
  O         8.4202659343        5.9161901511        5.8787245496
  O        10.9724815313        1.4570376522        5.8748903094
  O         0.7307275777       10.3466041894        5.8692189050
  O         3.2667103913        5.9098318947        5.8319732061
  O         5.8509032964        1.4561440384        5.8950204911
  O        -4.3956959677       10.3425519903        5.8927810171
  O        -1.8324844355        5.9095754385        5.8674499870
  O         0.7254566863        1.4745944296        5.8808137659
  O         5.9134326366       13.1686460203        5.7039766167
  O         8.5152086290        8.7359311286        5.7065727420
  O        11.0731272396        4.2992638271        5.7129806941
  O         0.8454946206       13.1683686258        5.7058136754
  O         3.3530336093        8.7365350587        5.6677658825
  O         5.9099497784        4.2736732929        5.7032512134
  O        -4.3246852773       13.1614608157        5.7071881457
  O        -1.7770062196        8.7273104089        5.6733791301
  O         0.7927651916        4.2927987927        5.7163883702
  O         3.4648393575       11.7733364676        5.6947004476
  O         6.0481604664        7.3490788460        5.6343922992
  O         8.6053403458        2.8686139156        5.7072465470
  O        -1.6759524803       11.7668038831        5.6796983365
  O         0.9040791982        7.3309970142        5.6768519419
  O         3.4609893174        2.9187174087        5.6937011794
  O        -6.7558878459       11.7635589036        5.6743788647
  O        -4.2521961555        7.3372086298        5.7027847407
  O        -1.6572155519        2.8941194530        5.6873459235
 Fe         7.7784977714       10.2700079915        6.4323848119
 Fe        10.3381260422        5.8251158319        6.4375976631
 Fe        12.8993538990        1.3913269146        6.4355141263
 Fe         2.6545886975       10.2683940533        6.4383317563
 Fe         5.1814130878        5.8563488470        6.3282786508
 Fe         7.7765938058        1.3523022853        6.4023188135
 Fe        -2.4698328580       10.2560125078        6.4407406387
 Fe         0.0942523081        5.8352532774        6.4393783680
 Fe         2.6629131153        1.3981720429        6.4367039334
  O         7.8480739354       10.3828043219        8.2605882160
  H         7.8750125826        9.5603905326        8.7827901689
  H         5.3498057895       10.6156330596        6.6790200809
  O        10.3749231899        5.9294863949        8.2662975719
  H        10.5257174344        5.1138957703        8.7707953674
  H         7.9084936171        6.2369412982        6.6529529004
  O        12.9552222344        1.5024151536        8.2637144035
  H        13.0145564573        0.6787504461        8.7804430205
  H        10.4747121342        1.7221990468        6.6793427309
  O         2.6992192132       10.3842610553        8.2637658620
  H         2.7739622139        9.5572411585        8.7746922859
  H         0.2236137374       10.6141143354        6.6678089148
  O         5.0430489967        6.2662565235        8.0768906273
  H         5.1205447871        5.5947890530        8.8353784143
  H         2.8233035468        6.1767230491        6.6712614507
  O         7.9130700593        1.3088907988        8.2348449160
  H         7.9199790466        0.4535454331        8.6982612343
  H         5.3452186034        1.7379951299        6.6885009732
  O        -2.4167132250       10.3842624817        8.2655051747
  H        -2.3656824025        9.5587355906        8.7794922812
  H        -4.9133519443       10.6124703043        6.6843181958
  O         0.1208637491        5.9389216984        8.2625719063
  H         0.2131467108        5.1244430956        8.7884664480
  H        -2.3375216157        6.1787324889        6.6697215708
  O         2.7159520414        1.4982618484        8.2655115988
  H         2.7578341631        0.6750381426        8.7843500440
  H         0.2168948313        1.7347345992        6.6813117243
  C         7.3903925371        3.9730743109        9.1636448578
  C         6.2497909997        4.3378422284        9.9886815777
  H         7.2213444531        2.9075362596        8.9520163167
  H         7.2035301364        4.4629819024        8.1458528365
  H         8.3846809452        4.2409683451        9.5359497567
  N         5.4379737241        4.9095145508       10.6849615673
     168
 i =       13, E =     -8144.3565319680
 Fe         5.0938794100       11.8196869300        0.3885799900
 Fe         7.6575796300        7.3792284900        0.3885799900
 Fe        10.2212798400        2.9387700600        0.3885799900
 Fe        -0.0335205200       11.8196869300        0.3885799900
 Fe         2.5301797000        7.3792284900        0.3885799900
 Fe         5.0938799200        2.9387700600        0.3885799900
 Fe        -5.1609204400       11.8196869300        0.3885799900
 Fe        -2.5972202200        7.3792284900        0.3885799900
 Fe        -0.0335200000        2.9387700600        0.3885799900
  O         8.4519195100        8.9577468800        1.1642700400
  O        11.0156197300        4.5172884400        1.1642700400
  O        13.5793199500        0.0768300000        1.1642700400
  O         3.3245195900        8.9577468800        1.1642700400
  O         5.8882198100        4.5172884400        1.1642700400
  O         8.4519200300        0.0768300000        1.1642700400
  O        -1.8028803300        8.9577468800        1.1642700400
  O         0.7608198900        4.5172884400        1.1642700400
  O         3.3245201100        0.0768300000        1.1642700400
  O         8.4568493000       11.7183869300        1.1650400200
  O        11.0205495200        7.2779284900        1.1650400200
  O        13.5842497300        2.8374700500        1.1650400200
  O         3.3294493700       11.7183869300        1.1650400200
  O         5.8931495900        7.2779284900        1.1650400200
  O         8.4568498100        2.8374700500        1.1650400200
  O        -1.7979505500       11.7183869300        1.1650400200
  O         0.7657496700        7.2779284900        1.1650400200
  O         3.3294498900        2.8374700500        1.1650400200
  O         6.0627194200       10.3425368500        1.1660399400
  O         8.6264196400        5.9020784100        1.1660399400
  O        11.1901198600        1.4616199700        1.1660399400
  O         0.9353195000       10.3425368500        1.1660399400
  O         3.4990197200        5.9020784100        1.1660399400
  O         6.0627199400        1.4616199700        1.1660399400
  O        -4.1920804200       10.3425368500        1.1660399400
  O        -1.6283802000        5.9020784100        1.1660399400
  O         0.9353200200        1.4616199700        1.1660399400
 Fe         7.6576695000       13.2997167500        1.9292099500
 Fe        10.2213697200        8.8592583200        1.9292099500
 Fe        12.7850699400        4.4187998800        1.9292099500
 Fe         2.5302695800       13.2997167500        1.9292099500
 Fe         5.0939698000        8.8592583200        1.9292099500
 Fe         7.6576700200        4.4187998800        1.9292099500
 Fe        -2.5971303400       13.2997167500        1.9292099500
 Fe        -0.0334301200        8.8592583200        1.9292099500
 Fe         2.5302701000        4.4187998800        1.9292099500
 Fe         7.6573893600       10.3392168700        2.7128999200
 Fe        10.2210895800        5.8987584300        2.7128999200
 Fe        12.7847898000        1.4582999900        2.7128999200
 Fe         2.5299894400       10.3392168700        2.7128999200
 Fe         5.0936896600        5.8987584300        2.7128999200
 Fe         7.6573898800        1.4582999900        2.7128999200
 Fe        -2.5974104800       10.3392168700        2.7128999200
 Fe        -0.0337102600        5.8987584300        2.7128999200
 Fe         2.5299899600        1.4582999900        2.7128999200
  O         4.1056658987       13.3200266509        3.5327901839
  O         6.6623541116        8.8812346462        3.5036409600
  O         9.2390044905        4.4400154196        3.5547831767
  O        -1.0484581651       13.2990811622        3.4739278647
  O         1.5676140832        8.8956835160        3.5827188500
  O         4.1125857989        4.4373057696        3.5441706935
  O        -6.1347199147       13.3284643742        3.5634912330
  O        -3.5913046437        8.8773753513        3.5252014960
  O        -1.0408719108        4.4343818701        3.5119079673
  O         6.8103780445       11.8429433286        3.5447088952
  O         9.3815442271        7.4313922332        3.5019905170
  O        11.9371296381        2.9874035506        3.5042440354
  O         1.6820617638       11.8590029560        3.5067810114
  O         4.2452897882        7.4302784640        3.4973999383
  O         6.8175824423        2.9659583151        3.5407915238
  O        -3.4364543079       11.8936059355        3.4628992450
  O        -0.8844372754        7.3865785701        3.5637457594
  O         1.6853876424        2.9735603125        3.5252309805
  O         9.4257036357       10.2235898370        3.4971005435
  O        11.9906586461        5.7807071981        3.4899224678
  O        14.5328161490        1.3588952661        3.5305555663
  O         4.2990219897       10.2302679192        3.4922854994
  O         6.8546944016        5.7793286925        3.5132374861
  O         9.4166069636        1.3550721331        3.5125486858
  O        -0.8639108497       10.2522670236        3.5527270153
  O         1.7202184630        5.7856224337        3.5057662295
  O         4.3179721897        1.3324153126        3.4500224942
 Fe         5.0345792258       11.8323461219        4.4382079997
 Fe         7.6101259955        7.4098548501        4.4123824515
 Fe        10.1714341856        2.9513824650        4.4391469324
 Fe        -0.0950871476       11.8474557456        4.4293388091
 Fe         2.4755973152        7.3857407485        4.4400822341
 Fe         5.0317358016        2.9378663171        4.4252261403
 Fe        -5.2029270689       11.8274839134        4.4235738404
 Fe        -2.6658098148        7.3903027724        4.4328666854
 Fe        -0.0965056785        2.9652884984        4.4284542099
 Fe         7.6106205253       13.1816715698        4.8467516399
 Fe        10.1793584525        8.7465014098        4.8269512650
 Fe        12.7365025706        4.3043781823        4.8229879161
 Fe         2.4930299843       13.1764791407        4.8153190557
 Fe         5.0457534538        8.7563858175        4.8104652010
 Fe         7.6113936443        4.2984227472        4.8495611942
 Fe        -2.6456444799       13.1845730193        4.7969124948
 Fe        -0.0817972903        8.7413692902        4.8569806594
 Fe         2.4734450040        4.2965839204        4.8396303558
  O         5.8550998751       10.3463863759        5.8810280838
  O         8.4190480565        5.9137605863        5.8816603301
  O        10.9769029352        1.4617613201        5.8794307744
  O         0.7255199011       10.3459128003        5.8852323860
  O         3.2654991835        5.9084840873        5.8354399478
  O         5.8549452603        1.4580527555        5.8826797152
  O        -4.3977063631       10.3483943947        5.8823934359
  O        -1.8390137767        5.9048105562        5.8791081335
  O         0.7257493839        1.4672076900        5.8850282630
  O         5.9216547671       13.1720028514        5.7037199531
  O         8.4963371551        8.7321749040        5.6978707390
  O        11.0571894631        4.2922441564        5.7076525321
  O         0.8114216385       13.1519905311        5.6775870776
  O         3.3719401797        8.7327074119        5.6963736964
  O         5.9293135340        4.2835129561        5.7257190252
  O        -4.3206967393       13.1701603489        5.6923783513
  O        -1.7731897480        8.7287257102        5.7026248097
  O         0.7912159019        4.2868088022        5.7047697079
  O         3.4667291050       11.7751837781        5.6842964195
  O         6.0555926151        7.3478535767        5.6257824964
  O         8.5955730373        2.8829958434        5.7146131529
  O        -1.6661281078       11.7868180665        5.6842362124
  O         0.9023236935        7.3361993803        5.6900881072
  O         3.4737916371        2.8932227103        5.6863105261
  O        -6.7742989349       11.7713599228        5.6828887899
  O        -4.2276223939        7.3329896652        5.6870437760
  O        -1.6613911335        2.8965574386        5.6836521915
 Fe         7.7824503183       10.2707251407        6.4363179806
 Fe        10.3422280172        5.8297439937        6.4379378999
 Fe        12.9056639676        1.3931919503        6.4372935143
 Fe         2.6548557722       10.2671970486        6.4376865095
 Fe         5.1955092120        5.8618771833        6.3533265664
 Fe         7.7818031604        1.3514943872        6.4029034749
 Fe        -2.4714946196       10.2749485497        6.4371346465
 Fe         0.0897357915        5.8296486425        6.4400639976
 Fe         2.6565349808        1.3862978087        6.4365349613
  O         7.8499241097       10.3841050925        8.2628426271
  H         7.8716468678        9.5611217827        8.7839486594
  H         5.3522535063       10.6157611008        6.6822633568
  O        10.3650843265        5.9255640818        8.2725844412
  H        10.5487292043        5.1108109114        8.7731178176
  H         7.9055028384        6.2508575068        6.6489031171
  O        12.9512704109        1.5042809968        8.2658977631
  H        13.0142621245        0.6793652980        8.7805383548
  H        10.4721508607        1.7211347458        6.6829945521
  O         2.6957807806       10.3826605401        8.2643743454
  H         2.7777581018        9.5569142490        8.7763362286
  H         0.2228018832       10.6213394154        6.6845245247
  O         5.0281622094        6.3159393946        8.0953185510
  H         5.0509408072        5.6877523651        8.8554871038
  H         2.8292867800        6.1794356963        6.6753759110
  O         7.9221222340        1.2668942302        8.2389642347
  H         7.9286406326        0.3977028639        8.6794325634
  H         5.3419641857        1.7299093249        6.6763075920
  O        -2.4152545139       10.3849512587        8.2654083602
  H        -2.3647021829        9.5595102945        8.7806880876
  H        -4.9096730196       10.6150545683        6.6789636581
  O         0.1137369140        5.9394773162        8.2655785185
  H         0.2159506160        5.1259522583        8.7917534341
  H        -2.3415539756        6.1757018353        6.6799912013
  O         2.7187115490        1.4949708990        8.2618445598
  H         2.7576090673        0.6754998466        8.7869645171
  H         0.2199536610        1.7379311049        6.6840154570
  C         7.3451326627        3.9819797068        9.1589839960
  C         6.3092153690        4.4204960652       10.0649621661
  H         7.2976618420        2.8949698717        8.9861284659
  H         7.2152836246        4.4767358363        8.1758215922
  H         8.3439194116        4.2405331912        9.5381111765
  N         5.4383922099        4.7829590702       10.7591477617
     168
 i =       14, E =     -8144.3682054520
 Fe         5.0938794100       11.8196869300        0.3885799900
 Fe         7.6575796300        7.3792284900        0.3885799900
 Fe        10.2212798400        2.9387700600        0.3885799900
 Fe        -0.0335205200       11.8196869300        0.3885799900
 Fe         2.5301797000        7.3792284900        0.3885799900
 Fe         5.0938799200        2.9387700600        0.3885799900
 Fe        -5.1609204400       11.8196869300        0.3885799900
 Fe        -2.5972202200        7.3792284900        0.3885799900
 Fe        -0.0335200000        2.9387700600        0.3885799900
  O         8.4519195100        8.9577468800        1.1642700400
  O        11.0156197300        4.5172884400        1.1642700400
  O        13.5793199500        0.0768300000        1.1642700400
  O         3.3245195900        8.9577468800        1.1642700400
  O         5.8882198100        4.5172884400        1.1642700400
  O         8.4519200300        0.0768300000        1.1642700400
  O        -1.8028803300        8.9577468800        1.1642700400
  O         0.7608198900        4.5172884400        1.1642700400
  O         3.3245201100        0.0768300000        1.1642700400
  O         8.4568493000       11.7183869300        1.1650400200
  O        11.0205495200        7.2779284900        1.1650400200
  O        13.5842497300        2.8374700500        1.1650400200
  O         3.3294493700       11.7183869300        1.1650400200
  O         5.8931495900        7.2779284900        1.1650400200
  O         8.4568498100        2.8374700500        1.1650400200
  O        -1.7979505500       11.7183869300        1.1650400200
  O         0.7657496700        7.2779284900        1.1650400200
  O         3.3294498900        2.8374700500        1.1650400200
  O         6.0627194200       10.3425368500        1.1660399400
  O         8.6264196400        5.9020784100        1.1660399400
  O        11.1901198600        1.4616199700        1.1660399400
  O         0.9353195000       10.3425368500        1.1660399400
  O         3.4990197200        5.9020784100        1.1660399400
  O         6.0627199400        1.4616199700        1.1660399400
  O        -4.1920804200       10.3425368500        1.1660399400
  O        -1.6283802000        5.9020784100        1.1660399400
  O         0.9353200200        1.4616199700        1.1660399400
 Fe         7.6576695000       13.2997167500        1.9292099500
 Fe        10.2213697200        8.8592583200        1.9292099500
 Fe        12.7850699400        4.4187998800        1.9292099500
 Fe         2.5302695800       13.2997167500        1.9292099500
 Fe         5.0939698000        8.8592583200        1.9292099500
 Fe         7.6576700200        4.4187998800        1.9292099500
 Fe        -2.5971303400       13.2997167500        1.9292099500
 Fe        -0.0334301200        8.8592583200        1.9292099500
 Fe         2.5302701000        4.4187998800        1.9292099500
 Fe         7.6573893600       10.3392168700        2.7128999200
 Fe        10.2210895800        5.8987584300        2.7128999200
 Fe        12.7847898000        1.4582999900        2.7128999200
 Fe         2.5299894400       10.3392168700        2.7128999200
 Fe         5.0936896600        5.8987584300        2.7128999200
 Fe         7.6573898800        1.4582999900        2.7128999200
 Fe        -2.5974104800       10.3392168700        2.7128999200
 Fe        -0.0337102600        5.8987584300        2.7128999200
 Fe         2.5299899600        1.4582999900        2.7128999200
  O         4.0873197012       13.3106540481        3.5047894554
  O         6.6588179274        8.8769093523        3.4998958250
  O         9.2243061276        4.4345604932        3.5359353144
  O        -1.0239345464       13.3219338008        3.5335690740
  O         1.5197296414        8.8775754853        3.5137416422
  O         4.0964929339        4.4340524434        3.5189064032
  O        -6.1652684116       13.3182642608        3.5185056773
  O        -3.5951564253        8.8779499924        3.5241404904
  O        -1.0313566631        4.4313397688        3.5254242650
  O         6.8217475366       11.8722721970        3.5105914497
  O         9.3831785803        7.4318729265        3.5017264950
  O        11.9381934290        2.9798832157        3.5165654776
  O         1.6905289241       11.8772362617        3.4837641136
  O         4.2477062363        7.4355064427        3.4883828242
  O         6.8231760152        2.9796585520        3.5275907412
  O        -3.4438439259       11.8604654539        3.5146481669
  O        -0.8747142114        7.4355038942        3.4999982030
  O         1.6885976322        2.9906058982        3.5049454133
  O         9.4269131454       10.2243289000        3.4964680444
  O        11.9831660403        5.7846527364        3.5035479881
  O        14.5507847840        1.3372186396        3.4952898711
  O         4.3021323327       10.2259097023        3.4871848301
  O         6.8629390639        5.7691885758        3.4945619868
  O         9.4278062253        1.3434140250        3.4854060915
  O        -0.8271596049       10.2153067256        3.4827530778
  O         1.7337577522        5.7737714835        3.4854365880
  O         4.2931253478        1.3510706708        3.5087279260
 Fe         5.0425949228       11.8374364085        4.4165632781
 Fe         7.6084094727        7.4018697789        4.4067499313
 Fe        10.1617390191        2.9467421948        4.4242228283
 Fe        -0.0929107355       11.8133384261        4.4044261889
 Fe         2.4640982468        7.3965058380        4.4127295729
 Fe         5.0403764966        2.9649784322        4.4257337782
 Fe        -5.2276524897       11.8385684647        4.4211988191
 Fe        -2.6463789937        7.3970151911        4.4204898702
 Fe        -0.0933307166        2.9466468247        4.4203614007
 Fe         7.6117126952       13.1840734166        4.8465471373
 Fe        10.1776969089        8.7443768257        4.8323170738
 Fe        12.7345591892        4.3040892097        4.8305114558
 Fe         2.4891987883       13.1798608590        4.8082079906
 Fe         5.0440741063        8.7544234281        4.8079194699
 Fe         7.6096093242        4.3031126218        4.8505736300
 Fe        -2.6462293265       13.1815163655        4.8151812146
 Fe        -0.0836733295        8.7404976426        4.8521800008
 Fe         2.4781012251        4.2951557954        4.8430128488
  O         5.8548636646       10.3485594465        5.8781543812
  O         8.4195627398        5.9141420049        5.8824688201
  O        10.9764539037        1.4623149743        5.8783944395
  O         0.7247327358       10.3501721887        5.8885058690
  O         3.2692928577        5.9118832245        5.8391624743
  O         5.8600301407        1.4657838452        5.8766653406
  O        -4.3998614294       10.3513215886        5.8773103746
  O        -1.8403607693        5.9067064947        5.8801722802
  O         0.7260419852        1.4660775311        5.8877078761
  O         5.9205080249       13.1717717588        5.7005072547
  O         8.4891253839        8.7321164201        5.6924623883
  O        11.0467437467        4.2886950305        5.7019755753
  O         0.7943577459       13.1481401094        5.6589102861
  O         3.3680744211        8.7315077011        5.6897608237
  O         5.9354267697        4.2947060193        5.7379113477
  O        -4.3288042818       13.1718301849        5.6835302622
  O        -1.7726051812        8.7314716808        5.7105434302
  O         0.7900000172        4.2839599032        5.6993319879
  O         3.4690513597       11.7740475428        5.6718202190
  O         6.0548989470        7.3424992313        5.6221261848
  O         8.5941171382        2.8865196721        5.7152504365
  O        -1.6570063029       11.7822799430        5.6776925466
  O         0.9066115143        7.3374244103        5.6930017652
  O         3.4778695770        2.8839858557        5.6810517972
  O        -6.7805965361       11.7740973857        5.6896299509
  O        -4.2182379080        7.3310011259        5.6821588511
  O        -1.6603073992        2.8953608703        5.6820340527
 Fe         7.7818325050       10.2702457791        6.4379227820
 Fe        10.3431173459        5.8310132892        6.4383231624
 Fe        12.9059188060        1.3926107443        6.4379615076
 Fe         2.6577927306       10.2669810420        6.4388871277
 Fe         5.2010311135        5.8662092603        6.3841580376
 Fe         7.7852822056        1.3520073204        6.4086718711
 Fe        -2.4741480791       10.2807997573        6.4386886288
 Fe         0.0902789755        5.8284117309        6.4409991871
 Fe         2.6545445661        1.3823262856        6.4373295299
  O         7.8507546435       10.3845839167        8.2639907236
  H         7.8696048455        9.5615873838        8.7850969229
  H         5.3529480874       10.6127730887        6.6825800243
  O        10.3619632867        5.9229510532        8.2749971230
  H        10.5617547627        5.1094479992        8.7737540506
  H         7.9071762121        6.2575144057        6.6477740470
  O        12.9497867471        1.5054028990        8.2670940946
  H        13.0133874882        0.6799429820        8.7811613068
  H        10.4720059994        1.7191259498        6.6835788396
  O         2.6937994294       10.3828624979        8.2666163460
  H         2.7802897298        9.5563376479        8.7769689823
  H         0.2239319698       10.6230417999        6.6908424170
  O         5.0187376309        6.3364643853        8.1232061200
  H         5.0058100664        5.7231047181        8.8766643602
  H         2.8303372688        6.1826451603        6.6773780496
  O         7.9258992476        1.2512715573        8.2461979398
  H         7.9345404809        0.3706118434        8.6676042963
  H         5.3398658849        1.7245136495        6.6706167960
  O        -2.4139978893       10.3870292768        8.2673430190
  H        -2.3640716138        9.5598928148        8.7801328049
  H        -4.9063809977       10.6179003508        6.6776260155
  O         0.1106513954        5.9401354623        8.2680508511
  H         0.2168181881        5.1265047500        8.7935933195
  H        -2.3418459433        6.1748277473        6.6828706270
  O         2.7187166871        1.4934470910        8.2614844794
  H         2.7581574507        0.6754791988        8.7888777882
  H         0.2222456017        1.7401864948        6.6868716763
  C         7.3528563366        4.0002908173        9.1605482535
  C         6.3032916787        4.4048141565       10.0717467692
  H         7.3160391348        2.9044684950        9.0149224604
  H         7.2122297026        4.4789549692        8.1824316329
  H         8.3479494534        4.2476952129        9.5469501524
  N         5.4586900185        4.7514779268       10.8045310130
     168
 i =       15, E =     -8144.3618844896
 Fe         5.0938794100       11.8196869300        0.3885799900
 Fe         7.6575796300        7.3792284900        0.3885799900
 Fe        10.2212798400        2.9387700600        0.3885799900
 Fe        -0.0335205200       11.8196869300        0.3885799900
 Fe         2.5301797000        7.3792284900        0.3885799900
 Fe         5.0938799200        2.9387700600        0.3885799900
 Fe        -5.1609204400       11.8196869300        0.3885799900
 Fe        -2.5972202200        7.3792284900        0.3885799900
 Fe        -0.0335200000        2.9387700600        0.3885799900
  O         8.4519195100        8.9577468800        1.1642700400
  O        11.0156197300        4.5172884400        1.1642700400
  O        13.5793199500        0.0768300000        1.1642700400
  O         3.3245195900        8.9577468800        1.1642700400
  O         5.8882198100        4.5172884400        1.1642700400
  O         8.4519200300        0.0768300000        1.1642700400
  O        -1.8028803300        8.9577468800        1.1642700400
  O         0.7608198900        4.5172884400        1.1642700400
  O         3.3245201100        0.0768300000        1.1642700400
  O         8.4568493000       11.7183869300        1.1650400200
  O        11.0205495200        7.2779284900        1.1650400200
  O        13.5842497300        2.8374700500        1.1650400200
  O         3.3294493700       11.7183869300        1.1650400200
  O         5.8931495900        7.2779284900        1.1650400200
  O         8.4568498100        2.8374700500        1.1650400200
  O        -1.7979505500       11.7183869300        1.1650400200
  O         0.7657496700        7.2779284900        1.1650400200
  O         3.3294498900        2.8374700500        1.1650400200
  O         6.0627194200       10.3425368500        1.1660399400
  O         8.6264196400        5.9020784100        1.1660399400
  O        11.1901198600        1.4616199700        1.1660399400
  O         0.9353195000       10.3425368500        1.1660399400
  O         3.4990197200        5.9020784100        1.1660399400
  O         6.0627199400        1.4616199700        1.1660399400
  O        -4.1920804200       10.3425368500        1.1660399400
  O        -1.6283802000        5.9020784100        1.1660399400
  O         0.9353200200        1.4616199700        1.1660399400
 Fe         7.6576695000       13.2997167500        1.9292099500
 Fe        10.2213697200        8.8592583200        1.9292099500
 Fe        12.7850699400        4.4187998800        1.9292099500
 Fe         2.5302695800       13.2997167500        1.9292099500
 Fe         5.0939698000        8.8592583200        1.9292099500
 Fe         7.6576700200        4.4187998800        1.9292099500
 Fe        -2.5971303400       13.2997167500        1.9292099500
 Fe        -0.0334301200        8.8592583200        1.9292099500
 Fe         2.5302701000        4.4187998800        1.9292099500
 Fe         7.6573893600       10.3392168700        2.7128999200
 Fe        10.2210895800        5.8987584300        2.7128999200
 Fe        12.7847898000        1.4582999900        2.7128999200
 Fe         2.5299894400       10.3392168700        2.7128999200
 Fe         5.0936896600        5.8987584300        2.7128999200
 Fe         7.6573898800        1.4582999900        2.7128999200
 Fe        -2.5974104800       10.3392168700        2.7128999200
 Fe        -0.0337102600        5.8987584300        2.7128999200
 Fe         2.5299899600        1.4582999900        2.7128999200
  O         4.1106093922       13.3208616894        3.5457283019
  O         6.6733552807        8.8827691787        3.5261308715
  O         9.2163774501        4.4330283682        3.5254508222
  O        -1.0270486574       13.3205597826        3.5303294394
  O         1.5109333698        8.8713261139        3.4995354499
  O         4.0848568664        4.4294981964        3.4989364241
  O        -6.1860863071       13.3085091564        3.4837756945
  O        -3.5975548365        8.8755760284        3.5208198210
  O        -1.0317284568        4.4304729425        3.5250778284
  O         6.8275840849       11.8939871778        3.4800887672
  O         9.3847672641        7.4339024154        3.4986648916
  O        11.9395516372        2.9826938113        3.5149284922
  O         1.6880449698       11.8513935006        3.5216882016
  O         4.2457322513        7.4206449225        3.5083844336
  O         6.8241900221        2.9871090040        3.5199438759
  O        -3.4454668410       11.8621407851        3.5121091795
  O        -0.8726244796        7.4430997275        3.4918152086
  O         1.6889008112        3.0034450914        3.4863169097
  O         9.4283154915       10.2250304507        3.4946511224
  O        11.9835987967        5.7827074949        3.5018573833
  O        14.5679253153        1.3251447245        3.4639312298
  O         4.2916431996       10.2327886225        3.5074943755
  O         6.8677107693        5.7630212105        3.4842135262
  O         9.4090720124        1.3570373015        3.5217051040
  O        -0.8211717642       10.2094722719        3.4736126036
  O         1.7437753716        5.7686444406        3.4683843871
  O         4.2941998581        1.3503005408        3.5096834735
 Fe         5.0610173997       11.8328739974        4.4228758677
 Fe         7.6120645090        7.3905590942        4.4088427734
 Fe        10.1636179774        2.9583933298        4.4266080323
 Fe        -0.1030007410       11.8098664320        4.4091496387
 Fe         2.4565542146        7.3949973542        4.4106097419
 Fe         5.0395711964        2.9712481214        4.4197140548
 Fe        -5.2333587253       11.8476522179        4.4135728458
 Fe        -2.6447877759        7.3958908021        4.4173716180
 Fe        -0.0933298277        2.9382534612        4.4121992317
 Fe         7.6125613693       13.1848643321        4.8394267346
 Fe        10.1765559002        8.7444800303        4.8325834409
 Fe        12.7359026168        4.3050724213        4.8316020326
 Fe         2.4881488790       13.1792020610        4.8227949115
 Fe         5.0425653083        8.7523993866        4.8135196379
 Fe         7.6082233763        4.3037710643        4.8512633459
 Fe        -2.6467759447       13.1815848525        4.8153828120
 Fe        -0.0833714501        8.7411358118        4.8520035853
 Fe         2.4789101634        4.2951328697        4.8369422527
  O         5.8563590416       10.3463122793        5.8779835065
  O         8.4211353995        5.9140213745        5.8829367324
  O        10.9775476483        1.4640265871        5.8778076623
  O         0.7248580086       10.3498466984        5.8883693348
  O         3.2714411996        5.9111958327        5.8394650067
  O         5.8618981954        1.4675033948        5.8772825162
  O        -4.4012569683       10.3514021312        5.8761049499
  O        -1.8394465935        5.9073532611        5.8797093882
  O         0.7251403128        1.4646158609        5.8883293239
  O         5.9253026627       13.1744658152        5.7029508883
  O         8.4865935822        8.7313204404        5.6902925189
  O        11.0491361291        4.2921119727        5.7032899492
  O         0.7871805065       13.1480976090        5.6574822513
  O         3.3631744239        8.7321083873        5.6856341011
  O         5.9349416764        4.2985346877        5.7422532098
  O        -4.3290879475       13.1719156596        5.6838456388
  O        -1.7733930804        8.7320665928        5.7078717627
  O         0.7896708342        4.2832608789        5.6938224293
  O         3.4745435431       11.7692115162        5.6671437479
  O         6.0562318048        7.3402528533        5.6229293418
  O         8.5929709477        2.8878377132        5.7165445762
  O        -1.6607542965       11.7813760606        5.6793277591
  O         0.9039705901        7.3360539803        5.6924645598
  O         3.4782747574        2.8843187237        5.6792014576
  O        -6.7820136184       11.7747507751        5.6893304638
  O        -4.2187039390        7.3308672163        5.6796099552
  O        -1.6598187372        2.8956378481        5.6805597198
 Fe         7.7812112617       10.2697359769        6.4376831985
 Fe        10.3434208707        5.8320515621        6.4385727629
 Fe        12.9054612204        1.3936986269        6.4376760434
 Fe         2.6578850306       10.2673717783        6.4378381246
 Fe         5.2026063863        5.8692878682        6.3949374954
 Fe         7.7877621628        1.3525118647        6.4152797964
 Fe        -2.4749521188       10.2798710152        6.4389105944
 Fe         0.0902725340        5.8265931320        6.4410871655
 Fe         2.6542952604        1.3821971560        6.4370825878
  O         7.8507315638       10.3842452089        8.2637863508
  H         7.8682004478        9.5620958007        8.7862330457
  H         5.3524556178       10.6110282330        6.6806102131
  O        10.3605941953        5.9207936097        8.2751344833
  H        10.5706365045        5.1089934021        8.7735844255
  H         7.9095229964        6.2618012136        6.6469511965
  O        12.9491055977        1.5054997864        8.2668814601
  H        13.0124521153        0.6806441113        8.7819437090
  H        10.4712148364        1.7170220929        6.6826124234
  O         2.6933642493       10.3820021952        8.2657062683
  H         2.7819053477        9.5566385951        8.7774488370
  H         0.2251990078       10.6237075485        6.6908659788
  O         5.0116685942        6.3468710523        8.1354313500
  H         4.9845119021        5.7442269141        8.8916737248
  H         2.8303648668        6.1862328211        6.6750535074
  O         7.9272575716        1.2419180834        8.2507628157
  H         7.9390123865        0.3554705617        8.6595379077
  H         5.3391203047        1.7240073887        6.6706615829
  O        -2.4133820928       10.3880208670        8.2673664481
  H        -2.3636603147        9.5607268178        8.7798997896
  H        -4.9054025979       10.6196049678        6.6777067429
  O         0.1093730017        5.9404588503        8.2683377113
  H         0.2171822250        5.1273149120        8.7942857293
  H        -2.3409122279        6.1757018560        6.6821681542
  O         2.7186907968        1.4928725742        8.2616228747
  H         2.7586148732        0.6754578716        8.7900481418
  H         0.2234648276        1.7425890990        6.6878725603
  C         7.3459467643        4.0018093850        9.1627096004
  C         6.3136550237        4.4126020875       10.0911050990
  H         7.3369500421        2.9015955629        9.0220800810
  H         7.2132208296        4.4799911484        8.1907133859
  H         8.3403715442        4.2596582121        9.5488371270
  N         5.4615848449        4.7288970718       10.8267195845
     168
 i =       16, E =     -8144.3543266477
 Fe         5.0938794100       11.8196869300        0.3885799900
 Fe         7.6575796300        7.3792284900        0.3885799900
 Fe        10.2212798400        2.9387700600        0.3885799900
 Fe        -0.0335205200       11.8196869300        0.3885799900
 Fe         2.5301797000        7.3792284900        0.3885799900
 Fe         5.0938799200        2.9387700600        0.3885799900
 Fe        -5.1609204400       11.8196869300        0.3885799900
 Fe        -2.5972202200        7.3792284900        0.3885799900
 Fe        -0.0335200000        2.9387700600        0.3885799900
  O         8.4519195100        8.9577468800        1.1642700400
  O        11.0156197300        4.5172884400        1.1642700400
  O        13.5793199500        0.0768300000        1.1642700400
  O         3.3245195900        8.9577468800        1.1642700400
  O         5.8882198100        4.5172884400        1.1642700400
  O         8.4519200300        0.0768300000        1.1642700400
  O        -1.8028803300        8.9577468800        1.1642700400
  O         0.7608198900        4.5172884400        1.1642700400
  O         3.3245201100        0.0768300000        1.1642700400
  O         8.4568493000       11.7183869300        1.1650400200
  O        11.0205495200        7.2779284900        1.1650400200
  O        13.5842497300        2.8374700500        1.1650400200
  O         3.3294493700       11.7183869300        1.1650400200
  O         5.8931495900        7.2779284900        1.1650400200
  O         8.4568498100        2.8374700500        1.1650400200
  O        -1.7979505500       11.7183869300        1.1650400200
  O         0.7657496700        7.2779284900        1.1650400200
  O         3.3294498900        2.8374700500        1.1650400200
  O         6.0627194200       10.3425368500        1.1660399400
  O         8.6264196400        5.9020784100        1.1660399400
  O        11.1901198600        1.4616199700        1.1660399400
  O         0.9353195000       10.3425368500        1.1660399400
  O         3.4990197200        5.9020784100        1.1660399400
  O         6.0627199400        1.4616199700        1.1660399400
  O        -4.1920804200       10.3425368500        1.1660399400
  O        -1.6283802000        5.9020784100        1.1660399400
  O         0.9353200200        1.4616199700        1.1660399400
 Fe         7.6576695000       13.2997167500        1.9292099500
 Fe        10.2213697200        8.8592583200        1.9292099500
 Fe        12.7850699400        4.4187998800        1.9292099500
 Fe         2.5302695800       13.2997167500        1.9292099500
 Fe         5.0939698000        8.8592583200        1.9292099500
 Fe         7.6576700200        4.4187998800        1.9292099500
 Fe        -2.5971303400       13.2997167500        1.9292099500
 Fe        -0.0334301200        8.8592583200        1.9292099500
 Fe         2.5302701000        4.4187998800        1.9292099500
 Fe         7.6573893600       10.3392168700        2.7128999200
 Fe        10.2210895800        5.8987584300        2.7128999200
 Fe        12.7847898000        1.4582999900        2.7128999200
 Fe         2.5299894400       10.3392168700        2.7128999200
 Fe         5.0936896600        5.8987584300        2.7128999200
 Fe         7.6573898800        1.4582999900        2.7128999200
 Fe        -2.5974104800       10.3392168700        2.7128999200
 Fe        -0.0337102600        5.8987584300        2.7128999200
 Fe         2.5299899600        1.4582999900        2.7128999200
  O         4.1426165428       13.3380223071        3.6022140661
  O         6.6734422237        8.8872789265        3.5296574846
  O         9.2114309313        4.4337943107        3.5183402107
  O        -1.0533725913       13.3002131123        3.4759862346
  O         1.5433935966        8.8824402688        3.5515337545
  O         4.1081577705        4.4365865531        3.5366399403
  O        -6.1825980698       13.3052680698        3.4836644248
  O        -3.6003979691        8.8702302838        3.5136692786
  O        -1.0402147788        4.4276479761        3.5087226331
  O         6.8260774677       11.8935635101        3.4788238155
  O         9.3860872639        7.4377203361        3.4932531251
  O        11.9400690490        2.9943369531        3.5014725451
  O         1.6788151875       11.8178806128        3.5709246482
  O         4.2442879031        7.4176285463        3.5091487287
  O         6.8216614842        2.9920313959        3.5102090561
  O        -3.4430494589       11.8950198260        3.4609620955
  O        -0.8764457809        7.4040987447        3.5483061262
  O         1.6853680194        2.9788257653        3.5198273746
  O         9.4319487327       10.2258900626        3.4878162269
  O        11.9883965592        5.7755945985        3.4892711560
  O        14.5702216657        1.3292765935        3.4612829493
  O         4.2954058525       10.2344983204        3.5027663877
  O         6.8739711899        5.7605271603        3.4754208301
  O         9.3843392549        1.3753311333        3.5734031664
  O        -0.8497711493       10.2335052448        3.5313731695
  O         1.7261061593        5.7853563979        3.5039118380
  O         4.3165206494        1.3315149674        3.4617045951
 Fe         5.0677548568       11.8207876760        4.4371948096
 Fe         7.6102080688        7.3899823358        4.4052294933
 Fe        10.1678382254        2.9739572029        4.4344132635
 Fe        -0.1134566820       11.8333226106        4.4336398304
 Fe         2.4707371877        7.3937467272        4.4341134907
 Fe         5.0426151232        2.9477151146        4.4188072478
 Fe        -5.2194566149       11.8472546802        4.4081489459
 Fe        -2.6593271445        7.3888851649        4.4232725034
 Fe        -0.1032534422        2.9426139426        4.4166556756
 Fe         7.6137215018       13.1857339262        4.8364602969
 Fe        10.1744961297        8.7482654902        4.8272379532
 Fe        12.7396527998        4.3083565352        4.8249349905
 Fe         2.4898324294       13.1754960761        4.8457844371
 Fe         5.0429512230        8.7498806474        4.8105670696
 Fe         7.6057529719        4.2996313599        4.8497120004
 Fe        -2.6480228115       13.1842270660        4.7948891130
 Fe        -0.0819160451        8.7407025904        4.8702193610
 Fe         2.4782804430        4.2946527935        4.8437624185
  O         5.8583269833       10.3426038948        5.8793635099
  O         8.4221078727        5.9151852713        5.8823213987
  O        10.9807870463        1.4680246818        5.8792597495
  O         0.7253721744       10.3476542220        5.8886654936
  O         3.2727248223        5.9087846755        5.8397563641
  O         5.8614598700        1.4603135971        5.8816826855
  O        -4.4009121563       10.3481288398        5.8772918347
  O        -1.8388737236        5.9065766604        5.8786767218
  O         0.7250715842        1.4647466479        5.8874018729
  O         5.9298436405       13.1734803628        5.7060752826
  O         8.4884311497        8.7272994007        5.6918965309
  O        11.0592306733        4.2970145611        5.7057796254
  O         0.7876484324       13.1545554597        5.6688021891
  O         3.3687407684        8.7356357883        5.6913970332
  O         5.9304755317        4.2984981900        5.7431768845
  O        -4.3224631390       13.1744199679        5.6856693168
  O        -1.7804522825        8.7304781908        5.7025600550
  O         0.7875278430        4.2856769632        5.6922526470
  O         3.4804225772       11.7652678747        5.6748754442
  O         6.0576763161        7.3406331574        5.6301189727
  O         8.5925996339        2.8897353337        5.7218181355
  O        -1.6728152891       11.7885394243        5.6846934648
  O         0.9050625673        7.3293630879        5.6919867939
  O         3.4793023285        2.8844701007        5.6778640580
  O        -6.7795052227       11.7727831029        5.6829602173
  O        -4.2285247321        7.3329516490        5.6777078087
  O        -1.6659795456        2.8979865205        5.6808224389
 Fe         7.7829483289       10.2680417012        6.4364307355
 Fe        10.3457384805        5.8314755026        6.4399484061
 Fe        12.9070868104        1.3929558611        6.4374526784
 Fe         2.6552853451       10.2676816948        6.4347764927
 Fe         5.1994739775        5.8712501599        6.3964498407
 Fe         7.7875033588        1.3557032211        6.4244799079
 Fe        -2.4743333000       10.2782243614        6.4370638326
 Fe         0.0876013679        5.8255584366        6.4407331664
 Fe         2.6545133191        1.3839586874        6.4368877348
  O         7.8499609350       10.3836896506        8.2632226500
  H         7.8671603467        9.5625576491        8.7872889559
  H         5.3502717645       10.6099037444        6.6781530580
  O        10.3606754061        5.9194552264        8.2754243529
  H        10.5771411206        5.1087480975        8.7729499715
  H         7.9125504579        6.2644608738        6.6477811814
  O        12.9488151509        1.5056129683        8.2662821523
  H        13.0113096318        0.6815321236        8.7823835567
  H        10.4692462901        1.7152131636        6.6818947459
  O         2.6941784703       10.3804060446        8.2621205006
  H         2.7829837741        9.5577000331        8.7774933865
  H         0.2259535046       10.6238783818        6.6888240120
  O         5.0038425882        6.3483144095        8.1402242155
  H         4.9836407576        5.7485142688        8.9033235647
  H         2.8287668221        6.1902279180        6.6715568240
  O         7.9264018058        1.2383024691        8.2549328392
  H         7.9429690932        0.3496642065        8.6540201388
  H         5.3408365431        1.7263890577        6.6734356783
  O        -2.4132310180       10.3875208958        8.2654062446
  H        -2.3633111842        9.5619863397        8.7806060091
  H        -4.9057398738       10.6209368087        6.6771911783
  O         0.1096575601        5.9402411383        8.2669934875
  H         0.2170208146        5.1283297437        8.7945414960
  H        -2.3391206412        6.1777291808        6.6802351921
  O         2.7185357196        1.4930069360        8.2619875849
  H         2.7591157425        0.6756285686        8.7904603958
  H         0.2241156263        1.7448113556        6.6867324310
  C         7.3328781206        3.9864960213        9.1696564966
  C         6.3367486174        4.4342326656       10.1166856529
  H         7.3582815227        2.8876168498        9.0136839099
  H         7.2122208906        4.4793347982        8.2036952661
  H         8.3263911618        4.2771427644        9.5490321857
  N         5.4500443184        4.7256806018       10.8255411417
     168
 i =       17, E =     -8144.3659801510
 Fe         5.0938794100       11.8196869300        0.3885799900
 Fe         7.6575796300        7.3792284900        0.3885799900
 Fe        10.2212798400        2.9387700600        0.3885799900
 Fe        -0.0335205200       11.8196869300        0.3885799900
 Fe         2.5301797000        7.3792284900        0.3885799900
 Fe         5.0938799200        2.9387700600        0.3885799900
 Fe        -5.1609204400       11.8196869300        0.3885799900
 Fe        -2.5972202200        7.3792284900        0.3885799900
 Fe        -0.0335200000        2.9387700600        0.3885799900
  O         8.4519195100        8.9577468800        1.1642700400
  O        11.0156197300        4.5172884400        1.1642700400
  O        13.5793199500        0.0768300000        1.1642700400
  O         3.3245195900        8.9577468800        1.1642700400
  O         5.8882198100        4.5172884400        1.1642700400
  O         8.4519200300        0.0768300000        1.1642700400
  O        -1.8028803300        8.9577468800        1.1642700400
  O         0.7608198900        4.5172884400        1.1642700400
  O         3.3245201100        0.0768300000        1.1642700400
  O         8.4568493000       11.7183869300        1.1650400200
  O        11.0205495200        7.2779284900        1.1650400200
  O        13.5842497300        2.8374700500        1.1650400200
  O         3.3294493700       11.7183869300        1.1650400200
  O         5.8931495900        7.2779284900        1.1650400200
  O         8.4568498100        2.8374700500        1.1650400200
  O        -1.7979505500       11.7183869300        1.1650400200
  O         0.7657496700        7.2779284900        1.1650400200
  O         3.3294498900        2.8374700500        1.1650400200
  O         6.0627194200       10.3425368500        1.1660399400
  O         8.6264196400        5.9020784100        1.1660399400
  O        11.1901198600        1.4616199700        1.1660399400
  O         0.9353195000       10.3425368500        1.1660399400
  O         3.4990197200        5.9020784100        1.1660399400
  O         6.0627199400        1.4616199700        1.1660399400
  O        -4.1920804200       10.3425368500        1.1660399400
  O        -1.6283802000        5.9020784100        1.1660399400
  O         0.9353200200        1.4616199700        1.1660399400
 Fe         7.6576695000       13.2997167500        1.9292099500
 Fe        10.2213697200        8.8592583200        1.9292099500
 Fe        12.7850699400        4.4187998800        1.9292099500
 Fe         2.5302695800       13.2997167500        1.9292099500
 Fe         5.0939698000        8.8592583200        1.9292099500
 Fe         7.6576700200        4.4187998800        1.9292099500
 Fe        -2.5971303400       13.2997167500        1.9292099500
 Fe        -0.0334301200        8.8592583200        1.9292099500
 Fe         2.5302701000        4.4187998800        1.9292099500
 Fe         7.6573893600       10.3392168700        2.7128999200
 Fe        10.2210895800        5.8987584300        2.7128999200
 Fe        12.7847898000        1.4582999900        2.7128999200
 Fe         2.5299894400       10.3392168700        2.7128999200
 Fe         5.0936896600        5.8987584300        2.7128999200
 Fe         7.6573898800        1.4582999900        2.7128999200
 Fe        -2.5974104800       10.3392168700        2.7128999200
 Fe        -0.0337102600        5.8987584300        2.7128999200
 Fe         2.5299899600        1.4582999900        2.7128999200
  O         4.1155496721       13.3302044996        3.5590646293
  O         6.6639223874        8.8824704910        3.5120185857
  O         9.2176259034        4.4329031352        3.5246740999
  O        -1.0414026086       13.3061686454        3.4972362166
  O         1.5363459186        8.8775690990        3.5333063720
  O         4.1055967263        4.4359732182        3.5329033290
  O        -6.1651550443       13.3112389502        3.5086072135
  O        -3.5976397287        8.8741797908        3.5164060923
  O        -1.0401257898        4.4290280819        3.5102410125
  O         6.8198702419       11.8781865880        3.4977802588
  O         9.3839250072        7.4357152467        3.4952347861
  O        11.9375014344        2.9923232489        3.5018386524
  O         1.6848071839       11.8445075166        3.5337017108
  O         4.2458692016        7.4271682241        3.4985109383
  O         6.8189602650        2.9891390214        3.5143228484
  O        -3.4431225890       11.8812049477        3.4824177662
  O        -0.8791896840        7.4137774649        3.5267565313
  O         1.6892646172        2.9808548133        3.5153062590
  O         9.4287868620       10.2239915674        3.4899461333
  O        11.9896462258        5.7782011058        3.4909794267
  O        14.5577855951        1.3395698220        3.4845581229
  O         4.3040426600       10.2306446534        3.4910667709
  O         6.8695746396        5.7675307908        3.4847581459
  O         9.4045703277        1.3604004515        3.5344960869
  O        -0.8434479948       10.2282322720        3.5132090474
  O         1.7279667715        5.7808378949        3.4963139385
  O         4.3068820660        1.3407107876        3.4781531566
 Fe         5.0487557931       11.8328577649        4.4293055642
 Fe         7.6094299023        7.3991011060        4.4070373257
 Fe        10.1631168925        2.9593835436        4.4306268440
 Fe        -0.0999260623       11.8259735643        4.4237158678
 Fe         2.4677194953        7.3931393843        4.4245015882
 Fe         5.0408729676        2.9535329887        4.4239706292
 Fe        -5.2204198242       11.8362113069        4.4174041522
 Fe        -2.6555296395        7.3926911870        4.4220824966
 Fe        -0.0951499995        2.9512252619        4.4181360539
 Fe         7.6130499379       13.1870267976        4.8316907844
 Fe        10.1772656347        8.7477813619        4.8258879605
 Fe        12.7389726102        4.3051656930        4.8252719758
 Fe         2.4909971660       13.1736111037        4.8428134336
 Fe         5.0450380280        8.7504307271        4.8092054088
 Fe         7.6069645559        4.3011454382        4.8458574686
 Fe        -2.6484807350       13.1854244635        4.7994772333
 Fe        -0.0824768128        8.7399613889        4.8533479660
 Fe         2.4771844078        4.2963360258        4.8415291206
  O         5.8592265213       10.3481406531        5.8772666321
  O         8.4213550884        5.9154961410        5.8801772398
  O        10.9791433506        1.4662919578        5.8843044962
  O         0.7220208871       10.3436940812        5.8903803198
  O         3.2697076493        5.9091238989        5.8390685855
  O         5.8609091254        1.4619800072        5.8788192641
  O        -4.3999036735       10.3479629935        5.8774572040
  O        -1.8388688352        5.9065762992        5.8788044976
  O         0.7259486103        1.4640622116        5.8838104773
  O         5.9340729271       13.1717358536        5.7036505522
  O         8.4937806628        8.7299687257        5.6935874808
  O        11.0530677561        4.2949187749        5.7000731675
  O         0.7885918656       13.1525225523        5.6742388217
  O         3.3687473581        8.7314949939        5.6898429567
  O         5.9344432161        4.2994676686        5.7385447924
  O        -4.3289818683       13.1750212823        5.6793698191
  O        -1.7740496893        8.7321195952        5.7033877422
  O         0.7913890243        4.2856547087        5.6977221024
  O         3.4791219149       11.7669337261        5.6872926983
  O         6.0571507315        7.3387826576        5.6284825651
  O         8.5915844901        2.8956550463        5.7251885764
  O        -1.6680562858       11.7846823754        5.6767908176
  O         0.9036975728        7.3348286264        5.6910187943
  O         3.4763471164        2.8857264121        5.6775464465
  O        -6.7849173761       11.7752728585        5.6786396989
  O        -4.2259007490        7.3327998526        5.6783936768
  O        -1.6620893416        2.8914550569        5.6758086868
 Fe         7.7858929704       10.2689987413        6.4364000129
 Fe        10.3450859601        5.8319764103        6.4393599350
 Fe        12.9074925007        1.3892840201        6.4367184073
 Fe         2.6544096292       10.2637012373        6.4370050829
 Fe         5.1962745673        5.8687601021        6.3882081208
 Fe         7.7852992235        1.3586853913        6.4207373134
 Fe        -2.4752230090       10.2783369258        6.4367227592
 Fe         0.0900260717        5.8267276874        6.4392606267
 Fe         2.6553928647        1.3846293498        6.4370899987
  O         7.8501123252       10.3836695978        8.2628998043
  H         7.8671532963        9.5625933799        8.7871454936
  H         5.3508880276       10.6105392161        6.6783223803
  O        10.3623869882        5.9193009750        8.2756385685
  H        10.5757399241        5.1090276881        8.7728781574
  H         7.9125859866        6.2633106353        6.6464387344
  O        12.9490069135        1.5057031272        8.2656469462
  H        13.0114458281        0.6818066819        8.7821780431
  H        10.4701056217        1.7201197274        6.6861685936
  O         2.6940997376       10.3818330814        8.2640955059
  H         2.7829580934        9.5573315303        8.7768098156
  H         0.2256251348       10.6232746549        6.6920312904
  O         5.0104734478        6.3430250715        8.1272109522
  H         4.9724574831        5.7507006010        8.9111349669
  H         2.8277857695        6.1894727167        6.6730640884
  O         7.9266881385        1.2386821379        8.2550218792
  H         7.9429004069        0.3506868230        8.6574311196
  H         5.3403900316        1.7261004423        6.6707475990
  O        -2.4130958751       10.3875804480        8.2652000982
  H        -2.3633063722        9.5621175943        8.7805992122
  H        -4.9065454541       10.6214035252        6.6753227792
  O         0.1093557296        5.9392101773        8.2658764176
  H         0.2168094768        5.1283503113        8.7951744441
  H        -2.3396560572        6.1779488751        6.6805635608
  O         2.7179728273        1.4927918636        8.2616326462
  H         2.7592208300        0.6758540138        8.7905208478
  H         0.2248186664        1.7425717442        6.6838940615
  C         7.3560555165        3.9978176055        9.1781358979
  C         6.3140041254        4.3989420928       10.0988359145
  H         7.3375150979        2.9035752695        9.0255165468
  H         7.1997019038        4.4802659020        8.1992910483
  H         8.3505356726        4.2765218893        9.5528100591
  N         5.4679104187        4.7301009116       10.8309240709
     168
 i =       18, E =     -8144.2466633022
 Fe         5.0938794100       11.8196869300        0.3885799900
 Fe         7.6575796300        7.3792284900        0.3885799900
 Fe        10.2212798400        2.9387700600        0.3885799900
 Fe        -0.0335205200       11.8196869300        0.3885799900
 Fe         2.5301797000        7.3792284900        0.3885799900
 Fe         5.0938799200        2.9387700600        0.3885799900
 Fe        -5.1609204400       11.8196869300        0.3885799900
 Fe        -2.5972202200        7.3792284900        0.3885799900
 Fe        -0.0335200000        2.9387700600        0.3885799900
  O         8.4519195100        8.9577468800        1.1642700400
  O        11.0156197300        4.5172884400        1.1642700400
  O        13.5793199500        0.0768300000        1.1642700400
  O         3.3245195900        8.9577468800        1.1642700400
  O         5.8882198100        4.5172884400        1.1642700400
  O         8.4519200300        0.0768300000        1.1642700400
  O        -1.8028803300        8.9577468800        1.1642700400
  O         0.7608198900        4.5172884400        1.1642700400
  O         3.3245201100        0.0768300000        1.1642700400
  O         8.4568493000       11.7183869300        1.1650400200
  O        11.0205495200        7.2779284900        1.1650400200
  O        13.5842497300        2.8374700500        1.1650400200
  O         3.3294493700       11.7183869300        1.1650400200
  O         5.8931495900        7.2779284900        1.1650400200
  O         8.4568498100        2.8374700500        1.1650400200
  O        -1.7979505500       11.7183869300        1.1650400200
  O         0.7657496700        7.2779284900        1.1650400200
  O         3.3294498900        2.8374700500        1.1650400200
  O         6.0627194200       10.3425368500        1.1660399400
  O         8.6264196400        5.9020784100        1.1660399400
  O        11.1901198600        1.4616199700        1.1660399400
  O         0.9353195000       10.3425368500        1.1660399400
  O         3.4990197200        5.9020784100        1.1660399400
  O         6.0627199400        1.4616199700        1.1660399400
  O        -4.1920804200       10.3425368500        1.1660399400
  O        -1.6283802000        5.9020784100        1.1660399400
  O         0.9353200200        1.4616199700        1.1660399400
 Fe         7.6576695000       13.2997167500        1.9292099500
 Fe        10.2213697200        8.8592583200        1.9292099500
 Fe        12.7850699400        4.4187998800        1.9292099500
 Fe         2.5302695800       13.2997167500        1.9292099500
 Fe         5.0939698000        8.8592583200        1.9292099500
 Fe         7.6576700200        4.4187998800        1.9292099500
 Fe        -2.5971303400       13.2997167500        1.9292099500
 Fe        -0.0334301200        8.8592583200        1.9292099500
 Fe         2.5302701000        4.4187998800        1.9292099500
 Fe         7.6573893600       10.3392168700        2.7128999200
 Fe        10.2210895800        5.8987584300        2.7128999200
 Fe        12.7847898000        1.4582999900        2.7128999200
 Fe         2.5299894400       10.3392168700        2.7128999200
 Fe         5.0936896600        5.8987584300        2.7128999200
 Fe         7.6573898800        1.4582999900        2.7128999200
 Fe        -2.5974104800       10.3392168700        2.7128999200
 Fe        -0.0337102600        5.8987584300        2.7128999200
 Fe         2.5299899600        1.4582999900        2.7128999200
  O         3.9605657453       13.2799505666        3.3090646293
  O         6.6080864659        8.8544235688        3.4078802421
  O         9.2445512902        4.4256755913        3.5495966044
  O        -0.9488636807       13.3534190627        3.6664286055
  O         1.4752647229        8.8457404612        3.4051675037
  O         4.0950045432        4.4371085973        3.5190597113
  O        -6.0868641628       13.3405663478        3.6242269999
  O        -3.5815336776        8.8937119923        3.5319937727
  O        -1.0369690716        4.4390889918        3.5246334832
  O         6.7888352240       11.8073691211        3.5830158879
  O         9.3723487303        7.4238656302        3.5081252184
  O        11.9248957273        2.9778496474        3.5082642451
  O         1.7212604024       11.9974207818        3.3173788743
  O         4.2553294921        7.4837500553        3.4323551417
  O         6.8085882569        2.9815886779        3.5297256721
  O        -3.4445785685       11.7723720518        3.6518441675
  O        -0.8881888093        7.4894430270        3.3850004166
  O         1.7057498925        2.9911432217        3.4915587788
  O         9.4094862679       10.2131335229        3.5044411798
  O        11.9950517900        5.7926993727        3.5025225105
  O        14.4988309754        1.3870866830        3.5942094478
  O         4.3501807116       10.2059826342        3.4216575632
  O         6.8495212033        5.8002018581        3.5289843938
  O         9.5222165479        1.2759515617        3.3085812968
  O        -0.7883500062       10.1862224607        3.3846223323
  O         1.7348327007        5.7585423861        3.4601987035
  O         4.2321394687        1.4033682863        3.6152763083
 Fe         4.9500864645       11.8955004086        4.3754748339
 Fe         7.6034175903        7.4486502389        4.4129540117
 Fe        10.1364695848        2.8810900359        4.4038716612
 Fe        -0.0189048007       11.7695384834        4.3721790650
 Fe         2.4490958880        7.3986315398        4.3617075769
 Fe         5.0373008538        2.9923340873        4.4573101060
 Fe        -5.2390473568       11.7827418447        4.4670412269
 Fe        -2.6296005009        7.4125000871        4.4112905351
 Fe        -0.0562559006        2.9914709256        4.4252532521
 Fe         7.6065570295       13.1936500181        4.8046187461
 Fe        10.1929175649        8.7440821832        4.8219137542
 Fe        12.7339292529        4.2877359836        4.8296161058
 Fe         2.4957158813       13.1669710284        4.8116922373
 Fe         5.0551095076        8.7562542752        4.7944880800
 Fe         7.6170107279        4.3102964889        4.8269208571
 Fe        -2.6495367173       13.1875013824        4.8573900300
 Fe        -0.0851957265        8.7377787582        4.7581987520
 Fe         2.4701312927        4.3046539909        4.8304445817
  O         5.8620221065       10.3759218809        5.8635745376
  O         8.4178340644        5.9200418739        5.8684444751
  O        10.9686479933        1.4538437231        5.9067246361
  O         0.7082251124       10.3233097967        5.8958196536
  O         3.2535748926        5.9134440977        5.8309896518
  O         5.8616997316        1.4758664431        5.8678202800
  O        -4.3965732459       10.3492541701        5.8793287879
  O        -1.8373705073        5.9071832096        5.8777138977
  O         0.7308187099        1.4612073194        5.8640254331
  O         5.9484586113       13.1639092520        5.6835475464
  O         8.5193820166        8.7454922604        5.7005870084
  O        11.0180999834        4.2827185192        5.6689090742
  O         0.7989088788       13.1410794023        5.6967008450
  O         3.3658601634        8.7144840156        5.6723200659
  O         5.9575858531        4.3073021294        5.7129935782
  O        -4.3725286708       13.1737081600        5.6551084437
  O        -1.7387450521        8.7412104150        5.7026087220
  O         0.8089810468        4.2851644487        5.7240205445
  O         3.4687156696       11.7775604241        5.7397247446
  O         6.0520664270        7.3307569939        5.6107778230
  O         8.5854644333        2.9177132327        5.7374671422
  O        -1.6333390171       11.7526164729        5.6383785873
  O         0.8948553130        7.3624114400        5.6777624089
  O         3.4628266355        2.8979079385        5.6806239626
  O        -6.8166248070       11.7891647726        5.6590028176
  O        -4.2084761081        7.3312451467        5.6829088959
  O        -1.6429260081        2.8569227353        5.6510195446
 Fe         7.7978590063       10.2745040356        6.4365576893
 Fe        10.3413576205        5.8342546019        6.4356408564
 Fe        12.9080274237        1.3702012445        6.4335379637
 Fe         2.6523196503       10.2453095585        6.4482393185
 Fe         5.1812798207        5.8579500623        6.3434441714
 Fe         7.7745074060        1.3674010704        6.4018611829
 Fe        -2.4811273913       10.2751253674        6.4361358077
 Fe         0.1037384327        5.8335117300        6.4327327395
 Fe         2.6601812812        1.3911689763        6.4375664088
  O         7.8516494365       10.3836980492        8.2612447316
  H         7.8665052952        9.5630273170        8.7865938733
  H         5.3556284015       10.6144832682        6.6779482518
  O        10.3694753363        5.9177797350        8.2769420627
  H        10.5736281333        5.1101733567        8.7722031379
  H         7.9110551450        6.2597770166        6.6374778114
  O        12.9492247407        1.5064141663        8.2627554514
  H        13.0123052137        0.6834739446        8.7812660148
  H        10.4765736772        1.7448866060        6.7071254459
  O         2.6926818707       10.3882099629        8.2739325228
  H         2.7834384791        9.5554792374        8.7741040033
  H         0.2249147094       10.6183838625        6.7050920450
  O         5.0277262082        6.3361798702        8.0556735534
  H         4.9055761176        5.7935156651        8.9445783905
  H         2.8250072584        6.1855231669        6.6791197037
  O         7.9334838347        1.2283465372        8.2547256365
  H         7.9445905766        0.3432006322        8.6711635485
  H         5.3358635423        1.7254352839        6.6573916434
  O        -2.4121111768       10.3889652223        8.2646300109
  H        -2.3631196762        9.5632612262        8.7798420607
  H        -4.9110124406       10.6234126479        6.6682419550
  O         0.1063231938        5.9341379508        8.2609777608
  H         0.2165611290        5.1286755983        8.7988833910
  H        -2.3411707193        6.1794623240        6.6808733059
  O         2.7155825103        1.4909408274        8.2593391538
  H         2.7596319068        0.6770766849        8.7917082223
  H         0.2285669348        1.7303158464        6.6683744309
  C         7.4699404511        4.0532521643        9.2243645597
  C         6.2094812593        4.2203126700       10.0269295427
  H         7.2429502605        2.9801610081        9.0887818342
  H         7.1371318341        4.4878110770        8.1873181755
  H         8.4689811879        4.2809011833        9.5735527317
  N         5.5634249266        4.7277763520       10.8860399109
     168
 i =       19, E =     -8144.3601282747
 Fe         5.0938794100       11.8196869300        0.3885799900
 Fe         7.6575796300        7.3792284900        0.3885799900
 Fe        10.2212798400        2.9387700600        0.3885799900
 Fe        -0.0335205200       11.8196869300        0.3885799900
 Fe         2.5301797000        7.3792284900        0.3885799900
 Fe         5.0938799200        2.9387700600        0.3885799900
 Fe        -5.1609204400       11.8196869300        0.3885799900
 Fe        -2.5972202200        7.3792284900        0.3885799900
 Fe        -0.0335200000        2.9387700600        0.3885799900
  O         8.4519195100        8.9577468800        1.1642700400
  O        11.0156197300        4.5172884400        1.1642700400
  O        13.5793199500        0.0768300000        1.1642700400
  O         3.3245195900        8.9577468800        1.1642700400
  O         5.8882198100        4.5172884400        1.1642700400
  O         8.4519200300        0.0768300000        1.1642700400
  O        -1.8028803300        8.9577468800        1.1642700400
  O         0.7608198900        4.5172884400        1.1642700400
  O         3.3245201100        0.0768300000        1.1642700400
  O         8.4568493000       11.7183869300        1.1650400200
  O        11.0205495200        7.2779284900        1.1650400200
  O        13.5842497300        2.8374700500        1.1650400200
  O         3.3294493700       11.7183869300        1.1650400200
  O         5.8931495900        7.2779284900        1.1650400200
  O         8.4568498100        2.8374700500        1.1650400200
  O        -1.7979505500       11.7183869300        1.1650400200
  O         0.7657496700        7.2779284900        1.1650400200
  O         3.3294498900        2.8374700500        1.1650400200
  O         6.0627194200       10.3425368500        1.1660399400
  O         8.6264196400        5.9020784100        1.1660399400
  O        11.1901198600        1.4616199700        1.1660399400
  O         0.9353195000       10.3425368500        1.1660399400
  O         3.4990197200        5.9020784100        1.1660399400
  O         6.0627199400        1.4616199700        1.1660399400
  O        -4.1920804200       10.3425368500        1.1660399400
  O        -1.6283802000        5.9020784100        1.1660399400
  O         0.9353200200        1.4616199700        1.1660399400
 Fe         7.6576695000       13.2997167500        1.9292099500
 Fe        10.2213697200        8.8592583200        1.9292099500
 Fe        12.7850699400        4.4187998800        1.9292099500
 Fe         2.5302695800       13.2997167500        1.9292099500
 Fe         5.0939698000        8.8592583200        1.9292099500
 Fe         7.6576700200        4.4187998800        1.9292099500
 Fe        -2.5971303400       13.2997167500        1.9292099500
 Fe        -0.0334301200        8.8592583200        1.9292099500
 Fe         2.5302701000        4.4187998800        1.9292099500
 Fe         7.6573893600       10.3392168700        2.7128999200
 Fe        10.2210895800        5.8987584300        2.7128999200
 Fe        12.7847898000        1.4582999900        2.7128999200
 Fe         2.5299894400       10.3392168700        2.7128999200
 Fe         5.0936896600        5.8987584300        2.7128999200
 Fe         7.6573898800        1.4582999900        2.7128999200
 Fe        -2.5974104800       10.3392168700        2.7128999200
 Fe        -0.0337102600        5.8987584300        2.7128999200
 Fe         2.5299899600        1.4582999900        2.7128999200
  O         4.0793714866       13.3142232578        3.4936722790
  O         6.6487449779        8.8714195781        3.4818429487
  O         9.2215463908        4.4291243952        3.5270037730
  O        -1.0222194584       13.3220448583        3.5373235302
  O         1.5163157725        8.8675977124        3.4930663260
  O         4.1055978345        4.4369187159        3.5326549588
  O        -6.1487699807       13.3165779314        3.5324427690
  O        -3.5943146627        8.8781287226        3.5192309501
  O        -1.0372397504        4.4336055764        3.5184022550
  O         6.8127731949       11.8630501637        3.5143354661
  O         9.3798820108        7.4334997263        3.4963283220
  O        11.9340765079        2.9864091501        3.5043317379
  O         1.6957800533       11.8834603262        3.4753489390
  O         4.2495832933        7.4476348859        3.4718542086
  O         6.8162210518        2.9889431443        3.5186519362
  O        -3.4432580536       11.8533949894        3.5262561520
  O        -0.8815016605        7.4397561745        3.4800981084
  O         1.6923082951        2.9819405941        3.5144693658
  O         9.4245033239       10.2224894175        3.4948773207
  O        11.9909185143        5.7831511567        3.4935230435
  O        14.5435982567        1.3491190646        3.5095068809
  O         4.3145931670       10.2202910799        3.4698734774
  O         6.8664034448        5.7742259711        3.4899553247
  O         9.4344144082        1.3399184919        3.4722587826
  O        -0.8225573917       10.2147475988        3.4707024839
  O         1.7259649528        5.7754166177        3.4932718377
  O         4.2904884109        1.3568239616        3.5120576591
 Fe         5.0262728964       11.8439013103        4.4107307547
 Fe         7.6065656886        7.4076045855        4.4075759327
 Fe        10.1549571820        2.9398081026        4.4213409269
 Fe        -0.0811288805       11.8171143213        4.4013973670
 Fe         2.4663080245        7.3950539422        4.4016462686
 Fe         5.0399643562        2.9633595315        4.4366961904
 Fe        -5.2243795474       11.8258957652        4.4333426510
 Fe        -2.6482042902        7.3975360671        4.4174482435
 Fe        -0.0870146902        2.9589057988        4.4211713850
 Fe         7.6105728318       13.1877238071        4.8241778525
 Fe        10.1806589413        8.7447231505        4.8245193385
 Fe        12.7354200441        4.3007890012        4.8249516380
 Fe         2.4901653614       13.1746998097        4.8280474130
 Fe         5.0470103860        8.7507348276        4.7993302302
 Fe         7.6080615397        4.3058492962        4.8412026835
 Fe        -2.6471141156       13.1843062705        4.8201014688
 Fe        -0.0837591330        8.7396006545        4.8215343574
 Fe         2.4782667522        4.2995274273        4.8424192008
  O         5.8586096150       10.3498378354        5.8727429381
  O         8.4218105675        5.9188970558        5.8758146564
  O        10.9749530786        1.4605244169        5.8895266941
  O         0.7197821800       10.3403291142        5.8886250949
  O         3.2715943659        5.9107605449        5.8422887564
  O         5.8627166330        1.4679763751        5.8790879917
  O        -4.4002675245       10.3474550673        5.8797938821
  O        -1.8372175230        5.9058651817        5.8774645866
  O         0.7274323419        1.4645218855        5.8778271027
  O         5.9335312209       13.1694316957        5.6959355973
  O         8.4971278588        8.7342088005        5.6934474786
  O        11.0434660550        4.2907168798        5.6914088658
  O         0.7946639715       13.1484307913        5.6810976772
  O         3.3663971266        8.7297002310        5.6794549594
  O         5.9386741018        4.3073848686        5.7380943319
  O        -4.3383651698       13.1733764422        5.6798268208
  O        -1.7634922654        8.7342067549        5.6989595232
  O         0.7957041400        4.2865642069        5.7038320810
  O         3.4744783708       11.7711507173        5.6928477066
  O         6.0522935555        7.3365712657        5.6271130966
  O         8.5882810362        2.9008289012        5.7250977692
  O        -1.6546928337       11.7719127132        5.6674860085
  O         0.9027431615        7.3416095678        5.6809968234
  O         3.4737154513        2.8913016150        5.6841188389
  O        -6.7924528288       11.7775953895        5.6749376029
  O        -4.2200706068        7.3322623865        5.6799041425
  O        -1.6589324659        2.8851168632        5.6708537364
 Fe         7.7863373531       10.2708003050        6.4367435846
 Fe        10.3443021294        5.8316707855        6.4370466463
 Fe        12.9074360469        1.3850742317        6.4359786043
 Fe         2.6563678755       10.2606035639        6.4399082802
 Fe         5.1962134350        5.8690485891        6.3998262507
 Fe         7.7854197813        1.3609672669        6.4203351219
 Fe        -2.4758848632       10.2752495872        6.4364548797
 Fe         0.0948568396        5.8303319486        6.4382406239
 Fe         2.6556786664        1.3865733076        6.4365150602
  O         7.8504051697       10.3839849759        8.2629299255
  H         7.8665705873        9.5629726920        8.7873305406
  H         5.3530604412       10.6117958933        6.6761135805
  O        10.3651741964        5.9173950037        8.2746424208
  H        10.5804965614        5.1093415600        8.7721333089
  H         7.9139699798        6.2621361877        6.6435037634
  O        12.9491474576        1.5061990620        8.2650158691
  H        13.0110511593        0.6828007812        8.7826075257
  H        10.4728924851        1.7271488414        6.6920044246
  O         2.6934291426       10.3825596136        8.2670819786
  H         2.7838942141        9.5564135897        8.7771673597
  H         0.2253082503       10.6199871673        6.6934077797
  O         5.0055192868        6.3424961976        8.1371130958
  H         4.9602679860        5.7523680270        8.9192109246
  H         2.8241203239        6.1917569247        6.6725279673
  O         7.9256122751        1.2371465621        8.2571260896
  H         7.9458744319        0.3453164269        8.6545160045
  H         5.3384290714        1.7267981920        6.6691940183
  O        -2.4124415475       10.3886702100        8.2648779090
  H        -2.3630106068        9.5631188374        8.7802488519
  H        -4.9080424586       10.6221698574        6.6755945634
  O         0.1086552685        5.9384504282        8.2656332124
  H         0.2163010088        5.1286094119        8.7962553636
  H        -2.3392692435        6.1790228220        6.6789738462
  O         2.7170369398        1.4923347987        8.2608015843
  H         2.7597336017        0.6765390919        8.7911529241
  H         0.2254215885        1.7390704797        6.6787626425
  C         7.3677879909        4.0050823186        9.1878029788
  C         6.3033680416        4.3800102884       10.0947980094
  H         7.3333346981        2.9144916301        9.0402663149
  H         7.1952716432        4.4803868791        8.2026544394
  H         8.3633564225        4.2850997182        9.5555131423
  N         5.4813196444        4.7251075259       10.8402040744
     168
 i =       20, E =     -8144.2878152417
 Fe         5.0938794100       11.8196869300        0.3885799900
 Fe         7.6575796300        7.3792284900        0.3885799900
 Fe        10.2212798400        2.9387700600        0.3885799900
 Fe        -0.0335205200       11.8196869300        0.3885799900
 Fe         2.5301797000        7.3792284900        0.3885799900
 Fe         5.0938799200        2.9387700600        0.3885799900
 Fe        -5.1609204400       11.8196869300        0.3885799900
 Fe        -2.5972202200        7.3792284900        0.3885799900
 Fe        -0.0335200000        2.9387700600        0.3885799900
  O         8.4519195100        8.9577468800        1.1642700400
  O        11.0156197300        4.5172884400        1.1642700400
  O        13.5793199500        0.0768300000        1.1642700400
  O         3.3245195900        8.9577468800        1.1642700400
  O         5.8882198100        4.5172884400        1.1642700400
  O         8.4519200300        0.0768300000        1.1642700400
  O        -1.8028803300        8.9577468800        1.1642700400
  O         0.7608198900        4.5172884400        1.1642700400
  O         3.3245201100        0.0768300000        1.1642700400
  O         8.4568493000       11.7183869300        1.1650400200
  O        11.0205495200        7.2779284900        1.1650400200
  O        13.5842497300        2.8374700500        1.1650400200
  O         3.3294493700       11.7183869300        1.1650400200
  O         5.8931495900        7.2779284900        1.1650400200
  O         8.4568498100        2.8374700500        1.1650400200
  O        -1.7979505500       11.7183869300        1.1650400200
  O         0.7657496700        7.2779284900        1.1650400200
  O         3.3294498900        2.8374700500        1.1650400200
  O         6.0627194200       10.3425368500        1.1660399400
  O         8.6264196400        5.9020784100        1.1660399400
  O        11.1901198600        1.4616199700        1.1660399400
  O         0.9353195000       10.3425368500        1.1660399400
  O         3.4990197200        5.9020784100        1.1660399400
  O         6.0627199400        1.4616199700        1.1660399400
  O        -4.1920804200       10.3425368500        1.1660399400
  O        -1.6283802000        5.9020784100        1.1660399400
  O         0.9353200200        1.4616199700        1.1660399400
 Fe         7.6576695000       13.2997167500        1.9292099500
 Fe        10.2213697200        8.8592583200        1.9292099500
 Fe        12.7850699400        4.4187998800        1.9292099500
 Fe         2.5302695800       13.2997167500        1.9292099500
 Fe         5.0939698000        8.8592583200        1.9292099500
 Fe         7.6576700200        4.4187998800        1.9292099500
 Fe        -2.5971303400       13.2997167500        1.9292099500
 Fe        -0.0334301200        8.8592583200        1.9292099500
 Fe         2.5302701000        4.4187998800        1.9292099500
 Fe         7.6573893600       10.3392168700        2.7128999200
 Fe        10.2210895800        5.8987584300        2.7128999200
 Fe        12.7847898000        1.4582999900        2.7128999200
 Fe         2.5299894400       10.3392168700        2.7128999200
 Fe         5.0936896600        5.8987584300        2.7128999200
 Fe         7.6573898800        1.4582999900        2.7128999200
 Fe        -2.5974104800       10.3392168700        2.7128999200
 Fe        -0.0337102600        5.8987584300        2.7128999200
 Fe         2.5299899600        1.4582999900        2.7128999200
  O         4.2198285323       13.3674719816        3.7436722790
  O         6.6955702899        8.8942794359        3.5633678828
  O         9.1969464334        4.4376970391        3.5057679375
  O        -1.0854382327       13.2754721499        3.4081330575
  O         1.6008717113        8.9133706177        3.6601179810
  O         4.0975345072        4.4353373114        3.5263328610
  O        -6.2324226250       13.2927742244        3.4082048384
  O        -3.6131301511        8.8603224230        3.4964371037
  O        -1.0462537728        4.4154778645        3.4837519155
  O         6.8357613989       11.9382341707        3.4134399289
  O         9.3887866900        7.4484351173        3.4758586046
  O        11.9428042521        3.0123772634        3.4778129750
  O         1.6630237314       11.7347636548        3.7078045301
  O         4.2432941146        7.3896449311        3.5476707357
  O         6.8303028617        3.0004082045        3.5018354399
  O        -3.4425576139       11.9425000228        3.3861886244
  O        -0.8780110553        7.3336979461        3.6612304323
  O         1.6792225417        2.9893080642        3.5047086734
  O         9.4437525137       10.2241559218        3.4704470207
  O        11.9914795635        5.7660854421        3.4708744794
  O        14.6125796165        1.3041008709        3.3852270395
  O         4.2802493068       10.2509846975        3.5288320399
  O         6.8831171258        5.7491556059        3.4618727652
  O         9.3173401154        1.4197484893        3.7118215485
  O        -0.9012177349       10.2683645165        3.6337333813
  O         1.7403225686        5.7868372002        3.4928411438
  O         4.3466524260        1.3039143118        3.4032406588
 Fe         5.1191881014       11.7929099663        4.4724797485
 Fe         7.6155067480        7.3741200030        4.4061594133
 Fe        10.1846878008        3.0172759624        4.4518922689
 Fe        -0.1488444995       11.8575205329        4.4836537830
 Fe         2.4775055112        7.3772775003        4.4726097314
 Fe         5.0418210130        2.9368309469        4.3921853699
 Fe        -5.2195132761       11.8746719248        4.3679540827
 Fe        -2.6837037934        7.3795685544        4.4318286302
 Fe        -0.1173244616        2.9231180549        4.4037167475
 Fe         7.6170167458       13.1824289687        4.8257966625
 Fe        10.1671335511        8.7519293902        4.8184261230
 Fe        12.7461901054        4.3143523046        4.8067290786
 Fe         2.4932850529       13.1750574967        4.9019597672
 Fe         5.0423774312        8.7545002821        4.8112937526
 Fe         7.6031433206        4.2954486722        4.8607144076
 Fe        -2.6498836564       13.1862461716        4.7613610536
 Fe        -0.0799338435        8.7411584321        4.9261158006
 Fe         2.4756590389        4.2886713273        4.8428619395
  O         5.8593113418       10.3338464918        5.8804565030
  O         8.4258350074        5.9154052353        5.8843211363
  O        10.9875595313        1.4805714122        5.8758961981
  O         0.7335622325       10.3548766404        5.8907879128
  O         3.2753624668        5.9126767864        5.8345537817
  O         5.8591073370        1.4538580623        5.8828246738
  O        -4.4018269525       10.3528132477        5.8714755847
  O        -1.8435632582        5.9033073705        5.8759268925
  O         0.7237707438        1.4654037874        5.8909010098
  O         5.9366554692       13.1808441170        5.7164338588
  O         8.4831236201        8.7253145409        5.6871115513
  O        11.0830045321        4.3106701427        5.7154962785
  O         0.7741784720       13.1695772595        5.6694511120
  O         3.3753566213        8.7363030653        5.6987441673
  O         5.9210583782        4.2932117854        5.7447166398
  O        -4.3064220792       13.1731601128        5.6872277211
  O        -1.8017802832        8.7246095547        5.7020345775
  O         0.7737739605        4.2835402995        5.6779860719
  O         3.4945286191       11.7506060622        5.6662260542
  O         6.0557098272        7.3434285771        5.6257926119
  O         8.5953545820        2.8808564046        5.7234288003
  O        -1.6975340275       11.8101593709        5.7042514726
  O         0.9079647497        7.3153536038        5.7056563097
  O         3.4887180932        2.8773116847        5.6718073803
  O        -6.7672653836       11.7661264058        5.6818446767
  O        -4.2437574925        7.3328352145        5.6728113956
  O        -1.6737369758        2.9104372194        5.6820383855
 Fe         7.7763427582       10.2664597492        6.4350435780
 Fe        10.3455302183        5.8307353652        6.4429629192
 Fe        12.9099096480        1.4002076656        6.4385891375
 Fe         2.6547296769       10.2661561566        6.4300599686
 Fe         5.2011115386        5.8753411940        6.3971602750
 Fe         7.7849394899        1.3589759669        6.4415378069
 Fe        -2.4695532012       10.2793399774        6.4369188916
 Fe         0.0780746737        5.8208049082        6.4437169305
 Fe         2.6539941383        1.3800118974        6.4377818465
  O         7.8501367047       10.3837414387        8.2620646145
  H         7.8650099953        9.5637052320        8.7878893061
  H         5.3482788249       10.6047251331        6.6740656140
  O        10.3570600677        5.9173737312        8.2758274789
  H        10.5920919091        5.1074947614        8.7719684989
  H         7.9144468508        6.2712921946        6.6469304529
  O        12.9473706025        1.5058987689        8.2669183743
  H        13.0099924411        0.6825506725        8.7835732196
  H        10.4692986190        1.7094016403        6.6797570584
  O         2.6940402949       10.3764814154        8.2567395202
  H         2.7851508574        9.5587994344        8.7792113079
  H         0.2245930997       10.6221639207        6.6845117172
  O         4.9803330745        6.3676908062        8.1380015571
  H         4.9633825464        5.7857444922        8.9192405883
  H         2.8295903892        6.1947494909        6.6684719981
  O         7.9300072427        1.2225585756        8.2642316602
  H         7.9503621703        0.3311587520        8.6473723939
  H         5.3425484342        1.7268180394        6.6772401162
  O        -2.4126551747       10.3875851097        8.2644807933
  H        -2.3624447497        9.5635966729        8.7815414881
  H        -4.9037808310       10.6201399897        6.6777967943
  O         0.1090996126        5.9431767130        8.2681932865
  H         0.2177849988        5.1298098190        8.7933981361
  H        -2.3350910109        6.1785247959        6.6798023597
  O         2.7193221332        1.4939134075        8.2636168442
  H         2.7595366026        0.6755452818        8.7906251180
  H         0.2229265907        1.7487767029        6.6888354273
  C         7.3264364033        3.9759877226        9.1777236227
  C         6.3693752291        4.4523135894       10.1487475509
  H         7.3952779959        2.8726989895        9.0147974185
  H         7.2077502643        4.4791653580        8.2230217728
  H         8.3113558216        4.2990289393        9.5557924405
  N         5.4391683947        4.6982257533       10.8657016218
     168
 i =       21, E =     -8144.3483230524
 Fe         5.0938794100       11.8196869300        0.3885799900
 Fe         7.6575796300        7.3792284900        0.3885799900
 Fe        10.2212798400        2.9387700600        0.3885799900
 Fe        -0.0335205200       11.8196869300        0.3885799900
 Fe         2.5301797000        7.3792284900        0.3885799900
 Fe         5.0938799200        2.9387700600        0.3885799900
 Fe        -5.1609204400       11.8196869300        0.3885799900
 Fe        -2.5972202200        7.3792284900        0.3885799900
 Fe        -0.0335200000        2.9387700600        0.3885799900
  O         8.4519195100        8.9577468800        1.1642700400
  O        11.0156197300        4.5172884400        1.1642700400
  O        13.5793199500        0.0768300000        1.1642700400
  O         3.3245195900        8.9577468800        1.1642700400
  O         5.8882198100        4.5172884400        1.1642700400
  O         8.4519200300        0.0768300000        1.1642700400
  O        -1.8028803300        8.9577468800        1.1642700400
  O         0.7608198900        4.5172884400        1.1642700400
  O         3.3245201100        0.0768300000        1.1642700400
  O         8.4568493000       11.7183869300        1.1650400200
  O        11.0205495200        7.2779284900        1.1650400200
  O        13.5842497300        2.8374700500        1.1650400200
  O         3.3294493700       11.7183869300        1.1650400200
  O         5.8931495900        7.2779284900        1.1650400200
  O         8.4568498100        2.8374700500        1.1650400200
  O        -1.7979505500       11.7183869300        1.1650400200
  O         0.7657496700        7.2779284900        1.1650400200
  O         3.3294498900        2.8374700500        1.1650400200
  O         6.0627194200       10.3425368500        1.1660399400
  O         8.6264196400        5.9020784100        1.1660399400
  O        11.1901198600        1.4616199700        1.1660399400
  O         0.9353195000       10.3425368500        1.1660399400
  O         3.4990197200        5.9020784100        1.1660399400
  O         6.0627199400        1.4616199700        1.1660399400
  O        -4.1920804200       10.3425368500        1.1660399400
  O        -1.6283802000        5.9020784100        1.1660399400
  O         0.9353200200        1.4616199700        1.1660399400
 Fe         7.6576695000       13.2997167500        1.9292099500
 Fe        10.2213697200        8.8592583200        1.9292099500
 Fe        12.7850699400        4.4187998800        1.9292099500
 Fe         2.5302695800       13.2997167500        1.9292099500
 Fe         5.0939698000        8.8592583200        1.9292099500
 Fe         7.6576700200        4.4187998800        1.9292099500
 Fe        -2.5971303400       13.2997167500        1.9292099500
 Fe        -0.0334301200        8.8592583200        1.9292099500
 Fe         2.5302701000        4.4187998800        1.9292099500
 Fe         7.6573893600       10.3392168700        2.7128999200
 Fe        10.2210895800        5.8987584300        2.7128999200
 Fe        12.7847898000        1.4582999900        2.7128999200
 Fe         2.5299894400       10.3392168700        2.7128999200
 Fe         5.0936896600        5.8987584300        2.7128999200
 Fe         7.6573898800        1.4582999900        2.7128999200
 Fe        -2.5974104800       10.3392168700        2.7128999200
 Fe        -0.0337102600        5.8987584300        2.7128999200
 Fe         2.5299899600        1.4582999900        2.7128999200
  O         4.1566365366       13.3463007894        3.6244699935
  O         6.6632468442        8.8818006773        3.5070768911
  O         9.2328977514        4.4433341440        3.5533883676
  O        -1.0500922216       13.2989508885        3.4787501258
  O         1.5653999793        8.8849672174        3.5799203839
  O         4.1030607135        4.4315704427        3.5259348142
  O        -6.1875848839       13.3044701928        3.4671445090
  O        -3.5969032809        8.8718031035        3.5151288667
  O        -1.0475308352        4.4224279102        3.4904810373
  O         6.8191262497       11.8996708238        3.4595131898
  O         9.3815131988        7.4352286229        3.4937521056
  O        11.9361465468        3.0030028733        3.4824318180
  O         1.6770298144       11.8023583967        3.5925046785
  O         4.2455063005        7.4289914225        3.4947061619
  O         6.8152715049        2.9731673960        3.5401902709
  O        -3.4387372190       11.8940844505        3.4648224823
  O        -0.8823585887        7.3841919478        3.5694624339
  O         1.6875627962        2.9857516668        3.5083208276
  O         9.4276959546       10.2236269662        3.4897945622
  O        11.9983599620        5.7735693802        3.4702366506
  O        14.5777130721        1.3300645888        3.4448824169
  O         4.3055322221       10.2326340856        3.4888599858
  O         6.8568841314        5.7746564958        3.5085817420
  O         9.3749839999        1.3853130293        3.5894586827
  O        -0.8646841560       10.2466419420        3.5559627949
  O         1.7317123293        5.7825078799        3.4921209831
  O         4.3159982229        1.3335580737        3.4611885137
 Fe         5.0687773326       11.8191235944        4.4470089966
 Fe         7.6080645529        7.4033966528        4.4100296965
 Fe        10.1748877986        2.9687524794        4.4492853364
 Fe        -0.1094451913       11.8404217205        4.4500579561
 Fe         2.4777842084        7.3812105850        4.4452649667
 Fe         5.0328136948        2.9489246754        4.4269107488
 Fe        -5.2210254173       11.8484021066        4.3956035230
 Fe        -2.6662592160        7.3857258888        4.4260115729
 Fe        -0.1017169318        2.9458992197        4.4083978439
 Fe         7.6133332315       13.1871756214        4.8073476204
 Fe        10.1762690421        8.7488433483        4.8198560484
 Fe        12.7410463164        4.3066292429        4.8079154876
 Fe         2.4916231015       13.1715231239        4.8633333946
 Fe         5.0459113152        8.7511038267        4.7988389621
 Fe         7.6062877844        4.2991121192        4.8584929806
 Fe        -2.6474077039       13.1867778694        4.7995423658
 Fe        -0.0824760131        8.7384529073        4.8710166767
 Fe         2.4754955752        4.2980918831        4.8357866284
  O         5.8612170102       10.3408333769        5.8769637232
  O         8.4236766142        5.9206074540        5.8786825667
  O        10.9794417768        1.4651377207        5.8886348172
  O         0.7234504902       10.3440233535        5.8952821848
  O         3.2739897149        5.9070157080        5.8411803466
  O         5.8605565705        1.4633887257        5.8828340212
  O        -4.4020882855       10.3502852499        5.8757850017
  O        -1.8404473705        5.9025454650        5.8774885534
  O         0.7264102075        1.4646291809        5.8793536218
  O         5.9446068192       13.1731704903        5.7088985997
  O         8.4941265397        8.7317965452        5.6918979054
  O        11.0669100866        4.3007948992        5.7047016960
  O         0.7931182882       13.1569366503        5.6890509780
  O         3.3757766583        8.7328017514        5.6914413945
  O         5.9280954299        4.3040561880        5.7418985852
  O        -4.3289356180       13.1721431958        5.6809300778
  O        -1.7820872786        8.7281305195        5.7022869942
  O         0.7865133936        4.2837178218        5.6906399356
  O         3.4855841276       11.7645070020        5.6912044014
  O         6.0530636413        7.3411355250        5.6305492086
  O         8.5936652775        2.8971842417        5.7354086119
  O        -1.6745054670       11.7880870266        5.6882589995
  O         0.9061283767        7.3293856283        5.6957070618
  O         3.4722908473        2.8910855435        5.6809348268
  O        -6.7826963148       11.7753052028        5.6693842115
  O        -4.2323982393        7.3327464851        5.6768345756
  O        -1.6651222239        2.8948706066        5.6718193274
 Fe         7.7859206396       10.2710683856        6.4349952381
 Fe        10.3448334117        5.8308160909        6.4392476989
 Fe        12.9095220091        1.3901786036        6.4358916133
 Fe         2.6553122828       10.2620192645        6.4358803886
 Fe         5.1968178649        5.8735926992        6.4004295641
 Fe         7.7834395005        1.3621833144        6.4278064506
 Fe        -2.4750042772       10.2760376111        6.4377335460
 Fe         0.0875632088        5.8238862609        6.4402147321
 Fe         2.6562576573        1.3845058072        6.4365313020
  O         7.8498259631       10.3839428469        8.2618072360
  H         7.8656384210        9.5638494215        8.7876049854
  H         5.3505490971       10.6079273807        6.6741210867
  O        10.3630299567        5.9161821728        8.2746535099
  H        10.5882327232        5.1088418971        8.7714860145
  H         7.9148463493        6.2665471531        6.6450470508
  O        12.9483880152        1.5061715261        8.2648773528
  H        13.0104217536        0.6835030065        8.7833105646
  H        10.4725681414        1.7234217488        6.6902470478
  O         2.6938126188       10.3793968988        8.2628453809
  H         2.7849338812        9.5572707676        8.7785004483
  H         0.2234543137       10.6204420251        6.6947993860
  O         4.9858623254        6.3580509455        8.1391762868
  H         4.9650378282        5.7691102806        8.9139549376
  H         2.8257770696        6.1939086603        6.6696208275
  O         7.9276933384        1.2297148305        8.2588789366
  H         7.9494056434        0.3369183803        8.6484968777
  H         5.3386371968        1.7277452554        6.6733912339
  O        -2.4120536006       10.3888200295        8.2653269941
  H        -2.3625863409        9.5636382576        8.7807959422
  H        -4.9068595903       10.6212281418        6.6762185472
  O         0.1086978259        5.9403254987        8.2663676162
  H         0.2166725479        5.1294172428        8.7952534257
  H        -2.3387618077        6.1779871838        6.6792346968
  O         2.7172700711        1.4930741391        8.2615987604
  H         2.7600293393        0.6764685201        8.7909833714
  H         0.2243702344        1.7413899388        6.6795800872
  C         7.3512899662        3.9895244317        9.1927864814
  C         6.3272661522        4.3931765253       10.1303191888
  H         7.3627903790        2.8965877230        9.0301953265
  H         7.1961200646        4.4809574278        8.2196599669
  H         8.3447047545        4.2994241235        9.5554922403
  N         5.4694994196        4.7258879139       10.8486988356
     168
 i =       22, E =     -8144.3521907718
 Fe         5.0938794100       11.8196869300        0.3885799900
 Fe         7.6575796300        7.3792284900        0.3885799900
 Fe        10.2212798400        2.9387700600        0.3885799900
 Fe        -0.0335205200       11.8196869300        0.3885799900
 Fe         2.5301797000        7.3792284900        0.3885799900
 Fe         5.0938799200        2.9387700600        0.3885799900
 Fe        -5.1609204400       11.8196869300        0.3885799900
 Fe        -2.5972202200        7.3792284900        0.3885799900
 Fe        -0.0335200000        2.9387700600        0.3885799900
  O         8.4519195100        8.9577468800        1.1642700400
  O        11.0156197300        4.5172884400        1.1642700400
  O        13.5793199500        0.0768300000        1.1642700400
  O         3.3245195900        8.9577468800        1.1642700400
  O         5.8882198100        4.5172884400        1.1642700400
  O         8.4519200300        0.0768300000        1.1642700400
  O        -1.8028803300        8.9577468800        1.1642700400
  O         0.7608198900        4.5172884400        1.1642700400
  O         3.3245201100        0.0768300000        1.1642700400
  O         8.4568493000       11.7183869300        1.1650400200
  O        11.0205495200        7.2779284900        1.1650400200
  O        13.5842497300        2.8374700500        1.1650400200
  O         3.3294493700       11.7183869300        1.1650400200
  O         5.8931495900        7.2779284900        1.1650400200
  O         8.4568498100        2.8374700500        1.1650400200
  O        -1.7979505500       11.7183869300        1.1650400200
  O         0.7657496700        7.2779284900        1.1650400200
  O         3.3294498900        2.8374700500        1.1650400200
  O         6.0627194200       10.3425368500        1.1660399400
  O         8.6264196400        5.9020784100        1.1660399400
  O        11.1901198600        1.4616199700        1.1660399400
  O         0.9353195000       10.3425368500        1.1660399400
  O         3.4990197200        5.9020784100        1.1660399400
  O         6.0627199400        1.4616199700        1.1660399400
  O        -4.1920804200       10.3425368500        1.1660399400
  O        -1.6283802000        5.9020784100        1.1660399400
  O         0.9353200200        1.4616199700        1.1660399400
 Fe         7.6576695000       13.2997167500        1.9292099500
 Fe        10.2213697200        8.8592583200        1.9292099500
 Fe        12.7850699400        4.4187998800        1.9292099500
 Fe         2.5302695800       13.2997167500        1.9292099500
 Fe         5.0939698000        8.8592583200        1.9292099500
 Fe         7.6576700200        4.4187998800        1.9292099500
 Fe        -2.5971303400       13.2997167500        1.9292099500
 Fe        -0.0334301200        8.8592583200        1.9292099500
 Fe         2.5302701000        4.4187998800        1.9292099500
 Fe         7.6573893600       10.3392168700        2.7128999200
 Fe        10.2210895800        5.8987584300        2.7128999200
 Fe        12.7847898000        1.4582999900        2.7128999200
 Fe         2.5299894400       10.3392168700        2.7128999200
 Fe         5.0936896600        5.8987584300        2.7128999200
 Fe         7.6573898800        1.4582999900        2.7128999200
 Fe        -2.5974104800       10.3392168700        2.7128999200
 Fe        -0.0337102600        5.8987584300        2.7128999200
 Fe         2.5299899600        1.4582999900        2.7128999200
  O         4.0650757670       13.3165128858        3.4762609765
  O         6.6478839690        8.8702891582        3.4855095486
  O         9.2182561626        4.4281582050        3.5232293921
  O        -1.0177804217       13.3223747371        3.5433490272
  O         1.5167705446        8.8684829406        3.4947882352
  O         4.0956046545        4.4378046159        3.5205878964
  O        -6.1337913336       13.3137692858        3.5404521775
  O        -3.6128440592        8.8729448168        3.4897333652
  O        -1.0084404169        4.4357538413        3.5563689759
  O         6.8098354614       11.8551053661        3.5210315616
  O         9.3808757925        7.4515649055        3.4686396571
  O        11.9279952393        2.9579897597        3.5440315229
  O         1.6972258270       11.8962844855        3.4623308234
  O         4.2519934031        7.4511701453        3.4689061339
  O         6.8156658607        2.9928419269        3.5159851775
  O        -3.4503668362       11.8520874711        3.5248803536
  O        -0.8801563999        7.4374319204        3.4802682096
  O         1.6954994361        2.9873833763        3.5034477220
  O         9.4377205370       10.2150315117        3.4671280800
  O        11.9713183702        5.8005248345        3.5316914295
  O        14.5368206813        1.3545965683        3.5182527871
  O         4.3189179481       10.2237012409        3.4705651970
  O         6.8673218542        5.7716730011        3.4819844217
  O         9.4480149663        1.3317336021        3.4467631147
  O        -0.8234204015       10.2142474062        3.4700986795
  O         1.7326673226        5.7713181584        3.4854993886
  O         4.2856034161        1.3589529901        3.5192635231
 Fe         5.0154989860       11.8585975954        4.4110170999
 Fe         7.6112699655        7.4001153777        4.4024338036
 Fe        10.1360924319        2.9325364681        4.4296784815
 Fe        -0.0757285742       11.8151018399        4.4061440373
 Fe         2.4661399759        7.3946251730        4.4010703382
 Fe         5.0401237388        2.9734033122        4.4311116253
 Fe        -5.2248252208       11.8098168809        4.4415112664
 Fe        -2.6452261599        7.4187663675        4.4169855335
 Fe        -0.0697534931        2.9499167691        4.4357687091
 Fe         7.6106965794       13.1933497186        4.7970792966
 Fe        10.1785692696        8.7452880112        4.8109592307
 Fe        12.7356602403        4.3009155057        4.8287194328
 Fe         2.4925270811       13.1730520141        4.8373350392
 Fe         5.0451002570        8.7491916648        4.8000452200
 Fe         7.6030717900        4.3093430786        4.8402581126
 Fe        -2.6471964531       13.1827956269        4.8147174331
 Fe        -0.0826896189        8.7377493438        4.8225627425
 Fe         2.4804532733        4.2981701658        4.8369478529
  O         5.8624527250       10.3539626754        5.8663783899
  O         8.4229704039        5.9207743603        5.8769392177
  O        10.9763080671        1.4632140869        5.8998146023
  O         0.7158164626       10.3386359821        5.8979211589
  O         3.2722498956        5.9100829612        5.8461216023
  O         5.8594236704        1.4712939579        5.8780789043
  O        -4.3998247135       10.3432768450        5.8780003587
  O        -1.8385084026        5.9070560812        5.8754471919
  O         0.7296450569        1.4596719624        5.8665091232
  O         5.9485657445       13.1687869811        5.6939637494
  O         8.4937253207        8.7363240772        5.6876232702
  O        11.0412802107        4.2864681856        5.6894256138
  O         0.7955515127       13.1504594043        5.6930720822
  O         3.3676483141        8.7252289694        5.6840526025
  O         5.9361333961        4.3127712095        5.7468894085
  O        -4.3448155336       13.1812899527        5.6659616072
  O        -1.7584894532        8.7353956224        5.7094840572
  O         0.8005623674        4.2916784143        5.7022848565
  O         3.4786342193       11.7704701478        5.7089063798
  O         6.0547015445        7.3378614007        5.6329986405
  O         8.5818268655        2.9167092744        5.7440758623
  O        -1.6546567421       11.7767713820        5.6713247156
  O         0.9069524244        7.3396078746        5.6865884530
  O         3.4749145828        2.8881662071        5.6808365236
  O        -6.8042618534       11.7833247978        5.6588924129
  O        -4.2197769693        7.3332218452        5.6753372010
  O        -1.6589474504        2.8743039057        5.6557738895
 Fe         7.7919725481       10.2761597253        6.4371014303
 Fe        10.3459532376        5.8308812214        6.4360546480
 Fe        12.9136305449        1.3790903406        6.4359302745
 Fe         2.6541111212       10.2554395634        6.4424895468
 Fe         5.1971880494        5.8739046913        6.4198015418
 Fe         7.7838934817        1.3694543004        6.4263546529
 Fe        -2.4785962298       10.2774115356        6.4348316069
 Fe         0.0923804798        5.8293996451        6.4388642981
 Fe         2.6499929284        1.3879627836        6.4367758422
  O         7.8503901252       10.3858916235        8.2634493003
  H         7.8655684490        9.5641457005        8.7867422926
  H         5.3553649364       10.6083350605        6.6724914212
  O        10.3661090850        5.9150971054        8.2748007952
  H        10.5922858646        5.1088550277        8.7708131957
  H         7.9158228337        6.2640769757        6.6447322708
  O        12.9489833060        1.5075717795        8.2641385871
  H        13.0103484851        0.6848592226        8.7828585316
  H        10.4753177046        1.7337856087        6.7027886223
  O         2.6930984474       10.3816741542        8.2693705248
  H         2.7858790829        9.5548464839        8.7784650426
  H         0.2235931971       10.6160209488        6.7049809335
  O         5.0006214172        6.3385580240        8.1559494462
  H         4.9407570279        5.7526496804        8.9414049940
  H         2.8206968649        6.1943980838        6.6736571759
  O         7.9207575091        1.2369855339        8.2635587298
  H         7.9516231333        0.3373364082        8.6469849128
  H         5.3366579562        1.7261797476        6.6709256284
  O        -2.4115603149       10.3889137676        8.2632718724
  H        -2.3622733648        9.5645641036        8.7809903441
  H        -4.9085088619       10.6241471433        6.6708546159
  O         0.1084169668        5.9380275512        8.2659009403
  H         0.2152552931        5.1288244922        8.7975555430
  H        -2.3404997522        6.1754733821        6.6784427832
  O         2.7163265395        1.4923012629        8.2602594523
  H         2.7605708605        0.6772659594        8.7917039245
  H         0.2270535439        1.7328488762        6.6669033926
  C         7.3718123589        4.0101397449        9.1932410106
  C         6.3135066766        4.3904360387       10.1001519267
  H         7.3521505317        2.9182079761        9.0567968270
  H         7.1906368785        4.4739688188        8.2080260284
  H         8.3598108668        4.2968501236        9.5641045568
  N         5.4805776220        4.7153965895       10.8554473816
     168
 i =       23, E =     -8144.3671512902
 Fe         5.0938794100       11.8196869300        0.3885799900
 Fe         7.6575796300        7.3792284900        0.3885799900
 Fe        10.2212798400        2.9387700600        0.3885799900
 Fe        -0.0335205200       11.8196869300        0.3885799900
 Fe         2.5301797000        7.3792284900        0.3885799900
 Fe         5.0938799200        2.9387700600        0.3885799900
 Fe        -5.1609204400       11.8196869300        0.3885799900
 Fe        -2.5972202200        7.3792284900        0.3885799900
 Fe        -0.0335200000        2.9387700600        0.3885799900
  O         8.4519195100        8.9577468800        1.1642700400
  O        11.0156197300        4.5172884400        1.1642700400
  O        13.5793199500        0.0768300000        1.1642700400
  O         3.3245195900        8.9577468800        1.1642700400
  O         5.8882198100        4.5172884400        1.1642700400
  O         8.4519200300        0.0768300000        1.1642700400
  O        -1.8028803300        8.9577468800        1.1642700400
  O         0.7608198900        4.5172884400        1.1642700400
  O         3.3245201100        0.0768300000        1.1642700400
  O         8.4568493000       11.7183869300        1.1650400200
  O        11.0205495200        7.2779284900        1.1650400200
  O        13.5842497300        2.8374700500        1.1650400200
  O         3.3294493700       11.7183869300        1.1650400200
  O         5.8931495900        7.2779284900        1.1650400200
  O         8.4568498100        2.8374700500        1.1650400200
  O        -1.7979505500       11.7183869300        1.1650400200
  O         0.7657496700        7.2779284900        1.1650400200
  O         3.3294498900        2.8374700500        1.1650400200
  O         6.0627194200       10.3425368500        1.1660399400
  O         8.6264196400        5.9020784100        1.1660399400
  O        11.1901198600        1.4616199700        1.1660399400
  O         0.9353195000       10.3425368500        1.1660399400
  O         3.4990197200        5.9020784100        1.1660399400
  O         6.0627199400        1.4616199700        1.1660399400
  O        -4.1920804200       10.3425368500        1.1660399400
  O        -1.6283802000        5.9020784100        1.1660399400
  O         0.9353200200        1.4616199700        1.1660399400
 Fe         7.6576695000       13.2997167500        1.9292099500
 Fe        10.2213697200        8.8592583200        1.9292099500
 Fe        12.7850699400        4.4187998800        1.9292099500
 Fe         2.5302695800       13.2997167500        1.9292099500
 Fe         5.0939698000        8.8592583200        1.9292099500
 Fe         7.6576700200        4.4187998800        1.9292099500
 Fe        -2.5971303400       13.2997167500        1.9292099500
 Fe        -0.0334301200        8.8592583200        1.9292099500
 Fe         2.5302701000        4.4187998800        1.9292099500
 Fe         7.6573893600       10.3392168700        2.7128999200
 Fe        10.2210895800        5.8987584300        2.7128999200
 Fe        12.7847898000        1.4582999900        2.7128999200
 Fe         2.5299894400       10.3392168700        2.7128999200
 Fe         5.0936896600        5.8987584300        2.7128999200
 Fe         7.6573898800        1.4582999900        2.7128999200
 Fe        -2.5974104800       10.3392168700        2.7128999200
 Fe        -0.0337102600        5.8987584300        2.7128999200
 Fe         2.5299899600        1.4582999900        2.7128999200
  O         4.1022871971       13.3230152705        3.5345554693
  O         6.6608259113        8.8766829435        3.5035719347
  O         9.2202511050        4.4343517458        3.5325229542
  O        -1.0339412031       13.3101925806        3.5090422302
  O         1.5484491286        8.8815470189        3.5521630315
  O         4.0926095488        4.4326064297        3.5126127967
  O        -6.1604787221       13.3118335261        3.5070850132
  O        -3.6035656485        8.8712359132        3.5025942735
  O        -1.0284241973        4.4312362525        3.5247016448
  O         6.8130954624       11.8754472676        3.4917565556
  O         9.3788575080        7.4437480574        3.4781543407
  O        11.9332121752        2.9782957499        3.5159517217
  O         1.6883419897       11.8609136250        3.5141398618
  O         4.2494754364        7.4347287785        3.4909817393
  O         6.8177150094        2.9866158634        3.5256517861
  O        -3.4433116786       11.8749542558        3.4906875384
  O        -0.8817128900        7.4039770133        3.5384856322
  O         1.6918205668        2.9942437375        3.4952690709
  O         9.4333110662       10.2198877218        3.4771678423
  O        11.9838224061        5.7859498272        3.5015535772
  O        14.5577133016        1.3423965340        3.4844094407
  O         4.3053465100       10.2309461522        3.4889584328
  O         6.8654497190        5.7706975080        3.4899188323
  O         9.4164317605        1.3528468909        3.5077406174
  O        -0.8497651453       10.2342701313        3.5260237320
  O         1.7396399456        5.7749844643        3.4774792636
  O         4.3035811737        1.3459656553        3.4845801711
 Fe         5.0418480064       11.8408831281        4.4299787590
 Fe         7.6089750972        7.3976699797        4.4087096490
 Fe        10.1550473784        2.9512569022        4.4355202680
 Fe        -0.0902939273       11.8312746293        4.4310625761
 Fe         2.4717298048        7.3834155289        4.4272505264
 Fe         5.0354617249        2.9630920694        4.4238829867
 Fe        -5.2202039165       11.8309341423        4.4177036837
 Fe        -2.6593059843        7.3985094922        4.4246110857
 Fe        -0.0845490728        2.9509301928        4.4211046774
 Fe         7.6122357094       13.1867905351        4.8035076908
 Fe        10.1755656725        8.7470197990        4.8083825303
 Fe        12.7378342150        4.3022486043        4.8217365259
 Fe         2.4922039007       13.1748618009        4.8433795059
 Fe         5.0464522014        8.7516772951        4.8005718158
 Fe         7.6038207252        4.3051257400        4.8504936385
 Fe        -2.6475884288       13.1857570561        4.8030975371
 Fe        -0.0815019697        8.7386780913        4.8541929388
 Fe         2.4782876920        4.2995178901        4.8314523650
  O         5.8609697054       10.3462578338        5.8705104231
  O         8.4245607624        5.9216413883        5.8772501991
  O        10.9754353303        1.4636102873        5.8932801392
  O         0.7222679039       10.3438360999        5.8973713153
  O         3.2752413589        5.9090462202        5.8444342786
  O         5.8589610644        1.4672388572        5.8806460092
  O        -4.4013030559       10.3467594336        5.8753145978
  O        -1.8391283031        5.9037997685        5.8778525706
  O         0.7295747181        1.4649482508        5.8712118741
  O         5.9430790329       13.1731196289        5.6993759594
  O         8.4941808165        8.7344945398        5.6871148414
  O        11.0532175733        4.2918941941        5.7001638102
  O         0.7976250449       13.1584961255        5.6889738013
  O         3.3722438494        8.7293080856        5.6870748679
  O         5.9294957698        4.3097645540        5.7443301363
  O        -4.3337677551       13.1747437290        5.6765510922
  O        -1.7737965247        8.7312772635        5.7038332741
  O         0.7961020107        4.2873484388        5.6977679554
  O         3.4788886560       11.7693599273        5.6947936608
  O         6.0512326923        7.3398149443        5.6334523944
  O         8.5879538910        2.9038664218        5.7362412788
  O        -1.6658185048       11.7852959207        5.6808096039
  O         0.9072082390        7.3323543233        5.6923010671
  O         3.4742229376        2.8915267408        5.6798132864
  O        -6.7886815110       11.7744380163        5.6637028149
  O        -4.2297426824        7.3367783550        5.6765424604
  O        -1.6586643417        2.8846547126        5.6673154704
 Fe         7.7861673370       10.2728235149        6.4349795698
 Fe        10.3461939834        5.8313536511        6.4369905358
 Fe        12.9102009808        1.3859576288        6.4363713217
 Fe         2.6566719323       10.2592050027        6.4385057005
 Fe         5.1978689324        5.8747317207        6.4171215343
 Fe         7.7822567799        1.3667409645        6.4294061325
 Fe        -2.4754280559       10.2774094686        6.4367453501
 Fe         0.0891983607        5.8257558069        6.4395801800
 Fe         2.6553983563        1.3860421013        6.4359510557
  O         7.8506891530       10.3854891740        8.2615804037
  H         7.8655405500        9.5647153262        8.7864984695
  H         5.3536958233       10.6077466635        6.6721634116
  O        10.3651207931        5.9152134009        8.2740420292
  H        10.5932180908        5.1087895923        8.7704614939
  H         7.9160967853        6.2657272539        6.6445518074
  O        12.9490738612        1.5072421439        8.2648565056
  H        13.0102830710        0.6846030318        8.7835205805
  H        10.4762800038        1.7283514455        6.6987590748
  O         2.6932109190       10.3791398876        8.2656309471
  H         2.7857690480        9.5556162514        8.7794371416
  H         0.2229264085       10.6164057224        6.7000177275
  O         4.9913246701        6.3438626197        8.1542522201
  H         4.9540962545        5.7543422714        8.9334527828
  H         2.8216179739        6.1943668396        6.6708910205
  O         7.9214718211        1.2346424527        8.2626787974
  H         7.9519066562        0.3386726611        8.6471398343
  H         5.3370796644        1.7271823695        6.6727857699
  O        -2.4118965356       10.3894655012        8.2648035809
  H        -2.3622411157        9.5643788086        8.7808837336
  H        -4.9075164194       10.6213322422        6.6732333386
  O         0.1087500541        5.9392364207        8.2659494466
  H         0.2155318138        5.1291612605        8.7962851857
  H        -2.3399269000        6.1766008926        6.6790156246
  O         2.7163275286        1.4928058917        8.2607666461
  H         2.7604585343        0.6770724602        8.7913998612
  H         0.2242019153        1.7346755530        6.6714363467
  C         7.3597619206        3.9961140733        9.1944777135
  C         6.3268334267        4.4005038574       10.1174421703
  H         7.3627933921        2.9035475603        9.0442748774
  H         7.1947579629        4.4741784763        8.2162212267
  H         8.3486429421        4.3044992325        9.5607716936
  N         5.4695013882        4.7252018443       10.8494563091
     168
 i =       24, E =     -8144.3480441194
 Fe         5.0938794100       11.8196869300        0.3885799900
 Fe         7.6575796300        7.3792284900        0.3885799900
 Fe        10.2212798400        2.9387700600        0.3885799900
 Fe        -0.0335205200       11.8196869300        0.3885799900
 Fe         2.5301797000        7.3792284900        0.3885799900
 Fe         5.0938799200        2.9387700600        0.3885799900
 Fe        -5.1609204400       11.8196869300        0.3885799900
 Fe        -2.5972202200        7.3792284900        0.3885799900
 Fe        -0.0335200000        2.9387700600        0.3885799900
  O         8.4519195100        8.9577468800        1.1642700400
  O        11.0156197300        4.5172884400        1.1642700400
  O        13.5793199500        0.0768300000        1.1642700400
  O         3.3245195900        8.9577468800        1.1642700400
  O         5.8882198100        4.5172884400        1.1642700400
  O         8.4519200300        0.0768300000        1.1642700400
  O        -1.8028803300        8.9577468800        1.1642700400
  O         0.7608198900        4.5172884400        1.1642700400
  O         3.3245201100        0.0768300000        1.1642700400
  O         8.4568493000       11.7183869300        1.1650400200
  O        11.0205495200        7.2779284900        1.1650400200
  O        13.5842497300        2.8374700500        1.1650400200
  O         3.3294493700       11.7183869300        1.1650400200
  O         5.8931495900        7.2779284900        1.1650400200
  O         8.4568498100        2.8374700500        1.1650400200
  O        -1.7979505500       11.7183869300        1.1650400200
  O         0.7657496700        7.2779284900        1.1650400200
  O         3.3294498900        2.8374700500        1.1650400200
  O         6.0627194200       10.3425368500        1.1660399400
  O         8.6264196400        5.9020784100        1.1660399400
  O        11.1901198600        1.4616199700        1.1660399400
  O         0.9353195000       10.3425368500        1.1660399400
  O         3.4990197200        5.9020784100        1.1660399400
  O         6.0627199400        1.4616199700        1.1660399400
  O        -4.1920804200       10.3425368500        1.1660399400
  O        -1.6283802000        5.9020784100        1.1660399400
  O         0.9353200200        1.4616199700        1.1660399400
 Fe         7.6576695000       13.2997167500        1.9292099500
 Fe        10.2213697200        8.8592583200        1.9292099500
 Fe        12.7850699400        4.4187998800        1.9292099500
 Fe         2.5302695800       13.2997167500        1.9292099500
 Fe         5.0939698000        8.8592583200        1.9292099500
 Fe         7.6576700200        4.4187998800        1.9292099500
 Fe        -2.5971303400       13.2997167500        1.9292099500
 Fe        -0.0334301200        8.8592583200        1.9292099500
 Fe         2.5302701000        4.4187998800        1.9292099500
 Fe         7.6573893600       10.3392168700        2.7128999200
 Fe        10.2210895800        5.8987584300        2.7128999200
 Fe        12.7847898000        1.4582999900        2.7128999200
 Fe         2.5299894400       10.3392168700        2.7128999200
 Fe         5.0936896600        5.8987584300        2.7128999200
 Fe         7.6573898800        1.4582999900        2.7128999200
 Fe        -2.5974104800       10.3392168700        2.7128999200
 Fe        -0.0337102600        5.8987584300        2.7128999200
 Fe         2.5299899600        1.4582999900        2.7128999200
  O         4.1114837542       13.3159019757        3.5512812939
  O         6.6757754090        8.8860844931        3.5297016532
  O         9.2071590542        4.4307731990        3.5175133604
  O        -1.0435779216       13.3102680476        3.4928210225
  O         1.5637395938        8.8913654970        3.5872152132
  O         4.0900840172        4.4314856600        3.5067658476
  O        -6.1721523828       13.3230605368        3.5088845503
  O        -3.5441703881        8.8903250476        3.6034983725
  O        -1.0825238228        4.4161971575        3.4392148052
  O         6.8144816227       11.8753310340        3.4942758354
  O         9.3723478078        7.3811332466        3.5693149576
  O        11.9443141541        3.0319386422        3.4388524743
  O         1.6878293528       11.8535843251        3.5335616714
  O         4.2491911085        7.4139545167        3.5207116394
  O         6.8244377531        2.9951924594        3.5167537656
  O        -3.4364311763       11.8883837065        3.4692503260
  O        -0.8783969144        7.3870984230        3.5755403322
  O         1.6868630237        3.0019190655        3.4877308724
  O         9.3889204498       10.2519119743        3.5653203173
  O        12.0208796273        5.7481889844        3.4211523097
  O        14.5626693056        1.3416410075        3.4857915662
  O         4.2839873488       10.2372352117        3.5167386304
  O         6.8744310192        5.7620419708        3.4759127691
  O         9.4010156317        1.3586077303        3.5395991252
  O        -0.8624755593       10.2410851637        3.5574086801
  O         1.7468580875        5.7776939157        3.4698651839
  O         4.3159521493        1.3396970450        3.4635218623
 Fe         5.0549358688       11.8299784804        4.4392423113
 Fe         7.5868461644        7.3880231489        4.4240457397
 Fe        10.1822870847        2.9683781488        4.4175780585
 Fe        -0.1014080685       11.8401454526        4.4345825892
 Fe         2.4730239951        7.3778967376        4.4424570679
 Fe         5.0366172045        2.9590269363        4.4136861998
 Fe        -5.2046020063       11.8647125403        4.4182098006
 Fe        -2.6600927548        7.3416692183        4.4355805641
 Fe        -0.1065813187        2.9767997821        4.3998171026
 Fe         7.6128259795       13.1778484728        4.8268043751
 Fe        10.1709892174        8.7460095811        4.8398652620
 Fe        12.7381103663        4.3024653883        4.7998677160
 Fe         2.4908812262       13.1810959269        4.8424786740
 Fe         5.0471456265        8.7554888773        4.8076389453
 Fe         7.6034894205        4.3033573622        4.8550078107
 Fe        -2.6455943138       13.1872032917        4.7933318235
 Fe        -0.0816747235        8.7405348607        4.8815001886
 Fe         2.4792650756        4.3012192160        4.8266170355
  O         5.8584988637       10.3417256231        5.8726111260
  O         8.4261728736        5.9224434940        5.8765494869
  O        10.9734645151        1.4657056327        5.8850127704
  O         0.7301212190       10.3532670674        5.8930897440
  O         3.2790814240        5.9114284668        5.8414561549
  O         5.8581313588        1.4642049027        5.8822481566
  O        -4.4001686015       10.3539564206        5.8738844179
  O        -1.8386655404        5.8956340605        5.8821862873
  O         0.7298804865        1.4759727385        5.8732027862
  O         5.9262341891       13.1773692472        5.6985919733
  O         8.4825884083        8.7288123945        5.6890921476
  O        11.0631236896        4.2960544899        5.7058732570
  O         0.7951192301       13.1656610657        5.6748287947
  O         3.3729422916        8.7335609798        5.6880798012
  O         5.9239030168        4.3103612042        5.7422435483
  O        -4.3139086930       13.1748960498        5.6950388817
  O        -1.7928547053        8.7235702820        5.6939335528
  O         0.7964412083        4.2859402683        5.6949484673
  O         3.4737533962       11.7701910861        5.6757512886
  O         6.0393838317        7.3390049610        5.6387592627
  O         8.5989672082        2.8874769872        5.7154652017
  O        -1.6702082573       11.7922530221        5.6861787192
  O         0.9070689850        7.3244717895        5.6936934099
  O         3.4772147895        2.8934183580        5.6762320062
  O        -6.7700240811       11.7614835359        5.6726763084
  O        -4.2308277170        7.3358877016        5.6819678397
  O        -1.6597315906        2.8983321085        5.6801402608
 Fe         7.7776719412       10.2691646843        6.4331497061
 Fe        10.3466669189        5.8314668227        6.4379784430
 Fe        12.9065385554        1.3939392635        6.4369548021
 Fe         2.6603728906       10.2634558398        6.4352009825
 Fe         5.1974186205        5.8741556606        6.4260705723
 Fe         7.7817736349        1.3642660939        6.4317168174
 Fe        -2.4708563939       10.2779585512        6.4376254800
 Fe         0.0860043707        5.8226407179        6.4398334302
 Fe         2.6602662538        1.3864287857        6.4358479063
  O         7.8517521938       10.3858567067        8.2591488501
  H         7.8649696930        9.5662150833        8.7858032408
  H         5.3530277633       10.6074175492        6.6717353935
  O        10.3633749521        5.9146200933        8.2738520026
  H        10.6005389700        5.1082682073        8.7693943629
  H         7.9170391492        6.2693475157        6.6431562519
  O        12.9487173781        1.5073022864        8.2659137707
  H        13.0100355128        0.6849738704        8.7847210451
  H        10.4783530383        1.7215179315        6.6959687368
  O         2.6927316959       10.3759038874        8.2624455955
  H         2.7866922376        9.5557488725        8.7809334266
  H         0.2237007885       10.6147341935        6.6943940779
  O         4.9824187172        6.3525060495        8.1607714805
  H         4.9491158207        5.7667712607        8.9383785704
  H         2.8221884555        6.1942264151        6.6673016453
  O         7.9212251767        1.2261807732        8.2632444523
  H         7.9549328718        0.3320103072        8.6452312504
  H         5.3364529592        1.7279990463        6.6739304058
  O        -2.4120116996       10.3904984960        8.2660653814
  H        -2.3619444770        9.5648648705        8.7810072446
  H        -4.9068975431       10.6176406909        6.6755174803
  O         0.1076569630        5.9400685334        8.2650900283
  H         0.2160504443        5.1300929888        8.7954177852
  H        -2.3385714436        6.1776509956        6.6796787017
  O         2.7163054720        1.4930796868        8.2612700753
  H         2.7605403965        0.6771086059        8.7914695574
  H         0.2210539236        1.7346376118        6.6752680531
  C         7.3522624685        3.9917545024        9.1979071635
  C         6.3410481808        4.4114920848       10.1391867718
  H         7.3821296632        2.8943972486        9.0460357997
  H         7.1941030471        4.4748500590        8.2255568671
  H         8.3409783792        4.3155513526        9.5611746473
  N         5.4624799747        4.7157569678       10.8595519115
     168
 i =       25, E =     -8144.3643208182
 Fe         5.0938794100       11.8196869300        0.3885799900
 Fe         7.6575796300        7.3792284900        0.3885799900
 Fe        10.2212798400        2.9387700600        0.3885799900
 Fe        -0.0335205200       11.8196869300        0.3885799900
 Fe         2.5301797000        7.3792284900        0.3885799900
 Fe         5.0938799200        2.9387700600        0.3885799900
 Fe        -5.1609204400       11.8196869300        0.3885799900
 Fe        -2.5972202200        7.3792284900        0.3885799900
 Fe        -0.0335200000        2.9387700600        0.3885799900
  O         8.4519195100        8.9577468800        1.1642700400
  O        11.0156197300        4.5172884400        1.1642700400
  O        13.5793199500        0.0768300000        1.1642700400
  O         3.3245195900        8.9577468800        1.1642700400
  O         5.8882198100        4.5172884400        1.1642700400
  O         8.4519200300        0.0768300000        1.1642700400
  O        -1.8028803300        8.9577468800        1.1642700400
  O         0.7608198900        4.5172884400        1.1642700400
  O         3.3245201100        0.0768300000        1.1642700400
  O         8.4568493000       11.7183869300        1.1650400200
  O        11.0205495200        7.2779284900        1.1650400200
  O        13.5842497300        2.8374700500        1.1650400200
  O         3.3294493700       11.7183869300        1.1650400200
  O         5.8931495900        7.2779284900        1.1650400200
  O         8.4568498100        2.8374700500        1.1650400200
  O        -1.7979505500       11.7183869300        1.1650400200
  O         0.7657496700        7.2779284900        1.1650400200
  O         3.3294498900        2.8374700500        1.1650400200
  O         6.0627194200       10.3425368500        1.1660399400
  O         8.6264196400        5.9020784100        1.1660399400
  O        11.1901198600        1.4616199700        1.1660399400
  O         0.9353195000       10.3425368500        1.1660399400
  O         3.4990197200        5.9020784100        1.1660399400
  O         6.0627199400        1.4616199700        1.1660399400
  O        -4.1920804200       10.3425368500        1.1660399400
  O        -1.6283802000        5.9020784100        1.1660399400
  O         0.9353200200        1.4616199700        1.1660399400
 Fe         7.6576695000       13.2997167500        1.9292099500
 Fe        10.2213697200        8.8592583200        1.9292099500
 Fe        12.7850699400        4.4187998800        1.9292099500
 Fe         2.5302695800       13.2997167500        1.9292099500
 Fe         5.0939698000        8.8592583200        1.9292099500
 Fe         7.6576700200        4.4187998800        1.9292099500
 Fe        -2.5971303400       13.2997167500        1.9292099500
 Fe        -0.0334301200        8.8592583200        1.9292099500
 Fe         2.5302701000        4.4187998800        1.9292099500
 Fe         7.6573893600       10.3392168700        2.7128999200
 Fe        10.2210895800        5.8987584300        2.7128999200
 Fe        12.7847898000        1.4582999900        2.7128999200
 Fe         2.5299894400       10.3392168700        2.7128999200
 Fe         5.0936896600        5.8987584300        2.7128999200
 Fe         7.6573898800        1.4582999900        2.7128999200
 Fe        -2.5974104800       10.3392168700        2.7128999200
 Fe        -0.0337102600        5.8987584300        2.7128999200
 Fe         2.5299899600        1.4582999900        2.7128999200
  O         4.0966520475       13.3179906659        3.5318791733
  O         6.6588890114        8.8776457861        3.5047296632
  O         9.2103912027        4.4284387042        3.5149897716
  O        -1.0357641835       13.3154556971        3.5104753702
  O         1.5458275380        8.8848885551        3.5544467260
  O         4.1019516308        4.4357548091        3.5248057893
  O        -6.1611434631       13.3200753367        3.5189695431
  O        -3.5704625272        8.8857644400        3.5644961181
  O        -1.0545964524        4.4211627864        3.4791099652
  O         6.8138065836       11.8716857235        3.5025526253
  O         9.3797624503        7.4020636422        3.5415464928
  O        11.9370487046        3.0084762783        3.4699925142
  O         1.6907638633       11.8674190088        3.5126245295
  O         4.2513547022        7.4310341506        3.4950694544
  O         6.8209856803        2.9957381577        3.5132469285
  O        -3.4406331643       11.8788969603        3.4889489738
  O        -0.8766921502        7.4011039844        3.5443707095
  O         1.6867111136        2.9899833129        3.5040455165
  O         9.4078336013       10.2388748304        3.5309779789
  O        12.0031903216        5.7680249580        3.4608807789
  O        14.5536613062        1.3429249255        3.4934049316
  O         4.3005460443       10.2285556695        3.4908028472
  O         6.8714599649        5.7642672285        3.4779758302
  O         9.4149279043        1.3510940699        3.5129638857
  O        -0.8456453312       10.2336559726        3.5237549831
  O         1.7338449167        5.7808468768        3.4912741275
  O         4.3062054706        1.3454772139        3.4836800063
 Fe         5.0421821393       11.8337683153        4.4267377022
 Fe         7.5951055903        7.3955749351        4.4114765797
 Fe        10.1657480698        2.9580917969        4.4195796920
 Fe        -0.0950398340       11.8310094030        4.4242021332
 Fe         2.4750071770        7.3900817416        4.4288827160
 Fe         5.0409920537        2.9601615815        4.4243109618
 Fe        -5.2134677184       11.8460870261        4.4261030779
 Fe        -2.6525464155        7.3752245265        4.4279301105
 Fe        -0.0988309073        2.9608366845        4.4151204861
 Fe         7.6113213746       13.1842355735        4.8229862615
 Fe        10.1741342907        8.7441837868        4.8420192127
 Fe        12.7367117797        4.3022963037        4.8008860533
 Fe         2.4892619277       13.1800652262        4.8422587947
 Fe         5.0458965114        8.7522276763        4.8039146093
 Fe         7.6044348174        4.3048562316        4.8459705553
 Fe        -2.6445763697       13.1876101931        4.8040084337
 Fe        -0.0830395384        8.7394433137        4.8606139990
 Fe         2.4812619787        4.2996139124        4.8327415596
  O         5.8592501374       10.3450745517        5.8720403963
  O         8.4223477619        5.9205645348        5.8768789807
  O        10.9775065752        1.4660083232        5.8865698017
  O         0.7249001734       10.3470654454        5.8932825720
  O         3.2772112330        5.9118761952        5.8435927064
  O         5.8613462635        1.4693269243        5.8812434713
  O        -4.3995593231       10.3534180117        5.8781507345
  O        -1.8401531275        5.8983931520        5.8773397638
  O         0.7317456681        1.4705528096        5.8734035545
  O         5.9265826838       13.1742842371        5.6950579370
  O         8.4839877219        8.7263589295        5.6960858674
  O        11.0572624660        4.2953246773        5.6928507741
  O         0.7921228815       13.1616877003        5.6768762546
  O         3.3723348760        8.7323375872        5.6915125513
  O         5.9312153651        4.3147901403        5.7433518392
  O        -4.3238306226       13.1762569105        5.6860621437
  O        -1.7753658090        8.7251053759        5.7087106815
  O         0.7937080272        4.2897493823        5.6901725585
  O         3.4747732658       11.7718276329        5.6841536331
  O         6.0462911249        7.3347755880        5.6370468124
  O         8.5913946184        2.8958952910        5.7212544619
  O        -1.6648281841       11.7873012833        5.6812886061
  O         0.9084672716        7.3288305794        5.6905708692
  O         3.4768826667        2.8906341255        5.6764140532
  O        -6.7795994333       11.7739020535        5.6770321974
  O        -4.2219796897        7.3270612828        5.6812610269
  O        -1.6643877797        2.8959636751        5.6715678376
 Fe         7.7832771415       10.2720536109        6.4335673349
 Fe        10.3443193230        5.8276932749        6.4386968584
 Fe        12.9105048861        1.3918520554        6.4363559016
 Fe         2.6574727282       10.2632069430        6.4375064602
 Fe         5.1969359651        5.8734591197        6.4326490311
 Fe         7.7833581078        1.3657159233        6.4299672976
 Fe        -2.4726101717       10.2774357805        6.4352066755
 Fe         0.0883359693        5.8252430607        6.4409945588
 Fe         2.6575461380        1.3870698283        6.4358338463
  O         7.8512244015       10.3864286887        8.2601449883
  H         7.8644651374        9.5663620873        8.7860759162
  H         5.3526095313       10.6076854433        6.6728945907
  O        10.3645709505        5.9136290923        8.2751660672
  H        10.6036592533        5.1079434574        8.7692343241
  H         7.9175414226        6.2692106689        6.6450747427
  O        12.9481295019        1.5077181600        8.2650920537
  H        13.0097802141        0.6857094619        8.7845702216
  H        10.4782488807        1.7245813266        6.6943444463
  O         2.6928434423       10.3770353837        8.2647672724
  H         2.7875490797        9.5551873196        8.7805570173
  H         0.2257084467       10.6157210296        6.6973358346
  O         4.9829038924        6.3535005246        8.1673728597
  H         4.9350770270        5.7718804013        8.9476844717
  H         2.8201794774        6.1951708292        6.6686957793
  O         7.9204306929        1.2249072925        8.2633485721
  H         7.9566435200        0.3272101227        8.6419532633
  H         5.3355592592        1.7271980380        6.6717610748
  O        -2.4110624829       10.3899857618        8.2637371392
  H        -2.3618153060        9.5656995783        8.7810130294
  H        -4.9081288916       10.6209599460        6.6763883404
  O         0.1067075877        5.9399215003        8.2669398237
  H         0.2159047904        5.1297434429        8.7967951343
  H        -2.3384440941        6.1752949492        6.6789113339
  O         2.7157732598        1.4931304003        8.2604353385
  H         2.7610199433        0.6776556828        8.7912846944
  H         0.2229531823        1.7352576314        6.6725287329
  C         7.3628489908        4.0028136536        9.2023322729
  C         6.3284562482        4.3918887722       10.1364461874
  H         7.3810135879        2.9055335904        9.0593759576
  H         7.1872476119        4.4747327553        8.2246213083
  H         8.3515978782        4.3178275730        9.5641226810
  N         5.4752788833        4.7115291281       10.8681063593
     168
 i =       26, E =     -8144.3605869523
 Fe         5.0938794100       11.8196869300        0.3885799900
 Fe         7.6575796300        7.3792284900        0.3885799900
 Fe        10.2212798400        2.9387700600        0.3885799900
 Fe        -0.0335205200       11.8196869300        0.3885799900
 Fe         2.5301797000        7.3792284900        0.3885799900
 Fe         5.0938799200        2.9387700600        0.3885799900
 Fe        -5.1609204400       11.8196869300        0.3885799900
 Fe        -2.5972202200        7.3792284900        0.3885799900
 Fe        -0.0335200000        2.9387700600        0.3885799900
  O         8.4519195100        8.9577468800        1.1642700400
  O        11.0156197300        4.5172884400        1.1642700400
  O        13.5793199500        0.0768300000        1.1642700400
  O         3.3245195900        8.9577468800        1.1642700400
  O         5.8882198100        4.5172884400        1.1642700400
  O         8.4519200300        0.0768300000        1.1642700400
  O        -1.8028803300        8.9577468800        1.1642700400
  O         0.7608198900        4.5172884400        1.1642700400
  O         3.3245201100        0.0768300000        1.1642700400
  O         8.4568493000       11.7183869300        1.1650400200
  O        11.0205495200        7.2779284900        1.1650400200
  O        13.5842497300        2.8374700500        1.1650400200
  O         3.3294493700       11.7183869300        1.1650400200
  O         5.8931495900        7.2779284900        1.1650400200
  O         8.4568498100        2.8374700500        1.1650400200
  O        -1.7979505500       11.7183869300        1.1650400200
  O         0.7657496700        7.2779284900        1.1650400200
  O         3.3294498900        2.8374700500        1.1650400200
  O         6.0627194200       10.3425368500        1.1660399400
  O         8.6264196400        5.9020784100        1.1660399400
  O        11.1901198600        1.4616199700        1.1660399400
  O         0.9353195000       10.3425368500        1.1660399400
  O         3.4990197200        5.9020784100        1.1660399400
  O         6.0627199400        1.4616199700        1.1660399400
  O        -4.1920804200       10.3425368500        1.1660399400
  O        -1.6283802000        5.9020784100        1.1660399400
  O         0.9353200200        1.4616199700        1.1660399400
 Fe         7.6576695000       13.2997167500        1.9292099500
 Fe        10.2213697200        8.8592583200        1.9292099500
 Fe        12.7850699400        4.4187998800        1.9292099500
 Fe         2.5302695800       13.2997167500        1.9292099500
 Fe         5.0939698000        8.8592583200        1.9292099500
 Fe         7.6576700200        4.4187998800        1.9292099500
 Fe        -2.5971303400       13.2997167500        1.9292099500
 Fe        -0.0334301200        8.8592583200        1.9292099500
 Fe         2.5302701000        4.4187998800        1.9292099500
 Fe         7.6573893600       10.3392168700        2.7128999200
 Fe        10.2210895800        5.8987584300        2.7128999200
 Fe        12.7847898000        1.4582999900        2.7128999200
 Fe         2.5299894400       10.3392168700        2.7128999200
 Fe         5.0936896600        5.8987584300        2.7128999200
 Fe         7.6573898800        1.4582999900        2.7128999200
 Fe        -2.5974104800       10.3392168700        2.7128999200
 Fe        -0.0337102600        5.8987584300        2.7128999200
 Fe         2.5299899600        1.4582999900        2.7128999200
  O         4.0580302490       13.3093917634        3.4640615629
  O         6.6492549418        8.8659170323        3.4861166915
  O         9.2165164346        4.4270347209        3.5191929179
  O        -1.0161565630       13.3243893395        3.5440374791
  O         1.5248411659        8.8777130805        3.5123850902
  O         4.0937651992        4.4348741478        3.5141964268
  O        -6.1498579782       13.3159132126        3.5254169945
  O        -3.6090482074        8.8739937744        3.5019856259
  O        -1.0202797792        4.4325363427        3.5366050008
  O         6.8098205305       11.8666932022        3.5058350651
  O         9.3842461268        7.4422079314        3.4874978500
  O        11.9297123672        2.9697356820        3.5233720948
  O         1.6982824306       11.9059277564        3.4499829831
  O         4.2520390183        7.4482340521        3.4719378842
  O         6.8176617585        2.9947315988        3.5155126820
  O        -3.4465483500       11.8540952671        3.5266992050
  O        -0.8795467453        7.4266693293        3.4966912728
  O         1.6931671882        2.9948055476        3.4948196448
  O         9.4352963048       10.2119159712        3.4773555031
  O        11.9799683780        5.7938545981        3.5135652968
  O        14.5441721207        1.3459333379        3.5019956202
  O         4.3130669923       10.2209923654        3.4717835756
  O         6.8671585499        5.7714336090        3.4836709561
  O         9.4488011053        1.3295266856        3.4457306461
  O        -0.8249894921       10.2196896963        3.4825608192
  O         1.7367489428        5.7729652988        3.4775403226
  O         4.2879378851        1.3618686326        3.5187722831
 Fe         5.0207262559       11.8523258484        4.4020779682
 Fe         7.6111577335        7.3997174146        4.4076238887
 Fe        10.1406949882        2.9359866620        4.4188399337
 Fe        -0.0747627901       11.8191924185        4.4058272954
 Fe         2.4684632843        7.3920696315        4.4014767194
 Fe         5.0392183754        2.9747451274        4.4318072752
 Fe        -5.2299620291       11.8196473948        4.4309321071
 Fe        -2.6474995545        7.4142859746        4.4196122497
 Fe        -0.0777208288        2.9473873379        4.4260820106
 Fe         7.6091668237       13.1889208953        4.8069598605
 Fe        10.1793294834        8.7404276359        4.8382458039
 Fe        12.7333562740        4.3010159402        4.8121506208
 Fe         2.4895908051       13.1784836269        4.8218329793
 Fe         5.0462194955        8.7487168138        4.7999019336
 Fe         7.6047780735        4.3097629557        4.8378614707
 Fe        -2.6442224556       13.1861537536        4.8187442782
 Fe        -0.0827130191        8.7366602096        4.8287594734
 Fe         2.4801302220        4.3021296724        4.8295508594
  O         5.8582316877       10.3513120121        5.8669110012
  O         8.4226775899        5.9167437813        5.8776572977
  O        10.9768981058        1.4620147928        5.8865522424
  O         0.7211502659       10.3410437960        5.8914496260
  O         3.2765729822        5.9113287250        5.8480898059
  O         5.8617383381        1.4762304755        5.8795387536
  O        -4.4003224104       10.3511174416        5.8852116433
  O        -1.8380724102        5.9027218211        5.8713862434
  O         0.7298313702        1.4637020597        5.8706067665
  O         5.9306139383       13.1740493751        5.6867103839
  O         8.4896613382        8.7312645151        5.7020356775
  O        11.0426167923        4.2877183158        5.6786047180
  O         0.7991765885       13.1590474466        5.6806401980
  O         3.3665321321        8.7279375789        5.6827612364
  O         5.9383839742        4.3193163711        5.7439066967
  O        -4.3382198871       13.1714908398        5.6781652561
  O        -1.7542730405        8.7302961963        5.7164692957
  O         0.7947159618        4.2909414511        5.6929538943
  O         3.4718882663       11.7737551150        5.6889096876
  O         6.0505641044        7.3316935728        5.6371121363
  O         8.5817979587        2.9044758112        5.7237737717
  O        -1.6537216559       11.7762566239        5.6699524149
  O         0.9102172764        7.3375891193        5.6853424244
  O         3.4734044397        2.8938566504        5.6797115751
  O        -6.7945971568       11.7867272627        5.6778360975
  O        -4.2129972987        7.3225167312        5.6841495937
  O        -1.6611563220        2.8858348594        5.6587022982
 Fe         7.7856306373       10.2770904919        6.4368612831
 Fe        10.3446267341        5.8229891869        6.4364115237
 Fe        12.9108531955        1.3882013703        6.4350148368
 Fe         2.6571082622       10.2602594084        6.4401238126
 Fe         5.1965370133        5.8719698724        6.4380194328
 Fe         7.7839352824        1.3681584012        6.4267992715
 Fe        -2.4732901329       10.2760452153        6.4354431183
 Fe         0.0934433293        5.8297826665        6.4382006080
 Fe         2.6548151824        1.3875824360        6.4352349955
  O         7.8505962952       10.3882493198        8.2633543733
  H         7.8642205625        9.5663624297        8.7857972821
  H         5.3533313202       10.6085219963        6.6722199807
  O        10.3684121865        5.9105264153        8.2739442269
  H        10.6056754143        5.1079595325        8.7695828108
  H         7.9177465605        6.2652946951        6.6448481768
  O        12.9487926154        1.5086220095        8.2637442185
  H        13.0093194836        0.6868395209        8.7842866618
  H        10.4802516190        1.7309329802        6.6928185910
  O         2.6930828981       10.3791625048        8.2678975744
  H         2.7882546426        9.5544705649        8.7794039488
  H         0.2265189401       10.6150279401        6.6980403073
  O         4.9907729910        6.3358473051        8.1728025422
  H         4.9239663331        5.7565355293        8.9695556233
  H         2.8141480401        6.1976000724        6.6690567959
  O         7.9156809679        1.2317596438        8.2632342461
  H         7.9581072555        0.3326608554        8.6415369171
  H         5.3357299086        1.7282658036        6.6709192464
  O        -2.4098407921       10.3909248053        8.2635281337
  H        -2.3614987970        9.5665379259        8.7804125913
  H        -4.9086954917       10.6261844737        6.6801562127
  O         0.1069501636        5.9382606487        8.2659103616
  H         0.2144947822        5.1294684376        8.7982094175
  H        -2.3399368920        6.1722264126        6.6746863492
  O         2.7143295999        1.4940929565        8.2601587949
  H         2.7618969732        0.6785565656        8.7906689181
  H         0.2258601443        1.7349090655        6.6702981442
  C         7.3794057335        4.0095364601        9.2096527070
  C         6.3162400766        4.3791021001       10.1179222171
  H         7.3672232038        2.9184288489        9.0726581499
  H         7.1832126090        4.4678455202        8.2205029397
  H         8.3665201143        4.3273469282        9.5674405315
  N         5.4835906848        4.7195175777       10.8635815697
     168
 i =       27, E =     -8144.3663288653
 Fe         5.0938794100       11.8196869300        0.3885799900
 Fe         7.6575796300        7.3792284900        0.3885799900
 Fe        10.2212798400        2.9387700600        0.3885799900
 Fe        -0.0335205200       11.8196869300        0.3885799900
 Fe         2.5301797000        7.3792284900        0.3885799900
 Fe         5.0938799200        2.9387700600        0.3885799900
 Fe        -5.1609204400       11.8196869300        0.3885799900
 Fe        -2.5972202200        7.3792284900        0.3885799900
 Fe        -0.0335200000        2.9387700600        0.3885799900
  O         8.4519195100        8.9577468800        1.1642700400
  O        11.0156197300        4.5172884400        1.1642700400
  O        13.5793199500        0.0768300000        1.1642700400
  O         3.3245195900        8.9577468800        1.1642700400
  O         5.8882198100        4.5172884400        1.1642700400
  O         8.4519200300        0.0768300000        1.1642700400
  O        -1.8028803300        8.9577468800        1.1642700400
  O         0.7608198900        4.5172884400        1.1642700400
  O         3.3245201100        0.0768300000        1.1642700400
  O         8.4568493000       11.7183869300        1.1650400200
  O        11.0205495200        7.2779284900        1.1650400200
  O        13.5842497300        2.8374700500        1.1650400200
  O         3.3294493700       11.7183869300        1.1650400200
  O         5.8931495900        7.2779284900        1.1650400200
  O         8.4568498100        2.8374700500        1.1650400200
  O        -1.7979505500       11.7183869300        1.1650400200
  O         0.7657496700        7.2779284900        1.1650400200
  O         3.3294498900        2.8374700500        1.1650400200
  O         6.0627194200       10.3425368500        1.1660399400
  O         8.6264196400        5.9020784100        1.1660399400
  O        11.1901198600        1.4616199700        1.1660399400
  O         0.9353195000       10.3425368500        1.1660399400
  O         3.4990197200        5.9020784100        1.1660399400
  O         6.0627199400        1.4616199700        1.1660399400
  O        -4.1920804200       10.3425368500        1.1660399400
  O        -1.6283802000        5.9020784100        1.1660399400
  O         0.9353200200        1.4616199700        1.1660399400
 Fe         7.6576695000       13.2997167500        1.9292099500
 Fe        10.2213697200        8.8592583200        1.9292099500
 Fe        12.7850699400        4.4187998800        1.9292099500
 Fe         2.5302695800       13.2997167500        1.9292099500
 Fe         5.0939698000        8.8592583200        1.9292099500
 Fe         7.6576700200        4.4187998800        1.9292099500
 Fe        -2.5971303400       13.2997167500        1.9292099500
 Fe        -0.0334301200        8.8592583200        1.9292099500
 Fe         2.5302701000        4.4187998800        1.9292099500
 Fe         7.6573893600       10.3392168700        2.7128999200
 Fe        10.2210895800        5.8987584300        2.7128999200
 Fe        12.7847898000        1.4582999900        2.7128999200
 Fe         2.5299894400       10.3392168700        2.7128999200
 Fe         5.0936896600        5.8987584300        2.7128999200
 Fe         7.6573898800        1.4582999900        2.7128999200
 Fe        -2.5974104800       10.3392168700        2.7128999200
 Fe        -0.0337102600        5.8987584300        2.7128999200
 Fe         2.5299899600        1.4582999900        2.7128999200
  O         4.0809715039       13.3132723338        3.5007895141
  O         6.6517650869        8.8714193768        3.4929066184
  O         9.2133792870        4.4277244900        3.5174723125
  O        -1.0261631151       13.3193928185        3.5265738974
  O         1.5343088074        8.8785321276        3.5290974544
  O         4.0984178938        4.4360710444        3.5203440356
  O        -6.1637261516       13.3155713932        3.5100989100
  O        -3.5832024035        8.8822061182        3.5460786622
  O        -1.0426438881        4.4243809437        3.4979000170
  O         6.8117238032       11.8758200992        3.4945842567
  O         9.3826377256        7.4154230443        3.5267223737
  O        11.9344921088        2.9945035687        3.4880918562
  O         1.6926403625       11.8841699674        3.4833177022
  O         4.2506271174        7.4417387627        3.4797140048
  O         6.8192983474        2.9952734101        3.5139934564
  O        -3.4431002101       11.8674366997        3.5066615883
  O        -0.8772913945        7.4171000579        3.5172863577
  O         1.6895899554        2.9913707899        3.5011341761
  O         9.4156938803       10.2278286766        3.5156718316
  O        11.9955999486        5.7772908181        3.4780630656
  O        14.5543178939        1.3406268178        3.4869556184
  O         4.3088657223       10.2233823939        3.4774484169
  O         6.8695133054        5.7681630415        3.4804505239
  O         9.4294626602        1.3422661193        3.4830759674
  O        -0.8327644455       10.2253193237        3.4999978464
  O         1.7355057245        5.7798154564        3.4859225518
  O         4.2970872047        1.3531983576        3.5020009535
 Fe         5.0338379571       11.8400161831        4.4151517663
 Fe         7.6004092520        7.3983637312        4.4100341584
 Fe        10.1559920709        2.9483230152        4.4175615389
 Fe        -0.0869383492       11.8240201400        4.4163447106
 Fe         2.4733080504        7.3923524344        4.4183991291
 Fe         5.0397667277        2.9677860209        4.4274636954
 Fe        -5.2226474921       11.8383443567        4.4252283335
 Fe        -2.6480824486        7.3893469487        4.4242087161
 Fe        -0.0917150525        2.9538088669        4.4166656741
 Fe         7.6098024765       13.1867003557        4.8123693926
 Fe        10.1767633455        8.7414992154        4.8510319689
 Fe        12.7349378911        4.3024651758        4.8003678802
 Fe         2.4888391073       13.1804255849        4.8269703452
 Fe         5.0463563498        8.7494078363        4.8001750293
 Fe         7.6036636835        4.3074604720        4.8412861467
 Fe        -2.6439734074       13.1866086720        4.8119014362
 Fe        -0.0824590271        8.7386413624        4.8438405183
 Fe         2.4810119432        4.3013118790        4.8307280088
  O         5.8586919043       10.3469269535        5.8694802738
  O         8.4231108406        5.9178542785        5.8774218404
  O        10.9778421569        1.4635354367        5.8831777429
  O         0.7246047975       10.3449818801        5.8904433684
  O         3.2780806182        5.9104451432        5.8471477752
  O         5.8616265699        1.4735187569        5.8803869494
  O        -4.4003412201       10.3529858700        5.8836953160
  O        -1.8383516139        5.8993531031        5.8731427762
  O         0.7293748271        1.4672901446        5.8720697508
  O         5.9272231391       13.1756563485        5.6886263076
  O         8.4844081815        8.7283117194        5.7017427315
  O        11.0509063542        4.2916899427        5.6835406374
  O         0.7961333259       13.1620706776        5.6751193869
  O         3.3708774568        8.7323982764        5.6868736056
  O         5.9346226922        4.3181007341        5.7441320340
  O        -4.3298900190       13.1742477391        5.6834537112
  O        -1.7643004033        8.7268894023        5.7126559143
  O         0.7931981725        4.2898633375        5.6893114053
  O         3.4705897120       11.7731303073        5.6815474017
  O         6.0472862809        7.3323507517        5.6394764707
  O         8.5871597769        2.8981081969        5.7174276275
  O        -1.6597243644       11.7813780095        5.6757351524
  O         0.9086390712        7.3329555851        5.6873857834
  O         3.4751008305        2.8923059837        5.6778625292
  O        -6.7874983873       11.7820001319        5.6784982221
  O        -4.2147926696        7.3231128117        5.6850922483
  O        -1.6643362835        2.8924246624        5.6640948119
 Fe         7.7836871624       10.2755632474        6.4355655072
 Fe        10.3454135083        5.8237381024        6.4375513918
 Fe        12.9100636075        1.3912130380        6.4352304942
 Fe         2.6576277913       10.2628492569        6.4382276624
 Fe         5.1966515212        5.8724110407        6.4402216340
 Fe         7.7842401736        1.3669189271        6.4287816707
 Fe        -2.4722660135       10.2765040193        6.4357218000
 Fe         0.0907891773        5.8269736634        6.4390096459
 Fe         2.6556501408        1.3875765285        6.4357218023
  O         7.8505877823       10.3880080360        8.2620621113
  H         7.8637752075        9.5669078247        8.7859585885
  H         5.3521514126       10.6083076750        6.6716705601
  O        10.3664031719        5.9101835959        8.2745360366
  H        10.6095548052        5.1072893378        8.7697227939
  H         7.9181172160        6.2672043461        6.6447769618
  O        12.9483344715        1.5086901812        8.2640697360
  H        13.0090791754        0.6869661293        8.7845000937
  H        10.4795091429        1.7266842626        6.6900052665
  O         2.6931901973       10.3778853615        8.2657426688
  H         2.7886856378        9.5549340272        8.7797067770
  H         0.2268734947       10.6153700478        6.6954475268
  O         4.9846821676        6.3425211678        8.1771211098
  H         4.9236760763        5.7650829609        8.9669259764
  H         2.8154638291        6.1982019456        6.6673318839
  O         7.9164222267        1.2270162612        8.2635724769
  H         7.9593741375        0.3276649171        8.6395424104
  H         5.3360491786        1.7284610939        6.6716028996
  O        -2.4098114509       10.3912099221        8.2638993506
  H        -2.3612745383        9.5666860137        8.7805969824
  H        -4.9074334567       10.6254243797        6.6807840094
  O         0.1064318192        5.9391191290        8.2659870719
  H         0.2149475372        5.1299106522        8.7975771911
  H        -2.3392244709        6.1728472185        6.6749980048
  O         2.7145944140        1.4942806499        8.2605072412
  H         2.7618913988        0.6784475883        8.7906469564
  H         0.2250351691        1.7361037285        6.6726223966
  C         7.3719800776        4.0081828196        9.2079021208
  C         6.3243373846        4.3867521126       10.1311313466
  H         7.3817402923        2.9126057211        9.0723269930
  H         7.1843637768        4.4689390510        8.2241002177
  H         8.3582342859        4.3300669973        9.5672204565
  N         5.4787318598        4.7136985211       10.8683676501
     168
 i =       28, E =     -8144.3390802668
 Fe         5.0938794100       11.8196869300        0.3885799900
 Fe         7.6575796300        7.3792284900        0.3885799900
 Fe        10.2212798400        2.9387700600        0.3885799900
 Fe        -0.0335205200       11.8196869300        0.3885799900
 Fe         2.5301797000        7.3792284900        0.3885799900
 Fe         5.0938799200        2.9387700600        0.3885799900
 Fe        -5.1609204400       11.8196869300        0.3885799900
 Fe        -2.5972202200        7.3792284900        0.3885799900
 Fe        -0.0335200000        2.9387700600        0.3885799900
  O         8.4519195100        8.9577468800        1.1642700400
  O        11.0156197300        4.5172884400        1.1642700400
  O        13.5793199500        0.0768300000        1.1642700400
  O         3.3245195900        8.9577468800        1.1642700400
  O         5.8882198100        4.5172884400        1.1642700400
  O         8.4519200300        0.0768300000        1.1642700400
  O        -1.8028803300        8.9577468800        1.1642700400
  O         0.7608198900        4.5172884400        1.1642700400
  O         3.3245201100        0.0768300000        1.1642700400
  O         8.4568493000       11.7183869300        1.1650400200
  O        11.0205495200        7.2779284900        1.1650400200
  O        13.5842497300        2.8374700500        1.1650400200
  O         3.3294493700       11.7183869300        1.1650400200
  O         5.8931495900        7.2779284900        1.1650400200
  O         8.4568498100        2.8374700500        1.1650400200
  O        -1.7979505500       11.7183869300        1.1650400200
  O         0.7657496700        7.2779284900        1.1650400200
  O         3.3294498900        2.8374700500        1.1650400200
  O         6.0627194200       10.3425368500        1.1660399400
  O         8.6264196400        5.9020784100        1.1660399400
  O        11.1901198600        1.4616199700        1.1660399400
  O         0.9353195000       10.3425368500        1.1660399400
  O         3.4990197200        5.9020784100        1.1660399400
  O         6.0627199400        1.4616199700        1.1660399400
  O        -4.1920804200       10.3425368500        1.1660399400
  O        -1.6283802000        5.9020784100        1.1660399400
  O         0.9353200200        1.4616199700        1.1660399400
 Fe         7.6576695000       13.2997167500        1.9292099500
 Fe        10.2213697200        8.8592583200        1.9292099500
 Fe        12.7850699400        4.4187998800        1.9292099500
 Fe         2.5302695800       13.2997167500        1.9292099500
 Fe         5.0939698000        8.8592583200        1.9292099500
 Fe         7.6576700200        4.4187998800        1.9292099500
 Fe        -2.5971303400       13.2997167500        1.9292099500
 Fe        -0.0334301200        8.8592583200        1.9292099500
 Fe         2.5302701000        4.4187998800        1.9292099500
 Fe         7.6573893600       10.3392168700        2.7128999200
 Fe        10.2210895800        5.8987584300        2.7128999200
 Fe        12.7847898000        1.4582999900        2.7128999200
 Fe         2.5299894400       10.3392168700        2.7128999200
 Fe         5.0936896600        5.8987584300        2.7128999200
 Fe         7.6573898800        1.4582999900        2.7128999200
 Fe        -2.5974104800       10.3392168700        2.7128999200
 Fe        -0.0337102600        5.8987584300        2.7128999200
 Fe         2.5299899600        1.4582999900        2.7128999200
  O         4.1555530030       13.3389346133        3.6253552021
  O         6.6841952362        8.8987357637        3.5572801479
  O         9.2061893233        4.4333806507        3.5161674149
  O        -1.0565569662       13.3042310364        3.4750617918
  O         1.5512468240        8.8791290748        3.5652179539
  O         4.1080098838        4.4364875626        3.5301133484
  O        -6.1906329893       13.3147068616        3.4787769037
  O        -3.5502343040        8.8919300912        3.6025502978
  O        -1.0530405458        4.4230027178        3.4834419163
  O         6.8189159342       11.8933792394        3.4738311739
  O         9.3833447805        7.3827274575        3.5742658796
  O        11.9411194839        3.0066629791        3.4794287015
  O         1.6762884475       11.8058693522        3.5977908351
  O         4.2430164890        7.3984890436        3.5394291090
  O         6.8214707500        2.9957250318        3.5085514524
  O        -3.4371302590       11.9026585103        3.4498891048
  O        -0.8713221234        7.4011701329        3.5619196575
  O         1.6850496018        2.9825234022        3.5135730700
  O         9.3909191435       10.2494142724        3.5622655195
  O        11.9957487915        5.7633032820        3.4676597719
  O        14.5757320122        1.3304040776        3.4535498162
  O         4.2834562954       10.2446046615        3.5297046219
  O         6.8753514335        5.7585393966        3.4709647565
  O         9.3666605733        1.3853004519        3.6023400998
  O        -0.8541226256       10.2322246722        3.5418477156
  O         1.7343015392        5.7947043409        3.4999925140
  O         4.3210290745        1.3301842375        3.4564002644
 Fe         5.0719299911       11.8191706610        4.4609987859
 Fe         7.5930315497        7.3838209783        4.4156431216
 Fe        10.1757630796        2.9821211308        4.4343119415
 Fe        -0.1235636120       11.8333850822        4.4395718899
 Fe         2.4730379989        7.3923394109        4.4639499533
 Fe         5.0406408007        2.9511903574        4.4147463629
 Fe        -5.2085305739       11.8681624845        4.4007356998
 Fe        -2.6489233161        7.3591779217        4.4354873228
 Fe        -0.1078945312        2.9518505619        4.4092623539
 Fe         7.6127069783       13.1847950239        4.8194835704
 Fe        10.1705658688        8.7463423078        4.8623739660
 Fe        12.7407014808        4.3055931816        4.8109782262
 Fe         2.4877031397       13.1811063477        4.8568637139
 Fe         5.0462668980        8.7469447012        4.8237430538
 Fe         7.5987662899        4.3016678136        4.8493183029
 Fe        -2.6463710131       13.1857733466        4.7903598147
 Fe        -0.0808666812        8.7433962920        4.8899196658
 Fe         2.4825448625        4.2984379929        4.8312275333
  O         5.8630654846       10.3413211777        5.8783944143
  O         8.4251935438        5.9189720691        5.8788889061
  O        10.9814743519        1.4697180308        5.8802303802
  O         0.7298436095       10.3572790446        5.8925648169
  O         3.2783008170        5.9061113140        5.8446667820
  O         5.8596456570        1.4647241698        5.8812077905
  O        -4.4017506811       10.3526842977        5.8780396604
  O        -1.8379813628        5.8999801574        5.8794897200
  O         0.7277235425        1.4704916621        5.8763612241
  O         5.9325943475       13.1778313180        5.7036818230
  O         8.4780115013        8.7224149045        5.6990479605
  O        11.0624116226        4.2995910761        5.7053029047
  O         0.7824524199       13.1617244661        5.6676617728
  O         3.3756406095        8.7383769444        5.7028123340
  O         5.9259207016        4.3111796828        5.7476630351
  O        -4.3169665486       13.1809456476        5.6851197465
  O        -1.7885231712        8.7254714020        5.7095809893
  O         0.7929645616        4.2862771953        5.6847644323
  O         3.4743341935       11.7700120167        5.6773389011
  O         6.0526224416        7.3304049314        5.6454536881
  O         8.5931623111        2.8922158812        5.7192192109
  O        -1.6754985184       11.7964482074        5.6911937511
  O         0.9036868705        7.3228970439        5.7014860236
  O         3.4778088952        2.8858521647        5.6723658106
  O        -6.7749642943       11.7720654434        5.6716673988
  O        -4.2223258994        7.3312032039        5.6858889638
  O        -1.6637381592        2.8968833129        5.6776400287
 Fe         7.7839416157       10.2722912750        6.4330277235
 Fe        10.3474932919        5.8299241226        6.4411865589
 Fe        12.9083116064        1.3942943407        6.4355972402
 Fe         2.6567866823       10.2679733365        6.4347902874
 Fe         5.1966257085        5.8731364315        6.4365695154
 Fe         7.7848581807        1.3624849641        6.4313680588
 Fe        -2.4733376722       10.2820318083        6.4379658587
 Fe         0.0837926214        5.8184099517        6.4407834306
 Fe         2.6550339580        1.3857569576        6.4366753811
  O         7.8502213426       10.3875844992        8.2595842692
  H         7.8623479625        9.5679956036        8.7866673124
  H         5.3483682301       10.6075356951        6.6724734867
  O        10.3597513304        5.9087142533        8.2771198413
  H        10.6194552799        5.1054351985        8.7709152296
  H         7.9177291195        6.2727137661        6.6438131063
  O        12.9466966834        1.5085318788        8.2638628414
  H        13.0086500768        0.6875942954        8.7845035055
  H        10.4748278519        1.7169750400        6.6854001834
  O         2.6934896806       10.3763334377        8.2613616069
  H         2.7898649989        9.5564108977        8.7793361620
  H         0.2262069311       10.6170081065        6.6948693631
  O         4.9659436101        6.3698743074        8.1804905879
  H         4.9223814718        5.8002190888        8.9476760283
  H         2.8209129484        6.1990072097        6.6647099883
  O         7.9212445376        1.2108499761        8.2624033518
  H         7.9621137677        0.3097782818        8.6322775543
  H         5.3377641347        1.7286598541        6.6732673340
  O        -2.4097838301       10.3914736378        8.2656267495
  H        -2.3604668729        9.5665648704        8.7817031271
  H        -4.9026038898       10.6250373643        6.6807095819
  O         0.1046218767        5.9407685487        8.2656939857
  H         0.2166392221        5.1312851992        8.7962531895
  H        -2.3393973819        6.1738670733        6.6778163161
  O         2.7155681128        1.4946224634        8.2607034793
  H         2.7616893376        0.6784074752        8.7904770127
  H         0.2241430082        1.7391055340        6.6780527118
  C         7.3495782985        4.0043296601        9.2063475189
  C         6.3456274301        4.4018149827       10.1771101487
  H         7.4241064814        2.8970706566        9.0706982376
  H         7.1821894723        4.4770448765        8.2392987372
  H         8.3369143634        4.3346153760        9.5654954217
  N         5.4698418535        4.6903441164       10.8822141386
     168
 i =       29, E =     -8144.3652628711
 Fe         5.0938794100       11.8196869300        0.3885799900
 Fe         7.6575796300        7.3792284900        0.3885799900
 Fe        10.2212798400        2.9387700600        0.3885799900
 Fe        -0.0335205200       11.8196869300        0.3885799900
 Fe         2.5301797000        7.3792284900        0.3885799900
 Fe         5.0938799200        2.9387700600        0.3885799900
 Fe        -5.1609204400       11.8196869300        0.3885799900
 Fe        -2.5972202200        7.3792284900        0.3885799900
 Fe        -0.0335200000        2.9387700600        0.3885799900
  O         8.4519195100        8.9577468800        1.1642700400
  O        11.0156197300        4.5172884400        1.1642700400
  O        13.5793199500        0.0768300000        1.1642700400
  O         3.3245195900        8.9577468800        1.1642700400
  O         5.8882198100        4.5172884400        1.1642700400
  O         8.4519200300        0.0768300000        1.1642700400
  O        -1.8028803300        8.9577468800        1.1642700400
  O         0.7608198900        4.5172884400        1.1642700400
  O         3.3245201100        0.0768300000        1.1642700400
  O         8.4568493000       11.7183869300        1.1650400200
  O        11.0205495200        7.2779284900        1.1650400200
  O        13.5842497300        2.8374700500        1.1650400200
  O         3.3294493700       11.7183869300        1.1650400200
  O         5.8931495900        7.2779284900        1.1650400200
  O         8.4568498100        2.8374700500        1.1650400200
  O        -1.7979505500       11.7183869300        1.1650400200
  O         0.7657496700        7.2779284900        1.1650400200
  O         3.3294498900        2.8374700500        1.1650400200
  O         6.0627194200       10.3425368500        1.1660399400
  O         8.6264196400        5.9020784100        1.1660399400
  O        11.1901198600        1.4616199700        1.1660399400
  O         0.9353195000       10.3425368500        1.1660399400
  O         3.4990197200        5.9020784100        1.1660399400
  O         6.0627199400        1.4616199700        1.1660399400
  O        -4.1920804200       10.3425368500        1.1660399400
  O        -1.6283802000        5.9020784100        1.1660399400
  O         0.9353200200        1.4616199700        1.1660399400
 Fe         7.6576695000       13.2997167500        1.9292099500
 Fe        10.2213697200        8.8592583200        1.9292099500
 Fe        12.7850699400        4.4187998800        1.9292099500
 Fe         2.5302695800       13.2997167500        1.9292099500
 Fe         5.0939698000        8.8592583200        1.9292099500
 Fe         7.6576700200        4.4187998800        1.9292099500
 Fe        -2.5971303400       13.2997167500        1.9292099500
 Fe        -0.0334301200        8.8592583200        1.9292099500
 Fe         2.5302701000        4.4187998800        1.9292099500
 Fe         7.6573893600       10.3392168700        2.7128999200
 Fe        10.2210895800        5.8987584300        2.7128999200
 Fe        12.7847898000        1.4582999900        2.7128999200
 Fe         2.5299894400       10.3392168700        2.7128999200
 Fe         5.0936896600        5.8987584300        2.7128999200
 Fe         7.6573898800        1.4582999900        2.7128999200
 Fe        -2.5974104800       10.3392168700        2.7128999200
 Fe        -0.0337102600        5.8987584300        2.7128999200
 Fe         2.5299899600        1.4582999900        2.7128999200
  O         4.1114918759       13.3239694355        3.5490792366
  O         6.6659821723        8.8801714055        3.5203225964
  O         9.2122179077        4.4303109096        3.5189583630
  O        -1.0381058390       13.3121623208        3.5062284847
  O         1.5388353867        8.8749469681        3.5350876291
  O         4.1005891148        4.4341701551        3.5202807634
  O        -6.1728334552       13.3120581099        3.4949698525
  O        -3.5751622481        8.8864779396        3.5599533296
  O        -1.0340091593        4.4293262656        3.5142708086
  O         6.8120559201       11.8835703387        3.4835215843
  O         9.3831264255        7.4079511715        3.5368667861
  O        11.9345277565        2.9853084958        3.5041079230
  O         1.6849846659       11.8525738430        3.5249558941
  O         4.2475533240        7.4235355370        3.5074040897
  O         6.8183793311        2.9941128906        3.5143195661
  O        -3.4426853845       11.8806700236        3.4867533319
  O        -0.8760901456        7.4167371692        3.5244453724
  O         1.6894002334        2.9895806544        3.5026244391
  O         9.4105394495       10.2345668811        3.5255459706
  O        11.9878940234        5.7812212960        3.4929259093
  O        14.5632758518        1.3367552551        3.4713782730
  O         4.2986842906       10.2328453835        3.5011572040
  O         6.8697213485        5.7666520437        3.4801218041
  O         9.4060368421        1.3598595386        3.5246935414
  O        -0.8370466049       10.2271309409        3.5080778518
  O         1.7358562955        5.7850665855        3.4893895730
  O         4.3053328975        1.3452636893        3.4852491958
 Fe         5.0471099151       11.8339155726        4.4393321031
 Fe         7.6023632746        7.3924283555        4.4134718089
 Fe        10.1578281651        2.9591692783        4.4276249932
 Fe        -0.0993045418       11.8270778101        4.4246737837
 Fe         2.4717615695        7.3919369106        4.4397304253
 Fe         5.0383499571        2.9622280720        4.4241367352
 Fe        -5.2198573027       11.8453757460        4.4188927206
 Fe        -2.6474053659        7.3882614060        4.4300681067
 Fe        -0.0920198469        2.9480540931        4.4177619038
 Fe         7.6106476905       13.1868697946        4.8076348551
 Fe        10.1751922119        8.7422565173        4.8567090444
 Fe        12.7368088588        4.3020656787        4.8123573851
 Fe         2.4873849438       13.1798321331        4.8355665781
 Fe         5.0466216665        8.7473162032        4.8141950636
 Fe         7.6015545513        4.3060884090        4.8444727234
 Fe        -2.6454712728       13.1878161205        4.8052265720
 Fe        -0.0807895879        8.7414369560        4.8534703147
 Fe         2.4815690328        4.3010297889        4.8286963261
  O         5.8601937025       10.3453830509        5.8747219160
  O         8.4238611317        5.9177360899        5.8786874894
  O        10.9786851538        1.4649145709        5.8829735423
  O         0.7249812372       10.3478529416        5.8911210450
  O         3.2772197527        5.9078349898        5.8491561632
  O         5.8610131115        1.4718694545        5.8804477286
  O        -4.4008192229       10.3514190365        5.8851124327
  O        -1.8373985894        5.9009699257        5.8751462807
  O         0.7284898920        1.4667343768        5.8725582240
  O         5.9339248724       13.1764710319        5.6962209162
  O         8.4843636402        8.7262612558        5.7057812218
  O        11.0523578317        4.2927766851        5.6928741235
  O         0.7913376823       13.1616380316        5.6747179147
  O         3.3711731849        8.7344148190        5.6952571586
  O         5.9316822082        4.3152073801        5.7458030564
  O        -4.3276518453       13.1777857897        5.6818416732
  O        -1.7661667899        8.7277516576        5.7146017834
  O         0.7947813014        4.2883414891        5.6893084853
  O         3.4709543087       11.7742378575        5.6855400967
  O         6.0516151428        7.3310181538        5.6449492273
  O         8.5874048294        2.8985540483        5.7210607176
  O        -1.6655216921       11.7854646309        5.6788000519
  O         0.9045423738        7.3317837565        5.6936820095
  O         3.4747051170        2.8909152189        5.6762492502
  O        -6.7871136858       11.7828079778        5.6768361170
  O        -4.2155192216        7.3273405006        5.6910425185
  O        -1.6610987993        2.8907425987        5.6691746284
 Fe         7.7844627163       10.2761104556        6.4350585815
 Fe        10.3453909477        5.8254697254        6.4389787302
 Fe        12.9090508051        1.3910163120        6.4355687811
 Fe         2.6557939220       10.2657266887        6.4380651965
 Fe         5.1958033766        5.8718489922        6.4380259137
 Fe         7.7845271798        1.3662104612        6.4302386438
 Fe        -2.4721801757       10.2779122491        6.4364710487
 Fe         0.0890088754        5.8235933551        6.4399586827
 Fe         2.6545418663        1.3877260563        6.4357458032
  O         7.8501744290       10.3890307254        8.2616470591
  H         7.8628050528        9.5678571818        8.7858389477
  H         5.3507393913       10.6086529225        6.6738666201
  O        10.3659320708        5.9075929081        8.2757916965
  H        10.6159086587        5.1061308310        8.7702973805
  H         7.9179464481        6.2676219993        6.6451342251
  O        12.9476789691        1.5094403780        8.2639994168
  H        13.0085169046        0.6879749672        8.7843916705
  H        10.4773244418        1.7240719026        6.6883919395
  O         2.6936156813       10.3780592970        8.2652100477
  H         2.7897936149        9.5552778847        8.7790121288
  H         0.2267507614       10.6159166344        6.6956997560
  O         4.9804985566        6.3447405290        8.1793110680
  H         4.9179990621        5.7744780272        8.9689132248
  H         2.8151059324        6.1988599852        6.6677892052
  O         7.9155356948        1.2231254997        8.2633630868
  H         7.9618421011        0.3222365832        8.6348904936
  H         5.3369367991        1.7291431575        6.6722570170
  O        -2.4093014265       10.3919789516        8.2643622156
  H        -2.3604681204        9.5672518979        8.7809535428
  H        -4.9054053610       10.6287169677        6.6827725583
  O         0.1055841966        5.9394581777        8.2662509337
  H         0.2150925887        5.1302797121        8.7974214433
  H        -2.3397041816        6.1730878109        6.6755818158
  O         2.7142085899        1.4949041492        8.2602065082
  H         2.7622280560        0.6789997550        8.7903049122
  H         0.2249645258        1.7367215222        6.6736299839
  C         7.3642900116        4.0063389395        9.2098011060
  C         6.3370418799        4.4005884806       10.1481822021
  H         7.4013166775        2.9079114435        9.0758940860
  H         7.1849158395        4.4673373901        8.2312617938
  H         8.3497368555        4.3406197041        9.5664018373
  N         5.4712945884        4.7013734409       10.8727820592
     168
 i =       30, E =     -8144.2934194043
 Fe         5.0938794100       11.8196869300        0.3885799900
 Fe         7.6575796300        7.3792284900        0.3885799900
 Fe        10.2212798400        2.9387700600        0.3885799900
 Fe        -0.0335205200       11.8196869300        0.3885799900
 Fe         2.5301797000        7.3792284900        0.3885799900
 Fe         5.0938799200        2.9387700600        0.3885799900
 Fe        -5.1609204400       11.8196869300        0.3885799900
 Fe        -2.5972202200        7.3792284900        0.3885799900
 Fe        -0.0335200000        2.9387700600        0.3885799900
  O         8.4519195100        8.9577468800        1.1642700400
  O        11.0156197300        4.5172884400        1.1642700400
  O        13.5793199500        0.0768300000        1.1642700400
  O         3.3245195900        8.9577468800        1.1642700400
  O         5.8882198100        4.5172884400        1.1642700400
  O         8.4519200300        0.0768300000        1.1642700400
  O        -1.8028803300        8.9577468800        1.1642700400
  O         0.7608198900        4.5172884400        1.1642700400
  O         3.3245201100        0.0768300000        1.1642700400
  O         8.4568493000       11.7183869300        1.1650400200
  O        11.0205495200        7.2779284900        1.1650400200
  O        13.5842497300        2.8374700500        1.1650400200
  O         3.3294493700       11.7183869300        1.1650400200
  O         5.8931495900        7.2779284900        1.1650400200
  O         8.4568498100        2.8374700500        1.1650400200
  O        -1.7979505500       11.7183869300        1.1650400200
  O         0.7657496700        7.2779284900        1.1650400200
  O         3.3294498900        2.8374700500        1.1650400200
  O         6.0627194200       10.3425368500        1.1660399400
  O         8.6264196400        5.9020784100        1.1660399400
  O        11.1901198600        1.4616199700        1.1660399400
  O         0.9353195000       10.3425368500        1.1660399400
  O         3.4990197200        5.9020784100        1.1660399400
  O         6.0627199400        1.4616199700        1.1660399400
  O        -4.1920804200       10.3425368500        1.1660399400
  O        -1.6283802000        5.9020784100        1.1660399400
  O         0.9353200200        1.4616199700        1.1660399400
 Fe         7.6576695000       13.2997167500        1.9292099500
 Fe        10.2213697200        8.8592583200        1.9292099500
 Fe        12.7850699400        4.4187998800        1.9292099500
 Fe         2.5302695800       13.2997167500        1.9292099500
 Fe         5.0939698000        8.8592583200        1.9292099500
 Fe         7.6576700200        4.4187998800        1.9292099500
 Fe        -2.5971303400       13.2997167500        1.9292099500
 Fe        -0.0334301200        8.8592583200        1.9292099500
 Fe         2.5302701000        4.4187998800        1.9292099500
 Fe         7.6573893600       10.3392168700        2.7128999200
 Fe        10.2210895800        5.8987584300        2.7128999200
 Fe        12.7847898000        1.4582999900        2.7128999200
 Fe         2.5299894400       10.3392168700        2.7128999200
 Fe         5.0936896600        5.8987584300        2.7128999200
 Fe         7.6573898800        1.4582999900        2.7128999200
 Fe        -2.5974104800       10.3392168700        2.7128999200
 Fe        -0.0337102600        5.8987584300        2.7128999200
 Fe         2.5299899600        1.4582999900        2.7128999200
  O         3.9664234422       13.2680747692        3.2990792366
  O         6.6309864538        8.8385798552        3.4364756322
  O         9.2140037536        4.4157092325        3.5065396242
  O        -0.9775687779       13.3387751091        3.6059279535
  O         1.4985215774        8.8743843101        3.4555551010
  O         4.0820760766        4.4349107663        3.5023117126
  O        -6.0788263941       13.3378449108        3.6376599508
  O        -3.6417922733        8.8641996757        3.4386596162
  O        -0.9945475603        4.4578890963        3.5893741861
  O         6.7921303257       11.7951488534        3.5993808471
  O         9.3819460996        7.4852682309        3.4266315811
  O        11.9201182592        2.9337664829        3.5629513232
  O         1.7141818124       12.0040697785        3.2973887979
  O         4.2587064636        7.4774833549        3.4368881840
  O         6.8157983702        3.0036529489        3.5117501535
  O        -3.4453038527       11.8059081898        3.6019023106
  O        -0.8860165368        7.4643093284        3.4301648345
  O         1.6964123344        3.0105103058        3.4690634745
  O         9.4612730858       10.1816805248        3.4224660945
  O        11.9679108416        5.8206453795        3.5528848989
  O        14.4897243308        1.3850808730        3.6051000851
  O         4.3207942262       10.2056332724        3.4434395284
  O         6.8668887551        5.7784187244        3.4872624630
  O         9.5257558498        1.2793237649        3.2954892392
  O        -0.7934682394       10.2086498599        3.4261213182
  O         1.7403937053        5.7582005006        3.4533228284
  O         4.2603184077        1.3876443750        3.5680635875
 Fe         4.9613705401       11.8804615678        4.3728701092
 Fe         7.6257989641        7.4088980189        4.4058787294
 Fe        10.1142998170        2.9021440586        4.3997163023
 Fe        -0.0274787862       11.8105425356        4.3811731333
 Fe         2.4600222584        7.3922758776        4.3553852517
 Fe         5.0353500474        2.9873611685        4.4433235959
 Fe        -5.2317707635       11.7646933305        4.4677779095
 Fe        -2.6502265525        7.4510875367        4.4121963701
 Fe        -0.0498122906        2.9697920506        4.4492511206
 Fe         7.6020210491       13.1847191705        4.8222461439
 Fe        10.1895298251        8.7337532755        4.8266438718
 Fe        12.7270399371        4.2917885085        4.8228800973
 Fe         2.4893426208       13.1828272399        4.7560226249
 Fe         5.0495198816        8.7538445146        4.7809433152
 Fe         7.6110392870        4.3155871171        4.8317628891
 Fe        -2.6427268782       13.1865516520        4.8560822927
 Fe        -0.0770711920        8.7399581902        4.7610667547
 Fe         2.4754152793        4.3102767964        4.8155670069
  O         5.8484288972       10.3567814812        5.8593448020
  O         8.4247404069        5.9180641570        5.8768352021
  O        10.9672447106        1.4508291416        5.8830507258
  O         0.7223466149       10.3312455523        5.8779351947
  O         3.2738095952        5.9199694329        5.8454319338
  O         5.8607099079        1.4842833402        5.8838136537
  O        -4.3994841790       10.3467640430        5.9027594935
  O        -1.8318552428        5.9046323562        5.8637614902
  O         0.7337861051        1.4671414722        5.8632991706
  O         5.9121705456       13.1717495877        5.6730188283
  O         8.5036551306        8.7407511227        5.7081825866
  O        11.0264913714        4.2735902796        5.6680294659
  O         0.8294678768       13.1621507612        5.6845031644
  O         3.3554709439        8.7260849435        5.6557430975
  O         5.9410568732        4.3239498492        5.7316079254
  O        -4.3556641313       13.1575720539        5.6876000584
  O        -1.7186595572        8.7368975978        5.7026302156
  O         0.8063615869        4.2988291965        5.7097298953
  O         3.4483340617       11.7841741490        5.6868752732
  O         6.0427002790        7.3355018706        5.6287525365
  O         8.5752404022        2.8976815493        5.7154195947
  O        -1.6324117261       11.7482611206        5.6483155468
  O         0.9052643387        7.3496510711        5.6558004564
  O         3.4678617305        2.9144477756        5.6893816539
  O        -6.8014685087       11.7902428082        5.6885772262
  O        -4.2052454706        7.3260466464        5.7018252709
  O        -1.6507728846        2.8775545892        5.6588538414
 Fe         7.7787871138       10.2810779484        6.4399184518
 Fe        10.3439230739        5.8165193555        6.4325171841
 Fe        12.9068306255        1.3857825710        6.4348729572
 Fe         2.6587499738       10.2575176723        6.4434774852
 Fe         5.1936542284        5.8707344782        6.4339852843
 Fe         7.7793172626        1.3638070432        6.4197453284
 Fe        -2.4683884391       10.2633632661        6.4346183039
 Fe         0.1031052858        5.8410889958        6.4363686878
 Fe         2.6593878395        1.3942595901        6.4315813430
  O         7.8509509111       10.3930780345        8.2660537612
  H         7.8637365618        9.5681677518        8.7834917817
  H         5.3576458461       10.6116133830        6.6744037573
  O        10.3760958478        5.9050595533        8.2721004701
  H        10.6131576755        5.1066138164        8.7685994494
  H         7.9149285938        6.2574730394        6.6435178758
  O        12.9496753549        1.5110773062        8.2632875567
  H        13.0086300213        0.6894072728        8.7845104634
  H        10.4862964637        1.7389129588        6.6942961104
  O         2.6931580021       10.3804839642        8.2712590119
  H         2.7894970515        9.5533311586        8.7786847445
  H         0.2272966754       10.6073764085        6.6865081509
  O         4.9923534550        6.3096815592        8.1652647110
  H         4.9068390676        5.7421279358        8.9949001990
  H         2.8057106992        6.1952976635        6.6698299988
  O         7.9078623212        1.2385218157        8.2597011718
  H         7.9620367954        0.3457455872        8.6451928649
  H         5.3339865821        1.7344508014        6.6729547457
  O        -2.4081099960       10.3938767256        8.2615970064
  H        -2.3602294328        9.5696679773        8.7788126842
  H        -4.9109069346       10.6322275126        6.6912520678
  O         0.1071239608        5.9357743802        8.2644685706
  H         0.2123662218        5.1287721722        8.7994696728
  H        -2.3384431800        6.1734042137        6.6669599237
  O         2.7110213078        1.4952406647        8.2581687168
  H         2.7631069022        0.6807244810        8.7901766183
  H         0.2239940427        1.7285661936        6.6621062198
  C         7.4089506128        4.0194789229        9.2274229464
  C         6.3053271011        4.3684144618       10.0876086151
  H         7.3490739032        2.9400030640        9.0975100086
  H         7.1815837782        4.4560023492        8.2186300196
  H         8.3953547221        4.3551163026        9.5668206891
  N         5.4909162035        4.7041210503       10.8739328971
     168
 i =       31, E =     -8144.3635005413
 Fe         5.0938794100       11.8196869300        0.3885799900
 Fe         7.6575796300        7.3792284900        0.3885799900
 Fe        10.2212798400        2.9387700600        0.3885799900
 Fe        -0.0335205200       11.8196869300        0.3885799900
 Fe         2.5301797000        7.3792284900        0.3885799900
 Fe         5.0938799200        2.9387700600        0.3885799900
 Fe        -5.1609204400       11.8196869300        0.3885799900
 Fe        -2.5972202200        7.3792284900        0.3885799900
 Fe        -0.0335200000        2.9387700600        0.3885799900
  O         8.4519195100        8.9577468800        1.1642700400
  O        11.0156197300        4.5172884400        1.1642700400
  O        13.5793199500        0.0768300000        1.1642700400
  O         3.3245195900        8.9577468800        1.1642700400
  O         5.8882198100        4.5172884400        1.1642700400
  O         8.4519200300        0.0768300000        1.1642700400
  O        -1.8028803300        8.9577468800        1.1642700400
  O         0.7608198900        4.5172884400        1.1642700400
  O         3.3245201100        0.0768300000        1.1642700400
  O         8.4568493000       11.7183869300        1.1650400200
  O        11.0205495200        7.2779284900        1.1650400200
  O        13.5842497300        2.8374700500        1.1650400200
  O         3.3294493700       11.7183869300        1.1650400200
  O         5.8931495900        7.2779284900        1.1650400200
  O         8.4568498100        2.8374700500        1.1650400200
  O        -1.7979505500       11.7183869300        1.1650400200
  O         0.7657496700        7.2779284900        1.1650400200
  O         3.3294498900        2.8374700500        1.1650400200
  O         6.0627194200       10.3425368500        1.1660399400
  O         8.6264196400        5.9020784100        1.1660399400
  O        11.1901198600        1.4616199700        1.1660399400
  O         0.9353195000       10.3425368500        1.1660399400
  O         3.4990197200        5.9020784100        1.1660399400
  O         6.0627199400        1.4616199700        1.1660399400
  O        -4.1920804200       10.3425368500        1.1660399400
  O        -1.6283802000        5.9020784100        1.1660399400
  O         0.9353200200        1.4616199700        1.1660399400
 Fe         7.6576695000       13.2997167500        1.9292099500
 Fe        10.2213697200        8.8592583200        1.9292099500
 Fe        12.7850699400        4.4187998800        1.9292099500
 Fe         2.5302695800       13.2997167500        1.9292099500
 Fe         5.0939698000        8.8592583200        1.9292099500
 Fe         7.6576700200        4.4187998800        1.9292099500
 Fe        -2.5971303400       13.2997167500        1.9292099500
 Fe        -0.0334301200        8.8592583200        1.9292099500
 Fe         2.5302701000        4.4187998800        1.9292099500
 Fe         7.6573893600       10.3392168700        2.7128999200
 Fe        10.2210895800        5.8987584300        2.7128999200
 Fe        12.7847898000        1.4582999900        2.7128999200
 Fe         2.5299894400       10.3392168700        2.7128999200
 Fe         5.0936896600        5.8987584300        2.7128999200
 Fe         7.6573898800        1.4582999900        2.7128999200
 Fe        -2.5974104800       10.3392168700        2.7128999200
 Fe        -0.0337102600        5.8987584300        2.7128999200
 Fe         2.5299899600        1.4582999900        2.7128999200
  O         4.0738335493       13.3058749273        3.4757081944
  O         6.6512917229        8.8678515177        3.4900047391
  O         9.2146574743        4.4267926572        3.5190556320
  O        -1.0203659731       13.3225338222        3.5372997967
  O         1.5236402203        8.8749269151        3.5067156981
  O         4.0968453299        4.4350054116        3.5163635418
  O        -6.1392997885       13.3216865068        3.5481618690
  O        -3.5960787306        8.8764345136        3.5177707131
  O        -1.0249575794        4.4388637997        3.5331855478
  O         6.8081529228       11.8498073220        3.5290825053
  O         9.3828149430        7.4344644948        3.4979094922
  O        11.9307017529        2.9726584266        3.5180912040
  O         1.6936250638       11.8953524666        3.4565166904
  O         4.2525572913        7.4439517453        3.4799427896
  O         6.8164907635        2.9948194682        3.5153988371
  O        -3.4431048550       11.8554569057        3.5241560361
  O        -0.8786362338        7.4354334043        3.4915711885
  O         1.6889095402        2.9954598470        3.4934888934
  O         9.4286407429       10.2205439597        3.4901075800
  O        11.9830348275        5.7906735659        3.5067562993
  O        14.5385300944        1.3559021795        3.5186296194
  O         4.3059992683       10.2203446057        3.4784690555
  O         6.8682149836        5.7712670081        3.4849718848
  O         9.4398555378        1.3379383369        3.4569860489
  O        -0.8219490946       10.2197924891        3.4805054696
  O         1.7359923761        5.7771423156        3.4785017156
  O         4.2918255943        1.3577490279        3.5115998006
 Fe         5.0224270312       11.8417385991        4.4167640306
 Fe         7.6084853524        7.4005610340        4.4079452720
 Fe        10.1482402537        2.9430993727        4.4207845962
 Fe        -0.0793347021       11.8237603167        4.4079013191
 Fe         2.4700930218        7.3933183424        4.4069531803
 Fe         5.0365437080        2.9681739444        4.4322466847
 Fe        -5.2207508357       11.8215054061        4.4409414016
 Fe        -2.6497368565        7.4033959957        4.4225263822
 Fe        -0.0822925505        2.9590803134        4.4320519669
 Fe         7.6076359407       13.1850453134        4.8212477633
 Fe        10.1791029302        8.7410571505        4.8391632491
 Fe        12.7342047853        4.2995282481        4.8169521712
 Fe         2.4881430132       13.1828058761        4.8020598889
 Fe         5.0476042855        8.7489048641        4.8034243311
 Fe         7.6035395242        4.3077466863        4.8415681456
 Fe        -2.6442937896       13.1857420736        4.8257461654
 Fe        -0.0796010799        8.7414284592        4.8225358573
 Fe         2.4805293418        4.3052438507        4.8205466748
  O         5.8551190104       10.3475817989        5.8719623148
  O         8.4250573204        5.9184812177        5.8771593731
  O        10.9749544468        1.4599331183        5.8800454783
  O         0.7261635347       10.3444075744        5.8827854575
  O         3.2754910936        5.9135372863        5.8444626846
  O         5.8607692043        1.4743186271        5.8842187685
  O        -4.4009756095       10.3466564364        5.8914773168
  O        -1.8346652253        5.9028135425        5.8722830336
  O         0.7304187165        1.4687949337        5.8716291679
  O         5.9214667346       13.1725401771        5.6900706584
  O         8.4925835143        8.7308605924        5.7026671367
  O        11.0451766565        4.2879394543        5.6883719099
  O         0.8057810696       13.1612885333        5.6725839587
  O         3.3638858212        8.7328777331        5.6791393791
  O         5.9327294047        4.3192959388        5.7410176874
  O        -4.3317745109       13.1704545089        5.6928025026
  O        -1.7545725537        8.7311103889        5.7043133781
  O         0.8016869872        4.2932612887        5.6959321783
  O         3.4621892294       11.7774790727        5.6772153090
  O         6.0492674747        7.3324260779        5.6397320093
  O         8.5842145618        2.8948615398        5.7169075887
  O        -1.6523696766       11.7723471563        5.6712464484
  O         0.9061060767        7.3353405534        5.6748487414
  O         3.4704998666        2.8999031605        5.6800301183
  O        -6.7901478863       11.7805404722        5.6838189800
  O        -4.2151645234        7.3317245653        5.6931720013
  O        -1.6588659902        2.8913522545        5.6744356112
 Fe         7.7807258341       10.2741251511        6.4367291099
 Fe        10.3466263399        5.8248335004        6.4376273267
 Fe        12.9072959609        1.3900886251        6.4348744262
 Fe         2.6579522018       10.2648313578        6.4379499185
 Fe         5.1931621316        5.8729273266        6.4373313505
 Fe         7.7840659420        1.3618099157        6.4266416835
 Fe        -2.4702768955       10.2728203654        6.4359192867
 Fe         0.0940105445        5.8300922654        6.4383455058
 Fe         2.6563052666        1.3903727233        6.4348159065
  O         7.8500139956       10.3908282654        8.2628909819
  H         7.8626230043        9.5686193812        8.7851157837
  H         5.3514889579       10.6089784589        6.6753248642
  O        10.3684602548        5.9055253763        8.2754238211
  H        10.6193667239        5.1051919139        8.7698428544
  H         7.9171378854        6.2649591479        6.6437080523
  O        12.9477780913        1.5102277323        8.2634642900
  H        13.0080986504        0.6891038180        8.7845758848
  H        10.4789321360        1.7258717795        6.6870876066
  O         2.6937009221       10.3782400948        8.2656051611
  H         2.7902860433        9.5549913379        8.7788729008
  H         0.2269915338       10.6119235562        6.6884070947
  O         4.9796528729        6.3368538340        8.1754734698
  H         4.9115115763        5.7700888831        8.9767356302
  H         2.8128573517        6.1971787556        6.6666336726
  O         7.9132804847        1.2257292717        8.2617882699
  H         7.9635239530        0.3269891162        8.6370313805
  H         5.3362067128        1.7328543956        6.6743855508
  O        -2.4083205048       10.3928168284        8.2633257596
  H        -2.3599503757        9.5685996186        8.7807490666
  H        -4.9058359053       10.6290004406        6.6870554909
  O         0.1057803075        5.9387619378        8.2651847354
  H         0.2144022740        5.1302724156        8.7975564076
  H        -2.3387267046        6.1747048525        6.6725729921
  O         2.7131091986        1.4955703994        8.2596323729
  H         2.7626539185        0.6799233211        8.7898235134
  H         0.2241412172        1.7354743494        6.6715013855
  C         7.3813706751        4.0152034517        9.2175558478
  C         6.3263734520        4.3846365624       10.1349009404
  H         7.3907177077        2.9211646640        9.0888807766
  H         7.1818854698        4.4650998362        8.2282350333
  H         8.3663406193        4.3502839065        9.5670791070
  N         5.4786553189        4.6943189173       10.8789183700
     168
 i =       32, E =     -8144.3536977727
 Fe         5.0938794100       11.8196869300        0.3885799900
 Fe         7.6575796300        7.3792284900        0.3885799900
 Fe        10.2212798400        2.9387700600        0.3885799900
 Fe        -0.0335205200       11.8196869300        0.3885799900
 Fe         2.5301797000        7.3792284900        0.3885799900
 Fe         5.0938799200        2.9387700600        0.3885799900
 Fe        -5.1609204400       11.8196869300        0.3885799900
 Fe        -2.5972202200        7.3792284900        0.3885799900
 Fe        -0.0335200000        2.9387700600        0.3885799900
  O         8.4519195100        8.9577468800        1.1642700400
  O        11.0156197300        4.5172884400        1.1642700400
  O        13.5793199500        0.0768300000        1.1642700400
  O         3.3245195900        8.9577468800        1.1642700400
  O         5.8882198100        4.5172884400        1.1642700400
  O         8.4519200300        0.0768300000        1.1642700400
  O        -1.8028803300        8.9577468800        1.1642700400
  O         0.7608198900        4.5172884400        1.1642700400
  O         3.3245201100        0.0768300000        1.1642700400
  O         8.4568493000       11.7183869300        1.1650400200
  O        11.0205495200        7.2779284900        1.1650400200
  O        13.5842497300        2.8374700500        1.1650400200
  O         3.3294493700       11.7183869300        1.1650400200
  O         5.8931495900        7.2779284900        1.1650400200
  O         8.4568498100        2.8374700500        1.1650400200
  O        -1.7979505500       11.7183869300        1.1650400200
  O         0.7657496700        7.2779284900        1.1650400200
  O         3.3294498900        2.8374700500        1.1650400200
  O         6.0627194200       10.3425368500        1.1660399400
  O         8.6264196400        5.9020784100        1.1660399400
  O        11.1901198600        1.4616199700        1.1660399400
  O         0.9353195000       10.3425368500        1.1660399400
  O         3.4990197200        5.9020784100        1.1660399400
  O         6.0627199400        1.4616199700        1.1660399400
  O        -4.1920804200       10.3425368500        1.1660399400
  O        -1.6283802000        5.9020784100        1.1660399400
  O         0.9353200200        1.4616199700        1.1660399400
 Fe         7.6576695000       13.2997167500        1.9292099500
 Fe        10.2213697200        8.8592583200        1.9292099500
 Fe        12.7850699400        4.4187998800        1.9292099500
 Fe         2.5302695800       13.2997167500        1.9292099500
 Fe         5.0939698000        8.8592583200        1.9292099500
 Fe         7.6576700200        4.4187998800        1.9292099500
 Fe        -2.5971303400       13.2997167500        1.9292099500
 Fe        -0.0334301200        8.8592583200        1.9292099500
 Fe         2.5302701000        4.4187998800        1.9292099500
 Fe         7.6573893600       10.3392168700        2.7128999200
 Fe        10.2210895800        5.8987584300        2.7128999200
 Fe        12.7847898000        1.4582999900        2.7128999200
 Fe         2.5299894400       10.3392168700        2.7128999200
 Fe         5.0936896600        5.8987584300        2.7128999200
 Fe         7.6573898800        1.4582999900        2.7128999200
 Fe        -2.5974104800       10.3392168700        2.7128999200
 Fe        -0.0337102600        5.8987584300        2.7128999200
 Fe         2.5299899600        1.4582999900        2.7128999200
  O         4.1138418322       13.3301095354        3.5576585146
  O         6.7021770491        8.8963118422        3.5846924146
  O         9.2071815678        4.4324815055        3.5114085631
  O        -1.0500852340       13.3037513225        3.4870585605
  O         1.5546369936        8.8820782042        3.5644015093
  O         4.0962063306        4.4301816389        3.5087628245
  O        -6.1667008291       13.3164638318        3.5078713542
  O        -3.5742198975        8.8862580755        3.5659481959
  O        -1.0500191703        4.4202748324        3.4836793674
  O         6.8154586798       11.8776271200        3.4993412305
  O         9.3872124134        7.4036050087        3.5457490337
  O        11.9366230844        3.0053182788        3.4779528848
  O         1.6781911060       11.8478131081        3.5302206549
  O         4.2406526709        7.3814204366        3.5663966533
  O         6.8186765044        2.9979592476        3.5052224135
  O        -3.4392924616       11.8961459125        3.4681856913
  O        -0.8759260333        7.3976480263        3.5502259186
  O         1.6873083535        2.9952559655        3.4929558815
  O         9.4103428559       10.2392884182        3.5300812731
  O        11.9980920253        5.7718279534        3.4691399945
  O        14.5576723857        1.3385621646        3.4816548120
  O         4.2705041781       10.2531741091        3.5554787200
  O         6.8762510843        5.7596131274        3.4661930812
  O         9.4032397073        1.3637765236        3.5343780537
  O        -0.8504231293       10.2397379177        3.5347244344
  O         1.7398183576        5.7858049112        3.4849212569
  O         4.3153824839        1.3354394655        3.4702238236
 Fe         5.0526731364       11.8456586858        4.4522243913
 Fe         7.6070573569        7.3712109955        4.4215181042
 Fe        10.1635645534        2.9686906935        4.4233592837
 Fe        -0.1025799789       11.8350909443        4.4370428877
 Fe         2.4638858317        7.3869461613        4.4645215906
 Fe         5.0387978049        2.9610626184        4.4168347464
 Fe        -5.2111562103       11.8482513891        4.4186284066
 Fe        -2.6527750507        7.3799050754        4.4280156091
 Fe        -0.0964645310        2.9538403819        4.4117441096
 Fe         7.6145296539       13.1878677706        4.8231160214
 Fe        10.1726532466        8.7454232217        4.8606582304
 Fe        12.7380867202        4.3059724855        4.8004004464
 Fe         2.4866442060       13.1794201574        4.8292115966
 Fe         5.0452614936        8.7431186814        4.8399283422
 Fe         7.5998966039        4.3027182528        4.8418622962
 Fe        -2.6442776094       13.1871875182        4.8079071522
 Fe        -0.0833562681        8.7415882029        4.8627250657
 Fe         2.4831719793        4.2999597394        4.8176264293
  O         5.8594957862       10.3467229521        5.8816112832
  O         8.4242901321        5.9140273842        5.8796642262
  O        10.9822711483        1.4688710670        5.8780996119
  O         0.7259740450       10.3463081397        5.8891040789
  O         3.2771085802        5.9071877329        5.8491017589
  O         5.8597195591        1.4719523824        5.8831015513
  O        -4.3997979386       10.3533958071        5.8845300838
  O        -1.8401387864        5.9008526628        5.8741040361
  O         0.7276688468        1.4704006023        5.8767447299
  O         5.9348986568       13.1781337801        5.7063195408
  O         8.4800057868        8.7204575579        5.7046215634
  O        11.0599329573        4.2965007527        5.6951186243
  O         0.7920232460       13.1643090010        5.6720070153
  O         3.3662578520        8.7335887726        5.7068965557
  O         5.9307775387        4.3149363708        5.7498645321
  O        -4.3217825660       13.1805017976        5.6885184398
  O        -1.7744271877        8.7255423344        5.7118661697
  O         0.7948729838        4.2913754859        5.6823676583
  O         3.4717361100       11.7766853741        5.6859030648
  O         6.0570105342        7.3283614436        5.6581219027
  O         8.5909640435        2.8975926776        5.7187666432
  O        -1.6652737558       11.7887601707        5.6865944249
  O         0.8988680994        7.3295112470        5.7004834682
  O         3.4753794455        2.8893816211        5.6710330984
  O        -6.7804844896       11.7794847826        5.6806090815
  O        -4.2185390530        7.3257791122        5.6871291339
  O        -1.6636395077        2.9008750297        5.6711482474
 Fe         7.7866812866       10.2734903193        6.4345131668
 Fe        10.3446330587        5.8260140183        6.4412370686
 Fe        12.9121439759        1.3963217381        6.4368899672
 Fe         2.6534538511       10.2702820374        6.4373617963
 Fe         5.1931515648        5.8712423244        6.4439120246
 Fe         7.7871500089        1.3661410601        6.4326638436
 Fe        -2.4718692967       10.2773308885        6.4352880997
 Fe         0.0849870619        5.8214857271        6.4414837996
 Fe         2.6528220506        1.3901211230        6.4368780032
  O         7.8482474615       10.3896675277        8.2617170734
  H         7.8625360368        9.5686639122        8.7863172760
  H         5.3475219429       10.6076850908        6.6796277673
  O        10.3669484121        5.9061035486        8.2772813518
  H        10.6203339687        5.1045784994        8.7694740416
  H         7.9192213037        6.2663735808        6.6459686709
  O        12.9465006199        1.5102020122        8.2653469583
  H        13.0076017409        0.6883655556        8.7849565974
  H        10.4736621029        1.7179512719        6.6830229002
  O         2.6953213851       10.3785334835        8.2643511671
  H         2.7904214455        9.5556551539        8.7778613220
  H         0.2268040688       10.6159925758        6.6913714646
  O         4.9713841884        6.3412876185        8.1901846651
  H         4.9358273515        5.7590032137        8.9560144882
  H         2.8135118547        6.1973452895        6.6667668051
  O         7.9128092743        1.2275524551        8.2638715291
  H         7.9635386087        0.3264710824        8.6344149116
  H         5.3387098574        1.7309360191        6.6771216109
  O        -2.4079668359       10.3912541838        8.2633209534
  H        -2.3597585148        9.5680520106        8.7826317392
  H        -4.9041292229       10.6262894979        6.6841422167
  O         0.1063430642        5.9414328761        8.2667940420
  H         0.2148736766        5.1306985568        8.7954588404
  H        -2.3376160171        6.1746599136        6.6766651573
  O         2.7135844756        1.4972643823        8.2614637491
  H         2.7627823549        0.6795111552        8.7889020293
  H         0.2235836731        1.7393236200        6.6770962805
  C         7.3595816900        3.9985556503        9.2114883318
  C         6.3453606077        4.4072412670       10.1560774559
  H         7.4177477443        2.9002964713        9.0726219248
  H         7.1835992374        4.4641034574        8.2362158327
  H         8.3405406309        4.3524889120        9.5666310674
  N         5.4592793315        4.7180726297       10.8546452617
     168
 i =       33, E =     -8144.3693664613
 Fe         5.0938794100       11.8196869300        0.3885799900
 Fe         7.6575796300        7.3792284900        0.3885799900
 Fe        10.2212798400        2.9387700600        0.3885799900
 Fe        -0.0335205200       11.8196869300        0.3885799900
 Fe         2.5301797000        7.3792284900        0.3885799900
 Fe         5.0938799200        2.9387700600        0.3885799900
 Fe        -5.1609204400       11.8196869300        0.3885799900
 Fe        -2.5972202200        7.3792284900        0.3885799900
 Fe        -0.0335200000        2.9387700600        0.3885799900
  O         8.4519195100        8.9577468800        1.1642700400
  O        11.0156197300        4.5172884400        1.1642700400
  O        13.5793199500        0.0768300000        1.1642700400
  O         3.3245195900        8.9577468800        1.1642700400
  O         5.8882198100        4.5172884400        1.1642700400
  O         8.4519200300        0.0768300000        1.1642700400
  O        -1.8028803300        8.9577468800        1.1642700400
  O         0.7608198900        4.5172884400        1.1642700400
  O         3.3245201100        0.0768300000        1.1642700400
  O         8.4568493000       11.7183869300        1.1650400200
  O        11.0205495200        7.2779284900        1.1650400200
  O        13.5842497300        2.8374700500        1.1650400200
  O         3.3294493700       11.7183869300        1.1650400200
  O         5.8931495900        7.2779284900        1.1650400200
  O         8.4568498100        2.8374700500        1.1650400200
  O        -1.7979505500       11.7183869300        1.1650400200
  O         0.7657496700        7.2779284900        1.1650400200
  O         3.3294498900        2.8374700500        1.1650400200
  O         6.0627194200       10.3425368500        1.1660399400
  O         8.6264196400        5.9020784100        1.1660399400
  O        11.1901198600        1.4616199700        1.1660399400
  O         0.9353195000       10.3425368500        1.1660399400
  O         3.4990197200        5.9020784100        1.1660399400
  O         6.0627199400        1.4616199700        1.1660399400
  O        -4.1920804200       10.3425368500        1.1660399400
  O        -1.6283802000        5.9020784100        1.1660399400
  O         0.9353200200        1.4616199700        1.1660399400
 Fe         7.6576695000       13.2997167500        1.9292099500
 Fe        10.2213697200        8.8592583200        1.9292099500
 Fe        12.7850699400        4.4187998800        1.9292099500
 Fe         2.5302695800       13.2997167500        1.9292099500
 Fe         5.0939698000        8.8592583200        1.9292099500
 Fe         7.6576700200        4.4187998800        1.9292099500
 Fe        -2.5971303400       13.2997167500        1.9292099500
 Fe        -0.0334301200        8.8592583200        1.9292099500
 Fe         2.5302701000        4.4187998800        1.9292099500
 Fe         7.6573893600       10.3392168700        2.7128999200
 Fe        10.2210895800        5.8987584300        2.7128999200
 Fe        12.7847898000        1.4582999900        2.7128999200
 Fe         2.5299894400       10.3392168700        2.7128999200
 Fe         5.0936896600        5.8987584300        2.7128999200
 Fe         7.6573898800        1.4582999900        2.7128999200
 Fe        -2.5974104800       10.3392168700        2.7128999200
 Fe        -0.0337102600        5.8987584300        2.7128999200
 Fe         2.5299899600        1.4582999900        2.7128999200
  O         4.0938602767       13.3159727416        3.5164034483
  O         6.6786535778        8.8845372248        3.5436207529
  O         9.2174865889        4.4340056252        3.5285407121
  O        -1.0355674595       13.3138624376        3.5101889983
  O         1.5400618372        8.8788326052        3.5393106236
  O         4.0963337136        4.4312488830        3.5103019391
  O        -6.1566862166       13.3207438261        3.5267478936
  O        -3.5875735994        8.8800304186        3.5379282933
  O        -1.0395311206        4.4297917046        3.5057641004
  O         6.8122552308       11.8664334386        3.5121925892
  O         9.3854925017        7.4218676507        3.5174219588
  O        11.9354509021        2.9910290986        3.4955830344
  O         1.6857649467       11.8733475553        3.4933649837
  O         4.2477388313        7.4084907562        3.5322833855
  O         6.8176122526        2.9887698286        3.5225697851
  O        -3.4398854404       11.8748657116        3.4962961016
  O        -0.8775207966        7.4164510864        3.5221966912
  O         1.6863939685        2.9961014389        3.4902186645
  O         9.4218657780       10.2290391349        3.5072185590
  O        11.9916794924        5.7797872388        3.4847741095
  O        14.5497834871        1.3453828830        3.4987926294
  O         4.2847772173       10.2369607125        3.5224994283
  O         6.8665629135        5.7693118018        3.4883761100
  O         9.4219355836        1.3498652298        3.4964220401
  O        -0.8368139341       10.2295383314        3.5090993168
  O         1.7373475826        5.7829090948        3.4814481385
  O         4.3036098159        1.3458979756        3.4890662282
 Fe         5.0391945312       11.8413154987        4.4361971507
 Fe         7.6098757539        7.3893028971        4.4161170586
 Fe        10.1598499579        2.9546721742        4.4233118019
 Fe        -0.0932952970       11.8310671294        4.4217641391
 Fe         2.4684105219        7.3898428844        4.4414567940
 Fe         5.0345580501        2.9627776531        4.4248197698
 Fe        -5.2155840768       11.8372578663        4.4261138114
 Fe        -2.6535842039        7.3905055251        4.4236119521
 Fe        -0.0912895872        2.9565918668        4.4203275051
 Fe         7.6114076065       13.1848185139        4.8268463942
 Fe        10.1755935830        8.7438402390        4.8479073469
 Fe        12.7360701803        4.3038034982        4.8071295420
 Fe         2.4869174336       13.1830383777        4.8109231095
 Fe         5.0472662478        8.7455039698        4.8322794078
 Fe         7.6018339996        4.3039590332        4.8487873841
 Fe        -2.6433618197       13.1862741417        4.8151672541
 Fe        -0.0834886903        8.7424198499        4.8427522057
 Fe         2.4809915628        4.3036345193        4.8115814257
  O         5.8561522599       10.3479716619        5.8804948736
  O         8.4260732692        5.9172747473        5.8790873996
  O        10.9791579645        1.4647319755        5.8753096777
  O         0.7276268920       10.3477261928        5.8831063455
  O         3.2741645490        5.9084518971        5.8474509007
  O         5.8591834711        1.4716573221        5.8845671181
  O        -4.4007296029       10.3507749905        5.8879801534
  O        -1.8369620763        5.9020984591        5.8719127848
  O         0.7292616116        1.4713305186        5.8753737100
  O         5.9242701103       13.1773547394        5.6970373229
  O         8.4899265905        8.7254844894        5.7074839130
  O        11.0542053366        4.2920948012        5.6921721371
  O         0.7995420983       13.1633545408        5.6695822668
  O         3.3634469826        8.7328743241        5.6985658870
  O         5.9287346867        4.3153849631        5.7452875879
  O        -4.3228121376       13.1738742007        5.6944276987
  O        -1.7678466641        8.7283039084        5.7050523097
  O         0.7984457576        4.2929437586        5.6858412607
  O         3.4648699310       11.7809174484        5.6798094866
  O         6.0566169029        7.3300285447        5.6548033531
  O         8.5901023930        2.8914272349        5.7145293174
  O        -1.6593011049       11.7812662052        5.6802865534
  O         0.9008507457        7.3316340037        5.6860672129
  O         3.4702163889        2.8971418011        5.6741219174
  O        -6.7818877229       11.7777947984        5.6837901272
  O        -4.2180029196        7.3294863365        5.6891746234
  O        -1.6619556156        2.8980898314        5.6732545496
 Fe         7.7819604695       10.2731905336        6.4353076437
 Fe        10.3474365392        5.8248549543        6.4392395931
 Fe        12.9085065111        1.3957166866        6.4364250431
 Fe         2.6565139837       10.2705920831        6.4376222439
 Fe         5.1911937271        5.8714027234        6.4381607177
 Fe         7.7851250927        1.3629626064        6.4291938149
 Fe        -2.4702772881       10.2748262696        6.4365635720
 Fe         0.0890884789        5.8250358770        6.4398123711
 Fe         2.6559036264        1.3906113907        6.4351977179
  O         7.8489192088       10.3904768270        8.2620627429
  H         7.8623974146        9.5690654833        8.7858404701
  H         5.3491104699       10.6093592754        6.6810568168
  O        10.3672483178        5.9049570379        8.2762349633
  H        10.6228767132        5.1040254968        8.7695315330
  H         7.9176624356        6.2643979284        6.6452395426
  O        12.9469142594        1.5109802590        8.2648207447
  H        13.0074752834        0.6891013038        8.7846347009
  H        10.4767205281        1.7197883000        6.6820407938
  O         2.6947455639       10.3790025047        8.2651415987
  H         2.7906508204        9.5553418162        8.7777677496
  H         0.2263999658       10.6129200163        6.6871709961
  O         4.9757000077        6.3322910217        8.1825863844
  H         4.9274134756        5.7566577638        8.9689512424
  H         2.8118176589        6.1954556049        6.6677928944
  O         7.9111571623        1.2287757446        8.2621866545
  H         7.9642647709        0.3297836654        8.6362585517
  H         5.3385691872        1.7329677696        6.6772382647
  O        -2.4076454025       10.3923989855        8.2640257750
  H        -2.3594572906        9.5685400340        8.7820300853
  H        -4.9041146311       10.6271982026        6.6871727062
  O         0.1061664496        5.9402421661        8.2658651939
  H         0.2144960379        5.1304487737        8.7963899483
  H        -2.3381658545        6.1747227124        6.6730968591
  O         2.7128363920        1.4972391790        8.2603175049
  H         2.7630037958        0.6802651717        8.7887903661
  H         0.2233582283        1.7385552059        6.6753415177
  C         7.3716070377        4.0088903498        9.2152561536
  C         6.3336505240        4.3931623799       10.1474328004
  H         7.4095329170        2.9120193162        9.0836197398
  H         7.1822150008        4.4622789558        8.2309459653
  H         8.3535744546        4.3542505238        9.5667415526
  N         5.4646680678        4.7153696562       10.8586619988
     168
 i =       34, E =     -8144.3692732563
 Fe         5.0938794100       11.8196869300        0.3885799900
 Fe         7.6575796300        7.3792284900        0.3885799900
 Fe        10.2212798400        2.9387700600        0.3885799900
 Fe        -0.0335205200       11.8196869300        0.3885799900
 Fe         2.5301797000        7.3792284900        0.3885799900
 Fe         5.0938799200        2.9387700600        0.3885799900
 Fe        -5.1609204400       11.8196869300        0.3885799900
 Fe        -2.5972202200        7.3792284900        0.3885799900
 Fe        -0.0335200000        2.9387700600        0.3885799900
  O         8.4519195100        8.9577468800        1.1642700400
  O        11.0156197300        4.5172884400        1.1642700400
  O        13.5793199500        0.0768300000        1.1642700400
  O         3.3245195900        8.9577468800        1.1642700400
  O         5.8882198100        4.5172884400        1.1642700400
  O         8.4519200300        0.0768300000        1.1642700400
  O        -1.8028803300        8.9577468800        1.1642700400
  O         0.7608198900        4.5172884400        1.1642700400
  O         3.3245201100        0.0768300000        1.1642700400
  O         8.4568493000       11.7183869300        1.1650400200
  O        11.0205495200        7.2779284900        1.1650400200
  O        13.5842497300        2.8374700500        1.1650400200
  O         3.3294493700       11.7183869300        1.1650400200
  O         5.8931495900        7.2779284900        1.1650400200
  O         8.4568498100        2.8374700500        1.1650400200
  O        -1.7979505500       11.7183869300        1.1650400200
  O         0.7657496700        7.2779284900        1.1650400200
  O         3.3294498900        2.8374700500        1.1650400200
  O         6.0627194200       10.3425368500        1.1660399400
  O         8.6264196400        5.9020784100        1.1660399400
  O        11.1901198600        1.4616199700        1.1660399400
  O         0.9353195000       10.3425368500        1.1660399400
  O         3.4990197200        5.9020784100        1.1660399400
  O         6.0627199400        1.4616199700        1.1660399400
  O        -4.1920804200       10.3425368500        1.1660399400
  O        -1.6283802000        5.9020784100        1.1660399400
  O         0.9353200200        1.4616199700        1.1660399400
 Fe         7.6576695000       13.2997167500        1.9292099500
 Fe        10.2213697200        8.8592583200        1.9292099500
 Fe        12.7850699400        4.4187998800        1.9292099500
 Fe         2.5302695800       13.2997167500        1.9292099500
 Fe         5.0939698000        8.8592583200        1.9292099500
 Fe         7.6576700200        4.4187998800        1.9292099500
 Fe        -2.5971303400       13.2997167500        1.9292099500
 Fe        -0.0334301200        8.8592583200        1.9292099500
 Fe         2.5302701000        4.4187998800        1.9292099500
 Fe         7.6573893600       10.3392168700        2.7128999200
 Fe        10.2210895800        5.8987584300        2.7128999200
 Fe        12.7847898000        1.4582999900        2.7128999200
 Fe         2.5299894400       10.3392168700        2.7128999200
 Fe         5.0936896600        5.8987584300        2.7128999200
 Fe         7.6573898800        1.4582999900        2.7128999200
 Fe        -2.5974104800       10.3392168700        2.7128999200
 Fe        -0.0337102600        5.8987584300        2.7128999200
 Fe         2.5299899600        1.4582999900        2.7128999200
  O         4.0938602767       13.3159727416        3.5164034483
  O         6.6786535778        8.8845372248        3.5436207529
  O         9.2174865889        4.4340056252        3.5285407121
  O        -1.0355674595       13.3138624376        3.5101889983
  O         1.5400618372        8.8788326052        3.5393106236
  O         4.0963337136        4.4312488830        3.5103019391
  O        -6.1566862166       13.3207438261        3.5267478936
  O        -3.5875735994        8.8800304186        3.5379282933
  O        -1.0395311206        4.4297917046        3.5057641004
  O         6.8122552308       11.8664334386        3.5121925892
  O         9.3854925017        7.4218676507        3.5174219588
  O        11.9354509021        2.9910290986        3.4955830344
  O         1.6857649467       11.8733475553        3.4933649837
  O         4.2477388313        7.4084907562        3.5322833855
  O         6.8176122526        2.9887698286        3.5225697851
  O        -3.4398854404       11.8748657116        3.4962961016
  O        -0.8775207966        7.4164510864        3.5221966912
  O         1.6863939685        2.9961014389        3.4902186645
  O         9.4218657780       10.2290391349        3.5072185590
  O        11.9916794924        5.7797872388        3.4847741095
  O        14.5497834871        1.3453828830        3.4987926294
  O         4.2847772173       10.2369607125        3.5224994283
  O         6.8665629135        5.7693118018        3.4883761100
  O         9.4219355836        1.3498652298        3.4964220401
  O        -0.8368139341       10.2295383314        3.5090993168
  O         1.7373475826        5.7829090948        3.4814481385
  O         4.3036098159        1.3458979756        3.4890662282
 Fe         5.0391945312       11.8413154987        4.4361971507
 Fe         7.6098757539        7.3893028971        4.4161170586
 Fe        10.1598499579        2.9546721742        4.4233118019
 Fe        -0.0932952970       11.8310671294        4.4217641391
 Fe         2.4684105219        7.3898428844        4.4414567940
 Fe         5.0345580501        2.9627776531        4.4248197698
 Fe        -5.2155840768       11.8372578663        4.4261138114
 Fe        -2.6535842039        7.3905055251        4.4236119521
 Fe        -0.0912895872        2.9565918668        4.4203275051
 Fe         7.6114076065       13.1848185139        4.8268463942
 Fe        10.1755935830        8.7438402390        4.8479073469
 Fe        12.7360701803        4.3038034982        4.8071295420
 Fe         2.4869174336       13.1830383777        4.8109231095
 Fe         5.0472662478        8.7455039698        4.8322794078
 Fe         7.6018339996        4.3039590332        4.8487873841
 Fe        -2.6433618197       13.1862741417        4.8151672541
 Fe        -0.0834886903        8.7424198499        4.8427522057
 Fe         2.4809915628        4.3036345193        4.8115814257
  O         5.8561522599       10.3479716619        5.8804948736
  O         8.4260732692        5.9172747473        5.8790873996
  O        10.9791579645        1.4647319755        5.8753096777
  O         0.7276268920       10.3477261928        5.8831063455
  O         3.2741645490        5.9084518971        5.8474509007
  O         5.8591834711        1.4716573221        5.8845671181
  O        -4.4007296029       10.3507749905        5.8879801534
  O        -1.8369620763        5.9020984591        5.8719127848
  O         0.7292616116        1.4713305186        5.8753737100
  O         5.9242701103       13.1773547394        5.6970373229
  O         8.4899265905        8.7254844894        5.7074839130
  O        11.0542053366        4.2920948012        5.6921721371
  O         0.7995420983       13.1633545408        5.6695822668
  O         3.3634469826        8.7328743241        5.6985658870
  O         5.9287346867        4.3153849631        5.7452875879
  O        -4.3228121376       13.1738742007        5.6944276987
  O        -1.7678466641        8.7283039084        5.7050523097
  O         0.7984457576        4.2929437586        5.6858412607
  O         3.4648699310       11.7809174484        5.6798094866
  O         6.0566169029        7.3300285447        5.6548033531
  O         8.5901023930        2.8914272349        5.7145293174
  O        -1.6593011049       11.7812662052        5.6802865534
  O         0.9008507457        7.3316340037        5.6860672129
  O         3.4702163889        2.8971418011        5.6741219174
  O        -6.7818877229       11.7777947984        5.6837901272
  O        -4.2180029196        7.3294863365        5.6891746234
  O        -1.6619556156        2.8980898314        5.6732545496
 Fe         7.7819604695       10.2731905336        6.4353076437
 Fe        10.3474365392        5.8248549543        6.4392395931
 Fe        12.9085065111        1.3957166866        6.4364250431
 Fe         2.6565139837       10.2705920831        6.4376222439
 Fe         5.1911937271        5.8714027234        6.4381607177
 Fe         7.7851250927        1.3629626064        6.4291938149
 Fe        -2.4702772881       10.2748262696        6.4365635720
 Fe         0.0890884789        5.8250358770        6.4398123711
 Fe         2.6559036264        1.3906113907        6.4351977179
  O         7.8489192088       10.3904768270        8.2620627429
  H         7.8623974146        9.5690654833        8.7858404701
  H         5.3491104699       10.6093592754        6.6810568168
  O        10.3672483178        5.9049570379        8.2762349633
  H        10.6228767132        5.1040254968        8.7695315330
  H         7.9176624356        6.2643979284        6.6452395426
  O        12.9469142594        1.5109802590        8.2648207447
  H        13.0074752834        0.6891013038        8.7846347009
  H        10.4767205281        1.7197883000        6.6820407938
  O         2.6947455639       10.3790025047        8.2651415987
  H         2.7906508204        9.5553418162        8.7777677496
  H         0.2263999658       10.6129200163        6.6871709961
  O         4.9757000077        6.3322910217        8.1825863844
  H         4.9274134756        5.7566577638        8.9689512424
  H         2.8118176589        6.1954556049        6.6677928944
  O         7.9111571623        1.2287757446        8.2621866545
  H         7.9642647709        0.3297836654        8.6362585517
  H         5.3385691872        1.7329677696        6.6772382647
  O        -2.4076454025       10.3923989855        8.2640257750
  H        -2.3594572906        9.5685400340        8.7820300853
  H        -4.9041146311       10.6271982026        6.6871727062
  O         0.1061664496        5.9402421661        8.2658651939
  H         0.2144960379        5.1304487737        8.7963899483
  H        -2.3381658545        6.1747227124        6.6730968591
  O         2.7128363920        1.4972391790        8.2603175049
  H         2.7630037958        0.6802651717        8.7887903661
  H         0.2233582283        1.7385552059        6.6753415177
  C         7.3716070377        4.0088903498        9.2152561536
  C         6.3336505240        4.3931623799       10.1474328004
  H         7.4095329170        2.9120193162        9.0836197398
  H         7.1822150008        4.4622789558        8.2309459653
  H         8.3535744546        4.3542505238        9.5667415526
  N         5.4646680678        4.7153696562       10.8586619988
