      40
 i =        1, E =     -1284.5239392868
 Au        14.3884007473       15.3249058049       16.6329018844
 Au        17.4685709443       11.4902002471       14.3432044584
 Au        14.4716603860       12.1221845510       17.2721324384
 Au        18.1380363042       15.3813807324       17.1816168029
 Au        12.1327058395       13.6282037258       17.3033093124
 Au        11.3430060719       14.7930279271       14.9171674419
 Au        13.0196054977       17.9480444334       13.3649169856
 Au        15.3783805427       18.8080853776       14.5545201287
 Au        14.8600882540       15.7854843807       13.8688272414
 Au        14.1281981535       14.0750191119       19.2179325895
 Au        15.0791723920       12.3780743069       13.0640852361
 Au        12.8293288826       14.0949789880       12.6355288438
 Au        15.2260436382       14.4176987517       11.2249848916
 Au        16.3224294250       13.9283884907       15.2680286049
 Au        12.9150114982       12.4500018838       14.8701302033
 Au        14.8851082771       10.4590072186       15.0956464695
 Au        17.4215193314       16.5909607895       14.7453675801
 Au        19.3598621383       14.5310497473       14.6083682881
 Au        16.0588602215       17.5354544479       17.0791582950
 Au        18.8720520988       16.1508014074       12.4152694633
 Au        13.3159632869       18.0088933202       16.2241449863
 Au        16.8932221347       10.6968357375       17.0600625799
 Au        10.9491609742       16.2382705419       12.5201400353
 Au        15.3669905785       17.9280235572       11.8663833124
 Au        11.3972754212       16.2809247896       17.3511794257
 Au        10.7903136487       17.6061010245       14.9837795087
 Au        16.8001891955       13.1987919516       18.4487233320
 Au        15.5037024543       16.5442614829        9.3595253866
 Au        18.8133282033       12.6785569827       16.5287888728
 Au        16.5313297339       15.8928985627       19.3148877416
 Au        17.7247811854       15.0040095611       10.1471328496
 Au        14.6774352074       15.6652720542       21.3381732314
 Au        13.7733356681       17.0910090979       18.9081781735
 Au        13.1798471665       16.3636906760       10.8980942061
 Au        17.6436726900       13.5604131819       12.5102935130
 Au        17.7616010748       17.8562758011       10.3948894816
 Au        17.8636149693       18.7842233719       12.9780219590
 Au        17.8562853493       19.2345980092       15.7499334133
  C        12.9016381528       18.5679156076       19.9933764296
  O        12.2145812358       19.4130852733       20.3568997432
      40
 i =        2, E =     -1284.5241288518
 Au        14.3787029585       15.3269661732       16.6241845177
 Au        17.4702619832       11.4907490720       14.3453963419
 Au        14.4712228811       12.1177953865       17.2744359605
 Au        18.1303192965       15.3884218968       17.1809011178
 Au        12.1380663673       13.6232617350       17.3054475349
 Au        11.3387314593       14.7861717543       14.9218533957
 Au        13.0220064451       17.9554764884       13.3667973190
 Au        15.3844917061       18.8089333346       14.5496471979
 Au        14.8526582209       15.7801457102       13.8637986799
 Au        14.1257753438       14.0739539082       19.2208161269
 Au        15.0846106814       12.3748812675       13.0601457915
 Au        12.8225014320       14.0941041812       12.6316480462
 Au        15.2247726149       14.4085556140       11.2207801810
 Au        16.3275073247       13.9365731370       15.2628140389
 Au        12.9114530567       12.4473920734       14.8608585238
 Au        14.8840790502       10.4650553792       15.0973883369
 Au        17.4193093438       16.5954257271       14.7414168088
 Au        19.3607054958       14.5362610655       14.6148453596
 Au        16.0522789982       17.5335276562       17.0830502681
 Au        18.8746083278       16.1503380348       12.4132512026
 Au        13.3189461445       18.0206538773       16.2212213259
 Au        16.8973500737       10.6899588689       17.0601144048
 Au        10.9512083326       16.2473863196       12.5277632309
 Au        15.3708407225       17.9158117005       11.8668149645
 Au        11.4090554829       16.2812495416       17.3519925792
 Au        10.7903718103       17.6012702492       14.9885445186
 Au        16.7930154941       13.2032658285       18.4404802360
 Au        15.5029943960       16.5422607461        9.3621576616
 Au        18.8087622647       12.6805958779       16.5313977101
 Au        16.5293089572       15.8914984898       19.3204328295
 Au        17.7257980688       15.0049030920       10.1456162690
 Au        14.6776806013       15.6658144002       21.3416609047
 Au        13.7767134411       17.0912643965       18.9091375661
 Au        13.1805342337       16.3620994504       10.9035813219
 Au        17.6485535260       13.5632086397       12.5117488881
 Au        17.7628821716       17.8586735960       10.3883130982
 Au        17.8610063319       18.7845259987       12.9751768652
 Au        17.8568216945       19.2271726040       15.7606593020
  C        12.9046630460       18.5701991381       19.9944972223
  O        12.2047734878       19.4012570752       20.3570155295
      40
 i =        3, E =     -1284.5242136535
 Au        14.3727242052       15.3269705251       16.6179693753
 Au        17.4712106354       11.4922587830       14.3466307139
 Au        14.4704731631       12.1135943929       17.2761890678
 Au        18.1245947312       15.3942623924       17.1808727446
 Au        12.1401867643       13.6189515212       17.3047767333
 Au        11.3353709306       14.7817347664       14.9231964894
 Au        13.0231922801       17.9611145381       13.3684864486
 Au        15.3891863504       18.8102609657       14.5477253790
 Au        14.8479359666       15.7771080823       13.8597991072
 Au        14.1246338863       14.0747448667       19.2225553690
 Au        15.0867397387       12.3731327401       13.0584702059
 Au        12.8184973303       14.0918897234       12.6287451879
 Au        15.2239366768       14.4022667437       11.2165040711
 Au        16.3294769760       13.9419987577       15.2595261452
 Au        12.9102666340       12.4454070820       14.8566138728
 Au        14.8843963116       10.4680952411       15.0974933251
 Au        17.4150860300       16.5975980144       14.7377331250
 Au        19.3606452336       14.5414564548       14.6189876944
 Au        16.0478353358       17.5314624238       17.0842003494
 Au        18.8764660749       16.1510238764       12.4120684860
 Au        13.3209466137       18.0297698141       16.2205035274
 Au        16.8988857534       10.6866619172       17.0601951050
 Au        10.9527473761       16.2525849152       12.5331123862
 Au        15.3742770879       17.9073875829       11.8673351688
 Au        11.4205828152       16.2803065700       17.3528171527
 Au        10.7917948825       17.5986574575       14.9937647078
 Au        16.7872940468       13.2063245378       18.4344978179
 Au        15.5022434955       16.5398312235        9.3630915684
 Au        18.8056672396       12.6832750068       16.5333210953
 Au        16.5282881194       15.8908664668       19.3239575750
 Au        17.7258077429       15.0054712424       10.1460401461
 Au        14.6765807105       15.6654272230       21.3446490487
 Au        13.7799766217       17.0913784816       18.9097094996
 Au        13.1804609282       16.3603804934       10.9071624027
 Au        17.6517255545       13.5649902583       12.5128815954
 Au        17.7646018138       17.8597273838       10.3843912267
 Au        17.8608498559       18.7855856286       12.9739115267
 Au        17.8576428060       19.2208749547       15.7665678592
  C        12.9074888954       18.5716131401       19.9952006385
  O        12.1972591589       19.3946941796       20.3582150954
      40
 i =        4, E =     -1284.5243087460
 Au        14.3652474423       15.3258501542       16.6108496486
 Au        17.4721822069       11.4957534127       14.3481247881
 Au        14.4677878796       12.1075415126       17.2797143816
 Au        18.1181076638       15.4024912887       17.1802447766
 Au        12.1412352434       13.6117057205       17.3023668693
 Au        11.3308782126       14.7766755010       14.9223353362
 Au        13.0254298130       17.9684235507       13.3710560353
 Au        15.3931898040       18.8129499624       14.5461802894
 Au        14.8410430964       15.7745273857       13.8531151689
 Au        14.1227923484       14.0767655859       19.2217525954
 Au        15.0879771695       12.3725296140       13.0567299866
 Au        12.8145771878       14.0870838904       12.6250214414
 Au        15.2221707738       14.3935274673       11.2106270054
 Au        16.3305494199       13.9467193081       15.2558257166
 Au        12.9101299969       12.4427478183       14.8537349178
 Au        14.8864074676       10.4693113991       15.0962696421
 Au        17.4069999439       16.5983118942       14.7312384356
 Au        19.3593592563       14.5499461192       14.6240296695
 Au        16.0419402921       17.5277922166       17.0844391400
 Au        18.8790468208       16.1534888868       12.4113503477
 Au        13.3248561522       18.0425915809       16.2211448071
 Au        16.8995767570       10.6848082572       17.0601970925
 Au        10.9550085183       16.2575150654       12.5399456599
 Au        15.3790648009       17.8972813687       11.8689846863
 Au        11.4394714694       16.2769910520       17.3543508973
 Au        10.7953085774       17.5965098169       15.0021768286
 Au        16.7792978976       13.2102151786       18.4270527218
 Au        15.5010343423       16.5361434766        9.3630109281
 Au        18.8017963636       12.6888250215       16.5354128790
 Au        16.5263200328       15.8911237293       19.3294027995
 Au        17.7254812147       15.0061292270       10.1482039179
 Au        14.6738903426       15.6642644158       21.3488832236
 Au        13.7852909374       17.0924162748       18.9113931796
 Au        13.1801926200       16.3576253123       10.9113970217
 Au        17.6546825769       13.5669841052       12.5146042318
 Au        17.7672805779       17.8602588831       10.3807566215
 Au        17.8631216309       18.7878447165       12.9721923724
 Au        17.8609199365       19.2122446293       15.7723376151
  C        12.9114197976       18.5732942666       19.9963803371
  O        12.1903177501       19.3891919366       20.3597595565
      40
 i =        5, E =     -1284.5244128252
 Au        14.3574374363       15.3238772927       16.6026259110
 Au        17.4731487554       11.5004577436       14.3497635911
 Au        14.4632503132       12.0978310828       17.2838711137
 Au        18.1109984821       15.4128080652       17.1801017283
 Au        12.1386358316       13.6011893896       17.2979870371
 Au        11.3263918447       14.7716237584       14.9198790812
 Au        13.0272860866       17.9758816919       13.3738421536
 Au        15.3978484091       18.8182427700       14.5455469554
 Au        14.8327172379       15.7714899773       13.8456973170
 Au        14.1199504717       14.0810950557       19.2183707852
 Au        15.0880551255       12.3722271825       13.0561640478
 Au        12.8107365590       14.0796746598       12.6210903661
 Au        15.2196766915       14.3841340054       11.2026774636
 Au        16.3281140714       13.9503624128       15.2524593961
 Au        12.9118951730       12.4391613694       14.8527995375
 Au        14.8900894121       10.4683483380       15.0939844442
 Au        17.3938984878       16.5978456686       14.7225243437
 Au        19.3571217535       14.5611410732       14.6288179743
 Au        16.0368035765       17.5229456392       17.0829285730
 Au        18.8826886909       16.1576127744       12.4110364575
 Au        13.3302116918       18.0576986157       16.2243362160
 Au        16.8992060367       10.6861503551       17.0601377734
 Au        10.9583654521       16.2613005532       12.5474147407
 Au        15.3848625399       17.8874248012       11.8712430563
 Au        11.4649598707       16.2709612436       17.3555362482
 Au        10.8018882631       17.5952582026       15.0130922697
 Au        16.7703241034       13.2155789869       18.4194756424
 Au        15.4998359313       16.5317981241        9.3622791550
 Au        18.7977042525       12.6970468479       16.5375370927
 Au        16.5242057861       15.8924093205       19.3350580440
 Au        17.7245499227       15.0069071507       10.1524768048
 Au        14.6689528380       15.6612832625       21.3530253845
 Au        13.7928233553       17.0949564586       18.9154397052
 Au        13.1804238932       16.3542210838       10.9156023785
 Au        17.6566088184       13.5696058565       12.5165323340
 Au        17.7697849449       17.8597514805       10.3781038348
 Au        17.8680672370       18.7914647792       12.9710303650
 Au        17.8661277047       19.2007597307       15.7755342285
  C        12.9152073573       18.5749045653       19.9983243767
  O        12.1865362490       19.3865984187       20.3611282468
      40
 i =        6, E =     -1284.5245432715
 Au        14.3468467186       15.3214470801       16.5929621013
 Au        17.4747286696       11.5067128177       14.3517991267
 Au        14.4551496629       12.0838193634       17.2907179510
 Au        18.1032686104       15.4262995674       17.1791599172
 Au        12.1317688145       13.5838920888       17.2924217229
 Au        11.3223131767       14.7655792060       14.9163740697
 Au        13.0309383948       17.9839599536       13.3775252132
 Au        15.4018330670       18.8277051398       14.5444152946
 Au        14.8199727283       15.7671691595       13.8361171762
 Au        14.1142296236       14.0873295306       19.2089072358
 Au        15.0880033632       12.3721645070       13.0555620225
 Au        12.8062030198       14.0688338300       12.6164842916
 Au        15.2154012381       14.3723337616       11.1926336357
 Au        16.3217040461       13.9517114802       15.2498544141
 Au        12.9153952470       12.4339718071       14.8529553222
 Au        14.8959514421       10.4639481781       15.0906228445
 Au        17.3743601321       16.5949520335       14.7096706791
 Au        19.3532848375       14.5763028043       14.6339664230
 Au        16.0322003128       17.5170408245       17.0803254253
 Au        18.8883393332       16.1640778851       12.4115144297
 Au        13.3390836906       18.0772900382       16.2302706503
 Au        16.8987765911       10.6916639103       17.0603721999
 Au        10.9636902003       16.2643000263       12.5561602384
 Au        15.3914339719       17.8779097292       11.8752020955
 Au        11.5001616332       16.2612273269       17.3557862558
 Au        10.8130033908       17.5945860019       15.0272059349
 Au        16.7587997141       13.2236328135       18.4111084291
 Au        15.4988152078       16.5272576657        9.3609106130
 Au        18.7930003177       12.7097609702       16.5395788391
 Au        16.5209795821       15.8954566071       19.3423021036
 Au        17.7232762102       15.0080807402       10.1587698146
 Au        14.6612185069       15.6553223891       21.3567208095
 Au        13.8044034368       17.1000963855       18.9238033274
 Au        13.1818663709       16.3500149187       10.9205560446
 Au        17.6568401760       13.5735128934       12.5196522057
 Au        17.7716412029       17.8585126981       10.3764876031
 Au        17.8763342090       18.7965512914       12.9694824937
 Au        17.8756163386       19.1849930424       15.7763338053
  C        12.9186450235       18.5770201794       20.0016351593
  O        12.1865427538       19.3875604156       20.3624287490
      40
 i =        7, E =     -1284.5246849595
 Au        14.3355575987       15.3202993835       16.5834922845
 Au        17.4770517174       11.5121440941       14.3539089480
 Au        14.4458085499       12.0664666606       17.2981326939
 Au        18.0965906071       15.4400424521       17.1777944659
 Au        12.1190883726       13.5619983688       17.2874932099
 Au        11.3209754809       14.7595633876       14.9139524415
 Au        13.0349045415       17.9900855952       13.3812994381
 Au        15.4062296667       18.8412327588       14.5434120971
 Au        14.8052109869       15.7604346785       13.8279659534
 Au        14.1057042459       14.0947703722       19.1952520526
 Au        15.0884268638       12.3705098842       13.0551520067
 Au        12.8011705017       14.0568134453       12.6121768372
 Au        15.2105266671       14.3616593770       11.1825048005
 Au        16.3107018713       13.9499159214       15.2499852657
 Au        12.9204337567       12.4272980138       14.8532297420
 Au        14.9025399871       10.4575525176       15.0880462091
 Au        17.3511618466       16.5901473237       14.6953197529
 Au        19.3491511203       14.5915349612       14.6377036495
 Au        16.0303208308       17.5124377261       17.0771047668
 Au        18.8953229818       16.1712148202       12.4120087405
 Au        13.3501595569       18.0968545006       16.2386018069
 Au        16.8990453345       10.7015169401       17.0612603378
 Au        10.9704746770       16.2658077800       12.5640127570
 Au        15.3969133801       17.8727902688       11.8793295538
 Au        11.5368904177       16.2494313094       17.3541118058
 Au        10.8272692535       17.5942556598       15.0401769755
 Au        16.7473140631       13.2335455493       18.4040099806
 Au        15.4986225726       16.5244601123        9.3599944099
 Au        18.7889741701       12.7243668677       16.5412426147
 Au        16.5180683171       15.8997704524       19.3479858030
 Au        17.7216816279       15.0096487758       10.1657603274
 Au        14.6518924125       15.6455087121       21.3574929258
 Au        13.8182024208       17.1076888608       18.9358396328
 Au        13.1851166314       16.3463723131       10.9250248561
 Au        17.6544869492       13.5790562648       12.5235316295
 Au        17.7714378357       17.8572695306       10.3764731419
 Au        17.8856650498       18.8015466583       12.9682267352
 Au        17.8873354538       19.1670923627       15.7729316288
  C        12.9211947476       18.5804897967       20.0057123171
  O        12.1916759970       19.3940839826       20.3635761284
      40
 i =        8, E =     -1284.5248133011
 Au        14.3246212639       15.3214958168       16.5761351358
 Au        17.4802507444       11.5153743464       14.3556571340
 Au        14.4363422410       12.0512673375       17.3055708696
 Au        18.0927317808       15.4511482960       17.1749521651
 Au        12.1041752001       13.5386278638       17.2852635535
 Au        11.3234072053       14.7537288246       14.9141178427
 Au        13.0404671406       17.9937149716       13.3850915853
 Au        15.4096863882       18.8563174336       14.5419172653
 Au        14.7904465182       15.7515043264       13.8223038909
 Au        14.0947936033       14.1002780914       19.1792575623
 Au        15.0905161377       12.3664792601       13.0531961316
 Au        12.7960193067       14.0463150288       12.6083182079
 Au        15.2059567814       14.3536749268       11.1755324899
 Au        16.2982822188       13.9448499980       15.2539533092
 Au        12.9249580833       12.4204177387       14.8523364532
 Au        14.9084328821       10.4509950834       15.0876054509
 Au        17.3295804844       16.5836875978       14.6819557019
 Au        19.3458359409       14.6032094000       14.6393909265
 Au        16.0309611135       17.5113824618       17.0751532190
 Au        18.9022630319       16.1771334418       12.4121434228
 Au        13.3614368931       18.1127157994       16.2467294924
 Au        16.9015755259       10.7124858036       17.0631540206
 Au        10.9775499467       16.2660470995       12.5693922900
 Au        15.3991334891       17.8736159251       11.8833728345
 Au        11.5669361582       16.2386102739       17.3510338653
 Au        10.8414497365       17.5932907927       15.0487412973
 Au        16.7371034957       13.2436625618       18.3988621688
 Au        15.4994563946       16.5247454831        9.3602628048
 Au        18.7864652829       12.7376783529       16.5423977330
 Au        16.5159176178       15.9043869603       19.3509338987
 Au        17.7201653890       15.0116778812       10.1709087262
 Au        14.6437135841       15.6328388885       21.3547364668
 Au        13.8311567693       17.1167863300       18.9487710669
 Au        13.1897045719       16.3443698372       10.9287768393
 Au        17.6498643529       13.5855761451       12.5286095493
 Au        17.7692491086       17.8575716684       10.3770437599
 Au        17.8929775739       18.8044869438       12.9667750919
 Au        17.8997653175       19.1504088190       15.7673586346
  C        12.9239445483       18.5865508692       20.0095556101
  O        12.1992857598       19.4041468781       20.3642646114
      40
 i =        9, E =     -1284.5249146898
 Au        14.3186482006       15.3253030505       16.5730094589
 Au        17.4831055749       11.5152443728       14.3566003923
 Au        14.4318106093       12.0436253579       17.3089706318
 Au        18.0926338043       15.4557889726       17.1716858765
 Au        12.0926316713       13.5239937761       17.2861749265
 Au        11.3283488171       14.7500466923       14.9164117485
 Au        13.0446616244       17.9942578481       13.3877860485
 Au        15.4125209987       18.8668632502       14.5415346346
 Au        14.7822923828       15.7429766167       13.8211103782
 Au        14.0856964947       14.1019539587       19.1694817384
 Au        15.0932308545       12.3605289034       13.0503616632
 Au        12.7924701212       14.0409282344       12.6057636226
 Au        15.2041093297       14.3515462231       11.1742985205
 Au        16.2898691096       13.9390519090       15.2604870604
 Au        12.9272239928       12.4157755818       14.8498295994
 Au        14.9114618859       10.4485772688       15.0902712459
 Au        17.3178385748       16.5784227935       14.6750508284
 Au        19.3452188877       14.6066179946       14.6386190213
 Au        16.0332591791       17.5144861258       17.0753455752
 Au        18.9059886068       16.1792323880       12.4110127943
 Au        13.3679067223       18.1188529547       16.2509407172
 Au        16.9051964294       10.7191543370       17.0654437845
 Au        10.9823140313       16.2654058043       12.5710987934
 Au        15.3979435400       17.8792778788       11.8850945513
 Au        11.5781302467       16.2329839833       17.3490055270
 Au        10.8494418121       17.5911880146       15.0495479599
 Au        16.7316751205       13.2499674319       18.3965074956
 Au        15.5007054212       16.5278817693        9.3621266222
 Au        18.7863062446       12.7438716158       16.5430332542
 Au        16.5155384059       15.9071687435       19.3493781556
 Au        17.7190315816       15.0134966683       10.1723998004
 Au        14.6404591780       15.6218005120       21.3494445168
 Au        13.8375030908       17.1237206535       18.9563709197
 Au        13.1935445717       16.3448734244       10.9306358492
 Au        17.6453195655       13.5911415762       12.5328601152
 Au        17.7664169650       17.8599992434       10.3770696545
 Au        17.8945559322       18.8037453596       12.9655752961
 Au        17.9076767870       19.1405901021       15.7629784106
  C        12.9273101711       18.5940044029       20.0114222024
  O        12.2027356546       19.4110128815       20.3643980195
      40
 i =       10, E =     -1284.5250085296
 Au        14.3121855938       15.3315750676       16.5708893947
 Au        17.4866498766       11.5147295914       14.3573847872
 Au        14.4276962528       12.0390366400       17.3114910057
 Au        18.0932566354       15.4600111884       17.1668674284
 Au        12.0822299915       13.5098019397       17.2872519958
 Au        11.3347303424       14.7454357880       14.9191152230
 Au        13.0502802716       17.9954363393       13.3914024861
 Au        15.4163776485       18.8770661102       14.5421241552
 Au        14.7757474872       15.7318897124       13.8199389446
 Au        14.0746249625       14.1016410988       19.1608099290
 Au        15.0968351058       12.3517919921       13.0455174501
 Au        12.7886239986       14.0352945108       12.6016118261
 Au        15.2031598075       14.3503812840       11.1752731268
 Au        16.2823127542       13.9323310184       15.2698427500
 Au        12.9283103109       12.4112671446       14.8458632123
 Au        14.9146501273       10.4483113565       15.0947570531
 Au        17.3070652931       16.5720582122       14.6688519054
 Au        19.3459966909       14.6079466765       14.6372215237
 Au        16.0356048055       17.5200706516       17.0767672096
 Au        18.9087213051       16.1801686620       12.4086511084
 Au        13.3728407925       18.1232431962       16.2532923098
 Au        16.9105515418       10.7229850184       17.0689090183
 Au        10.9874930074       16.2647818262       12.5727538387
 Au        15.3956963802       17.8865278582       11.8864976657
 Au        11.5852270927       16.2285652357       17.3488318454
 Au        10.8557112178       17.5867616206       15.0490686883
 Au        16.7255558783       13.2564913594       18.3926989300
 Au        15.5017675585       16.5325054431        9.3652744303
 Au        18.7869583331       12.7481802617       16.5441288777
 Au        16.5154919612       15.9095798514       19.3455120730
 Au        17.7175187586       15.0160368511       10.1725008848
 Au        14.6396306296       15.6091235444       21.3429900567
 Au        13.8417252482       17.1310868801       18.9617244107
 Au        13.1972013908       16.3464296255       10.9331781998
 Au        17.6405462507       13.5977455326       12.5384991231
 Au        17.7639960398       17.8648593374       10.3749294511
 Au        17.8932886772       18.8009639870       12.9641749307
 Au        17.9164640752       19.1299732359       15.7606132364
  C        12.9339768196       18.6056133431       20.0126293333
  O        12.2012595042       19.4151357621       20.3646544820
      40
 i =       11, E =     -1284.5250679224
 Au        14.3076698518       15.3371383552       16.5695608076
 Au        17.4893144127       11.5155301718       14.3582079836
 Au        14.4258524179       12.0363982917       17.3122602401
 Au        18.0937820684       15.4638168129       17.1625374780
 Au        12.0753725509       13.5011471540       17.2860925380
 Au        11.3389668314       14.7417616434       14.9195042976
 Au        13.0545025114       17.9972921671       13.3951285638
 Au        15.4202985705       18.8835129941       14.5444642339
 Au        14.7720233083       15.7225043628       13.8177973003
 Au        14.0657623290       14.1013802877       19.1564250534
 Au        15.0989299164       12.3444428165       13.0413280480
 Au        12.7860163928       14.0294541676       12.5969221705
 Au        15.2031065565       14.3494662098       11.1762277935
 Au        16.2768165164       13.9272368455       15.2784295261
 Au        12.9292314040       12.4077443895       14.8422140170
 Au        14.9180744355       10.4493473184       15.0982068531
 Au        17.2988125354       16.5666511705       14.6640345476
 Au        19.3471643781       14.6090296442       14.6364779511
 Au        16.0363510265       17.5247220245       17.0775191613
 Au        18.9096546565       16.1809845333       12.4064182625
 Au        13.3748318770       18.1266318024       16.2536887646
 Au        16.9142515844       10.7236866082       17.0721146396
 Au        10.9917847311       16.2642887776       12.5750510426
 Au        15.3951342823       17.8910658369       11.8872092497
 Au        11.5900027454       16.2251264874       17.3510277365
 Au        10.8590932268       17.5816267668       15.0502881343
 Au        16.7199185020       13.2612869216       18.3873232350
 Au        15.5016286874       16.5358576053        9.3679277066
 Au        18.7876263975       12.7506985801       16.5453071246
 Au        16.5150068731       15.9112572992       19.3419400105
 Au        17.7157371287       15.0184398557       10.1727747556
 Au        14.6407001546       15.5998508227       21.3383541068
 Au        13.8435489847       17.1362510485       18.9637213652
 Au        13.1992633210       16.3477278599       10.9358458420
 Au        17.6374624297       13.6030116026       12.5429959973
 Au        17.7635681200       17.8696550375       10.3717140297
 Au        17.8913132714       18.7981134822       12.9636214800
 Au        17.9244604191       19.1201503317       15.7606665578
  C        12.9420488809       18.6168899814       20.0129727296
  O        12.1965368566       19.4154439671       20.3650611627
      40
 i =       12, E =     -1284.5251150581
 Au        14.3046660820       15.3420773571       16.5687369149
 Au        17.4914168870       11.5181343889       14.3591745172
 Au        14.4237718751       12.0355388895       17.3122854880
 Au        18.0944715929       15.4679009889       17.1588269683
 Au        12.0713931062       13.4952649952       17.2822103389
 Au        11.3418256813       14.7384024234       14.9176893274
 Au        13.0583173164       17.9992618837       13.3990964679
 Au        15.4242580597       18.8873635594       14.5483331081
 Au        14.7693857710       15.7137838678       13.8145392387
 Au        14.0576816525       14.1010615562       19.1532255280
 Au        15.1002322810       12.3384910517       13.0373297627
 Au        12.7842007745       14.0225023998       12.5913019153
 Au        15.2032972213       14.3483521862       11.1766259203
 Au        16.2712981821       13.9225941508       15.2872255144
 Au        12.9303761125       12.4046253051       14.8395081934
 Au        14.9225616633       10.4498420656       15.0999212027
 Au        17.2909154773       16.5609053534       14.6595869702
 Au        19.3482228223       14.6108213112       14.6361465349
 Au        16.0361512801       17.5286362672       17.0772135643
 Au        18.9095577200       16.1823519840       12.4046788531
 Au        13.3744631013       18.1298178714       16.2535565926
 Au        16.9170844458       10.7226007903       17.0753042715
 Au        10.9958588884       16.2634873172       12.5777993120
 Au        15.3957148223       17.8937830053       11.8882948910
 Au        11.5940933453       16.2220093207       17.3550912072
 Au        10.8607434460       17.5757597763       15.0539714813
 Au        16.7141516440       13.2659777303       18.3802766184
 Au        15.5005430443       16.5385099128        9.3699502738
 Au        18.7885053217       12.7525195410       16.5464171014
 Au        16.5143966005       15.9127541163       19.3378748982
 Au        17.7135136302       15.0212034388       10.1735746234
 Au        14.6429703964       15.5933088792       21.3353876581
 Au        13.8441713187       17.1402714347       18.9638597007
 Au        13.2005825759       16.3487864567       10.9389962468
 Au        17.6350922475       13.6072083771       12.5469327818
 Au        17.7646062249       17.8742941536       10.3679985731
 Au        17.8895705110       18.7956215278       12.9639690179
 Au        17.9337663300       19.1090521391       15.7617597572
  C        12.9514944059       18.6282401913       20.0125938161
  O        12.1909817579       19.4134536284       20.3655989151
      40
 i =       13, E =     -1284.5251481826
 Au        14.3037901456       15.3454212659       16.5687758457
 Au        17.4923590533       11.5214321619       14.3602348219
 Au        14.4229652596       12.0348911867       17.3109304973
 Au        18.0961158849       15.4707331785       17.1567303004
 Au        12.0702158731       13.4942493074       17.2773086571
 Au        11.3427310404       14.7365586821       14.9145559381
 Au        13.0600435404       17.9998530917       13.4022544261
 Au        15.4267274952       18.8874609459       14.5525059148
 Au        14.7678295118       15.7082470914       13.8116572041
 Au        14.0531525629       14.1017813371       19.1525280648
 Au        15.1004076201       12.3358940354       13.0350695650
 Au        12.7835529258       14.0166642853       12.5869837714
 Au        15.2034302594       14.3475468690       11.1759038640
 Au        16.2670572327       13.9190319090       15.2933932597
 Au        12.9320024087       12.4023052970       14.8378447854
 Au        14.9266178909       10.4494322181       15.0996012300
 Au        17.2855691952       16.5561483040       14.6568809510
 Au        19.3485691644       14.6126321379       14.6362956534
 Au        16.0354249317       17.5308637705       17.0758421238
 Au        18.9087983189       16.1839232213       12.4042309707
 Au        13.3723490521       18.1315812933       16.2536183578
 Au        16.9178141248       10.7214123465       17.0772921334
 Au        10.9983198786       16.2625613175       12.5799337675
 Au        15.3971636887       17.8942807381       11.8895920957
 Au        11.5957842704       16.2197053572       17.3593242144
 Au        10.8604486237       17.5712910541       15.0579798452
 Au        16.7104133724       13.2690413883       18.3740823737
 Au        15.4992343493       16.5402230182        9.3706961745
 Au        18.7894967808       12.7533166338       16.5469101325
 Au        16.5135883601       15.9139663657       19.3350259959
 Au        17.7116590640       15.0235361506       10.1748519192
 Au        14.6454583866       15.5916056536       21.3336362715
 Au        13.8439182486       17.1419218114       18.9628961032
 Au        13.2012933545       16.3493618163       10.9413887281
 Au        17.6339925280       13.6093037817       12.5485873188
 Au        17.7659567088       17.8770934504       10.3659569389
 Au        17.8889942745       18.7944921541       12.9648559747
 Au        17.9421146996       19.0996640663       15.7626828089
  C        12.9582309885       18.6352651860       20.0116261333
  O        12.1884124105       19.4110649675       20.3660586274
      40
 i =       14, E =     -1284.5251788202
 Au        14.3032115900       15.3483284808       16.5687108226
 Au        17.4931218053       11.5254184051       14.3613753867
 Au        14.4213866511       12.0339590499       17.3093457561
 Au        18.0985560868       15.4738151008       17.1559995678
 Au        12.0711035933       13.4943689101       17.2715167461
 Au        11.3427701006       14.7346723090       14.9107923747
 Au        13.0609339292       17.9992832598       13.4054803758
 Au        15.4289389169       18.8855043525       14.5569972052
 Au        14.7654091044       15.7030708082       13.8089599724
 Au        14.0499771498       14.1027440544       19.1512068238
 Au        15.1007865829       12.3351625030       13.0332793153
 Au        12.7828148240       14.0107607073       12.5827336178
 Au        15.2029018138       14.3461723622       11.1734298671
 Au        16.2618708677       13.9158407783       15.2985039458
 Au        12.9339929310       12.3997328700       14.8364858618
 Au        14.9310229943       10.4473529756       15.0974023185
 Au        17.2796193515       16.5509199617       14.6543857954
 Au        19.3483470679       14.6151050073       14.6368536003
 Au        16.0349179111       17.5322311789       17.0738717590
 Au        18.9084263834       16.1860913880       12.4048133435
 Au        13.3693286918       18.1333927724       16.2547633804
 Au        16.9179026199       10.7208613147       17.0787117874
 Au        11.0001594951       16.2616687448       12.5816167885
 Au        15.3989996436       17.8931715298       11.8920616775
 Au        11.5969153602       16.2175614208       17.3634572956
 Au        10.8594479746       17.5672716174       15.0627095237
 Au        16.7070730353       13.2726906615       18.3676128978
 Au        15.4980388260       16.5420464142        9.3706446024
 Au        18.7908968631       12.7541513940       16.5472135115
 Au        16.5133838883       15.9155485774       19.3319616622
 Au        17.7099494847       15.0261768369       10.1766510640
 Au        14.6476489721       15.5931158723       21.3327742762
 Au        13.8440797457       17.1425846487       18.9621083009
 Au        13.2022316081       16.3496286760       10.9439342729
 Au        17.6334539578       13.6105671781       12.5489378432
 Au        17.7669555153       17.8789687561       10.3653225333
 Au        17.8896232719       18.7946268503       12.9662244813
 Au        17.9519797632       19.0884142087       15.7629155672
  C        12.9637630470       18.6401141159       20.0103933309
  O        12.1886085546       19.4092039757       20.3664884392
      40
 i =       15, E =     -1284.5252048681
 Au        14.3020153802       15.3515890158       16.5685247984
 Au        17.4940916975       11.5289099609       14.3623876472
 Au        14.4203480008       12.0314646303       17.3074641869
 Au        18.1023202906       15.4764942824       17.1556593960
 Au        12.0725340645       13.4947938626       17.2667904014
 Au        11.3426520332       14.7326738048       14.9078742736
 Au        13.0612193515       17.9974996222       13.4088020220
 Au        15.4307236110       18.8824821947       14.5609846912
 Au        14.7615749892       15.6980119257       13.8068434708
 Au        14.0486588815       14.1042936855       19.1502260244
 Au        15.1019870314       12.3353791791       13.0318170799
 Au        12.7814586664       14.0059854494       12.5791576471
 Au        15.2017603364       14.3444552495       11.1696746850
 Au        16.2567461695       13.9125955416       15.3023499148
 Au        12.9358893104       12.3967130204       14.8343733647
 Au        14.9347245564       10.4447533206       15.0946958854
 Au        17.2738114484       16.5454156730       14.6520879501
 Au        19.3477415002       14.6172255456       14.6376130571
 Au        16.0349736432       17.5334788105       17.0723857589
 Au        18.9088949429       16.1882261628       12.4061638342
 Au        13.3667278115       18.1349140380       16.2567898346
 Au        16.9177565306       10.7217288171       17.0793452638
 Au        11.0010202862       16.2610740485       12.5824240900
 Au        15.4004585779       17.8912777012       11.8954070576
 Au        11.5964164596       16.2158491113       17.3663982271
 Au        10.8581560414       17.5640240839       15.0659390025
 Au        16.7045095390       13.2763869264       18.3617153224
 Au        15.4974332799       16.5444356419        9.3702781669
 Au        18.7925603242       12.7550372054       16.5474650466
 Au        16.5136614878       15.9175295537       19.3299572034
 Au        17.7087208981       15.0288766527       10.1783684407
 Au        14.6491796368       15.5964307571       21.3308257924
 Au        13.8448443741       17.1424746520       18.9621412148
 Au        13.2036617625       16.3498219613       10.9461649195
 Au        17.6333854493       13.6115118043       12.5482114990
 Au        17.7667775807       17.8803378368       10.3664251941
 Au        17.8908212460       18.7954869784       12.9675089022
 Au        17.9622734533       19.0764084602       15.7623568598
  C        12.9681278368       18.6430763619       20.0091471271
  O        12.1908676448       19.4085015495       20.3667258015
      40
 i =       16, E =     -1284.5252346337
 Au        14.2996163020       15.3564669527       16.5679100589
 Au        17.4961948911       11.5324877043       14.3631535045
 Au        14.4188194529       12.0278165194       17.3056510117
 Au        18.1078210915       15.4799954145       17.1555938709
 Au        12.0753626194       13.4943051810       17.2624469565
 Au        11.3429356023       14.7295624883       14.9055090171
 Au        13.0614712264       17.9944951027       13.4134692180
 Au        15.4334305797       18.8783715145       14.5658269203
 Au        14.7555303905       15.6902118381       13.8049042754
 Au        14.0480644037       14.1053325193       19.1475657498
 Au        15.1047538902       12.3356240562       13.0294831943
 Au        12.7787072313       14.0008965014       12.5746200437
 Au        15.1998137333       14.3417268685       11.1639550170
 Au        16.2496871364       13.9087348199       15.3070397802
 Au        12.9375722438       12.3924072136       14.8307406878
 Au        14.9386599837       10.4414138373       15.0910484338
 Au        17.2654694862       16.5375465560       14.6490037562
 Au        19.3471511180       14.6190160996       14.6384716305
 Au        16.0361050044       17.5353407528       17.0718165431
 Au        18.9106097597       16.1906347390       12.4080001134
 Au        13.3640375631       18.1366476779       16.2600365879
 Au        16.9183626414       10.7237729868       17.0794994014
 Au        11.0013417697       16.2605298041       12.5824233066
 Au        15.4015403652       17.8885710139       11.9005021823
 Au        11.5938878362       16.2141795478       17.3688567693
 Au        10.8564431851       17.5602293301       15.0679760839
 Au        16.7014788381       13.2819301797       18.3543884017
 Au        15.4973281216       16.5483629393        9.3699296136
 Au        18.7952099444       12.7561597688       16.5481312436
 Au        16.5161122482       15.9204835325       19.3271135818
 Au        17.7075070670       15.0326591721       10.1802345544
 Au        14.6502893605       15.6016092054       21.3280194178
 Au        13.8460336389       17.1421273560       18.9626185310
 Au        13.2057316929       16.3502156068       10.9488856809
 Au        17.6335898902       13.6129426177       12.5468284334
 Au        17.7653520490       17.8824524297       10.3690374578
 Au        17.8922204202       18.7967013239       12.9692269465
 Au        17.9759858739       19.0595129113       15.7611516300
  C        12.9734687816       18.6463826205       20.0074862736
  O        12.1944440638       19.4085994943       20.3668738102
      40
 i =       17, E =     -1284.5252614025
 Au        14.2961271603       15.3622626467       16.5672896250
 Au        17.4991089195       11.5353315126       14.3632286771
 Au        14.4181134906       12.0232302009       17.3041314340
 Au        18.1141744685       15.4833788224       17.1547136955
 Au        12.0786235680       13.4932093806       17.2598338098
 Au        11.3436773284       14.7262360498       14.9044443398
 Au        13.0620754511       17.9913581114       13.4184025633
 Au        15.4364428480       18.8743883903       14.5705426540
 Au        14.7485932800       15.6813021697       13.8029946104
 Au        14.0493532038       14.1062128206       19.1453792033
 Au        15.1082918760       12.3354691378       13.0267489712
 Au        12.7751661514       13.9969175540       12.5701224528
 Au        15.1976417588       14.3386098294       11.1577767441
 Au        16.2433482571       13.9046196580       15.3117373037
 Au        12.9381865522       12.3880969381       14.8262393215
 Au        14.9415302057       10.4393925942       15.0878297825
 Au        17.2569458574       16.5289599409       14.6455403988
 Au        19.3468897738       14.6195923392       14.6390327481
 Au        16.0378628109       17.5376194230       17.0729342392
 Au        18.9132401786       16.1924636585       12.4097634241
 Au        13.3622177493       18.1379515711       16.2633167075
 Au        16.9197511802       10.7262845214       17.0786512500
 Au        11.0007701216       16.2599169160       12.5816432888
 Au        15.4016707096       17.8855771020       11.9060111523
 Au        11.5896110470       16.2129545094       17.3698185111
 Au        10.8547023008       17.5568675392       15.0676039986
 Au        16.6990151994       13.2875677653       18.3472181892
 Au        15.4976061043       16.5527178890        9.3700206088
 Au        18.7981512020       12.7572068291       16.5492599522
 Au        16.5201514429       15.9236553569       19.3259099256
 Au        17.7065388848       15.0366827141       10.1816101489
 Au        14.6507875149       15.6067937101       21.3235638956
 Au        13.8467284348       17.1414651084       18.9629851359
 Au        13.2076266685       16.3507257654       10.9512027684
 Au        17.6342179416       13.6145869421       12.5453628824
 Au        17.7631446307       17.8853872142       10.3723205016
 Au        17.8929866017       18.7973285832       12.9711130457
 Au        17.9895000064       19.0417370928       15.7602317008
  C        12.9780012544       18.6492192990       20.0056730081
  O        12.1977020519       19.4093167914       20.3668599859
      40
 i =       18, E =     -1284.5252824508
 Au        14.2931441479       15.3671900278       16.5665577162
 Au        17.5022751911       11.5372044817       14.3624289987
 Au        14.4180439510       12.0194586521       17.3037655622
 Au        18.1190974065       15.4864973141       17.1535751736
 Au        12.0821068169       13.4918836719       17.2592000005
 Au        11.3446354611       14.7236271596       14.9042866317
 Au        13.0629210527       17.9891206834       13.4224089630
 Au        15.4394317783       18.8717055132       14.5747739740
 Au        14.7429189279       15.6726453857       13.8014188474
 Au        14.0519158175       14.1058908146       19.1430106098
 Au        15.1112399301       12.3350107050       13.0240715736
 Au        12.7717806259       13.9940941961       12.5661216455
 Au        15.1958800995       14.3356463906       11.1526177184
 Au        16.2383753049       13.9014826152       15.3162404441
 Au        12.9376374789       12.3850678589       14.8223324122
 Au        14.9430307348       10.4394176215       15.0854661981
 Au        17.2493021128       16.5211281302       14.6421937846
 Au        19.3472579715       14.6189441671       14.6389849829
 Au        16.0397711190       17.5392533925       17.0756401385
 Au        18.9160921706       16.1934695500       12.4106377514
 Au        13.3614184233       18.1387833260       16.2655304089
 Au        16.9218261508       10.7280697695       17.0768390253
 Au        10.9998309344       16.2590110522       12.5805601060
 Au        15.4012347292       17.8829027601       11.9104808376
 Au        11.5851405391       16.2119999475       17.3691897903
 Au        10.8535137972       17.5546769328       15.0654238065
 Au        16.6975953539       13.2924503464       18.3413261962
 Au        15.4978726571       16.5562432964        9.3706893689
 Au        18.8009878815       12.7580488055       16.5506242724
 Au        16.5260473316       15.9262927717       19.3256678861
 Au        17.7057631070       15.0402937699       10.1825615079
 Au        14.6505130800       15.6107648686       21.3198948195
 Au        13.8462334527       17.1408338922       18.9624998624
 Au        13.2083942213       16.3511150293       10.9526158558
 Au        17.6349734812       13.6162109496       12.5441531584
 Au        17.7610266752       17.8887353999       10.3751242358
 Au        17.8927949427       18.7967989802       12.9731656294
 Au        18.0001389205       19.0262131705       15.7603134210
  C        12.9802434873       18.6510547359       20.0040645915
  O        12.1994243419       19.4103698491       20.3667199017
      40
 i =       19, E =     -1284.5252995186
 Au        14.2910946758       15.3707412722       16.5661385859
 Au        17.5049641980       11.5388535831       14.3610236720
 Au        14.4187853239       12.0165288897       17.3042498129
 Au        18.1225758799       15.4891079083       17.1517987488
 Au        12.0852415041       13.4910281169       17.2594307376
 Au        11.3455435143       14.7220502990       14.9043520600
 Au        13.0642219400       17.9878449963       13.4247527025
 Au        15.4420148969       18.8703082605       14.5784804949
 Au        14.7388086891       15.6654188296       13.7995743030
 Au        14.0557049266       14.1054275980       19.1418324038
 Au        15.1129422126       12.3346595337       13.0219971223
 Au        12.7690594122       13.9919323265       12.5627123568
 Au        15.1945795169       14.3333023088       11.1488059583
 Au        16.2354628455       13.8985894370       15.3203199221
 Au        12.9363838465       12.3838281832       14.8199476150
 Au        14.9435405389       10.4412841327       15.0838256248
 Au        17.2434722925       16.5147044558       14.6391186519
 Au        19.3479075752       14.6178163188       14.6382661509
 Au        16.0410580184       17.5399747334       17.0789582999
 Au        18.9186848378       16.1938840964       12.4108818328
 Au        13.3612496068       18.1391030281       16.2664109293
 Au        16.9240963156       10.7288162802       17.0742179831
 Au        10.9989205801       16.2576746699       12.5795849237
 Au        15.4005520176       17.8805703643       11.9136338913
 Au        11.5816266539       16.2112446507       17.3672337463
 Au        10.8529457589       17.5539686842       15.0626712427
 Au        16.6976282127       13.2958294332       18.3369232133
 Au        15.4976779505       16.5583553597        9.3717792296
 Au        18.8034823719       12.7587614510       16.5517667431
 Au        16.5319439530       15.9280827829       19.3276144841
 Au        17.7050656787       15.0433091552       10.1831850597
 Au        14.6500445849       15.6132058366       21.3165294954
 Au        13.8445509129       17.1400173893       18.9612119123
 Au        13.2080619782       16.3511235806       10.9529991962
 Au        17.6355924924       13.6174180036       12.5432563299
 Au        17.7595324249       17.8920036431       10.3769113868
 Au        17.8919256677       18.7950997805       12.9755897260
 Au        18.0073634351       19.0137878719       15.7616206617
  C        12.9796026104       18.6512525688       20.0027469831
  O        12.1997272221       19.4114531247       20.3664350424
      40
 i =       20, E =     -1284.5253152768
 Au        14.2905128905       15.3729550009       16.5658207368
 Au        17.5072116957       11.5407258898       14.3592183752
 Au        14.4202365834       12.0143843887       17.3054950785
 Au        18.1246059080       15.4916553024       17.1501384587
 Au        12.0883967419       13.4910238615       17.2599909525
 Au        11.3462661039       14.7214701387       14.9038492833
 Au        13.0657976484       17.9870134622       13.4256897369
 Au        15.4442338596       18.8696664298       14.5822211004
 Au        14.7361236541       15.6587769220       13.7976952538
 Au        14.0601211032       14.1045488760       19.1409533646
 Au        15.1132651152       12.3348475192       13.0203782447
 Au        12.7667912613       13.9893130532       12.5593339767
 Au        15.1935737905       14.3314084298       11.1458691666
 Au        16.2333221016       13.8958377097       15.3245695163
 Au        12.9352018712       12.3839526306       14.8189706620
 Au        14.9437030850       10.4442464022       15.0824023574
 Au        17.2383506399       16.5087075607       14.6362041701
 Au        19.3487479872       14.6166756072       14.6369387725
 Au        16.0415287630       17.5394544268       17.0826163521
 Au        18.9210412539       16.1941682025       12.4104645189
 Au        13.3612364253       18.1391426091       16.2660204596
 Au        16.9264906246       10.7286234021       17.0709350898
 Au        10.9984029200       16.2558593500       12.5789708703
 Au        15.4002635872       17.8784634861       11.9157931616
 Au        11.5791461205       16.2104117397       17.3644757886
 Au        10.8528932647       17.5546047735       15.0598152483
 Au        16.6990800560       13.2982877955       18.3333590613
 Au        15.4968827733       16.5594748846        9.3730579964
 Au        18.8061886311       12.7594883453       16.5523392879
 Au        16.5381937061       15.9291606009       19.3301798191
 Au        17.7042880660       15.0461668469       10.1838648170
 Au        14.6496412530       15.6148905816       21.3144042819
 Au        13.8417894372       17.1389121562       18.9591805434
 Au        13.2067939194       16.3506687980       10.9525369011
 Au        17.6357700152       13.6184422070       12.5421194594
 Au        17.7585454107       17.8951536489       10.3779650169
 Au        17.8907146435       18.7923218009       12.9784808765
 Au        18.0127973106       19.0027589796       15.7642827622
  C        12.9763369590       18.6497576145       20.0015841103
  O        12.1989763866       19.4124298306       20.3659847134
      40
 i =       21, E =     -1284.5253278093
 Au        14.2908444018       15.3739285384       16.5658557781
 Au        17.5085012644       11.5429667458       14.3575589298
 Au        14.4218643332       12.0131517918       17.3069306926
 Au        18.1257535954       15.4937406488       17.1487235016
 Au        12.0909878572       13.4916892340       17.2598496446
 Au        11.3468311563       14.7214542274       14.9027517700
 Au        13.0675948117       17.9861949767       13.4252433857
 Au        15.4460364942       18.8694182282       14.5853957324
 Au        14.7343366331       15.6533980678       13.7957949811
 Au        14.0638800544       14.1039950789       19.1408034116
 Au        15.1125854981       12.3354969720       13.0194041203
 Au        12.7650649743       13.9860754526       12.5561749822
 Au        15.1927311482       14.3303832772       11.1437431718
 Au        16.2318666043       13.8927711617       15.3284960863
 Au        12.9348169105       12.3849572151       14.8195167814
 Au        14.9441745459       10.4467705316       15.0811604479
 Au        17.2344412880       16.5038279451       14.6338997776
 Au        19.3493563936       14.6164119347       14.6352621830
 Au        16.0409785664       17.5383843950       17.0851737997
 Au        18.9228309996       16.1946053742       12.4098680847
 Au        13.3609514386       18.1390317911       16.2648507591
 Au        16.9286823135       10.7279376283       17.0680150682
 Au        10.9986447791       16.2540587688       12.5788200705
 Au        15.4004738121       17.8768500759       11.9170827337
 Au        11.5782734092       16.2097549674       17.3618046425
 Au        10.8532372346       17.5561742725       15.0579750709
 Au        16.7014935352       13.2995551716       18.3307886151
 Au        15.4956324193       16.5599733369        9.3739912227
 Au        18.8088535393       12.7601922042       16.5519371360
 Au        16.5424509358       15.9293909773       19.3328581754
 Au        17.7034233578       15.0487026686       10.1843528896
 Au        14.6499821698       15.6157846302       21.3132133206
 Au        13.8388872038       17.1375714289       18.9573969409
 Au        13.2054578609       16.3498259870       10.9517121221
 Au        17.6352459092       13.6191912531       12.5408982900
 Au        17.7581050383       17.8976109271       10.3781445606
 Au        17.8897897159       18.7893196347       12.9815823240
 Au        18.0166695548       18.9934084470       15.7675166265
  C        12.9717382579       18.6470492620       20.0006983324
  O        12.1976663625       19.4128729847       20.3654761931
      40
 i =       22, E =     -1284.5253368067
 Au        14.2914684745       15.3742488575       16.5659114772
 Au        17.5090736967       11.5450696011       14.3563726326
 Au        14.4234452852       12.0123774364       17.3079984539
 Au        18.1264155574       15.4952915993       17.1481162566
 Au        12.0927370978       13.4925212739       17.2592262432
 Au        11.3472763108       14.7216003542       14.9012393278
 Au        13.0692733736       17.9851037396       13.4244131540
 Au        15.4473232744       18.8691501287       14.5875785954
 Au        14.7329231594       15.6488295480       13.7945147405
 Au        14.0660046719       14.1036903368       19.1407941250
 Au        15.1116430985       12.3362859067       13.0187373944
 Au        12.7635421400       13.9823635167       12.5533690446
 Au        15.1919664939       14.3298914387       11.1420491608
 Au        16.2301919727       13.8899682745       15.3318500206
 Au        12.9357119919       12.3856872766       14.8204781449
 Au        14.9452593603       10.4478767823       15.0802941356
 Au        17.2310143105       16.4996292727       14.6322507293
 Au        19.3496568662       14.6171236953       14.6337516125
 Au        16.0396285290       17.5372495198       17.0864902630
 Au        18.9239972600       16.1953730205       12.4091531401
 Au        13.3605553417       18.1391452611       16.2635578103
 Au        16.9305313246       10.7274732985       17.0661678105
 Au        10.9995161585       16.2527451810       12.5791019310
 Au        15.4013244245       17.8758041446       11.9178362131
 Au        11.5785287986       16.2092881326       17.3599572704
 Au        10.8537729498       17.5578376905       15.0570761631
 Au        16.7040026144       13.3001300648       18.3289812796
 Au        15.4943929442       16.5606847457        9.3741592493
 Au        18.8114036344       12.7609263077       16.5506136290
 Au        16.5444161180       15.9290597830       19.3338176244
 Au        17.7025638744       15.0509150822       10.1846465575
 Au        14.6510414405       15.6161702643       21.3132441039
 Au        13.8367514588       17.1362706713       18.9565544867
 Au        13.2047281965       16.3488947627       10.9510257742
 Au        17.6341473178       13.6200668077       12.5395236466
 Au        17.7578846473       17.8993580544       10.3780974891
 Au        17.8895477226       18.7869166319       12.9840791617
 Au        18.0202604891       18.9852762107       15.7705484574
  C        12.9674802881       18.6440957130       20.0001223104
  O        12.1964366697       19.4127115324       20.3650609452
      40
 i =       23, E =     -1284.5253439838
 Au        14.2915665079       15.3744590596       16.5661865241
 Au        17.5092904242       11.5468964476       14.3553563424
 Au        14.4248999436       12.0121154194       17.3085915833
 Au        18.1274430475       15.4961877766       17.1478412119
 Au        12.0941817256       13.4932678481       17.2583330825
 Au        11.3479582434       14.7214376459       14.8999915575
 Au        13.0709047666       17.9834896969       13.4235946949
 Au        15.4487224569       18.8684963923       14.5888811653
 Au        14.7311166135       15.6444765268       13.7936198797
 Au        14.0670973454       14.1034780636       19.1410828286
 Au        15.1111466469       12.3367706873       13.0180806971
 Au        12.7619176031       13.9787102702       12.5508155694
 Au        15.1911439861       14.3298057069       11.1403602161
 Au        16.2283772034       13.8870715679       15.3348318083
 Au        12.9373543137       12.3859634605       14.8213735712
 Au        14.9468962637       10.4476571625       15.0797653878
 Au        17.2279095345       16.4958807724       14.6311388732
 Au        19.3498282891       14.6184293965       14.6322639844
 Au        16.0380619213       17.5367795020       17.0867620069
 Au        18.9247160191       16.1962826511       12.4085471276
 Au        13.3600252448       18.1393118735       16.2625230077
 Au        16.9324876868       10.7274612963       17.0652823917
 Au        11.0005997752       16.2519142356       12.5792236347
 Au        15.4022968291       17.8750347627       11.9184078040
 Au        11.5786682090       16.2092723700       17.3586218381
 Au        10.8541940519       17.5592768585       15.0564686537
 Au        16.7065238298       13.3001360696       18.3277492320
 Au        15.4934503644       16.5620713887        9.3736029797
 Au        18.8138769541       12.7614781187       16.5486480629
 Au        16.5443758326       15.9283184585       19.3334540039
 Au        17.7016230023       15.0530373367       10.1844115182
 Au        14.6528810023       15.6162017723       21.3137462064
 Au        13.8352881212       17.1348558600       18.9566495286
 Au        13.2047832740       16.3480502557       10.9506438128
 Au        17.6328212199       13.6210929655       12.5381624791
 Au        17.7576611604       17.9008417251       10.3780425101
 Au        17.8898403561       18.7852249852       12.9863634410
 Au        18.0239099263       18.9771651539       15.7729514815
  C        12.9639478881       18.6411662034       19.9997543788
  O        12.1954513370       19.4120622003       20.3647898118
      40
 i =       24, E =     -1284.5253503411
 Au        14.2900843046       15.3753826972       16.5659553624
 Au        17.5098707530       11.5485944087       14.3546033250
 Au        14.4257731003       12.0110948946       17.3088020515
 Au        18.1286758117       15.4974809669       17.1474554395
 Au        12.0946192308       13.4923304991       17.2572082750
 Au        11.3490319554       14.7203464260       14.8989188530
 Au        13.0728586856       17.9819481814       13.4239227469
 Au        15.4506597406       18.8681860497       14.5895996874
 Au        14.7279255619       15.6389396799       13.7926743731
 Au        14.0664688400       14.1034515650       19.1407413772
 Au        15.1116109918       12.3361648133       13.0167359565
 Au        12.7596650008       13.9744096782       12.5479120015
 Au        15.1900609221       14.3290274842       11.1380784276
 Au        16.2252934922       13.8841390182       15.3381527704
 Au        12.9397308260       12.3847968018       14.8211552489
 Au        14.9495509998       10.4462811636       15.0797087145
 Au        17.2229153833       16.4913274901       14.6292395243
 Au        19.3499783172       14.6206803888       14.6312216395
 Au        16.0363772106       17.5370236074       17.0865014475
 Au        18.9253015170       16.1976829987       12.4078138857
 Au        13.3600589906       18.1408141985       16.2623526765
 Au        16.9348365163       10.7283039274       17.0654806655
 Au        11.0021214624       16.2515686608       12.5796739643
 Au        15.4036143708       17.8742343890       11.9193102545
 Au        11.5800014766       16.2088482719       17.3580412809
 Au        10.8550908664       17.5594983538       15.0564956114
 Au        16.7077707951       13.3007966571       18.3259704270
 Au        15.4929214761       16.5644407175        9.3725686525
 Au        18.8160525165       12.7626918808       16.5465300665
 Au        16.5429439635       15.9277569084       19.3314379313
 Au        17.7003958895       15.0553998430       10.1841416623
 Au        14.6549607361       15.6150265028       21.3143401564
 Au        13.8352114253       17.1340805805       18.9580397952
 Au        13.2058899379       16.3474068436       10.9511029084
 Au        17.6313781450       13.6230398032       12.5372998706
 Au        17.7574026912       17.9027426105       10.3780970867
 Au        17.8908181897       18.7843807488       12.9879140567
 Au        18.0296548863       18.9671373706       15.7745656709
  C        12.9630185251       18.6400647722       19.9997825339
  O        12.1947759921       19.4111777822       20.3648098084
      40
 i =       25, E =     -1284.5253563685
 Au        14.2892257353       15.3757391071       16.5664560188
 Au        17.5102088310       11.5491343533       14.3533575481
 Au        14.4275211617       12.0118017153       17.3082193722
 Au        18.1302233246       15.4969428813       17.1472379453
 Au        12.0960218932       13.4930272253       17.2572231062
 Au        11.3502175609       14.7197932638       14.8986616161
 Au        13.0740643532       17.9799148819       13.4239481091
 Au        15.4522002472       18.8665580416       14.5894139632
 Au        14.7257689926       15.6350454601       13.7927814446
 Au        14.0670469376       14.1025570899       19.1417679223
 Au        15.1124106615       12.3355547298       13.0156556816
 Au        12.7581308858       13.9723926853       12.5463332355
 Au        15.1894151388       14.3290111448       11.1365745358
 Au        16.2235554002       13.8821734643       15.3401886696
 Au        12.9414962021       12.3840604009       14.8208851915
 Au        14.9514466605       10.4450780359       15.0801123554
 Au        17.2204755714       16.4881580913       14.6287612642
 Au        19.3505553897       14.6217537896       14.6299117729
 Au        16.0352993918       17.5376991135       17.0860691982
 Au        18.9248376448       16.1983376279       12.4072247735
 Au        13.3597083928       18.1408498079       16.2620387173
 Au        16.9370303518       10.7289172725       17.0657366222
 Au        11.0025139705       16.2512260190       12.5788984397
 Au        15.4043885288       17.8735191489       11.9195760533
 Au        11.5779227114       16.2097584902       17.3573917803
 Au        10.8549373646       17.5598447145       15.0549939750
 Au        16.7102322011       13.2997806565       18.3261714940
 Au        15.4929745122       16.5670101462        9.3710527032
 Au        18.8178624258       12.7626749562       16.5441360988
 Au        16.5410660324       15.9265447737       19.3288309529
 Au        17.6993048294       15.0570966482       10.1829809243
 Au        14.6575494179       15.6141651472       21.3154652759
 Au        13.8345341182       17.1324140793       18.9589466737
 Au        13.2069887090       16.3471265978       10.9510842091
 Au        17.6306295244       13.6243191380       12.5361726092
 Au        17.7572449857       17.9044570308       10.3785509671
 Au        17.8915563122       18.7840531118       12.9892753240
 Au        18.0332714204       18.9596771099       15.7752603073
  C        12.9623542745       18.6380562601       20.0001454745
  O        12.1948135839       19.4100016030       20.3648301594
      40
 i =       26, E =     -1284.5253609393
 Au        14.2872618933       15.3752630489       16.5673444853
 Au        17.5109981725       11.5495602135       14.3501593568
 Au        14.4314918002       12.0129715857       17.3077868126
 Au        18.1315416798       15.4957766400       17.1468703049
 Au        12.0998522221       13.4948348123       17.2588698173
 Au        11.3517416324       14.7194245625       14.8988539089
 Au        13.0759948276       17.9768906997       13.4229850993
 Au        15.4544895653       18.8636726978       14.5881524257
 Au        14.7222905320       15.6291648069       13.7929836053
 Au        14.0710262574       14.1004398686       19.1444982397
 Au        15.1134312747       12.3351814797       13.0141095558
 Au        12.7555232901       13.9700655773       12.5443003224
 Au        15.1881096318       14.3281883266       11.1335069987
 Au        16.2222204301       13.8798949554       15.3420692834
 Au        12.9436722400       12.3837382020       14.8209350314
 Au        14.9536456250       10.4444128751       15.0807360834
 Au        17.2163990017       16.4829133142       14.6275422286
 Au        19.3520265417       14.6232931895       14.6275080099
 Au        16.0328700798       17.5370516804       17.0866461851
 Au        18.9242042811       16.1991668478       12.4056753948
 Au        13.3600322479       18.1410852147       16.2611717574
 Au        16.9412356871       10.7296034182       17.0646220519
 Au        11.0023416953       16.2505580340       12.5771303195
 Au        15.4059061472       17.8705423251       11.9196240220
 Au        11.5749404594       16.2116994036       17.3543428562
 Au        10.8550814623       17.5618896265       15.0509731885
 Au        16.7163917637       13.2968952078       18.3282301455
 Au        15.4931857155       16.5705275321        9.3682592381
 Au        18.8206116198       12.7629203113       16.5395896893
 Au        16.5388352241       15.9237033527       19.3262265652
 Au        17.6976059014       15.0597182662       10.1807029159
 Au        14.6613289605       15.6124862514       21.3185126285
 Au        13.8329714605       17.1280015846       18.9597434918
 Au        13.2081106040       16.3461466486       10.9501526312
 Au        17.6302316627       13.6261067561       12.5335582673
 Au        17.7571772314       17.9074259891       10.3796128753
 Au        17.8930520310       18.7835410509       12.9913996248
 Au        18.0380344474       18.9477920735       15.7774426383
  C        12.9580351314       18.6299101287       20.0014785242
  O        12.1954975158       19.4075466995       20.3645520026
      40
 i =       27, E =     -1284.5253643317
 Au        14.2867850325       15.3755067270       16.5671393968
 Au        17.5115976199       11.5495215397       14.3499436247
 Au        14.4312510850       12.0125481456       17.3080013691
 Au        18.1309298985       15.4963602690       17.1460623740
 Au        12.0994106701       13.4937994753       17.2590397376
 Au        11.3519638426       14.7191983707       14.8989604101
 Au        13.0762208957       17.9776173102       13.4233022880
 Au        15.4547167095       18.8645660946       14.5886771220
 Au        14.7219932886       15.6288741705       13.7924953712
 Au        14.0711756752       14.1000267181       19.1439094704
 Au        15.1135078220       12.3345635628       13.0137328847
 Au        12.7557172272       13.9700081563       12.5442000655
 Au        15.1881039754       14.3275580564       11.1334802389
 Au        16.2219501698       13.8796915883       15.3426152079
 Au        12.9430227520       12.3836067979       14.8206735095
 Au        14.9535873249       10.4452055154       15.0807268493
 Au        17.2154142606       16.4825787472       14.6263987238
 Au        19.3523932686       14.6232610861       14.6274245731
 Au        16.0333879403       17.5368999639       17.0869524680
 Au        18.9243542998       16.1991769326       12.4054651977
 Au        13.3605371552       18.1416523036       16.2614072883
 Au        16.9414345154       10.7295517220       17.0642547670
 Au        11.0024754224       16.2501524824       12.5771972442
 Au        15.4057977690       17.8703853291       11.9198523743
 Au        11.5758659190       16.2110243334       17.3541255564
 Au        10.8557164226       17.5613449549       15.0510272420
 Au        16.7159092339       13.2973333317       18.3280748590
 Au        15.4932760244       16.5701792395        9.3688327342
 Au        18.8201041244       12.7634624553       16.5400568560
 Au        16.5398649733       15.9239300830       19.3270950197
 Au        17.6974562248       15.0596586546       10.1809850038
 Au        14.6607864911       15.6111564420       21.3180506323
 Au        13.8330953496       17.1284292566       18.9596168671
 Au        13.2079430120       16.3462730660       10.9502145546
 Au        17.6304329648       13.6263284438       12.5341685566
 Au        17.7573295438       17.9078689279       10.3792085113
 Au        17.8929314754       18.7834931297       12.9911097686
 Au        18.0385227763       18.9474982100       15.7770858180
  C        12.9577487489       18.6306050014       20.0016697956
  O        12.1954150383       19.4084636929       20.3648175925
      40
 i =       28, E =     -1284.5253643243
 Au        14.2867850325       15.3755067270       16.5671393968
 Au        17.5115976199       11.5495215397       14.3499436247
 Au        14.4312510850       12.0125481456       17.3080013691
 Au        18.1309298985       15.4963602690       17.1460623740
 Au        12.0994106701       13.4937994753       17.2590397376
 Au        11.3519638426       14.7191983707       14.8989604101
 Au        13.0762208957       17.9776173102       13.4233022880
 Au        15.4547167095       18.8645660946       14.5886771220
 Au        14.7219932886       15.6288741705       13.7924953712
 Au        14.0711756752       14.1000267181       19.1439094704
 Au        15.1135078220       12.3345635628       13.0137328847
 Au        12.7557172272       13.9700081563       12.5442000655
 Au        15.1881039754       14.3275580564       11.1334802389
 Au        16.2219501698       13.8796915883       15.3426152079
 Au        12.9430227520       12.3836067979       14.8206735095
 Au        14.9535873249       10.4452055154       15.0807268493
 Au        17.2154142606       16.4825787472       14.6263987238
 Au        19.3523932686       14.6232610861       14.6274245731
 Au        16.0333879403       17.5368999639       17.0869524680
 Au        18.9243542998       16.1991769326       12.4054651977
 Au        13.3605371552       18.1416523036       16.2614072883
 Au        16.9414345154       10.7295517220       17.0642547670
 Au        11.0024754224       16.2501524824       12.5771972442
 Au        15.4057977690       17.8703853291       11.9198523743
 Au        11.5758659190       16.2110243334       17.3541255564
 Au        10.8557164226       17.5613449549       15.0510272420
 Au        16.7159092339       13.2973333317       18.3280748590
 Au        15.4932760244       16.5701792395        9.3688327342
 Au        18.8201041244       12.7634624553       16.5400568560
 Au        16.5398649733       15.9239300830       19.3270950197
 Au        17.6974562248       15.0596586546       10.1809850038
 Au        14.6607864911       15.6111564420       21.3180506323
 Au        13.8330953496       17.1284292566       18.9596168671
 Au        13.2079430120       16.3462730660       10.9502145546
 Au        17.6304329648       13.6263284438       12.5341685566
 Au        17.7573295438       17.9078689279       10.3792085113
 Au        17.8929314754       18.7834931297       12.9911097686
 Au        18.0385227763       18.9474982100       15.7770858180
  C        12.9577487489       18.6306050014       20.0016697956
  O        12.1954150383       19.4084636929       20.3648175925
