      40
 i =        1, E =     -1284.5310456987
 Au        14.1156718449       15.4794972979       16.3529570752
 Au        17.5253239244       11.7086964424       14.4724685005
 Au        14.4465542318       12.0209032827       17.2660566500
 Au        18.2366800503       15.3470915063       17.1469332643
 Au        12.1208237056       13.5315502172       17.3062130207
 Au        11.3941413337       14.7812806720       14.9545882908
 Au        13.1007226323       17.9468151163       13.5046492021
 Au        15.4291847780       18.8918773702       14.6068332138
 Au        14.9451188437       15.6811365171       13.6930923195
 Au        14.1942842872       14.0984676973       19.0803066384
 Au        15.1061713609       12.4176631872       13.0588415752
 Au        12.7928559607       14.0635151084       12.6100323240
 Au        15.1583754631       14.3425504098       11.0786433726
 Au        16.1632054222       13.9629121956       15.4901215950
 Au        12.9140572996       12.4017226672       14.8342655054
 Au        14.9584522319       10.4620167668       15.0351638068
 Au        17.3809379158       16.5639980841       14.7787006796
 Au        18.9739349704       14.2281292951       14.5813480325
 Au        16.0351894839       17.5203108987       17.0668960578
 Au        18.7217355459       15.9953820982       12.4315815522
 Au        13.3251397610       18.2936326269       16.3665102276
 Au        16.9365403890       10.6750232905       17.0386430735
 Au        10.9997700742       16.2949087978       12.6237866900
 Au        15.3972253388       17.9518897708       11.9235830003
 Au        11.5381521531       16.2621831281       17.4365381288
 Au        10.8583232997       17.6070167862       15.1013281000
 Au        16.8062870828       13.2100526676       18.2615821832
 Au        15.4704108983       16.6242766387        9.3798241748
 Au        19.1490684010       12.5205212765       16.8163849947
 Au        16.5816532117       15.8545056178       19.2506523261
 Au        17.6648822591       15.0254654896       10.0509998869
 Au        14.6028071650       15.7888073107       21.2004581086
 Au        13.8774212738       17.0641208937       18.8459969639
 Au        13.1907913352       16.4020498830       10.9742626064
 Au        17.6281756367       13.3401536387       12.2275519090
 Au        17.7711947137       17.8549728690       10.4224395552
 Au        17.9339428541       18.7144492320       13.0215659277
 Au        17.9325360373       19.1583001057       15.8023630654
  C        20.9638536077       11.7175393207       17.0610167447
  O        21.9616108462       11.1626002092       16.9235478878
      40
 i =        2, E =     -1284.5310490617
 Au        14.1156718449       15.4794972979       16.3529570752
 Au        17.5253239244       11.7086964424       14.4724685005
 Au        14.4465542318       12.0209032827       17.2660566500
 Au        18.2366800503       15.3470915063       17.1469332643
 Au        12.1208237056       13.5315502172       17.3062130207
 Au        11.3941413337       14.7812806720       14.9545882908
 Au        13.1007226323       17.9468151163       13.5046492021
 Au        15.4291847780       18.8918773702       14.6068332138
 Au        14.9451188437       15.6811365171       13.6930923195
 Au        14.1942842872       14.0984676973       19.0803066384
 Au        15.1061713609       12.4176631872       13.0588415752
 Au        12.7928559607       14.0635151084       12.6100323240
 Au        15.1583754631       14.3425504098       11.0786433726
 Au        16.1632054222       13.9629121956       15.4901215950
 Au        12.9140572996       12.4017226672       14.8342655054
 Au        14.9584522319       10.4620167668       15.0351638068
 Au        17.3809379158       16.5639980841       14.7787006796
 Au        18.9739349704       14.2281292951       14.5813480325
 Au        16.0351894839       17.5203108987       17.0668960578
 Au        18.7217355459       15.9953820982       12.4315815522
 Au        13.3251397610       18.2936326269       16.3665102276
 Au        16.9365403890       10.6750232905       17.0386430735
 Au        10.9997700742       16.2949087978       12.6237866900
 Au        15.3972253388       17.9518897708       11.9235830003
 Au        11.5381521531       16.2621831281       17.4365381288
 Au        10.8583232997       17.6070167862       15.1013281000
 Au        16.8062870828       13.2100526676       18.2615821832
 Au        15.4704108983       16.6242766387        9.3798241748
 Au        19.1490684010       12.5205212765       16.8163849947
 Au        16.5816532117       15.8545056178       19.2506523261
 Au        17.6648822591       15.0254654896       10.0509998869
 Au        14.6028071650       15.7888073107       21.2004581086
 Au        13.8774212738       17.0641208937       18.8459969639
 Au        13.1907913352       16.4020498830       10.9742626064
 Au        17.6281756367       13.3401536387       12.2275519090
 Au        17.7711947137       17.8549728690       10.4224395552
 Au        17.9339428541       18.7144492320       13.0215659277
 Au        17.9325360373       19.1583001057       15.8023630654
  C        20.9638536077       11.7175393207       17.0610167447
  O        21.9616108462       11.1626002092       16.9235478878
