     168
 i =        1, E =     -8144.3296976471
 Fe         5.0938794100       11.8196869300        0.3885799900
 Fe         7.6575796300        7.3792284900        0.3885799900
 Fe        10.2212798400        2.9387700600        0.3885799900
 Fe        -0.0335205200       11.8196869300        0.3885799900
 Fe         2.5301797000        7.3792284900        0.3885799900
 Fe         5.0938799200        2.9387700600        0.3885799900
 Fe        -5.1609204400       11.8196869300        0.3885799900
 Fe        -2.5972202200        7.3792284900        0.3885799900
 Fe        -0.0335200000        2.9387700600        0.3885799900
  O         8.4519195100        8.9577468800        1.1642700400
  O        11.0156197300        4.5172884400        1.1642700400
  O        13.5793199500        0.0768300000        1.1642700400
  O         3.3245195900        8.9577468800        1.1642700400
  O         5.8882198100        4.5172884400        1.1642700400
  O         8.4519200300        0.0768300000        1.1642700400
  O        -1.8028803300        8.9577468800        1.1642700400
  O         0.7608198900        4.5172884400        1.1642700400
  O         3.3245201100        0.0768300000        1.1642700400
  O         8.4568493000       11.7183869300        1.1650400200
  O        11.0205495200        7.2779284900        1.1650400200
  O        13.5842497300        2.8374700500        1.1650400200
  O         3.3294493700       11.7183869300        1.1650400200
  O         5.8931495900        7.2779284900        1.1650400200
  O         8.4568498100        2.8374700500        1.1650400200
  O        -1.7979505500       11.7183869300        1.1650400200
  O         0.7657496700        7.2779284900        1.1650400200
  O         3.3294498900        2.8374700500        1.1650400200
  O         6.0627194200       10.3425368500        1.1660399400
  O         8.6264196400        5.9020784100        1.1660399400
  O        11.1901198600        1.4616199700        1.1660399400
  O         0.9353195000       10.3425368500        1.1660399400
  O         3.4990197200        5.9020784100        1.1660399400
  O         6.0627199400        1.4616199700        1.1660399400
  O        -4.1920804200       10.3425368500        1.1660399400
  O        -1.6283802000        5.9020784100        1.1660399400
  O         0.9353200200        1.4616199700        1.1660399400
 Fe         7.6576695000       13.2997167500        1.9292099500
 Fe        10.2213697200        8.8592583200        1.9292099500
 Fe        12.7850699400        4.4187998800        1.9292099500
 Fe         2.5302695800       13.2997167500        1.9292099500
 Fe         5.0939698000        8.8592583200        1.9292099500
 Fe         7.6576700200        4.4187998800        1.9292099500
 Fe        -2.5971303400       13.2997167500        1.9292099500
 Fe        -0.0334301200        8.8592583200        1.9292099500
 Fe         2.5302701000        4.4187998800        1.9292099500
 Fe         7.6573893600       10.3392168700        2.7128999200
 Fe        10.2210895800        5.8987584300        2.7128999200
 Fe        12.7847898000        1.4582999900        2.7128999200
 Fe         2.5299894400       10.3392168700        2.7128999200
 Fe         5.0936896600        5.8987584300        2.7128999200
 Fe         7.6573898800        1.4582999900        2.7128999200
 Fe        -2.5974104800       10.3392168700        2.7128999200
 Fe        -0.0337102600        5.8987584300        2.7128999200
 Fe         2.5299899600        1.4582999900        2.7128999200
  O         4.0765998190       13.3060075910        3.4833153450
  O         6.6541051064        8.9083418845        3.5513466177
  O         9.1593936099        4.3973357992        3.4410764426
  O        -1.0376367605       13.3020815146        3.5060394828
  O         1.5046590524        8.8503331843        3.4687850997
  O         4.0934672249        4.4072050234        3.5158961658
  O        -6.1709397588       13.3072453877        3.4940569499
  O        -3.6139010213        8.8741519795        3.4883426378
  O        -1.0457463689        4.4309892220        3.5111026505
  O         6.8124698501       11.9043561999        3.4717966660
  O         9.3887651569        7.4507986691        3.4643164170
  O        11.9414413298        2.9814436605        3.5037340507
  O         1.6887447865       11.9066643773        3.4551055433
  O         4.2595649597        7.4240651071        3.5215310982
  O         6.8181132333        3.0221297455        3.4475920893
  O        -3.4348196105       11.8708405981        3.5089010699
  O        -0.8691403624        7.4683021135        3.4590855112
  O         1.6678270664        2.9873918151        3.4865875580
  O         9.4418055344       10.2187255323        3.4556167268
  O        11.9802226354        5.7798293630        3.4861236457
  O        14.5697704031        1.3298216884        3.4762092825
  O         4.2895290950       10.2324562340        3.5235604758
  O         6.9134101034        5.7546237052        3.4151983973
  O         9.4338019723        1.3265202600        3.4637241018
  O        -0.8026198461       10.1998287245        3.4439101732
  O         1.7304719198        5.7804784883        3.4796165076
  O         4.3422323103        1.2968283643        3.4334443615
 Fe         5.0398182426       11.8579118205        4.4325155403
 Fe         7.6143973952        7.3935172808        4.4123611800
 Fe        10.1452804115        2.9467922205        4.4292246153
 Fe        -0.0844070982       11.8299239205        4.3974118906
 Fe         2.4819921451        7.3816900392        4.3863315733
 Fe         5.0277093849        2.9203762251        4.4326923884
 Fe        -5.2141228029       11.8318444351        4.4192136622
 Fe        -2.6736487740        7.3982701706        4.4042304516
 Fe        -0.0910623690        2.9506423165        4.4339575230
 Fe         7.6278565828       13.1947326941        4.8072736855
 Fe        10.1629022171        8.7602567535        4.7876566809
 Fe        12.7197206109        4.2952291540        4.7989984281
 Fe         2.4799830987       13.1964129650        4.8007900964
 Fe         5.0446375713        8.7609988075        4.8542638520
 Fe         7.5744858479        4.2936272830        4.7915494601
 Fe        -2.6475002598       13.1963774520        4.8342566954
 Fe        -0.0864380830        8.7574153507        4.7869900318
 Fe         2.4828189116        4.2800914169        4.8035089537
  O         5.8626655990       10.3728501306        5.8807747059
  O         8.3939294392        5.9085182564        5.8723054683
  O        10.9688068119        1.4574954541        5.9033988193
  O         0.7347401780       10.3336401985        5.8642284196
  O         3.3164321260        5.8843833144        5.8480353953
  O         5.8442986669        1.5130661749        5.8868907001
  O        -4.3993146387       10.3490089647        5.8749698372
  O        -1.8702715269        5.9286390464        5.8109554318
  O         0.7269792247        1.4822513590        5.8987100271
  O         5.9378976238       13.1955179796        5.6891979167
  O         8.5104399895        8.7290693146        5.7102476249
  O        11.0355209458        4.2962902497        5.6885683826
  O         0.7983803865       13.1832723095        5.6677851005
  O         3.3305859721        8.7284855897        5.6816773783
  O         5.8861242488        4.3181463075        5.6615828205
  O        -4.3254821135       13.1799409088        5.7003871126
  O        -1.7734607182        8.7377097901        5.6616818578
  O         0.8052539610        4.3058083936        5.7024268908
  O         3.4572346575       11.8073004382        5.6869541118
  O         6.0431329472        7.3441961598        5.6706566325
  O         8.5688909540        2.9039358471        5.6736065517
  O        -1.6498237080       11.7692684570        5.6601720985
  O         0.9182077371        7.3360937044        5.6512180148
  O         3.3498670858        2.7401137539        5.5181201569
  O        -6.7759687222       11.7738049935        5.6649044236
  O        -4.2482698207        7.3475130027        5.6611815832
  O        -1.6588471780        2.8996727247        5.6739243278
 Fe         7.7841721059       10.2728851175        6.4303428790
 Fe        10.3352749139        5.8388325304        6.4400638901
 Fe        12.9056624908        1.4044916127        6.4407200579
 Fe         2.6590302363       10.2814528394        6.4262902160
 Fe         5.2241911470        5.8641465412        6.4280972985
 Fe         7.7701913306        1.3863905980        6.4352874897
 Fe        -2.4693860764       10.2746832209        6.4343160238
 Fe         0.0443466713        5.8502067950        6.3634967845
 Fe         2.6507921476        1.3464866418        6.5475540986
  O         7.8380376303       10.3631467698        8.2641150520
  H         7.8825204499        9.5377918383        8.7804066976
  H         5.3466470421       10.6153670230        6.6807569313
  O        10.4116220020        5.9468590345        8.2677650625
  H        10.4475625254        5.1117845541        8.7681638193
  H         7.9189203511        6.1917586544        6.6913397554
  O        12.9572713912        1.5154555089        8.2741606801
  H        13.0316306097        0.6821818843        8.7761582212
  H        10.4813427080        1.7331146819        6.7154132467
  O         2.7086727185       10.3636119463        8.2584064474
  H         2.7584208644        9.5558521212        8.7997540276
  H         0.2266108691       10.6043081269        6.6630388034
  O         5.4619208357        6.0454387338        8.2504622121
  H         5.6016512190        5.2140243121        8.7405623148
  H         2.7550711496        6.3045743630        6.5309535243
  O         7.8534789318        1.4970724448        8.2665438773
  H         7.8756020897        0.6645836532        8.7730595991
  H         5.3392969030        1.8650739803        6.6691069333
  O        -2.4088950272       10.3690788518        8.2645066873
  H        -2.3654629116        9.5370762072        8.7704504486
  H        -4.8968446178       10.6111721411        6.6832953897
  O        -0.1760180704        6.0006004018        8.1861617639
  H        -0.4648363087        5.2236046210        8.6952492235
  H        -2.3365913766        6.1913239519        6.6378224506
  O         2.3232016104        1.0961531442        8.3086306423
  H         2.4563640085        0.2637833463        8.7811950184
  H         0.2291883168        1.6718872477        6.7320503599
  C         2.5977166881        4.8620962120        8.7800493244
  C         3.4862979463        3.8462901025        8.2746118311
  H         1.6545097081        4.9238250002        8.1813959379
  H         2.3416990735        4.6511126931        9.8290903502
  H         3.1475963305        5.8245965168        8.7239463542
  N         4.1991355163        2.9958783845        7.9090597287
     168
 i =        2, E =     -8144.3422904947
 Fe         5.0938794100       11.8196869300        0.3885799900
 Fe         7.6575796300        7.3792284900        0.3885799900
 Fe        10.2212798400        2.9387700600        0.3885799900
 Fe        -0.0335205200       11.8196869300        0.3885799900
 Fe         2.5301797000        7.3792284900        0.3885799900
 Fe         5.0938799200        2.9387700600        0.3885799900
 Fe        -5.1609204400       11.8196869300        0.3885799900
 Fe        -2.5972202200        7.3792284900        0.3885799900
 Fe        -0.0335200000        2.9387700600        0.3885799900
  O         8.4519195100        8.9577468800        1.1642700400
  O        11.0156197300        4.5172884400        1.1642700400
  O        13.5793199500        0.0768300000        1.1642700400
  O         3.3245195900        8.9577468800        1.1642700400
  O         5.8882198100        4.5172884400        1.1642700400
  O         8.4519200300        0.0768300000        1.1642700400
  O        -1.8028803300        8.9577468800        1.1642700400
  O         0.7608198900        4.5172884400        1.1642700400
  O         3.3245201100        0.0768300000        1.1642700400
  O         8.4568493000       11.7183869300        1.1650400200
  O        11.0205495200        7.2779284900        1.1650400200
  O        13.5842497300        2.8374700500        1.1650400200
  O         3.3294493700       11.7183869300        1.1650400200
  O         5.8931495900        7.2779284900        1.1650400200
  O         8.4568498100        2.8374700500        1.1650400200
  O        -1.7979505500       11.7183869300        1.1650400200
  O         0.7657496700        7.2779284900        1.1650400200
  O         3.3294498900        2.8374700500        1.1650400200
  O         6.0627194200       10.3425368500        1.1660399400
  O         8.6264196400        5.9020784100        1.1660399400
  O        11.1901198600        1.4616199700        1.1660399400
  O         0.9353195000       10.3425368500        1.1660399400
  O         3.4990197200        5.9020784100        1.1660399400
  O         6.0627199400        1.4616199700        1.1660399400
  O        -4.1920804200       10.3425368500        1.1660399400
  O        -1.6283802000        5.9020784100        1.1660399400
  O         0.9353200200        1.4616199700        1.1660399400
 Fe         7.6576695000       13.2997167500        1.9292099500
 Fe        10.2213697200        8.8592583200        1.9292099500
 Fe        12.7850699400        4.4187998800        1.9292099500
 Fe         2.5302695800       13.2997167500        1.9292099500
 Fe         5.0939698000        8.8592583200        1.9292099500
 Fe         7.6576700200        4.4187998800        1.9292099500
 Fe        -2.5971303400       13.2997167500        1.9292099500
 Fe        -0.0334301200        8.8592583200        1.9292099500
 Fe         2.5302701000        4.4187998800        1.9292099500
 Fe         7.6573893600       10.3392168700        2.7128999200
 Fe        10.2210895800        5.8987584300        2.7128999200
 Fe        12.7847898000        1.4582999900        2.7128999200
 Fe         2.5299894400       10.3392168700        2.7128999200
 Fe         5.0936896600        5.8987584300        2.7128999200
 Fe         7.6573898800        1.4582999900        2.7128999200
 Fe        -2.5974104800       10.3392168700        2.7128999200
 Fe        -0.0337102600        5.8987584300        2.7128999200
 Fe         2.5299899600        1.4582999900        2.7128999200
  O         4.0776746415       13.3163679183        3.4979448104
  O         6.6383531581        8.8862225337        3.5061237592
  O         9.1844752752        4.4146575385        3.4707775229
  O        -1.0179574075       13.3175772823        3.5376309457
  O         1.5141844781        8.8633408570        3.4823453872
  O         4.0860882480        4.4302607513        3.5122716260
  O        -6.1624781012       13.3117815137        3.5058141885
  O        -3.6127231352        8.8737290582        3.4924043968
  O        -1.0374412372        4.4370370808        3.5211350350
  O         6.8172483850       11.8855859194        3.4912756748
  O         9.3855906900        7.4481001008        3.4778558369
  O        11.9376299098        2.9813473476        3.5050831342
  O         1.6886909537       11.8909042626        3.4734205242
  O         4.2620905360        7.4446680542        3.4844033623
  O         6.8181125991        3.0043395343        3.4758206658
  O        -3.4345562378       11.8494947989        3.5302412573
  O        -0.8749595933        7.4509414056        3.4745042145
  O         1.6494625582        2.9973125502        3.4572308508
  O         9.4353240498       10.2124141038        3.4757290672
  O        11.9787082319        5.7831612576        3.4901131055
  O        14.5599047398        1.3406577197        3.4837896247
  O         4.3043280736       10.2150406762        3.4847923045
  O         6.8883941140        5.7662914759        3.4556804110
  O         9.4320096959        1.3313019489        3.4737463188
  O        -0.8079297391       10.2107809264        3.4657976591
  O         1.7304343939        5.7830278075        3.4862309222
  O         4.3201051909        1.2999561259        3.4644858314
 Fe         5.0315704036       11.8443195374        4.4135430459
 Fe         7.6118363589        7.4057821060        4.4174156344
 Fe        10.1470402348        2.9467568553        4.4183597449
 Fe        -0.0821824688       11.8355088996        4.4168185792
 Fe         2.4891658293        7.3913641665        4.3824427075
 Fe         5.0177680394        2.9330414068        4.4062725921
 Fe        -5.2151814790       11.8333386434        4.4202353031
 Fe        -2.6739531362        7.4032564110        4.4138123088
 Fe        -0.0891937343        2.9491045363        4.4370453811
 Fe         7.6200785941       13.1979268567        4.8003199831
 Fe        10.1707770547        8.7563453906        4.7995915562
 Fe        12.7210487189        4.2962314274        4.7937297632
 Fe         2.4773969606       13.1933813655        4.8033669796
 Fe         5.0452452135        8.7610456969        4.8288210643
 Fe         7.5868416543        4.3016369220        4.7867594957
 Fe        -2.6443921663       13.1906210818        4.8377404564
 Fe        -0.0811206508        8.7478131417        4.7878741222
 Fe         2.4790359133        4.2793094497        4.7850355648
  O         5.8559570863       10.3592712237        5.8855676872
  O         8.4029607536        5.9093831052        5.8644876730
  O        10.9752165265        1.4684634887        5.8910888189
  O         0.7329420346       10.3365504018        5.8564762942
  O         3.3191089855        5.8903755132        5.8562257104
  O         5.8329428315        1.5135921628        5.8750667986
  O        -4.3950728255       10.3519702718        5.8715228754
  O        -1.8751130490        5.9241964594        5.8098691797
  O         0.7251554293        1.4698418137        5.8868438844
  O         5.9260121153       13.1829332317        5.6754704245
  O         8.5070742584        8.7373051618        5.7002992079
  O        11.0310226748        4.2996652748        5.6709204069
  O         0.7948717923       13.1878476026        5.6765935900
  O         3.3472332149        8.7278784993        5.6940723095
  O         5.8931647923        4.3129500271        5.6425234378
  O        -4.3210976248       13.1658592598        5.6953207799
  O        -1.7664895798        8.7419494190        5.6624520610
  O         0.8107442171        4.3133652149        5.7013070592
  O         3.4596696814       11.7928138104        5.6807722938
  O         6.0331795012        7.3429115664        5.6574807562
  O         8.5706584642        2.8977926041        5.6541901339
  O        -1.6513051685       11.7657204731        5.6643471349
  O         0.9260034983        7.3287540454        5.6557569745
  O         3.3614392991        2.7582541206        5.5083517019
  O        -6.7881287604       11.7697670375        5.6529790901
  O        -4.2424142358        7.3393743351        5.6632844212
  O        -1.6656284453        2.9047699686        5.6740057872
 Fe         7.7872356949       10.2724021056        6.4371679371
 Fe        10.3359929676        5.8381290118        6.4309992889
 Fe        12.9110396002        1.3969463892        6.4325400669
 Fe         2.6517408552       10.2795954925        6.4324244453
 Fe         5.2417716022        5.8519308407        6.4305768253
 Fe         7.7593120774        1.3923353126        6.4294824828
 Fe        -2.4709523711       10.2716707630        6.4312242146
 Fe         0.0341159014        5.8526938621        6.3564330223
 Fe         2.6570040356        1.3401447862        6.5225929826
  O         7.8374397583       10.3683846690        8.2679844420
  H         7.8833952116        9.5376060051        8.7746183519
  H         5.3530914957       10.6281171077        6.6885930274
  O        10.4114628789        5.9433223207        8.2604569773
  H        10.4464150133        5.1127883392        8.7686311555
  H         7.9129476432        6.1842306278        6.6745980693
  O        12.9583838266        1.5144007763        8.2671805796
  H        13.0312763676        0.6859088450        8.7758531744
  H        10.4762518825        1.7236748873        6.7024654049
  O         2.7119617869       10.3709213183        8.2635062598
  H         2.7578366658        9.5554476393        8.7927468181
  H         0.2273747033       10.6053284042        6.6565610872
  O         5.4679661488        6.0497591382        8.2530183547
  H         5.6131200610        5.2167692888        8.7391665641
  H         2.7512810272        6.3043160275        6.5426213886
  O         7.8606815762        1.4924356198        8.2594480390
  H         7.8756643431        0.6652808724        8.7746745904
  H         5.3520581697        1.8643015895        6.6757451036
  O        -2.4080559123       10.3680445519        8.2607230246
  H        -2.3657302041        9.5377703811        8.7685368070
  H        -4.8997174549       10.6090146005        6.6760139251
  O        -0.1819553492        6.0007652104        8.1857429320
  H        -0.4753299243        5.2233794019        8.6962007521
  H        -2.3360596225        6.1951202360        6.6361566122
  O         2.2838014223        1.0893089034        8.2960032648
  H         2.4484521253        0.2538102686        8.7746680563
  H         0.2293770498        1.6655513747        6.7155431564
  C         2.6104899850        4.8518920963        8.7846520330
  C         3.5209429891        3.8307389927        8.3270764468
  H         1.6728456328        4.9239139128        8.2087360306
  H         2.3302276191        4.6582866478        9.8295144541
  H         3.1272961486        5.8248212077        8.7359617888
  N         4.2583526315        3.0101673593        7.9463421614
     168
 i =        3, E =     -8144.2982853083
 Fe         5.0938794100       11.8196869300        0.3885799900
 Fe         7.6575796300        7.3792284900        0.3885799900
 Fe        10.2212798400        2.9387700600        0.3885799900
 Fe        -0.0335205200       11.8196869300        0.3885799900
 Fe         2.5301797000        7.3792284900        0.3885799900
 Fe         5.0938799200        2.9387700600        0.3885799900
 Fe        -5.1609204400       11.8196869300        0.3885799900
 Fe        -2.5972202200        7.3792284900        0.3885799900
 Fe        -0.0335200000        2.9387700600        0.3885799900
  O         8.4519195100        8.9577468800        1.1642700400
  O        11.0156197300        4.5172884400        1.1642700400
  O        13.5793199500        0.0768300000        1.1642700400
  O         3.3245195900        8.9577468800        1.1642700400
  O         5.8882198100        4.5172884400        1.1642700400
  O         8.4519200300        0.0768300000        1.1642700400
  O        -1.8028803300        8.9577468800        1.1642700400
  O         0.7608198900        4.5172884400        1.1642700400
  O         3.3245201100        0.0768300000        1.1642700400
  O         8.4568493000       11.7183869300        1.1650400200
  O        11.0205495200        7.2779284900        1.1650400200
  O        13.5842497300        2.8374700500        1.1650400200
  O         3.3294493700       11.7183869300        1.1650400200
  O         5.8931495900        7.2779284900        1.1650400200
  O         8.4568498100        2.8374700500        1.1650400200
  O        -1.7979505500       11.7183869300        1.1650400200
  O         0.7657496700        7.2779284900        1.1650400200
  O         3.3294498900        2.8374700500        1.1650400200
  O         6.0627194200       10.3425368500        1.1660399400
  O         8.6264196400        5.9020784100        1.1660399400
  O        11.1901198600        1.4616199700        1.1660399400
  O         0.9353195000       10.3425368500        1.1660399400
  O         3.4990197200        5.9020784100        1.1660399400
  O         6.0627199400        1.4616199700        1.1660399400
  O        -4.1920804200       10.3425368500        1.1660399400
  O        -1.6283802000        5.9020784100        1.1660399400
  O         0.9353200200        1.4616199700        1.1660399400
 Fe         7.6576695000       13.2997167500        1.9292099500
 Fe        10.2213697200        8.8592583200        1.9292099500
 Fe        12.7850699400        4.4187998800        1.9292099500
 Fe         2.5302695800       13.2997167500        1.9292099500
 Fe         5.0939698000        8.8592583200        1.9292099500
 Fe         7.6576700200        4.4187998800        1.9292099500
 Fe        -2.5971303400       13.2997167500        1.9292099500
 Fe        -0.0334301200        8.8592583200        1.9292099500
 Fe         2.5302701000        4.4187998800        1.9292099500
 Fe         7.6573893600       10.3392168700        2.7128999200
 Fe        10.2210895800        5.8987584300        2.7128999200
 Fe        12.7847898000        1.4582999900        2.7128999200
 Fe         2.5299894400       10.3392168700        2.7128999200
 Fe         5.0936896600        5.8987584300        2.7128999200
 Fe         7.6573898800        1.4582999900        2.7128999200
 Fe        -2.5974104800       10.3392168700        2.7128999200
 Fe        -0.0337102600        5.8987584300        2.7128999200
 Fe         2.5299899600        1.4582999900        2.7128999200
  O         4.0851876591       13.3495159659        3.5483966217
  O         6.6740180250        8.8494598801        3.4862813880
  O         9.2629452057        4.4687854101        3.5622837418
  O        -0.9698498418       13.3614349273        3.6144738126
  O         1.5392301856        8.9081707143        3.5193627571
  O         4.1217825781        4.5243350914        3.6030836736
  O        -6.0941593544       13.3472645015        3.6236294409
  O        -3.6042072229        8.8713645275        3.5110776280
  O        -1.0205370632        4.4585161935        3.5424117119
  O         6.8256359834       11.7832886820        3.6185587260
  O         9.3737432131        7.4346119857        3.5248589775
  O        11.9253832075        2.9885671899        3.4993119289
  O         1.6900111411       11.8341132242        3.5440567604
  O         4.2580784107        7.4308334019        3.4754228613
  O         6.8118046823        2.9511772009        3.5556986678
  O        -3.4299326755       11.7965939641        3.5788149746
  O        -0.8916127940        7.3981695153        3.5209472332
  O         1.5901674151        2.9665794385        3.4666465667
  O         9.4133542242       10.1955105256        3.5385781943
  O        11.9793713197        5.7892227410        3.4923901545
  O        14.4941458002        1.3957173379        3.5790435312
  O         4.2820740511       10.2123918905        3.4798264058
  O         6.8106346345        5.8017619849        3.5727025616
  O         9.4236665334        1.3508999454        3.5137955896
  O        -0.8255394081       10.2438158835        3.5326836676
  O         1.6854543072        5.8214995586        3.5964368675
  O         4.2588455387        1.3081227871        3.5441372192
 Fe         5.0032644897       11.8264485493        4.3889141529
 Fe         7.6140092260        7.4142133178        4.4443918733
 Fe        10.1541757935        2.9520055508        4.3897841484
 Fe        -0.0835174776       11.8578992429        4.4719246076
 Fe         2.4929039011        7.4482572757        4.3986465234
 Fe         5.0049410444        2.9421382721        4.3517193336
 Fe        -5.1993426383       11.8186606424        4.4383574782
 Fe        -2.6722364687        7.4134861075        4.4415647200
 Fe        -0.1031814422        2.9638400496        4.4685598611
 Fe         7.5960906357       13.2020310046        4.8183865980
 Fe        10.1931463396        8.7430088015        4.8359305845
 Fe        12.7245513979        4.3016231791        4.7767680137
 Fe         2.4694852419       13.1865777727        4.8145429970
 Fe         5.0509554787        8.7605528919        4.7776744606
 Fe         7.6247710128        4.3254997787        4.7734811484
 Fe        -2.6334806969       13.1742022217        4.8451488706
 Fe        -0.0664294478        8.7215025342        4.7906240363
 Fe         2.4695524133        4.2782683540        4.7836635808
  O         5.8373712014       10.3196316143        5.9009661547
  O         8.4354100526        5.9106760613        5.8449658099
  O        10.9955633635        1.5004833456        5.8500758266
  O         0.7298259529       10.3483608820        5.8347625379
  O         3.3299824164        5.9168637432        5.8795012188
  O         5.8035598843        1.5019722944        5.8505079952
  O        -4.3806190623       10.3517440963        5.8656172831
  O        -1.8877005820        5.9115599261        5.8082228524
  O         0.7170144410        1.4389418884        5.8432009172
  O         5.8867650958       13.1524698801        5.6474712292
  O         8.4883812924        8.7613493481        5.6623451032
  O        11.0209400762        4.3112297236        5.6194911869
  O         0.7846370748       13.1976500804        5.7059204736
  O         3.4007070521        8.7316536960        5.7386702114
  O         5.9141157619        4.2966907935        5.5894550795
  O        -4.3059907152       13.1216004806        5.6821279148
  O        -1.7452963832        8.7518348246        5.6674797620
  O         0.8184110591        4.3378754722        5.7085177554
  O         3.4575316103       11.7452061084        5.6616348441
  O         6.0102323420        7.3345776087        5.6189556720
  O         8.5772287472        2.8779885877        5.5989272631
  O        -1.6558342238       11.7577301540        5.6824569987
  O         0.9371478596        7.3099108718        5.6798473589
  O         3.4057393080        2.8117389015        5.4958020007
  O        -6.8143097351       11.7499929323        5.6231413409
  O        -4.2220061796        7.3156819559        5.6704153957
  O        -1.6982530479        2.9219861968        5.6824795900
 Fe         7.7952968652       10.2708234863        6.4567417319
 Fe        10.3400823682        5.8355507403        6.4030722540
 Fe        12.9203866448        1.3758078839        6.4100708982
 Fe         2.6302604591       10.2735530559        6.4539667642
 Fe         5.2935742371        5.8149860458        6.4361648681
 Fe         7.7300027752        1.4090138168        6.4137898549
 Fe        -2.4748624410       10.2617601861        6.4220121410
 Fe         0.0009263772        5.8610300217        6.3398306708
 Fe         2.6679471403        1.3163343756        6.4391353735
  O         7.8362468963       10.3846856551        8.2784443653
  H         7.8860700436        9.5375106775        8.7561871807
  H         5.3727027640       10.6670777105        6.7106672632
  O        10.4107839216        5.9319543681        8.2372984879
  H        10.4425120100        5.1157435823        8.7697149001
  H         7.8927279868        6.1607659733        6.6225172840
  O        12.9626771100        1.5105832383        8.2440099885
  H        13.0302881003        0.6980862962        8.7744242187
  H        10.4623923744        1.6937170826        6.6584827959
  O         2.7213650657       10.3948033973        8.2796110528
  H         2.7562007414        9.5545135244        8.7692719388
  H         0.2276014872       10.6081831190        6.6367689537
  O         5.4914951568        6.0622716780        8.2575621092
  H         5.6530913163        5.2273160865        8.7363615008
  H         2.7419969149        6.3017025642        6.5792285995
  O         7.8844871360        1.4797434866        8.2379624441
  H         7.8760349485        0.6679020329        8.7775499346
  H         5.3907271156        1.8645405720        6.6948381350
  O        -2.4056852008       10.3649010836        8.2491521473
  H        -2.3664732266        9.5396436994        8.7622811618
  H        -4.9089449884       10.6032119474        6.6532967195
  O        -0.1999136793        6.0016375743        8.1871726869
  H        -0.5115495363        5.2227865610        8.6964431811
  H        -2.3354921160        6.2059625675        6.6313777415
  O         2.1571900825        1.0686509512        8.2505928228
  H         2.4204542373        0.2253440704        8.7446393299
  H         0.2342132591        1.6430422656        6.6626308091
  C         2.6514254197        4.8216788193        8.8106063201
  C         3.6232533487        3.7847152239        8.4879249019
  H         1.7404899714        4.9075197698        8.2881988314
  H         2.2953065630        4.6784805021        9.8401450928
  H         3.0703672636        5.8246204320        8.7795084959
  N         4.4499475635        3.0603879097        8.0763606090
     168
 i =        4, E =     -8144.3513347868
 Fe         5.0938794100       11.8196869300        0.3885799900
 Fe         7.6575796300        7.3792284900        0.3885799900
 Fe        10.2212798400        2.9387700600        0.3885799900
 Fe        -0.0335205200       11.8196869300        0.3885799900
 Fe         2.5301797000        7.3792284900        0.3885799900
 Fe         5.0938799200        2.9387700600        0.3885799900
 Fe        -5.1609204400       11.8196869300        0.3885799900
 Fe        -2.5972202200        7.3792284900        0.3885799900
 Fe        -0.0335200000        2.9387700600        0.3885799900
  O         8.4519195100        8.9577468800        1.1642700400
  O        11.0156197300        4.5172884400        1.1642700400
  O        13.5793199500        0.0768300000        1.1642700400
  O         3.3245195900        8.9577468800        1.1642700400
  O         5.8882198100        4.5172884400        1.1642700400
  O         8.4519200300        0.0768300000        1.1642700400
  O        -1.8028803300        8.9577468800        1.1642700400
  O         0.7608198900        4.5172884400        1.1642700400
  O         3.3245201100        0.0768300000        1.1642700400
  O         8.4568493000       11.7183869300        1.1650400200
  O        11.0205495200        7.2779284900        1.1650400200
  O        13.5842497300        2.8374700500        1.1650400200
  O         3.3294493700       11.7183869300        1.1650400200
  O         5.8931495900        7.2779284900        1.1650400200
  O         8.4568498100        2.8374700500        1.1650400200
  O        -1.7979505500       11.7183869300        1.1650400200
  O         0.7657496700        7.2779284900        1.1650400200
  O         3.3294498900        2.8374700500        1.1650400200
  O         6.0627194200       10.3425368500        1.1660399400
  O         8.6264196400        5.9020784100        1.1660399400
  O        11.1901198600        1.4616199700        1.1660399400
  O         0.9353195000       10.3425368500        1.1660399400
  O         3.4990197200        5.9020784100        1.1660399400
  O         6.0627199400        1.4616199700        1.1660399400
  O        -4.1920804200       10.3425368500        1.1660399400
  O        -1.6283802000        5.9020784100        1.1660399400
  O         0.9353200200        1.4616199700        1.1660399400
 Fe         7.6576695000       13.2997167500        1.9292099500
 Fe        10.2213697200        8.8592583200        1.9292099500
 Fe        12.7850699400        4.4187998800        1.9292099500
 Fe         2.5302695800       13.2997167500        1.9292099500
 Fe         5.0939698000        8.8592583200        1.9292099500
 Fe         7.6576700200        4.4187998800        1.9292099500
 Fe        -2.5971303400       13.2997167500        1.9292099500
 Fe        -0.0334301200        8.8592583200        1.9292099500
 Fe         2.5302701000        4.4187998800        1.9292099500
 Fe         7.6573893600       10.3392168700        2.7128999200
 Fe        10.2210895800        5.8987584300        2.7128999200
 Fe        12.7847898000        1.4582999900        2.7128999200
 Fe         2.5299894400       10.3392168700        2.7128999200
 Fe         5.0936896600        5.8987584300        2.7128999200
 Fe         7.6573898800        1.4582999900        2.7128999200
 Fe        -2.5974104800       10.3392168700        2.7128999200
 Fe        -0.0337102600        5.8987584300        2.7128999200
 Fe         2.5299899600        1.4582999900        2.7128999200
  O         4.0822785385       13.3201512122        3.5080641918
  O         6.6849650405        8.8832917971        3.5473773278
  O         9.2162162675        4.4361375787        3.5045007746
  O        -1.0061265939       13.3289094160        3.5547054426
  O         1.5263824105        8.8737203045        3.4955723222
  O         4.0964093194        4.4556706959        3.5379164959
  O        -6.1381410053       13.3252495520        3.5477155106
  O        -3.6114989091        8.8697467007        3.4961884298
  O        -1.0356645717        4.4431931696        3.5240689079
  O         6.8123540322       11.8448861382        3.5308974611
  O         9.3778019450        7.4422231513        3.4905721719
  O        11.9310253127        2.9919219833        3.4911976349
  O         1.6897701369       11.8692432867        3.4993901155
  O         4.2518342200        7.4151564094        3.5219758901
  O         6.8068300471        2.9875880882        3.4886812273
  O        -3.4341762243       11.8380788176        3.5372098152
  O        -0.8794341097        7.4342002516        3.4874861490
  O         1.6327285704        2.9884838983        3.4697189871
  O         9.4333256968       10.2088207281        3.4854957108
  O        11.9874879066        5.7834235937        3.4755836644
  O        14.5337101183        1.3585420833        3.5206582674
  O         4.2712126847       10.2354686994        3.5316256659
  O         6.8610415408        5.7860003574        3.4874608115
  O         9.4349509703        1.3402847416        3.4795318972
  O        -0.8147089905       10.2237066361        3.4841119876
  O         1.7172856404        5.8002068762        3.5200032537
  O         4.3053502853        1.3108235423        3.4809958636
 Fe         5.0289810396       11.8498670642        4.4177784258
 Fe         7.6157666375        7.3947239038        4.4279918968
 Fe        10.1486122073        2.9513298090        4.4107776764
 Fe        -0.0852839209       11.8433866921        4.4380787924
 Fe         2.4770441189        7.4062052800        4.4037733328
 Fe         5.0176503598        2.9376088154        4.3916412544
 Fe        -5.2107828193       11.8276217890        4.4246274968
 Fe        -2.6708459365        7.4054302246        4.4169616105
 Fe        -0.0973233238        2.9544900909        4.4452394021
 Fe         7.6095946980       13.1885164249        4.8125091611
 Fe        10.1736151669        8.7496280256        4.8117064456
 Fe        12.7202958146        4.2992103562        4.7911258877
 Fe         2.4748940290       13.1908286708        4.8038469189
 Fe         5.0505099729        8.7592624994        4.8331542922
 Fe         7.5975443525        4.3074233223        4.7826887547
 Fe        -2.6390807280       13.1860339640        4.8438098839
 Fe        -0.0801298500        8.7425497461        4.7893612500
 Fe         2.4744937593        4.2855672376        4.8013930739
  O         5.8496360309       10.3503849205        5.8932880011
  O         8.4168197885        5.9106466990        5.8609521505
  O        10.9786009929        1.4771734605        5.8716300339
  O         0.7366745676       10.3433638275        5.8561629668
  O         3.3225493966        5.9052815699        5.8660635424
  O         5.8237329967        1.5064173322        5.8775019235
  O        -4.3922525090       10.3466290564        5.8723191694
  O        -1.8775734118        5.9243087273        5.8132368466
  O         0.7139495669        1.4629257427        5.8613938129
  O         5.9137265714       13.1761098201        5.6783583472
  O         8.4912148765        8.7403450726        5.6854752685
  O        11.0288313486        4.2997817929        5.6590386472
  O         0.7948882023       13.1829691635        5.6942892649
  O         3.3625355773        8.7256787498        5.7076463125
  O         5.9027639398        4.3025741193        5.6407568417
  O        -4.3152001453       13.1416946242        5.7011325055
  O        -1.7613692131        8.7373154081        5.6726976956
  O         0.8052868802        4.3133630146        5.7119852427
  O         3.4591904273       11.7731851366        5.6696922855
  O         6.0363511886        7.3385552598        5.6487446177
  O         8.5766248384        2.8918443158        5.6443856738
  O        -1.6478860474       11.7668267716        5.6827044217
  O         0.9211705685        7.3333786834        5.6809672537
  O         3.3842738875        2.7867775305        5.5257115910
  O        -6.7890877090       11.7627935977        5.6560464063
  O        -4.2281836919        7.3346997285        5.6688146162
  O        -1.6752222013        2.9138650845        5.6832906471
 Fe         7.7877610303       10.2721017281        6.4416451765
 Fe        10.3403129239        5.8357465085        6.4199114910
 Fe        12.9076241980        1.3931058974        6.4258845676
 Fe         2.6533359914       10.2751503517        6.4413401820
 Fe         5.2574581676        5.8402950282        6.4276926726
 Fe         7.7523330860        1.3962760828        6.4253183385
 Fe        -2.4706495006       10.2671509066        6.4314544928
 Fe         0.0261813450        5.8547069988        6.3571985576
 Fe         2.6495030819        1.3268516336        6.4843347924
  O         7.8385619509       10.3750221897        8.2703593521
  H         7.8842194615        9.5382547136        8.7670907226
  H         5.3573149944       10.6398217394        6.6950755989
  O        10.4113022605        5.9389941814        8.2517274344
  H        10.4442106621        5.1134277367        8.7679612780
  H         7.9026683418        6.1744806536        6.6561167891
  O        12.9614990876        1.5131955037        8.2582152116
  H        13.0312786074        0.6910187013        8.7753460437
  H        10.4721271989        1.7129891833        6.6811722002
  O         2.7136217479       10.3827194514        8.2708145032
  H         2.7577799538        9.5556790838        8.7816248561
  H         0.2216814405       10.6062550588        6.6512551980
  O         5.4868598474        6.0535473427        8.2485831198
  H         5.6370522059        5.2247531285        8.7404779466
  H         2.7511612776        6.3022041700        6.5615159054
  O         7.8736592654        1.4903794834        8.2519580604
  H         7.8761347833        0.6667593729        8.7718817557
  H         5.3621580079        1.8680692797        6.6841976371
  O        -2.4072753194       10.3681079955        8.2604569487
  H        -2.3658174292        9.5369779534        8.7659256045
  H        -4.9041443221       10.6079961332        6.6695646495
  O        -0.1897312252        6.0027301665        8.1926013102
  H        -0.4964222283        5.2225941119        8.6923380344
  H        -2.3399393734        6.1979523101        6.6371786722
  O         2.2328724757        1.0848473333        8.2751485502
  H         2.4244300682        0.2442196379        8.7451085764
  H         0.2368809190        1.6528452525        6.6967380087
  C         2.6295841691        4.8402987941        8.8190960577
  C         3.5564766921        3.8202889450        8.3866327892
  H         1.7163592597        4.8898276255        8.2284784718
  H         2.3183247018        4.6610008310        9.8531735406
  H         3.1172924486        5.8209092085        8.7640602638
  N         4.3489991905        3.0401144400        8.0297136385
     168
 i =        5, E =     -8144.3248663874
 Fe         5.0938794100       11.8196869300        0.3885799900
 Fe         7.6575796300        7.3792284900        0.3885799900
 Fe        10.2212798400        2.9387700600        0.3885799900
 Fe        -0.0335205200       11.8196869300        0.3885799900
 Fe         2.5301797000        7.3792284900        0.3885799900
 Fe         5.0938799200        2.9387700600        0.3885799900
 Fe        -5.1609204400       11.8196869300        0.3885799900
 Fe        -2.5972202200        7.3792284900        0.3885799900
 Fe        -0.0335200000        2.9387700600        0.3885799900
  O         8.4519195100        8.9577468800        1.1642700400
  O        11.0156197300        4.5172884400        1.1642700400
  O        13.5793199500        0.0768300000        1.1642700400
  O         3.3245195900        8.9577468800        1.1642700400
  O         5.8882198100        4.5172884400        1.1642700400
  O         8.4519200300        0.0768300000        1.1642700400
  O        -1.8028803300        8.9577468800        1.1642700400
  O         0.7608198900        4.5172884400        1.1642700400
  O         3.3245201100        0.0768300000        1.1642700400
  O         8.4568493000       11.7183869300        1.1650400200
  O        11.0205495200        7.2779284900        1.1650400200
  O        13.5842497300        2.8374700500        1.1650400200
  O         3.3294493700       11.7183869300        1.1650400200
  O         5.8931495900        7.2779284900        1.1650400200
  O         8.4568498100        2.8374700500        1.1650400200
  O        -1.7979505500       11.7183869300        1.1650400200
  O         0.7657496700        7.2779284900        1.1650400200
  O         3.3294498900        2.8374700500        1.1650400200
  O         6.0627194200       10.3425368500        1.1660399400
  O         8.6264196400        5.9020784100        1.1660399400
  O        11.1901198600        1.4616199700        1.1660399400
  O         0.9353195000       10.3425368500        1.1660399400
  O         3.4990197200        5.9020784100        1.1660399400
  O         6.0627199400        1.4616199700        1.1660399400
  O        -4.1920804200       10.3425368500        1.1660399400
  O        -1.6283802000        5.9020784100        1.1660399400
  O         0.9353200200        1.4616199700        1.1660399400
 Fe         7.6576695000       13.2997167500        1.9292099500
 Fe        10.2213697200        8.8592583200        1.9292099500
 Fe        12.7850699400        4.4187998800        1.9292099500
 Fe         2.5302695800       13.2997167500        1.9292099500
 Fe         5.0939698000        8.8592583200        1.9292099500
 Fe         7.6576700200        4.4187998800        1.9292099500
 Fe        -2.5971303400       13.2997167500        1.9292099500
 Fe        -0.0334301200        8.8592583200        1.9292099500
 Fe         2.5302701000        4.4187998800        1.9292099500
 Fe         7.6573893600       10.3392168700        2.7128999200
 Fe        10.2210895800        5.8987584300        2.7128999200
 Fe        12.7847898000        1.4582999900        2.7128999200
 Fe         2.5299894400       10.3392168700        2.7128999200
 Fe         5.0936896600        5.8987584300        2.7128999200
 Fe         7.6573898800        1.4582999900        2.7128999200
 Fe        -2.5974104800       10.3392168700        2.7128999200
 Fe        -0.0337102600        5.8987584300        2.7128999200
 Fe         2.5299899600        1.4582999900        2.7128999200
  O         4.1179290211       13.3073537808        3.5391106184
  O         6.6823940159        8.9106320821        3.5857246774
  O         9.2069874212        4.4259721240        3.5251360551
  O        -1.0543606608       13.3082328468        3.4863218131
  O         1.5802091561        8.8636651692        3.6037499038
  O         4.0727346396        4.3876318354        3.4708836572
  O        -6.1779319967       13.3060282521        3.4790384561
  O        -3.5525659199        8.8986761975        3.6064914296
  O        -1.0379734247        4.4349992955        3.5264531867
  O         6.7961351678       11.8946241167        3.4540181133
  O         9.3752441992        7.3724458169        3.5801257183
  O        11.9375469715        2.9889563412        3.4954002486
  O         1.6890971509       11.8602242508        3.5251229862
  O         4.2524914975        7.4155341174        3.5485450805
  O         6.7910668813        2.9785826625        3.5023234773
  O        -3.4333283915       11.8891955900        3.4831480222
  O        -0.8677653153        7.3974108480        3.5807672806
  O         1.6758040904        3.0128829945        3.4764697356
  O         9.3956033972       10.2642028271        3.5552180831
  O        11.9881883318        5.7770677393        3.4668735539
  O        14.5640655912        1.3241326475        3.4718053429
  O         4.2715958315       10.2464173049        3.5627518495
  O         6.8775372179        5.7917701077        3.4740555787
  O         9.4181841594        1.3523997963        3.5082011762
  O        -0.8550258093       10.2397955770        3.5528972613
  O         1.7436758821        5.7777766776        3.4527283944
  O         4.3488512161        1.3184444069        3.4178571543
 Fe         5.0622338611       11.8459799013        4.4633036373
 Fe         7.5882732866        7.3923499460        4.4379050137
 Fe        10.1610760910        2.9524303339        4.4604041717
 Fe        -0.0956521516       11.8678579259        4.4315742464
 Fe         2.4891799435        7.3312481182        4.4484551197
 Fe         5.0092173185        2.9303426215        4.4505316450
 Fe        -5.2026114298       11.8669535940        4.4318126970
 Fe        -2.6718913161        7.3660403770        4.4391132311
 Fe        -0.0898534174        2.9404155090        4.4250176783
 Fe         7.6179678297       13.1694576094        4.8124794462
 Fe        10.1547794571        8.7539954603        4.8436842353
 Fe        12.7172013442        4.2988851867        4.8120492694
 Fe         2.4821909533       13.1924682148        4.8226758459
 Fe         5.0509941700        8.7557389025        4.8866214693
 Fe         7.5758206816        4.2896989741        4.8424135749
 Fe        -2.6391835134       13.2006502315        4.8428128701
 Fe        -0.0936517152        8.7609512434        4.8625229327
 Fe         2.4771385187        4.3035283805        4.8231709253
  O         5.8598974854       10.3673105234        5.8918567270
  O         8.4069231917        5.9169398166        5.8738005739
  O        10.9690275199        1.4541826562        5.8860963129
  O         0.7474603789       10.3494760651        5.8808815074
  O         3.3168318322        5.8877396003        5.8631408214
  O         5.8439597283        1.5008770347        5.9105213788
  O        -4.4007916094       10.3393369750        5.8805541516
  O        -1.8642804540        5.9248802665        5.8270019964
  O         0.7081771548        1.4831689410        5.8631380178
  O         5.9340623784       13.1971364565        5.7117411944
  O         8.4808195330        8.7192547338        5.7154264123
  O        11.0419509789        4.2983801290        5.7016964562
  O         0.8063610809       13.1733916090        5.7011573722
  O         3.3358613635        8.7192600114        5.6880192941
  O         5.8826019588        4.3039006361        5.6991179264
  O        -4.3097794225       13.1607488991        5.7310643899
  O        -1.7957592284        8.7192127300        5.6963951383
  O         0.7904793310        4.2899599401        5.7179406102
  O         3.4663316022       11.7916875032        5.6816337423
  O         6.0491345727        7.3416290965        5.6878067270
  O         8.5859689748        2.8908102058        5.6917348175
  O        -1.6457231317       11.7796330469        5.6954722631
  O         0.9153087399        7.3453898028        5.7026510470
  O         3.3546773052        2.7841041360        5.5789808547
  O        -6.7634146292       11.7724925276        5.6903058785
  O        -4.2354686862        7.3432556955        5.6828671354
  O        -1.6565952983        2.9091458326        5.6854722621
 Fe         7.7764210054       10.2753665797        6.4240676571
 Fe        10.3362695625        5.8332088428        6.4405728942
 Fe        12.8936811211        1.4112149684        6.4418456518
 Fe         2.6761997812       10.2759436262        6.4281080952
 Fe         5.2191911837        5.8589551670        6.4207997070
 Fe         7.7709168749        1.3860607790        6.4424940980
 Fe        -2.4717478526       10.2750695784        6.4433185256
 Fe         0.0457340063        5.8455824950        6.3790321173
 Fe         2.6220487011        1.3274758601        6.5121800661
  O         7.8426248449       10.3666573887        8.2581199459
  H         7.8826005811        9.5404765693        8.7741661412
  H         5.3442659601       10.6195452427        6.6812491640
  O        10.4129948542        5.9454316957        8.2655921992
  H        10.4440846598        5.1103914785        8.7644614189
  H         7.9097490098        6.1819467245        6.6816340035
  O        12.9616894227        1.5159851673        8.2696424311
  H        13.0324890630        0.6864561652        8.7761265753
  H        10.4775126337        1.7264089031        6.6893433974
  O         2.7066199157       10.3753150177        8.2611864822
  H         2.7594466466        9.5582540787        8.7880556588
  H         0.2128763952       10.6052319063        6.6654625395
  O         5.4993776418        6.0479396526        8.2340338638
  H         5.6392882204        5.2289819696        8.7439562443
  H         2.7664480942        6.2994230806        6.5554371147
  O         7.8730162217        1.5025908795        8.2653031429
  H         7.8769110206        0.6662424513        8.7627837810
  H         5.3403305867        1.8749474902        6.6769736004
  O        -2.4086916713       10.3704601053        8.2715831389
  H        -2.3650153775        9.5332864442        8.7684819384
  H        -4.9002260186       10.6124696591        6.6819438765
  O        -0.1845348552        6.0042689168        8.2031240299
  H        -0.4968944596        5.2214454064        8.6847816019
  H        -2.3469869626        6.1924342589        6.6424840975
  O         2.2719295873        1.1025009677        8.2855351060
  H         2.4126654490        0.2598745840        8.7179582330
  H         0.2446510116        1.6537348433        6.7188450674
  C         2.6164879581        4.8486630462        8.8529517178
  C         3.5258098638        3.8520279743        8.3377697943
  H         1.7178742293        4.8457390613        8.1770136068
  H         2.3339562601        4.6444270829        9.8880820359
  H         3.1615816495        5.8102534299        8.7697096715
  N         4.3076643942        3.0362635374        8.0386574251
     168
 i =        6, E =     -8144.3527706395
 Fe         5.0938794100       11.8196869300        0.3885799900
 Fe         7.6575796300        7.3792284900        0.3885799900
 Fe        10.2212798400        2.9387700600        0.3885799900
 Fe        -0.0335205200       11.8196869300        0.3885799900
 Fe         2.5301797000        7.3792284900        0.3885799900
 Fe         5.0938799200        2.9387700600        0.3885799900
 Fe        -5.1609204400       11.8196869300        0.3885799900
 Fe        -2.5972202200        7.3792284900        0.3885799900
 Fe        -0.0335200000        2.9387700600        0.3885799900
  O         8.4519195100        8.9577468800        1.1642700400
  O        11.0156197300        4.5172884400        1.1642700400
  O        13.5793199500        0.0768300000        1.1642700400
  O         3.3245195900        8.9577468800        1.1642700400
  O         5.8882198100        4.5172884400        1.1642700400
  O         8.4519200300        0.0768300000        1.1642700400
  O        -1.8028803300        8.9577468800        1.1642700400
  O         0.7608198900        4.5172884400        1.1642700400
  O         3.3245201100        0.0768300000        1.1642700400
  O         8.4568493000       11.7183869300        1.1650400200
  O        11.0205495200        7.2779284900        1.1650400200
  O        13.5842497300        2.8374700500        1.1650400200
  O         3.3294493700       11.7183869300        1.1650400200
  O         5.8931495900        7.2779284900        1.1650400200
  O         8.4568498100        2.8374700500        1.1650400200
  O        -1.7979505500       11.7183869300        1.1650400200
  O         0.7657496700        7.2779284900        1.1650400200
  O         3.3294498900        2.8374700500        1.1650400200
  O         6.0627194200       10.3425368500        1.1660399400
  O         8.6264196400        5.9020784100        1.1660399400
  O        11.1901198600        1.4616199700        1.1660399400
  O         0.9353195000       10.3425368500        1.1660399400
  O         3.4990197200        5.9020784100        1.1660399400
  O         6.0627199400        1.4616199700        1.1660399400
  O        -4.1920804200       10.3425368500        1.1660399400
  O        -1.6283802000        5.9020784100        1.1660399400
  O         0.9353200200        1.4616199700        1.1660399400
 Fe         7.6576695000       13.2997167500        1.9292099500
 Fe        10.2213697200        8.8592583200        1.9292099500
 Fe        12.7850699400        4.4187998800        1.9292099500
 Fe         2.5302695800       13.2997167500        1.9292099500
 Fe         5.0939698000        8.8592583200        1.9292099500
 Fe         7.6576700200        4.4187998800        1.9292099500
 Fe        -2.5971303400       13.2997167500        1.9292099500
 Fe        -0.0334301200        8.8592583200        1.9292099500
 Fe         2.5302701000        4.4187998800        1.9292099500
 Fe         7.6573893600       10.3392168700        2.7128999200
 Fe        10.2210895800        5.8987584300        2.7128999200
 Fe        12.7847898000        1.4582999900        2.7128999200
 Fe         2.5299894400       10.3392168700        2.7128999200
 Fe         5.0936896600        5.8987584300        2.7128999200
 Fe         7.6573898800        1.4582999900        2.7128999200
 Fe        -2.5974104800       10.3392168700        2.7128999200
 Fe        -0.0337102600        5.8987584300        2.7128999200
 Fe         2.5299899600        1.4582999900        2.7128999200
  O         4.1042648614       13.3199264663        3.5335600706
  O         6.6751989448        8.8941852327        3.5549211318
  O         9.2195590423        4.4335588384        3.5288577136
  O        -1.0383567450       13.3120773253        3.5056595193
  O         1.5570035151        8.8834253081        3.5643322836
  O         4.0842302147        4.4220898698        3.5060837067
  O        -6.1580452724       13.3158734005        3.5129120992
  O        -3.5746483727        8.8903818905        3.5663025291
  O        -1.0313244732        4.4349256334        3.5243422142
  O         6.8030896130       11.8709222487        3.4953786508
  O         9.3779848801        7.3960604649        3.5531756021
  O        11.9323645326        2.9862405610        3.4989335774
  O         1.6849578696       11.8638164019        3.5145161800
  O         4.2521582299        7.4132004165        3.5307338694
  O         6.7999317279        2.9763462814        3.5130089694
  O        -3.4333097879       11.8822698993        3.4915897975
  O        -0.8692474507        7.4008440331        3.5566358889
  O         1.6526398846        3.0000999964        3.4682975234
  O         9.4075671088       10.2407216129        3.5330454544
  O        11.9865535616        5.7839815275        3.4782135324
  O        14.5512348617        1.3417445586        3.4886080109
  O         4.2839422383       10.2412303857        3.5296381493
  O         6.8577393780        5.7891430121        3.4988333551
  O         9.4224223676        1.3469753393        3.5048031168
  O        -0.8444649293       10.2364023170        3.5350983035
  O         1.7323870879        5.7917925682        3.4953578630
  O         4.3224737487        1.3075415907        3.4478302918
 Fe         5.0409563991       11.8465195798        4.4479440846
 Fe         7.6002344752        7.3978874369        4.4319312536
 Fe        10.1541195691        2.9535586042        4.4466588128
 Fe        -0.0936299996       11.8554244622        4.4338506556
 Fe         2.4844469442        7.3867710000        4.4227476695
 Fe         5.0114680191        2.9296176930        4.4215855896
 Fe        -5.2050740299       11.8445403542        4.4249921722
 Fe        -2.6659755003        7.3914251194        4.4319732049
 Fe        -0.0929995650        2.9443048568        4.4362699202
 Fe         7.6120855713       13.1813997837        4.8104530990
 Fe        10.1658879982        8.7484724788        4.8500382904
 Fe        12.7223933153        4.2980700302        4.8015489891
 Fe         2.4813037791       13.1852220794        4.8239543588
 Fe         5.0459473438        8.7550415728        4.8535870938
 Fe         7.5908004268        4.2967868099        4.8319074237
 Fe        -2.6366231620       13.1973792906        4.8402499209
 Fe        -0.0812981097        8.7476787819        4.8478674364
 Fe         2.4734975564        4.2877975510        4.8108139312
  O         5.8536948227       10.3545138165        5.8956486782
  O         8.4066891113        5.9104211592        5.8752269983
  O        10.9789691743        1.4693364188        5.8807796916
  O         0.7354455131       10.3469088668        5.8779349564
  O         3.3140755921        5.8959120532        5.8680393561
  O         5.8332098560        1.5031377675        5.8988141498
  O        -4.3967090891       10.3451487951        5.8847222957
  O        -1.8780868315        5.9221173851        5.8249455723
  O         0.7116820659        1.4712013423        5.8554242507
  O         5.9288645043       13.1818436881        5.6995608300
  O         8.4825590873        8.7252505162        5.7150088611
  O        11.0430371621        4.2978149505        5.6866522285
  O         0.7957050969       13.1787821902        5.6963277670
  O         3.3606771872        8.7132366727        5.7211810635
  O         5.8892634211        4.2995254976        5.6749156930
  O        -4.3135483555       13.1502020026        5.7113821635
  O        -1.7700433201        8.7235093099        5.7069176234
  O         0.8001235659        4.3024472881        5.7167591394
  O         3.4683331615       11.7839605002        5.6939466427
  O         6.0408563258        7.3424913814        5.6725080697
  O         8.5840615450        2.8917772232        5.6810976005
  O        -1.6481587527       11.7839578362        5.6953726044
  O         0.9313693523        7.3316242552        5.7065438435
  O         3.3749423346        2.7919626675        5.5683694164
  O        -6.7763553279       11.7788867507        5.6804821596
  O        -4.2229861018        7.3325432018        5.6863544216
  O        -1.6675989408        2.9107090242        5.6833535851
 Fe         7.7850515288       10.2782613236        6.4358110221
 Fe        10.3345117246        5.8310376953        6.4338131877
 Fe        12.9072953093        1.3999589672        6.4354304034
 Fe         2.6597739891       10.2733651018        6.4326430138
 Fe         5.2405308650        5.8484453518        6.4322827483
 Fe         7.7616919137        1.3922482635        6.4390614944
 Fe        -2.4696009157       10.2736537304        6.4358145520
 Fe         0.0300938005        5.8477514389        6.3716531612
 Fe         2.6304631473        1.3235775183        6.4914715959
  O         7.8416789167       10.3733747776        8.2675927065
  H         7.8834014175        9.5388757523        8.7690746083
  H         5.3506916516       10.6323598813        6.6919754967
  O        10.4127530256        5.9421934195        8.2619571406
  H        10.4429791367        5.1099859398        8.7667285687
  H         7.9038969607        6.1785824349        6.6767005513
  O        12.9611018714        1.5161159514        8.2645533903
  H        13.0321803457        0.6896682152        8.7753040469
  H        10.4694699726        1.7188622520        6.6841434913
  O         2.7120790866       10.3803833779        8.2650215539
  H         2.7586824888        9.5578502629        8.7835251922
  H         0.2180552318       10.6116491667        6.6697018223
  O         5.5032149693        6.0566863223        8.2465123852
  H         5.6499212874        5.2290741555        8.7411948264
  H         2.7612171057        6.2983977892        6.5718771749
  O         7.8812394465        1.4988748435        8.2622154566
  H         7.8770332538        0.6659452821        8.7665195236
  H         5.3530779680        1.8718172942        6.6874984297
  O        -2.4085938545       10.3685642671        8.2659139110
  H        -2.3652435863        9.5341615544        8.7672761310
  H        -4.9055385417       10.6141521676        6.6812628093
  O        -0.1887423007        6.0023746782        8.2022162810
  H        -0.5063670129        5.2202105822        8.6879835585
  H        -2.3453854924        6.1950140863        6.6467148315
  O         2.2361410780        1.1012632422        8.2730734000
  H         2.4068742476        0.2513781688        8.7117201419
  H         0.2398552621        1.6496269274        6.7014953945
  C         2.6318402800        4.8365904532        8.8348758970
  C         3.5772867425        3.8237856431        8.4191897185
  H         1.7194663035        4.8561712337        8.2160667517
  H         2.3254227334        4.6530768308        9.8725539049
  H         3.1358034170        5.8133086316        8.7866670319
  N         4.3565639418        3.0415933250        8.0534967883
     168
 i =        7, E =     -8144.3438800678
 Fe         5.0938794100       11.8196869300        0.3885799900
 Fe         7.6575796300        7.3792284900        0.3885799900
 Fe        10.2212798400        2.9387700600        0.3885799900
 Fe        -0.0335205200       11.8196869300        0.3885799900
 Fe         2.5301797000        7.3792284900        0.3885799900
 Fe         5.0938799200        2.9387700600        0.3885799900
 Fe        -5.1609204400       11.8196869300        0.3885799900
 Fe        -2.5972202200        7.3792284900        0.3885799900
 Fe        -0.0335200000        2.9387700600        0.3885799900
  O         8.4519195100        8.9577468800        1.1642700400
  O        11.0156197300        4.5172884400        1.1642700400
  O        13.5793199500        0.0768300000        1.1642700400
  O         3.3245195900        8.9577468800        1.1642700400
  O         5.8882198100        4.5172884400        1.1642700400
  O         8.4519200300        0.0768300000        1.1642700400
  O        -1.8028803300        8.9577468800        1.1642700400
  O         0.7608198900        4.5172884400        1.1642700400
  O         3.3245201100        0.0768300000        1.1642700400
  O         8.4568493000       11.7183869300        1.1650400200
  O        11.0205495200        7.2779284900        1.1650400200
  O        13.5842497300        2.8374700500        1.1650400200
  O         3.3294493700       11.7183869300        1.1650400200
  O         5.8931495900        7.2779284900        1.1650400200
  O         8.4568498100        2.8374700500        1.1650400200
  O        -1.7979505500       11.7183869300        1.1650400200
  O         0.7657496700        7.2779284900        1.1650400200
  O         3.3294498900        2.8374700500        1.1650400200
  O         6.0627194200       10.3425368500        1.1660399400
  O         8.6264196400        5.9020784100        1.1660399400
  O        11.1901198600        1.4616199700        1.1660399400
  O         0.9353195000       10.3425368500        1.1660399400
  O         3.4990197200        5.9020784100        1.1660399400
  O         6.0627199400        1.4616199700        1.1660399400
  O        -4.1920804200       10.3425368500        1.1660399400
  O        -1.6283802000        5.9020784100        1.1660399400
  O         0.9353200200        1.4616199700        1.1660399400
 Fe         7.6576695000       13.2997167500        1.9292099500
 Fe        10.2213697200        8.8592583200        1.9292099500
 Fe        12.7850699400        4.4187998800        1.9292099500
 Fe         2.5302695800       13.2997167500        1.9292099500
 Fe         5.0939698000        8.8592583200        1.9292099500
 Fe         7.6576700200        4.4187998800        1.9292099500
 Fe        -2.5971303400       13.2997167500        1.9292099500
 Fe        -0.0334301200        8.8592583200        1.9292099500
 Fe         2.5302701000        4.4187998800        1.9292099500
 Fe         7.6573893600       10.3392168700        2.7128999200
 Fe        10.2210895800        5.8987584300        2.7128999200
 Fe        12.7847898000        1.4582999900        2.7128999200
 Fe         2.5299894400       10.3392168700        2.7128999200
 Fe         5.0936896600        5.8987584300        2.7128999200
 Fe         7.6573898800        1.4582999900        2.7128999200
 Fe        -2.5974104800       10.3392168700        2.7128999200
 Fe        -0.0337102600        5.8987584300        2.7128999200
 Fe         2.5299899600        1.4582999900        2.7128999200
  O         4.0824163658       13.3276100098        3.5171187594
  O         6.6493408133        8.8664670046        3.4934734504
  O         9.2287030199        4.4471561508        3.5267186255
  O        -0.9728819928       13.3408544216        3.6198915681
  O         1.5269164462        8.8944032106        3.5102692366
  O         4.1139490888        4.4706695295        3.5723609869
  O        -6.1366840092       13.3285213115        3.5517789991
  O        -3.6088886853        8.8759214907        3.5036348137
  O        -1.0390803549        4.4336443439        3.5026589730
  O         6.8138690646       11.8425410596        3.5440155301
  O         9.3794978423        7.4370781480        3.5036466187
  O        11.9308289323        2.9972284620        3.4827171153
  O         1.6903775906       11.8715985779        3.4984012319
  O         4.2572571210        7.4396893134        3.4833557044
  O         6.8093446697        2.9794058700        3.5116453168
  O        -3.4363571202       11.8119117576        3.5915184320
  O        -0.8673655017        7.4181207018        3.5165171797
  O         1.6342414744        2.9677220585        3.4965825945
  O         9.4281728981       10.2048294011        3.4937612604
  O        11.9951407693        5.7853124556        3.4694770628
  O        14.5307485733        1.3580232626        3.5166560655
  O         4.3050328345       10.2155299616        3.4784160902
  O         6.8391747017        5.7884578726        3.5152286301
  O         9.4295908081        1.3371871275        3.4908770875
  O        -0.8290900996       10.2181857009        3.5002176338
  O         1.7022885277        5.8143636532        3.5643152053
  O         4.2639859707        1.3253372185        3.5489659825
 Fe         5.0138533972       11.8397501290        4.4175425052
 Fe         7.6125452658        7.4057673454        4.4154725677
 Fe        10.1484106781        2.9575299622        4.4125937291
 Fe        -0.0746517006       11.8107357049        4.4417786729
 Fe         2.4882641349        7.4441514451        4.3957207693
 Fe         5.0314925512        2.9462685526        4.4089674157
 Fe        -5.2311040420       11.8145750912        4.4258511277
 Fe        -2.6606004418        7.4164462822        4.4124824873
 Fe        -0.1070579353        2.9543707063        4.4392816547
 Fe         7.6045076880       13.1929434632        4.8102736792
 Fe        10.1789999332        8.7412603851        4.8514866264
 Fe        12.7248058244        4.2994631649        4.7833205207
 Fe         2.4768293445       13.1817805164        4.8226178167
 Fe         5.0455837519        8.7545050559        4.8213204582
 Fe         7.6108248842        4.3078638059        4.8093958580
 Fe        -2.6366343253       13.1895450697        4.8771289177
 Fe        -0.0697376617        8.7351982156        4.8340781411
 Fe         2.4726201661        4.2834275006        4.8099693938
  O         5.8463412994       10.3448639677        5.8971527460
  O         8.4070137462        5.9012374664        5.8798324432
  O        10.9864812122        1.4842791821        5.8722506982
  O         0.7254390728       10.3444578471        5.8780456781
  O         3.3153811720        5.9054324768        5.8751549713
  O         5.8228139771        1.5027818805        5.8860989605
  O        -4.3928025805       10.3493782103        5.8880059055
  O        -1.8899410197        5.9159514667        5.8247689459
  O         0.7140913997        1.4611312797        5.8401902966
  O         5.9176215086       13.1638957868        5.6802649588
  O         8.4853289944        8.7341769573        5.7073107013
  O        11.0400404957        4.2978485557        5.6673133877
  O         0.7800190289       13.1824151623        5.6890146122
  O         3.3877736702        8.7144418904        5.7502855471
  O         5.9112436923        4.3057121995        5.6523720467
  O        -4.3326695738       13.1369150590        5.6920099025
  O        -1.7465701104        8.7293444374        5.7154562525
  O         0.8070564738        4.3129840253        5.7110525192
  O         3.4663392394       11.7722467770        5.6965657381
  O         6.0340285457        7.3403378797        5.6500985781
  O         8.5857710029        2.8952285859        5.6641519425
  O        -1.6434347070       11.7784339586        5.6950963143
  O         0.9478321138        7.3225554484        5.7097186119
  O         3.3971069510        2.8030148017        5.5556863387
  O        -6.8026405176       11.7827730970        5.6729916984
  O        -4.2083616929        7.3269184739        5.6886069745
  O        -1.6831283313        2.9123853222        5.6787446103
 Fe         7.7897586715       10.2781056395        6.4476996940
 Fe        10.3352433240        5.8349428555        6.4260202414
 Fe        12.9191220152        1.3870725568        6.4293639766
 Fe         2.6418820833       10.2713018529        6.4417763195
 Fe         5.2600054212        5.8397412106        6.4407273375
 Fe         7.7515908883        1.4010398355        6.4325366004
 Fe        -2.4687154294       10.2718095323        6.4332274085
 Fe         0.0175022813        5.8500998001        6.3592899272
 Fe         2.6386122873        1.3229745050        6.4722620470
  O         7.8424407342       10.3818040400        8.2758318554
  H         7.8839435630        9.5379003310        8.7612104043
  H         5.3601208301       10.6462516096        6.7041716360
  O        10.4119778352        5.9370540621        8.2589588491
  H        10.4408879675        5.1080735921        8.7706879065
  H         7.8950700842        6.1749880469        6.6731274006
  O        12.9608703221        1.5167002235        8.2599041830
  H        13.0321828148        0.6936629187        8.7754077387
  H        10.4632263278        1.7093624213        6.6778658558
  O         2.7168554660       10.3877617569        8.2714703588
  H         2.7580397405        9.5571438135        8.7771029862
  H         0.2244177517       10.6207904627        6.6762752010
  O         5.5152216252        6.0659009831        8.2549827207
  H         5.6706188810        5.2327009479        8.7389470396
  H         2.7558918268        6.2934651867        6.5886755882
  O         7.8962128425        1.4933881547        8.2573616814
  H         7.8776852464        0.6657191454        8.7724359966
  H         5.3712041191        1.8690437489        6.7001188551
  O        -2.4083234206       10.3686792641        8.2639868961
  H        -2.3652741279        9.5341039291        8.7641952735
  H        -4.9083913491       10.6193513113        6.6804163151
  O        -0.1930513845        5.9950813412        8.1989112189
  H        -0.5240248519        5.2184975535        8.6923905459
  H        -2.3472042335        6.1973083995        6.6498914662
  O         2.1792271044        1.1025625815        8.2588722748
  H         2.3961770495        0.2424304279        8.6966107449
  H         0.2366506579        1.6422342206        6.6785245344
  C         2.6544029372        4.8159625477        8.8542150573
  C         3.6220480277        3.8034298134        8.4782442334
  H         1.7547254517        4.8439264862        8.2531900389
  H         2.3036316188        4.6612307263        9.8861573741
  H         3.1090518092        5.8146293425        8.8056808315
  N         4.4404119505        3.0461584067        8.1152612382
     168
 i =        8, E =     -8144.3563296479
 Fe         5.0938794100       11.8196869300        0.3885799900
 Fe         7.6575796300        7.3792284900        0.3885799900
 Fe        10.2212798400        2.9387700600        0.3885799900
 Fe        -0.0335205200       11.8196869300        0.3885799900
 Fe         2.5301797000        7.3792284900        0.3885799900
 Fe         5.0938799200        2.9387700600        0.3885799900
 Fe        -5.1609204400       11.8196869300        0.3885799900
 Fe        -2.5972202200        7.3792284900        0.3885799900
 Fe        -0.0335200000        2.9387700600        0.3885799900
  O         8.4519195100        8.9577468800        1.1642700400
  O        11.0156197300        4.5172884400        1.1642700400
  O        13.5793199500        0.0768300000        1.1642700400
  O         3.3245195900        8.9577468800        1.1642700400
  O         5.8882198100        4.5172884400        1.1642700400
  O         8.4519200300        0.0768300000        1.1642700400
  O        -1.8028803300        8.9577468800        1.1642700400
  O         0.7608198900        4.5172884400        1.1642700400
  O         3.3245201100        0.0768300000        1.1642700400
  O         8.4568493000       11.7183869300        1.1650400200
  O        11.0205495200        7.2779284900        1.1650400200
  O        13.5842497300        2.8374700500        1.1650400200
  O         3.3294493700       11.7183869300        1.1650400200
  O         5.8931495900        7.2779284900        1.1650400200
  O         8.4568498100        2.8374700500        1.1650400200
  O        -1.7979505500       11.7183869300        1.1650400200
  O         0.7657496700        7.2779284900        1.1650400200
  O         3.3294498900        2.8374700500        1.1650400200
  O         6.0627194200       10.3425368500        1.1660399400
  O         8.6264196400        5.9020784100        1.1660399400
  O        11.1901198600        1.4616199700        1.1660399400
  O         0.9353195000       10.3425368500        1.1660399400
  O         3.4990197200        5.9020784100        1.1660399400
  O         6.0627199400        1.4616199700        1.1660399400
  O        -4.1920804200       10.3425368500        1.1660399400
  O        -1.6283802000        5.9020784100        1.1660399400
  O         0.9353200200        1.4616199700        1.1660399400
 Fe         7.6576695000       13.2997167500        1.9292099500
 Fe        10.2213697200        8.8592583200        1.9292099500
 Fe        12.7850699400        4.4187998800        1.9292099500
 Fe         2.5302695800       13.2997167500        1.9292099500
 Fe         5.0939698000        8.8592583200        1.9292099500
 Fe         7.6576700200        4.4187998800        1.9292099500
 Fe        -2.5971303400       13.2997167500        1.9292099500
 Fe        -0.0334301200        8.8592583200        1.9292099500
 Fe         2.5302701000        4.4187998800        1.9292099500
 Fe         7.6573893600       10.3392168700        2.7128999200
 Fe        10.2210895800        5.8987584300        2.7128999200
 Fe        12.7847898000        1.4582999900        2.7128999200
 Fe         2.5299894400       10.3392168700        2.7128999200
 Fe         5.0936896600        5.8987584300        2.7128999200
 Fe         7.6573898800        1.4582999900        2.7128999200
 Fe        -2.5974104800       10.3392168700        2.7128999200
 Fe        -0.0337102600        5.8987584300        2.7128999200
 Fe         2.5299899600        1.4582999900        2.7128999200
  O         4.0867339155       13.3226877742        3.5172990891
  O         6.6809644356        8.8840331871        3.5462405346
  O         9.2197918286        4.4410298169        3.5193803181
  O        -0.9941201319       13.3355580873        3.5866451891
  O         1.5335598433        8.8875889342        3.5256260980
  O         4.0969675375        4.4474073249        3.5355810172
  O        -6.1547062932       13.3165038395        3.5189667245
  O        -3.6001163523        8.8779977525        3.5175100894
  O        -1.0131017210        4.4436618344        3.5519311357
  O         6.8153485948       11.8635515101        3.5124891340
  O         9.3800029204        7.4286400800        3.5128585710
  O        11.9298782638        2.9658502985        3.5292313743
  O         1.6910522079       11.8721034622        3.5003922000
  O         4.2516498612        7.4125766102        3.5273114021
  O         6.8065518521        2.9838835062        3.5057715518
  O        -3.4365646071       11.8281061018        3.5657827344
  O        -0.8672247151        7.4202720759        3.5214465390
  O         1.6476158881        2.9874230030        3.4777291550
  O         9.4227181801       10.2150965481        3.5031779523
  O        11.9711208613        5.7984436420        3.5124463557
  O        14.5443410377        1.3433878644        3.4914146609
  O         4.2766897369       10.2364501781        3.5313760284
  O         6.8501662273        5.7858922647        3.4994781562
  O         9.4291081628        1.3407721717        3.4893343943
  O        -0.8313830656       10.2183404660        3.5056182019
  O         1.7178913378        5.8006286006        3.5244411910
  O         4.2821205444        1.3268909273        3.5215170845
 Fe         5.0308905507       11.8498101456        4.4268539531
 Fe         7.6128412407        7.3927059478        4.4221911875
 Fe        10.1416140069        2.9574612759        4.4261183619
 Fe        -0.0822580392       11.8242339162        4.4316999697
 Fe         2.4779216842        7.4157017801        4.4070650042
 Fe         5.0242305292        2.9462179476        4.4203291749
 Fe        -5.2256283863       11.8275037855        4.4228999932
 Fe        -2.6569911972        7.4173953632        4.4238726391
 Fe        -0.0925156778        2.9364663802        4.4363142691
 Fe         7.6077449742       13.1890346908        4.8042998136
 Fe        10.1753535165        8.7438274793        4.8500557654
 Fe        12.7229290671        4.2984295873        4.8077164892
 Fe         2.4773911242       13.1862910214        4.8220374051
 Fe         5.0471586347        8.7544361561        4.8421786307
 Fe         7.6038553446        4.3063778645        4.8142203405
 Fe        -2.6376837078       13.1909520227        4.8692025148
 Fe        -0.0743831120        8.7393635767        4.8413582630
 Fe         2.4733551040        4.2881931554        4.8066255306
  O         5.8499408176       10.3525440555        5.8957906169
  O         8.4074892409        5.9015736606        5.8831543009
  O        10.9825311253        1.4761765592        5.8768422176
  O         0.7284423286       10.3458028692        5.8818403399
  O         3.3168696006        5.8985199699        5.8762731476
  O         5.8278442338        1.5032489894        5.8945670822
  O        -4.3973486475       10.3464923642        5.8886571074
  O        -1.8821810591        5.9178567434        5.8268476888
  O         0.7113378907        1.4626374374        5.8438932056
  O         5.9247211887       13.1746595390        5.6883147861
  O         8.4862345909        8.7313730060        5.7083783804
  O        11.0351561446        4.2970927690        5.6779647485
  O         0.7878557255       13.1776289234        5.6927667336
  O         3.3733835621        8.7143499515        5.7359415381
  O         5.9081701574        4.3047497151        5.6634520249
  O        -4.3287377851       13.1438487425        5.7020364122
  O        -1.7511808421        8.7316625980        5.7165765726
  O         0.8030537188        4.3074109182        5.7094184094
  O         3.4675080408       11.7779928177        5.6911722749
  O         6.0390140086        7.3401917476        5.6585094326
  O         8.5814449687        2.8971161234        5.6726053430
  O        -1.6437963729       11.7782770415        5.6969778495
  O         0.9389023097        7.3300277275        5.7140276642
  O         3.3878493588        2.8054542186        5.5723201661
  O        -6.7957027076       11.7822710063        5.6742446337
  O        -4.2159733777        7.3300330707        5.6865851819
  O        -1.6726027907        2.9062172062        5.6756559670
 Fe         7.7870078652       10.2782229202        6.4423823358
 Fe        10.3351822174        5.8353575582        6.4326850770
 Fe        12.9137820462        1.3939899289        6.4335808542
 Fe         2.6510574080       10.2729041629        6.4405924278
 Fe         5.2531731089        5.8438304565        6.4369255968
 Fe         7.7584714848        1.3963131249        6.4349672310
 Fe        -2.4717633373       10.2734113255        6.4368033470
 Fe         0.0248192224        5.8477919981        6.3649930481
 Fe         2.6303992361        1.3259658322        6.4793875626
  O         7.8433987146       10.3788177073        8.2723444521
  H         7.8834161748        9.5383987960        8.7640036372
  H         5.3563547593       10.6397840805        6.6997585331
  O        10.4123130790        5.9385187606        8.2629479722
  H        10.4409267190        5.1071857185        8.7701278235
  H         7.8979655932        6.1772123044        6.6784332635
  O        12.9606413543        1.5167865387        8.2631103385
  H        13.0326316549        0.6921390147        8.7764860625
  H        10.4668703199        1.7142188444        6.6816583368
  O         2.7142338899       10.3857364025        8.2713732958
  H         2.7585447460        9.5569831035        8.7801888052
  H         0.2227941690       10.6204051727        6.6790651562
  O         5.5165396171        6.0640810978        8.2507752854
  H         5.6695841875        5.2335723005        8.7396287887
  H         2.7579042020        6.2938022365        6.5828932445
  O         7.8954768751        1.4954934218        8.2598535221
  H         7.8780481735        0.6657153077        8.7711159056
  H         5.3650382482        1.8710204721        6.6992230315
  O        -2.4084007862       10.3693882794        8.2667770193
  H        -2.3651544514        9.5333590729        8.7648527041
  H        -4.9057683837       10.6202008326        6.6844354595
  O        -0.1906502451        5.9947775762        8.2006217903
  H        -0.5219569116        5.2181106930        8.6905499392
  H        -2.3480970249        6.1954779068        6.6482554774
  O         2.1947737240        1.1065193501        8.2605858047
  H         2.3942614042        0.2490465895        8.6947645912
  H         0.2381753778        1.6441829964        6.6860394499
  C         2.6488050759        4.8196932381        8.8602505739
  C         3.6116889295        3.8128586697        8.4633760006
  H         1.7524527726        4.8337314874        8.2373388615
  H         2.3105051067        4.6542711197        9.8920209108
  H         3.1217599026        5.8111694909        8.8049521408
  N         4.4192738650        3.0428689877        8.1104826336
     168
 i =        9, E =     -8144.3517123680
 Fe         5.0938794100       11.8196869300        0.3885799900
 Fe         7.6575796300        7.3792284900        0.3885799900
 Fe        10.2212798400        2.9387700600        0.3885799900
 Fe        -0.0335205200       11.8196869300        0.3885799900
 Fe         2.5301797000        7.3792284900        0.3885799900
 Fe         5.0938799200        2.9387700600        0.3885799900
 Fe        -5.1609204400       11.8196869300        0.3885799900
 Fe        -2.5972202200        7.3792284900        0.3885799900
 Fe        -0.0335200000        2.9387700600        0.3885799900
  O         8.4519195100        8.9577468800        1.1642700400
  O        11.0156197300        4.5172884400        1.1642700400
  O        13.5793199500        0.0768300000        1.1642700400
  O         3.3245195900        8.9577468800        1.1642700400
  O         5.8882198100        4.5172884400        1.1642700400
  O         8.4519200300        0.0768300000        1.1642700400
  O        -1.8028803300        8.9577468800        1.1642700400
  O         0.7608198900        4.5172884400        1.1642700400
  O         3.3245201100        0.0768300000        1.1642700400
  O         8.4568493000       11.7183869300        1.1650400200
  O        11.0205495200        7.2779284900        1.1650400200
  O        13.5842497300        2.8374700500        1.1650400200
  O         3.3294493700       11.7183869300        1.1650400200
  O         5.8931495900        7.2779284900        1.1650400200
  O         8.4568498100        2.8374700500        1.1650400200
  O        -1.7979505500       11.7183869300        1.1650400200
  O         0.7657496700        7.2779284900        1.1650400200
  O         3.3294498900        2.8374700500        1.1650400200
  O         6.0627194200       10.3425368500        1.1660399400
  O         8.6264196400        5.9020784100        1.1660399400
  O        11.1901198600        1.4616199700        1.1660399400
  O         0.9353195000       10.3425368500        1.1660399400
  O         3.4990197200        5.9020784100        1.1660399400
  O         6.0627199400        1.4616199700        1.1660399400
  O        -4.1920804200       10.3425368500        1.1660399400
  O        -1.6283802000        5.9020784100        1.1660399400
  O         0.9353200200        1.4616199700        1.1660399400
 Fe         7.6576695000       13.2997167500        1.9292099500
 Fe        10.2213697200        8.8592583200        1.9292099500
 Fe        12.7850699400        4.4187998800        1.9292099500
 Fe         2.5302695800       13.2997167500        1.9292099500
 Fe         5.0939698000        8.8592583200        1.9292099500
 Fe         7.6576700200        4.4187998800        1.9292099500
 Fe        -2.5971303400       13.2997167500        1.9292099500
 Fe        -0.0334301200        8.8592583200        1.9292099500
 Fe         2.5302701000        4.4187998800        1.9292099500
 Fe         7.6573893600       10.3392168700        2.7128999200
 Fe        10.2210895800        5.8987584300        2.7128999200
 Fe        12.7847898000        1.4582999900        2.7128999200
 Fe         2.5299894400       10.3392168700        2.7128999200
 Fe         5.0936896600        5.8987584300        2.7128999200
 Fe         7.6573898800        1.4582999900        2.7128999200
 Fe        -2.5974104800       10.3392168700        2.7128999200
 Fe        -0.0337102600        5.8987584300        2.7128999200
 Fe         2.5299899600        1.4582999900        2.7128999200
  O         4.0994544778       13.3132830418        3.5185769284
  O         6.6650142874        8.8956819545        3.5466805682
  O         9.2036970571        4.4246166347        3.5034082132
  O        -1.0545402007       13.3108771213        3.4821857867
  O         1.5441786108        8.8681170081        3.5448527344
  O         4.0823718256        4.4091965903        3.4950939475
  O        -6.1703237854       13.3024205341        3.4909544035
  O        -3.5820065173        8.8785340105        3.5414298800
  O        -1.0342770460        4.4359521299        3.5234931597
  O         6.8059179892       11.8871444666        3.4752805494
  O         9.3799711201        7.4136758971        3.5257963814
  O        11.9373299047        2.9827449159        3.5038319645
  O         1.6888957160       11.8733566297        3.5012475691
  O         4.2511850075        7.4278024455        3.5211119111
  O         6.7994485878        2.9940339591        3.4867511120
  O        -3.4333325896       11.8877814470        3.4785256879
  O        -0.8659697644        7.4262279090        3.5303457888
  O         1.6688101001        3.0049594362        3.4715850311
  O         9.4161324097       10.2338331946        3.5105643125
  O        11.9853113093        5.7830640325        3.4781522586
  O        14.5618388984        1.3313912496        3.4727028835
  O         4.2874434893       10.2311456352        3.5264237962
  O         6.8750948648        5.7842231242        3.4669249662
  O         9.4260199763        1.3452540049        3.4897006031
  O        -0.8326075722       10.2208229580        3.5105762051
  O         1.7362024414        5.7882437658        3.4802435904
  O         4.3289894101        1.3154129952        3.4376502063
 Fe         5.0411992921       11.8454273411        4.4404685972
 Fe         7.6008049726        7.3942450581        4.4185869030
 Fe        10.1541665713        2.9566347600        4.4391831617
 Fe        -0.1013902315       11.8578590718        4.4061454723
 Fe         2.4842221206        7.3769311498        4.4239434422
 Fe         5.0134827097        2.9269063904        4.4361015395
 Fe        -5.2007628290       11.8399085271        4.4171463365
 Fe        -2.6652526007        7.3878208860        4.4215289131
 Fe        -0.0900268174        2.9454248151        4.4201037788
 Fe         7.6127533585       13.1773069575        4.8067681691
 Fe        10.1661592617        8.7498512775        4.8413161890
 Fe        12.7213353687        4.2974800208        4.8117393754
 Fe         2.4804496981       13.1921923336        4.8187994600
 Fe         5.0487256327        8.7535389593        4.8622704338
 Fe         7.5880448745        4.2986330083        4.8215535704
 Fe        -2.6391183739       13.1972114098        4.8388441852
 Fe        -0.0836517664        8.7498708915        4.8537503312
 Fe         2.4768313367        4.2951491877        4.8133692343
  O         5.8559860706       10.3627233263        5.8916116377
  O         8.4045610074        5.9084045955        5.8845217444
  O        10.9714155801        1.4613729766        5.8856511181
  O         0.7350353503       10.3505282562        5.8869304466
  O         3.3177159459        5.8882444654        5.8746320043
  O         5.8375219622        1.5022207847        5.9123863018
  O        -4.4039784945       10.3388981007        5.8915945745
  O        -1.8723131677        5.9194830555        5.8310944200
  O         0.7059255944        1.4777364943        5.8469227338
  O         5.9286199223       13.1866818468        5.6980026334
  O         8.4892027047        8.7239776670        5.7141238598
  O        11.0413484201        4.2945837276        5.6979765319
  O         0.8036865553       13.1701250194        5.6966278251
  O         3.3561188456        8.7166932736        5.7138955897
  O         5.8927346250        4.3004991543        5.6793396554
  O        -4.3195642546       13.1582767164        5.7171654324
  O        -1.7731933596        8.7232439940        5.7067318958
  O         0.8000386484        4.2968288698        5.7141425380
  O         3.4651809511       11.7933213680        5.6899807049
  O         6.0462714591        7.3429962011        5.6745410179
  O         8.5828321141        2.8971800855        5.6830647524
  O        -1.6464693288       11.7833314249        5.6984512106
  O         0.9281406214        7.3380549785        5.7096862766
  O         3.3749233898        2.8065998932        5.6031650643
  O        -6.7730360160       11.7770380713        5.6761171186
  O        -4.2287152015        7.3434111249        5.6882222280
  O        -1.6596766402        2.9018083516        5.6785796731
 Fe         7.7817931077       10.2777880188        6.4309930079
 Fe        10.3387310260        5.8344047912        6.4426873182
 Fe        12.9011712866        1.4031074320        6.4409648357
 Fe         2.6684079414       10.2762336070        6.4339917562
 Fe         5.2375949179        5.8526720992        6.4300920235
 Fe         7.7721942548        1.3872558385        6.4410445414
 Fe        -2.4729152097       10.2750449127        6.4411744365
 Fe         0.0376331674        5.8427281863        6.3760075571
 Fe         2.6193888647        1.3322919137        6.4967286165
  O         7.8448165078       10.3724897007        8.2648221930
  H         7.8826428106        9.5394222912        8.7696947551
  H         5.3492757865       10.6284754117        6.6894325488
  O        10.4133980136        5.9414993196        8.2704562671
  H        10.4410472060        5.1054568708        8.7693583237
  H         7.9035793047        6.1811360155        6.6894375731
  O        12.9602248394        1.5177332112        8.2697940677
  H        13.0333327861        0.6891418197        8.7778990975
  H        10.4730971483        1.7227233534        6.6913836497
  O         2.7096521027       10.3800186761        8.2669903462
  H         2.7593537504        9.5576610684        8.7860712302
  H         0.2195908159       10.6188659557        6.6819762318
  O         5.5180738874        6.0606998937        8.2434809255
  H         5.6662354954        5.2347551297        8.7409889681
  H         2.7625898897        6.2939503036        6.5722183957
  O         7.8928892223        1.5002364175        8.2661886630
  H         7.8790529835        0.6654641139        8.7683105646
  H         5.3528061314        1.8748081345        6.6973580417
  O        -2.4093932675       10.3708812442        8.2719810550
  H        -2.3649141195        9.5319852653        8.7666111317
  H        -4.9029196851       10.6205169664        6.6911231251
  O        -0.1852855219        5.9943983258        8.2042238081
  H        -0.5163212265        5.2172033462        8.6871067926
  H        -2.3489953898        6.1934993210        6.6483380432
  O         2.2265314526        1.1149580934        8.2675906331
  H         2.3928218330        0.2622253665        8.6929761429
  H         0.2405004641        1.6470897476        6.7005889365
  C         2.6384372531        4.8290918956        8.8616917971
  C         3.5919281166        3.8248663076        8.4440754112
  H         1.7423339382        4.8159456031        8.2089870735
  H         2.3265503316        4.6414504342        9.8952937309
  H         3.1457521594        5.8064319086        8.8058413961
  N         4.3706524688        3.0374436455        8.0879077471
     168
 i =       10, E =     -8144.3561445136
 Fe         5.0938794100       11.8196869300        0.3885799900
 Fe         7.6575796300        7.3792284900        0.3885799900
 Fe        10.2212798400        2.9387700600        0.3885799900
 Fe        -0.0335205200       11.8196869300        0.3885799900
 Fe         2.5301797000        7.3792284900        0.3885799900
 Fe         5.0938799200        2.9387700600        0.3885799900
 Fe        -5.1609204400       11.8196869300        0.3885799900
 Fe        -2.5972202200        7.3792284900        0.3885799900
 Fe        -0.0335200000        2.9387700600        0.3885799900
  O         8.4519195100        8.9577468800        1.1642700400
  O        11.0156197300        4.5172884400        1.1642700400
  O        13.5793199500        0.0768300000        1.1642700400
  O         3.3245195900        8.9577468800        1.1642700400
  O         5.8882198100        4.5172884400        1.1642700400
  O         8.4519200300        0.0768300000        1.1642700400
  O        -1.8028803300        8.9577468800        1.1642700400
  O         0.7608198900        4.5172884400        1.1642700400
  O         3.3245201100        0.0768300000        1.1642700400
  O         8.4568493000       11.7183869300        1.1650400200
  O        11.0205495200        7.2779284900        1.1650400200
  O        13.5842497300        2.8374700500        1.1650400200
  O         3.3294493700       11.7183869300        1.1650400200
  O         5.8931495900        7.2779284900        1.1650400200
  O         8.4568498100        2.8374700500        1.1650400200
  O        -1.7979505500       11.7183869300        1.1650400200
  O         0.7657496700        7.2779284900        1.1650400200
  O         3.3294498900        2.8374700500        1.1650400200
  O         6.0627194200       10.3425368500        1.1660399400
  O         8.6264196400        5.9020784100        1.1660399400
  O        11.1901198600        1.4616199700        1.1660399400
  O         0.9353195000       10.3425368500        1.1660399400
  O         3.4990197200        5.9020784100        1.1660399400
  O         6.0627199400        1.4616199700        1.1660399400
  O        -4.1920804200       10.3425368500        1.1660399400
  O        -1.6283802000        5.9020784100        1.1660399400
  O         0.9353200200        1.4616199700        1.1660399400
 Fe         7.6576695000       13.2997167500        1.9292099500
 Fe        10.2213697200        8.8592583200        1.9292099500
 Fe        12.7850699400        4.4187998800        1.9292099500
 Fe         2.5302695800       13.2997167500        1.9292099500
 Fe         5.0939698000        8.8592583200        1.9292099500
 Fe         7.6576700200        4.4187998800        1.9292099500
 Fe        -2.5971303400       13.2997167500        1.9292099500
 Fe        -0.0334301200        8.8592583200        1.9292099500
 Fe         2.5302701000        4.4187998800        1.9292099500
 Fe         7.6573893600       10.3392168700        2.7128999200
 Fe        10.2210895800        5.8987584300        2.7128999200
 Fe        12.7847898000        1.4582999900        2.7128999200
 Fe         2.5299894400       10.3392168700        2.7128999200
 Fe         5.0936896600        5.8987584300        2.7128999200
 Fe         7.6573898800        1.4582999900        2.7128999200
 Fe        -2.5974104800       10.3392168700        2.7128999200
 Fe        -0.0337102600        5.8987584300        2.7128999200
 Fe         2.5299899600        1.4582999900        2.7128999200
  O         4.0919284757       13.3122936056        3.5082446286
  O         6.6576972525        8.8877617183        3.5281236101
  O         9.2233148336        4.4340376080        3.5384014097
  O        -1.0506261487       13.3100692258        3.4856240263
  O         1.5366285339        8.8673155833        3.5287653272
  O         4.1028341875        4.4268455297        3.5324547620
  O        -6.1684831212       13.3018028679        3.4908240970
  O        -3.5938054440        8.8731343352        3.5212433887
  O        -1.0316944436        4.4381455168        3.5269649110
  O         6.8066606482       11.8815234256        3.4778347806
  O         9.3800194053        7.4281711451        3.5069883628
  O        11.9372633477        2.9838524169        3.5021666713
  O         1.6885843412       11.8758189035        3.4947781042
  O         4.2513273176        7.4388367034        3.5057719966
  O         6.7983436101        2.9705400010        3.5242831128
  O        -3.4327862211       11.8847422829        3.4802282070
  O        -0.8663898731        7.4342981576        3.5149493824
  O         1.6629447176        2.9823441518        3.5043886833
  O         9.4265933067       10.2241595831        3.4931391823
  O        11.9845237577        5.7844228105        3.4804722192
  O        14.5594521675        1.3335500882        3.4720792771
  O         4.2922611065       10.2243017600        3.5133020241
  O         6.8598780747        5.7975169235        3.5018727599
  O         9.4307588241        1.3407826913        3.4787172795
  O        -0.8252525993       10.2199380368        3.4982499594
  O         1.7172289294        5.8023387031        3.5180826046
  O         4.3241275753        1.3161674045        3.4414417801
 Fe         5.0366006961       11.8444466611        4.4277411508
 Fe         7.6086204403        7.4062244604        4.4233069469
 Fe        10.1596886707        2.9438547028        4.4381810059
 Fe        -0.0998826681       11.8550141938        4.4114134110
 Fe         2.4870074802        7.3926867712        4.4251482894
 Fe         5.0093272551        2.9201699205        4.4374837697
 Fe        -5.2030574538       11.8358510503        4.4123982312
 Fe        -2.6643627630        7.3943425923        4.4152475713
 Fe        -0.0992512915        2.9431309659        4.4268910889
 Fe         7.6098733373       13.1760407048        4.8023622144
 Fe        10.1695029066        8.7484028907        4.8371315190
 Fe        12.7211746354        4.2982533748        4.8114184574
 Fe         2.4787644744       13.1924590655        4.8129711428
 Fe         5.0506164929        8.7540667334        4.8538640303
 Fe         7.5906769574        4.3001132264        4.8362020888
 Fe        -2.6396578914       13.1972892896        4.8373500619
 Fe        -0.0822938536        8.7482721291        4.8450860198
 Fe         2.4774590843        4.2972904155        4.8271546765
  O         5.8534373301       10.3608128278        5.8916007203
  O         8.4084822168        5.9089689675        5.8837583607
  O        10.9725923966        1.4611379680        5.8822012387
  O         0.7350557914       10.3486833857        5.8863904551
  O         3.3203833952        5.8928988196        5.8796670590
  O         5.8351583558        1.5002786301        5.9124268776
  O        -4.4030364115       10.3387462962        5.8910660266
  O        -1.8731930435        5.9192290992        5.8309800579
  O         0.7037593355        1.4731358820        5.8399640750
  O         5.9240732543       13.1825867875        5.6917627298
  O         8.4935992052        8.7313104312        5.7119014945
  O        11.0394141673        4.2940724171        5.6925351597
  O         0.8038403470       13.1721888133        5.6969307200
  O         3.3635776607        8.7211458529        5.7173181340
  O         5.8900751103        4.2962078686        5.6777583726
  O        -4.3199338184       13.1521019943        5.7154027868
  O        -1.7688261726        8.7249144936        5.7042247787
  O         0.7975117485        4.2973750337        5.7153480544
  O         3.4645252248       11.7886724572        5.6821512983
  O         6.0445737225        7.3429456121        5.6679140654
  O         8.5869394481        2.8919584742        5.6788501160
  O        -1.6496000095       11.7833302038        5.6981784194
  O         0.9277305857        7.3405611342        5.7118416710
  O         3.3805423378        2.8136964238        5.6116983969
  O        -6.7766242767       11.7748604287        5.6720896402
  O        -4.2263233083        7.3425368632        5.6867538826
  O        -1.6662632495        2.9038820200        5.6820419132
 Fe         7.7811766947       10.2786938215        6.4336220810
 Fe        10.3398209075        5.8338038515        6.4389134548
 Fe        12.9009971607        1.3994562164        6.4372359265
 Fe         2.6672802121       10.2776245065        6.4367150596
 Fe         5.2434140433        5.8502674293        6.4302316468
 Fe         7.7688561653        1.3879261521        6.4390114932
 Fe        -2.4720741965       10.2735803684        6.4409488623
 Fe         0.0364447329        5.8438672502        6.3749022087
 Fe         2.6180668055        1.3293508351        6.4872004356
  O         7.8457863549       10.3747359248        8.2663018691
  H         7.8827827233        9.5394646263        8.7674103746
  H         5.3515113934       10.6317368146        6.6910415716
  O        10.4137943262        5.9390013260        8.2680811948
  H        10.4398208073        5.1048079443        8.7703220966
  H         7.9013281000        6.1783510453        6.6849158819
  O        12.9605833704        1.5172406908        8.2661162283
  H        13.0334883450        0.6913435213        8.7782932469
  H        10.4721389615        1.7201129586        6.6867781590
  O         2.7103915553       10.3829129811        8.2691748661
  H         2.7594187725        9.5577341594        8.7837724990
  H         0.2206962430       10.6216840398        6.6808005053
  O         5.5266548886        6.0636648129        8.2430610662
  H         5.6774184661        5.2382274400        8.7407351650
  H         2.7617703475        6.2926773840        6.5783625692
  O         7.9003789775        1.4984217546        8.2631745446
  H         7.8799500229        0.6660062025        8.7689419419
  H         5.3581509895        1.8745582195        6.7017513001
  O        -2.4094546373       10.3709335515        8.2719053702
  H        -2.3649448287        9.5316799234        8.7656954003
  H        -4.9037151612       10.6208962781        6.6896366934
  O        -0.1865535796        5.9920265342        8.2052836036
  H        -0.5243153675        5.2159904641        8.6868801421
  H        -2.3494122677        6.1943951009        6.6481216527
  O         2.2081271289        1.1173627578        8.2607783863
  H         2.3818386380        0.2618446030        8.6828121798
  H         0.2406257199        1.6442198878        6.6930927367
  C         2.6482675833        4.8200904887        8.8775862005
  C         3.6087320659        3.8198148871        8.4655514126
  H         1.7608074747        4.8011856623        8.2178696114
  H         2.3203691010        4.6407770076        9.9071502544
  H         3.1407514729        5.8036389013        8.8173735951
  N         4.4051450521        3.0415370266        8.1219477156
     168
 i =       11, E =     -8144.3551508953
 Fe         5.0938794100       11.8196869300        0.3885799900
 Fe         7.6575796300        7.3792284900        0.3885799900
 Fe        10.2212798400        2.9387700600        0.3885799900
 Fe        -0.0335205200       11.8196869300        0.3885799900
 Fe         2.5301797000        7.3792284900        0.3885799900
 Fe         5.0938799200        2.9387700600        0.3885799900
 Fe        -5.1609204400       11.8196869300        0.3885799900
 Fe        -2.5972202200        7.3792284900        0.3885799900
 Fe        -0.0335200000        2.9387700600        0.3885799900
  O         8.4519195100        8.9577468800        1.1642700400
  O        11.0156197300        4.5172884400        1.1642700400
  O        13.5793199500        0.0768300000        1.1642700400
  O         3.3245195900        8.9577468800        1.1642700400
  O         5.8882198100        4.5172884400        1.1642700400
  O         8.4519200300        0.0768300000        1.1642700400
  O        -1.8028803300        8.9577468800        1.1642700400
  O         0.7608198900        4.5172884400        1.1642700400
  O         3.3245201100        0.0768300000        1.1642700400
  O         8.4568493000       11.7183869300        1.1650400200
  O        11.0205495200        7.2779284900        1.1650400200
  O        13.5842497300        2.8374700500        1.1650400200
  O         3.3294493700       11.7183869300        1.1650400200
  O         5.8931495900        7.2779284900        1.1650400200
  O         8.4568498100        2.8374700500        1.1650400200
  O        -1.7979505500       11.7183869300        1.1650400200
  O         0.7657496700        7.2779284900        1.1650400200
  O         3.3294498900        2.8374700500        1.1650400200
  O         6.0627194200       10.3425368500        1.1660399400
  O         8.6264196400        5.9020784100        1.1660399400
  O        11.1901198600        1.4616199700        1.1660399400
  O         0.9353195000       10.3425368500        1.1660399400
  O         3.4990197200        5.9020784100        1.1660399400
  O         6.0627199400        1.4616199700        1.1660399400
  O        -4.1920804200       10.3425368500        1.1660399400
  O        -1.6283802000        5.9020784100        1.1660399400
  O         0.9353200200        1.4616199700        1.1660399400
 Fe         7.6576695000       13.2997167500        1.9292099500
 Fe        10.2213697200        8.8592583200        1.9292099500
 Fe        12.7850699400        4.4187998800        1.9292099500
 Fe         2.5302695800       13.2997167500        1.9292099500
 Fe         5.0939698000        8.8592583200        1.9292099500
 Fe         7.6576700200        4.4187998800        1.9292099500
 Fe        -2.5971303400       13.2997167500        1.9292099500
 Fe        -0.0334301200        8.8592583200        1.9292099500
 Fe         2.5302701000        4.4187998800        1.9292099500
 Fe         7.6573893600       10.3392168700        2.7128999200
 Fe        10.2210895800        5.8987584300        2.7128999200
 Fe        12.7847898000        1.4582999900        2.7128999200
 Fe         2.5299894400       10.3392168700        2.7128999200
 Fe         5.0936896600        5.8987584300        2.7128999200
 Fe         7.6573898800        1.4582999900        2.7128999200
 Fe        -2.5974104800       10.3392168700        2.7128999200
 Fe        -0.0337102600        5.8987584300        2.7128999200
 Fe         2.5299899600        1.4582999900        2.7128999200
  O         4.0924268920       13.3256808966        3.5287031062
  O         6.6644887225        8.8731271461        3.5140478094
  O         9.2329121132        4.4517503051        3.5409415056
  O        -1.0127723786       13.3208362329        3.5507144183
  O         1.5194961463        8.8806189118        3.5001458349
  O         4.0905778979        4.4531252107        3.5354848457
  O        -6.1251371990       13.3208265749        3.5624237006
  O        -3.6167142279        8.8676844593        3.4869744373
  O        -1.0245495609        4.4419335710        3.5333104185
  O         6.8123142217       11.8316449573        3.5518981062
  O         9.3823110959        7.4537249945        3.4806812400
  O        11.9332143926        2.9806048594        3.5071330258
  O         1.6850385894       11.8575130163        3.5174640534
  O         4.2508326402        7.4379580212        3.4967930842
  O         6.8073459537        2.9681008307        3.5255408588
  O        -3.4333162387       11.8486015854        3.5321062801
  O        -0.8668387095        7.4416728900        3.4933642030
  O         1.6520922991        2.9891456222        3.4851659373
  O         9.4410058031       10.2014635043        3.4703582415
  O        11.9821643299        5.7938246587        3.4922493145
  O        14.5221637313        1.3600123197        3.5327971682
  O         4.2867553799       10.2187876379        3.5040030992
  O         6.8441518866        5.7996389089        3.5177433449
  O         9.4208103118        1.3453730289        3.5046362147
  O        -0.8182916619       10.2142264339        3.4812175514
  O         1.7172581048        5.8020576007        3.5270783009
  O         4.2896808425        1.3235667993        3.5029676019
 Fe         5.0192702366       11.8355348790        4.4181393695
 Fe         7.6167199003        7.4027993019        4.4162539443
 Fe        10.1535362730        2.9607106735        4.4175724435
 Fe        -0.0947106805       11.8265754178        4.4355797106
 Fe         2.4773120067        7.4174261516        4.3990510765
 Fe         5.0184444298        2.9479450586        4.4104822742
 Fe        -5.2106782851       11.8079168168        4.4248476778
 Fe        -2.6591167751        7.4156855634        4.4102952106
 Fe        -0.0897210034        2.9536316928        4.4397858834
 Fe         7.6046559785       13.1819004804        4.8195756957
 Fe        10.1776389022        8.7448543583        4.8363136667
 Fe        12.7227460241        4.3005166994        4.8023152343
 Fe         2.4739532224       13.1862155925        4.8224385527
 Fe         5.0491699242        8.7553503083        4.8309229702
 Fe         7.6065019358        4.3057842632        4.8237476007
 Fe        -2.6402435488       13.1941780078        4.8519987023
 Fe        -0.0742304340        8.7415052295        4.8290053557
 Fe         2.4755927596        4.2935722396        4.8242891685
  O         5.8509016285       10.3500447769        5.8933159088
  O         8.4126694085        5.9045255402        5.8829832976
  O        10.9812929364        1.4747978751        5.8715572628
  O         0.7304629554       10.3435579611        5.8808760006
  O         3.3216436340        5.9056823872        5.8874614751
  O         5.8226605545        1.5021143612        5.8976220116
  O        -4.3936525833       10.3398514510        5.8876826467
  O        -1.8810762826        5.9157034700        5.8265909621
  O         0.7049423669        1.4606947723        5.8305696393
  O         5.9110161816       13.1690759235        5.6801334082
  O         8.4885986064        8.7396267142        5.6924730596
  O        11.0405884332        4.2961909160        5.6793111404
  O         0.7855494637       13.1813567227        5.6894688747
  O         3.3730825035        8.7202340534        5.7240208502
  O         5.9106853534        4.2979899135        5.6701302956
  O        -4.3267096499       13.1409603016        5.6988442288
  O        -1.7532025274        8.7363380789        5.6996979587
  O         0.8034388025        4.3100915615        5.7218862911
  O         3.4627067358       11.7707777977        5.6782618755
  O         6.0384294568        7.3444647541        5.6496883220
  O         8.5900738401        2.8882424876        5.6659486811
  O        -1.6577342173       11.7789266179        5.6913611594
  O         0.9348451793        7.3401105327        5.7141846543
  O         3.4020204488        2.8182916887        5.5989822587
  O        -6.7928804515       11.7694149376        5.6656245419
  O        -4.2205778815        7.3337235719        5.6801633793
  O        -1.6764347481        2.9071020689        5.6750601021
 Fe         7.7860199570       10.2756465732        6.4426831066
 Fe        10.3392137853        5.8336189470        6.4294215440
 Fe        12.9116580443        1.3911165078        6.4301936499
 Fe         2.6524486269       10.2737642466        6.4417281867
 Fe         5.2610148613        5.8441207050        6.4357058114
 Fe         7.7547532320        1.3966904407        6.4366742957
 Fe        -2.4707089781       10.2712234522        6.4368046772
 Fe         0.0258987814        5.8526723904        6.3669358358
 Fe         2.6232251981        1.3240683038        6.4667149188
  O         7.8463212043       10.3810385283        8.2712075993
  H         7.8833847554        9.5393980969        8.7610251885
  H         5.3586673051       10.6425323649        6.6957120010
  O        10.4143890687        5.9338129242        8.2614140494
  H        10.4378552091        5.1043012012        8.7721339340
  H         7.8971350660        6.1748203633        6.6763730745
  O        12.9605406974        1.5162363492        8.2597993507
  H        13.0334080990        0.6954084626        8.7790574955
  H        10.4653925971        1.7112312716        6.6764591751
  O         2.7145363915       10.3893553758        8.2723937976
  H         2.7590733507        9.5583114153        8.7775726945
  H         0.2262374425       10.6266177160        6.6768424904
  O         5.5405279843        6.0717356987        8.2480636205
  H         5.6967885416        5.2427654253        8.7387739358
  H         2.7581545437        6.2919928470        6.5952408101
  O         7.9141698029        1.4942361400        8.2597218467
  H         7.8811674877        0.6659761616        8.7726241442
  H         5.3726450873        1.8698836251        6.7106966634
  O        -2.4093433704       10.3689877626        8.2663718836
  H        -2.3650340077        9.5324857247        8.7635154120
  H        -4.9051583034       10.6206394305        6.6799116435
  O        -0.1899522353        5.9876771833        8.2043831670
  H        -0.5385902311        5.2141614671        8.6882111673
  H        -2.3475618059        6.1971904916        6.6467373020
  O         2.1635390970        1.1185464532        8.2480324026
  H         2.3666429301        0.2555594034        8.6702190639
  H         0.2371173992        1.6384873121        6.6752822731
  C         2.6678341670        4.7990866573        8.8976210464
  C         3.6500311242        3.8040931607        8.5137679283
  H         1.7904459104        4.7897409739        8.2483653092
  H         2.3024599405        4.6458999579        9.9223837345
  H         3.1200923592        5.8002786189        8.8346991154
  N         4.4820613972        3.0459773125        8.1833851371
     168
 i =       12, E =     -8144.3611300693
 Fe         5.0938794100       11.8196869300        0.3885799900
 Fe         7.6575796300        7.3792284900        0.3885799900
 Fe        10.2212798400        2.9387700600        0.3885799900
 Fe        -0.0335205200       11.8196869300        0.3885799900
 Fe         2.5301797000        7.3792284900        0.3885799900
 Fe         5.0938799200        2.9387700600        0.3885799900
 Fe        -5.1609204400       11.8196869300        0.3885799900
 Fe        -2.5972202200        7.3792284900        0.3885799900
 Fe        -0.0335200000        2.9387700600        0.3885799900
  O         8.4519195100        8.9577468800        1.1642700400
  O        11.0156197300        4.5172884400        1.1642700400
  O        13.5793199500        0.0768300000        1.1642700400
  O         3.3245195900        8.9577468800        1.1642700400
  O         5.8882198100        4.5172884400        1.1642700400
  O         8.4519200300        0.0768300000        1.1642700400
  O        -1.8028803300        8.9577468800        1.1642700400
  O         0.7608198900        4.5172884400        1.1642700400
  O         3.3245201100        0.0768300000        1.1642700400
  O         8.4568493000       11.7183869300        1.1650400200
  O        11.0205495200        7.2779284900        1.1650400200
  O        13.5842497300        2.8374700500        1.1650400200
  O         3.3294493700       11.7183869300        1.1650400200
  O         5.8931495900        7.2779284900        1.1650400200
  O         8.4568498100        2.8374700500        1.1650400200
  O        -1.7979505500       11.7183869300        1.1650400200
  O         0.7657496700        7.2779284900        1.1650400200
  O         3.3294498900        2.8374700500        1.1650400200
  O         6.0627194200       10.3425368500        1.1660399400
  O         8.6264196400        5.9020784100        1.1660399400
  O        11.1901198600        1.4616199700        1.1660399400
  O         0.9353195000       10.3425368500        1.1660399400
  O         3.4990197200        5.9020784100        1.1660399400
  O         6.0627199400        1.4616199700        1.1660399400
  O        -4.1920804200       10.3425368500        1.1660399400
  O        -1.6283802000        5.9020784100        1.1660399400
  O         0.9353200200        1.4616199700        1.1660399400
 Fe         7.6576695000       13.2997167500        1.9292099500
 Fe        10.2213697200        8.8592583200        1.9292099500
 Fe        12.7850699400        4.4187998800        1.9292099500
 Fe         2.5302695800       13.2997167500        1.9292099500
 Fe         5.0939698000        8.8592583200        1.9292099500
 Fe         7.6576700200        4.4187998800        1.9292099500
 Fe        -2.5971303400       13.2997167500        1.9292099500
 Fe        -0.0334301200        8.8592583200        1.9292099500
 Fe         2.5302701000        4.4187998800        1.9292099500
 Fe         7.6573893600       10.3392168700        2.7128999200
 Fe        10.2210895800        5.8987584300        2.7128999200
 Fe        12.7847898000        1.4582999900        2.7128999200
 Fe         2.5299894400       10.3392168700        2.7128999200
 Fe         5.0936896600        5.8987584300        2.7128999200
 Fe         7.6573898800        1.4582999900        2.7128999200
 Fe        -2.5974104800       10.3392168700        2.7128999200
 Fe        -0.0337102600        5.8987584300        2.7128999200
 Fe         2.5299899600        1.4582999900        2.7128999200
  O         4.0905088381       13.3190753100        3.5181313421
  O         6.6617777262        8.8776717438        3.5168488249
  O         9.2276444850        4.4458757019        3.5348684196
  O        -1.0329966780       13.3120708895        3.5197388822
  O         1.5436391513        8.8839892371        3.5457258365
  O         4.0892692656        4.4402360207        3.5287554088
  O        -6.1337123297       13.3188084119        3.5487236269
  O        -3.6110981699        8.8704080245        3.4963652050
  O        -1.0334303651        4.4368357808        3.5175865109
  O         6.8072566855       11.8406070585        3.5366622040
  O         9.3808122611        7.4464926257        3.4858098653
  O        11.9325090455        2.9915343348        3.4909482011
  O         1.6852345077       11.8650425333        3.5063504641
  O         4.2512628885        7.4375173427        3.4965658855
  O         6.8046583845        2.9734576634        3.5159194512
  O        -3.4302061083       11.8699035693        3.5071845775
  O        -0.8687278613        7.4173421197        3.5380513180
  O         1.6587426742        2.9919597514        3.4901036362
  O         9.4393329004       10.2094995543        3.4727895006
  O        11.9899979342        5.7871121125        3.4758877293
  O        14.5310827377        1.3552482778        3.5203226821
  O         4.2911235512       10.2230597746        3.5032064150
  O         6.8509012638        5.7962571166        3.5070662949
  O         9.4252309749        1.3433074187        3.4947804893
  O        -0.8369379217       10.2277570291        3.5199315888
  O         1.7209385714        5.7973856995        3.5190683146
  O         4.3049693754        1.3201109406        3.4787265091
 Fe         5.0229852874       11.8408579184        4.4248465900
 Fe         7.6107742347        7.4011080409        4.4144390588
 Fe        10.1545376322        2.9574710063        4.4240494934
 Fe        -0.0909455685       11.8447897321        4.4338980805
 Fe         2.4859799271        7.3978376642        4.4132513129
 Fe         5.0206410182        2.9415634028        4.4194232389
 Fe        -5.2070091248       11.8163617533        4.4195820053
 Fe        -2.6721206259        7.4055931721        4.4156679748
 Fe        -0.0932733913        2.9544739335        4.4359717542
 Fe         7.6069010407       13.1773408103        4.8217890096
 Fe        10.1728045183        8.7462015429        4.8321222184
 Fe        12.7230702330        4.3004407271        4.7988810112
 Fe         2.4758293016       13.1861271783        4.8190431090
 Fe         5.0483155097        8.7539851824        4.8318080446
 Fe         7.6016095964        4.3015833209        4.8285199570
 Fe        -2.6401582507       13.1988324059        4.8455426756
 Fe        -0.0764835265        8.7448378831        4.8501274222
 Fe         2.4765834411        4.2950956744        4.8315016618
  O         5.8509749929       10.3506899469        5.8913014712
  O         8.4107678827        5.9069737612        5.8838382592
  O        10.9787416628        1.4696094907        5.8749988749
  O         0.7312449649       10.3460216534        5.8832287786
  O         3.3216806307        5.9010784710        5.8876896612
  O         5.8273840994        1.5004773172        5.9041758084
  O        -4.3954388440       10.3402077488        5.8859234050
  O        -1.8783400047        5.9181649194        5.8266856066
  O         0.7030629026        1.4665772815        5.8337193703
  O         5.9162407716       13.1719087241        5.6901740566
  O         8.4873028616        8.7352243661        5.6944580826
  O        11.0453222677        4.2947603785        5.6842600437
  O         0.7916053168       13.1825078529        5.6922577451
  O         3.3697825236        8.7204789374        5.7184807878
  O         5.9066374578        4.2991818363        5.6789280605
  O        -4.3228730557       13.1423124503        5.7040486237
  O        -1.7656019095        8.7321279227        5.6985201017
  O         0.8003112476        4.3066063925        5.7230907927
  O         3.4630777930       11.7742348402        5.6800124020
  O         6.0396765044        7.3471899208        5.6555935869
  O         8.5900966715        2.8909358460        5.6750975280
  O        -1.6569130578       11.7809054190        5.6876310692
  O         0.9342734917        7.3383317402        5.7142642106
  O         3.3992208007        2.8170491542        5.6060913121
  O        -6.7829114224       11.7686274216        5.6722104096
  O        -4.2292321233        7.3367124485        5.6831225742
  O        -1.6743043960        2.9100708709        5.6793627824
 Fe         7.7837028984       10.2748248272        6.4394396116
 Fe        10.3390571131        5.8301980511        6.4331956096
 Fe        12.9091472895        1.3946823291        6.4322271367
 Fe         2.6548465230       10.2734992242        6.4378329041
 Fe         5.2552246839        5.8489866948        6.4349347179
 Fe         7.7585993198        1.3960365926        6.4383985244
 Fe        -2.4698433847       10.2732869749        6.4376907745
 Fe         0.0294126202        5.8512004813        6.3722127290
 Fe         2.6199396085        1.3246324320        6.4664661015
  O         7.8472206515       10.3790504054        8.2694591895
  H         7.8831076621        9.5396466569        8.7633483290
  H         5.3558151362       10.6382446615        6.6920575109
  O        10.4152534418        5.9353671118        8.2638234727
  H        10.4377836461        5.1037093048        8.7708452026
  H         7.9000678366        6.1769411940        6.6808858784
  O        12.9605811021        1.5166580958        8.2615433693
  H        13.0336077211        0.6947338250        8.7792401606
  H        10.4661134252        1.7146669767        6.6788118945
  O         2.7136467252       10.3870720627        8.2694255056
  H         2.7594028244        9.5592233710        8.7796971095
  H         0.2251946188       10.6255021362        6.6784729339
  O         5.5433653941        6.0716905968        8.2456335694
  H         5.6979405658        5.2438699606        8.7387118822
  H         2.7617491309        6.2930612588        6.5933288692
  O         7.9145085133        1.4954637960        8.2608948481
  H         7.8819253024        0.6660929737        8.7714098573
  H         5.3673766507        1.8696176511        6.7079734328
  O        -2.4096561992       10.3687425236        8.2676491863
  H        -2.3648845391        9.5319356311        8.7647852712
  H        -4.9044194138       10.6197226422        6.6805927713
  O        -0.1882331905        5.9885248823        8.2065867170
  H        -0.5371515815        5.2135722210        8.6857305809
  H        -2.3474457416        6.1961406489        6.6466655354
  O         2.1751556094        1.1217731303        8.2451941033
  H         2.3619543137        0.2612914660        8.6678609568
  H         0.2368287150        1.6405519962        6.6818833423
  C         2.6658287335        4.8008507400        8.8959777023
  C         3.6514700556        3.8053417127        8.5207343816
  H         1.7856654961        4.7813444106        8.2413466444
  H         2.3099370182        4.6395113321        9.9217641899
  H         3.1287058755        5.7971014421        8.8391792309
  N         4.4686396546        3.0447541369        8.1783384966
     168
 i =       13, E =     -8144.3051876331
 Fe         5.0938794100       11.8196869300        0.3885799900
 Fe         7.6575796300        7.3792284900        0.3885799900
 Fe        10.2212798400        2.9387700600        0.3885799900
 Fe        -0.0335205200       11.8196869300        0.3885799900
 Fe         2.5301797000        7.3792284900        0.3885799900
 Fe         5.0938799200        2.9387700600        0.3885799900
 Fe        -5.1609204400       11.8196869300        0.3885799900
 Fe        -2.5972202200        7.3792284900        0.3885799900
 Fe        -0.0335200000        2.9387700600        0.3885799900
  O         8.4519195100        8.9577468800        1.1642700400
  O        11.0156197300        4.5172884400        1.1642700400
  O        13.5793199500        0.0768300000        1.1642700400
  O         3.3245195900        8.9577468800        1.1642700400
  O         5.8882198100        4.5172884400        1.1642700400
  O         8.4519200300        0.0768300000        1.1642700400
  O        -1.8028803300        8.9577468800        1.1642700400
  O         0.7608198900        4.5172884400        1.1642700400
  O         3.3245201100        0.0768300000        1.1642700400
  O         8.4568493000       11.7183869300        1.1650400200
  O        11.0205495200        7.2779284900        1.1650400200
  O        13.5842497300        2.8374700500        1.1650400200
  O         3.3294493700       11.7183869300        1.1650400200
  O         5.8931495900        7.2779284900        1.1650400200
  O         8.4568498100        2.8374700500        1.1650400200
  O        -1.7979505500       11.7183869300        1.1650400200
  O         0.7657496700        7.2779284900        1.1650400200
  O         3.3294498900        2.8374700500        1.1650400200
  O         6.0627194200       10.3425368500        1.1660399400
  O         8.6264196400        5.9020784100        1.1660399400
  O        11.1901198600        1.4616199700        1.1660399400
  O         0.9353195000       10.3425368500        1.1660399400
  O         3.4990197200        5.9020784100        1.1660399400
  O         6.0627199400        1.4616199700        1.1660399400
  O        -4.1920804200       10.3425368500        1.1660399400
  O        -1.6283802000        5.9020784100        1.1660399400
  O         0.9353200200        1.4616199700        1.1660399400
 Fe         7.6576695000       13.2997167500        1.9292099500
 Fe        10.2213697200        8.8592583200        1.9292099500
 Fe        12.7850699400        4.4187998800        1.9292099500
 Fe         2.5302695800       13.2997167500        1.9292099500
 Fe         5.0939698000        8.8592583200        1.9292099500
 Fe         7.6576700200        4.4187998800        1.9292099500
 Fe        -2.5971303400       13.2997167500        1.9292099500
 Fe        -0.0334301200        8.8592583200        1.9292099500
 Fe         2.5302701000        4.4187998800        1.9292099500
 Fe         7.6573893600       10.3392168700        2.7128999200
 Fe        10.2210895800        5.8987584300        2.7128999200
 Fe        12.7847898000        1.4582999900        2.7128999200
 Fe         2.5299894400       10.3392168700        2.7128999200
 Fe         5.0936896600        5.8987584300        2.7128999200
 Fe         7.6573898800        1.4582999900        2.7128999200
 Fe        -2.5974104800       10.3392168700        2.7128999200
 Fe        -0.0337102600        5.8987584300        2.7128999200
 Fe         2.5299899600        1.4582999900        2.7128999200
  O         4.0807454479       13.2831862493        3.4601559250
  O         6.6419074859        8.8995114769        3.5256477334
  O         9.1945912021        4.4130505965        3.4971427317
  O        -1.1166922604       13.2826381502        3.3939382629
  O         1.5856339990        8.8759021610        3.6235655764
  O         4.0895107982        4.3836083243        3.5062331945
  O        -6.1957018014       13.3022306594        3.4512914894
  O        -3.5128316758        8.9131432469        3.6735403359
  O        -1.0569476841        4.4161322406        3.4735778151
  O         6.7924127195       11.9076041913        3.4380027536
  O         9.3698136759        7.3337898286        3.6363287439
  O        11.9357992848        3.0182174592        3.4522789668
  O         1.6849798430       11.9103889028        3.4436163403
  O         4.2497246419        7.4378319582        3.4989349634
  O         6.7955878406        3.0035932993        3.4706378531
  O        -3.4213890635       11.9603707845        3.3982165042
  O        -0.8650559796        7.3816835237        3.6080957803
  O         1.6890858073        2.9971267756        3.5173978883
  O         9.3712954030       10.2942611468        3.6102300432
  O        12.0073443182        5.7626675801        3.4328251615
  O        14.5853761387        1.3171148654        3.4352193878
  O         4.3130316542       10.2372500936        3.4969930090
  O         6.8882531845        5.7769219245        3.4472202713
  O         9.4485602968        1.3291976261        3.4384234145
  O        -0.8703670486       10.2456357633        3.5752181805
  O         1.7366520205        5.7841077336        3.4898595443
  O         4.3736887373        1.3046456185        3.3675238079
 Fe         5.0465751434       11.8620446263        4.4474780452
 Fe         7.5522378427        7.3891885171        4.4281825552
 Fe        10.1556666098        2.9394912465        4.4495695327
 Fe        -0.0927388097       11.8892129422        4.3905952466
 Fe         2.5024323070        7.3526400600        4.4461875928
 Fe         5.0279531226        2.9066966718        4.4600189056
 Fe        -5.1821887713       11.8954744001        4.4179049544
 Fe        -2.6632825519        7.3349292612        4.4477270635
 Fe        -0.1085749173        2.9421827122        4.4161961515
 Fe         7.6185544570       13.1625403077        4.8188561487
 Fe        10.1518840623        8.7500588329        4.8751750429
 Fe        12.7237418966        4.2983508864        4.7955706780
 Fe         2.4832671149       13.1892364617        4.7992390213
 Fe         5.0435730002        8.7537498921        4.8430769329
 Fe         7.5779635168        4.2860955157        4.8470520612
 Fe        -2.6372756371       13.2157842250        4.8157674877
 Fe        -0.0876253431        8.7580895829        4.8903695854
 Fe         2.4814671119        4.2968590254        4.8614533734
  O         5.8548301772       10.3626354497        5.8828039633
  O         8.4007705864        5.9151731840        5.8904225509
  O        10.9666680557        1.4471646822        5.8932085499
  O         0.7324384081       10.3533061767        5.8984169098
  O         3.3180870750        5.8850185551        5.8790854864
  O         5.8524471992        1.4946834292        5.9329124455
  O        -4.4043321667       10.3487265669        5.8820724194
  O        -1.8651628714        5.9158048945        5.8365708162
  O         0.6967785397        1.4924914923        5.8517054167
  O         5.9426407705       13.1890142703        5.7287222995
  O         8.4689780461        8.7113391058        5.7165318068
  O        11.0579754383        4.2877328165        5.7069677465
  O         0.8071380665       13.1727409615        5.6872523266
  O         3.3557390842        8.7158597509        5.6996769537
  O         5.8841038725        4.3036822968        5.7094902909
  O        -4.2961191999       13.1672013186        5.7349261526
  O        -1.7992849528        8.7178529566        5.7027005729
  O         0.7847825095        4.2874404834        5.7208371831
  O         3.4664633114       11.7993371540        5.6894044674
  O         6.0301971461        7.3605895275        5.6955658879
  O         8.5881288198        2.9054279635        5.7140841374
  O        -1.6471924074       11.7945419586        5.6800543377
  O         0.9278835467        7.3372539779        5.7112495811
  O         3.3823072691        2.8033444080        5.6341041939
  O        -6.7447114632       11.7728378684        5.6991901595
  O        -4.2369767558        7.3373717340        5.6883197239
  O        -1.6620189326        2.9165946951        5.6936117136
 Fe         7.7733394023       10.2753777287        6.4242937605
 Fe        10.3413889943        5.8209215477        6.4512523203
 Fe        12.8982177807        1.4117935947        6.4446432958
 Fe         2.6733548095       10.2721822628        6.4202135481
 Fe         5.2251969858        5.8666879595        6.4332027517
 Fe         7.7839330365        1.3871043500        6.4459333996
 Fe        -2.4679664916       10.2850747797        6.4410604693
 Fe         0.0455391508        5.8425760660        6.3911644926
 Fe         2.6033640133        1.3327335236        6.4758208692
  O         7.8502459833       10.3679577764        8.2608069094
  H         7.8816574637        9.5404583912        8.7756687425
  H         5.3408267674       10.6150301354        6.6763006933
  O        10.4178846982        5.9423126846        8.2761305745
  H        10.4387263086        5.1013284426        8.7668327602
  H         7.9135146211        6.1881376764        6.7045567400
  O        12.9602626447        1.5196283518        8.2726385114
  H        13.0343763598        0.6898667373        8.7791904909
  H        10.4720408606        1.7318282489        6.6944204914
  O         2.7082345894       10.3746421044        8.2567299619
  H         2.7609359990        9.5622144551        8.7917302660
  H         0.2186201391       10.6220573103        6.6919889481
  O         5.5473770574        6.0695358341        8.2371727024
  H         5.6929550272        5.2453062690        8.7381347830
  H         2.7767625508        6.2968957766        6.5802495292
  O         7.9091655312        1.5025377909        8.2689043709
  H         7.8845125436        0.6660223566        8.7661344686
  H         5.3409610268        1.8694786538        6.6930386885
  O        -2.4104368619       10.3685261438        8.2738842431
  H        -2.3643597679        9.5298902285        8.7704318504
  H        -4.9008870798       10.6174296682        6.6879131056
  O        -0.1789991311        5.9914540964        8.2121581183
  H        -0.5240365138        5.2125276260        8.6771737263
  H        -2.3488566576        6.1899035697        6.6490663714
  O         2.2403197862        1.1347638745        8.2383288367
  H         2.3534622692        0.2874152079        8.6659029976
  H         0.2379111334        1.6528495153        6.7154624160
  C         2.6513602783        4.8134705005        8.8844434970
  C         3.6304288439        3.8176781385        8.5063090242
  H         1.7570024615        4.7567172778        8.2022676006
  H         2.3424365524        4.6140534884        9.9165082808
  H         3.1688296656        5.7873791684        8.8446657246
  N         4.3852235333        3.0316859059        8.1323820895
     168
 i =       14, E =     -8144.3530445547
 Fe         5.0938794100       11.8196869300        0.3885799900
 Fe         7.6575796300        7.3792284900        0.3885799900
 Fe        10.2212798400        2.9387700600        0.3885799900
 Fe        -0.0335205200       11.8196869300        0.3885799900
 Fe         2.5301797000        7.3792284900        0.3885799900
 Fe         5.0938799200        2.9387700600        0.3885799900
 Fe        -5.1609204400       11.8196869300        0.3885799900
 Fe        -2.5972202200        7.3792284900        0.3885799900
 Fe        -0.0335200000        2.9387700600        0.3885799900
  O         8.4519195100        8.9577468800        1.1642700400
  O        11.0156197300        4.5172884400        1.1642700400
  O        13.5793199500        0.0768300000        1.1642700400
  O         3.3245195900        8.9577468800        1.1642700400
  O         5.8882198100        4.5172884400        1.1642700400
  O         8.4519200300        0.0768300000        1.1642700400
  O        -1.8028803300        8.9577468800        1.1642700400
  O         0.7608198900        4.5172884400        1.1642700400
  O         3.3245201100        0.0768300000        1.1642700400
  O         8.4568493000       11.7183869300        1.1650400200
  O        11.0205495200        7.2779284900        1.1650400200
  O        13.5842497300        2.8374700500        1.1650400200
  O         3.3294493700       11.7183869300        1.1650400200
  O         5.8931495900        7.2779284900        1.1650400200
  O         8.4568498100        2.8374700500        1.1650400200
  O        -1.7979505500       11.7183869300        1.1650400200
  O         0.7657496700        7.2779284900        1.1650400200
  O         3.3294498900        2.8374700500        1.1650400200
  O         6.0627194200       10.3425368500        1.1660399400
  O         8.6264196400        5.9020784100        1.1660399400
  O        11.1901198600        1.4616199700        1.1660399400
  O         0.9353195000       10.3425368500        1.1660399400
  O         3.4990197200        5.9020784100        1.1660399400
  O         6.0627199400        1.4616199700        1.1660399400
  O        -4.1920804200       10.3425368500        1.1660399400
  O        -1.6283802000        5.9020784100        1.1660399400
  O         0.9353200200        1.4616199700        1.1660399400
 Fe         7.6576695000       13.2997167500        1.9292099500
 Fe        10.2213697200        8.8592583200        1.9292099500
 Fe        12.7850699400        4.4187998800        1.9292099500
 Fe         2.5302695800       13.2997167500        1.9292099500
 Fe         5.0939698000        8.8592583200        1.9292099500
 Fe         7.6576700200        4.4187998800        1.9292099500
 Fe        -2.5971303400       13.2997167500        1.9292099500
 Fe        -0.0334301200        8.8592583200        1.9292099500
 Fe         2.5302701000        4.4187998800        1.9292099500
 Fe         7.6573893600       10.3392168700        2.7128999200
 Fe        10.2210895800        5.8987584300        2.7128999200
 Fe        12.7847898000        1.4582999900        2.7128999200
 Fe         2.5299894400       10.3392168700        2.7128999200
 Fe         5.0936896600        5.8987584300        2.7128999200
 Fe         7.6573898800        1.4582999900        2.7128999200
 Fe        -2.5974104800       10.3392168700        2.7128999200
 Fe        -0.0337102600        5.8987584300        2.7128999200
 Fe         2.5299899600        1.4582999900        2.7128999200
  O         4.0810956092       13.3065895731        3.4903533765
  O         6.6595199253        8.8796351941        3.5203542239
  O         9.2148344472        4.4323403465        3.5148994454
  O        -1.0479775578       13.3099700283        3.4945825197
  O         1.5583677836        8.8900162231        3.5740216532
  O         4.0866833435        4.4261573445        3.5202179332
  O        -6.1587097309       13.3142548801        3.5100725559
  O        -3.5673296614        8.8930001588        3.5746506470
  O        -1.0406978309        4.4264770552        3.5001598454
  O         6.8063074047       11.8686059259        3.4983462191
  O         9.3753657141        7.3931133055        3.5560180987
  O        11.9340040801        2.9996398521        3.4778211748
  O         1.6853093157       11.8882702111        3.4745599362
  O         4.2501680563        7.4316095604        3.5035357370
  O         6.8070533934        2.9871616558        3.5020719415
  O        -3.4321270040       11.8925337595        3.4793563671
  O        -0.8682974589        7.3971345932        3.5653789201
  O         1.6671405135        2.9964236715        3.4898223654
  O         9.4044844664       10.2440022883        3.5398978607
  O        11.9968030308        5.7814485899        3.4643660043
  O        14.5499270643        1.3395648111        3.4848025273
  O         4.2939859035       10.2302211185        3.5046150412
  O         6.8602893498        5.7850651648        3.4868195288
  O         9.4365430476        1.3345357564        3.4683318593
  O        -0.8493667572       10.2354348338        3.5384162147
  O         1.7295661520        5.7917556019        3.5082283248
  O         4.3188939006        1.3200843891        3.4568427092
 Fe         5.0322376518       11.8503306697        4.4259587833
 Fe         7.5919560915        7.3913928886        4.4224452962
 Fe        10.1531845785        2.9524393302        4.4252517196
 Fe        -0.0897339194       11.8508628931        4.4175404687
 Fe         2.4863805361        7.3906364458        4.4208458243
 Fe         5.0253593043        2.9380240679        4.4321296892
 Fe        -5.2059010641       11.8458184844        4.4205692851
 Fe        -2.6634354783        7.3865943804        4.4328184532
 Fe        -0.0976463714        2.9464960582        4.4262904048
 Fe         7.6093672931       13.1751813198        4.8154590916
 Fe        10.1673194295        8.7433499858        4.8593983467
 Fe        12.7233424183        4.2988451353        4.7923776793
 Fe         2.4784781614       13.1873474772        4.8065841295
 Fe         5.0450089445        8.7573703304        4.8306600986
 Fe         7.5992130200        4.3011306756        4.8307443965
 Fe        -2.6360875813       13.2038641872        4.8289693536
 Fe        -0.0790136893        8.7457821855        4.8654254727
 Fe         2.4770162767        4.2916271527        4.8367289185
  O         5.8521853891       10.3552550238        5.8876995079
  O         8.4044945346        5.9037849790        5.8900123521
  O        10.9763507634        1.4647184176        5.8776178879
  O         0.7301033996       10.3489981606        5.8911957298
  O         3.3206307799        5.8959490048        5.8877833932
  O         5.8356197900        1.4982980793        5.9094031160
  O        -4.3976959772       10.3458051544        5.8869442868
  O        -1.8771353505        5.9142515508        5.8311019233
  O         0.6997878445        1.4724504937        5.8376828720
  O         5.9258140869       13.1778879972        5.6997817640
  O         8.4769739664        8.7277063549        5.7053627874
  O        11.0484951599        4.2924865346        5.6862650923
  O         0.7922962842       13.1812302421        5.6808481562
  O         3.3693414277        8.7163852461        5.7191521670
  O         5.9054374490        4.3036528799        5.6848743569
  O        -4.3106879350       13.1507729357        5.7041546794
  O        -1.7670290302        8.7252693527        5.7158836189
  O         0.7961369810        4.3013739078        5.7200322954
  O         3.4638426248       11.7805249943        5.6783008510
  O         6.0315019780        7.3507282939        5.6615288189
  O         8.5886762201        2.8960311760        5.6816576645
  O        -1.6538099554       11.7906920929        5.6848794112
  O         0.9357792334        7.3351709290        5.7207120475
  O         3.3985343062        2.8159620564        5.6173399490
  O        -6.7755111150       11.7798748763        5.6866303690
  O        -4.2259251837        7.3304645098        5.6896820490
  O        -1.6726199397        2.9110373558        5.6786235842
 Fe         7.7819329817       10.2784256888        6.4358399430
 Fe        10.3363104242        5.8254233941        6.4377228390
 Fe        12.9076587600        1.3998738241        6.4366393618
 Fe         2.6593426651       10.2720498120        6.4335457090
 Fe         5.2505587172        5.8539712983        6.4377661195
 Fe         7.7675328516        1.3945248884        6.4399278893
 Fe        -2.4679466475       10.2793410492        6.4358692375
 Fe         0.0322893978        5.8473101107        6.3800433113
 Fe         2.6153935054        1.3247566924        6.4586375764
  O         7.8488851411       10.3761956233        8.2677203443
  H         7.8824523401        9.5398098914        8.7667834781
  H         5.3507317129       10.6302973814        6.6872819991
  O        10.4169162855        5.9355821438        8.2668553169
  H        10.4373519515        5.1020419315        8.7706777760
  H         7.9041639039        6.1804046442        6.6914075324
  O        12.9605721481        1.5187066652        8.2655233599
  H        13.0339502985        0.6940039269        8.7790859285
  H        10.4676876757        1.7187051581        6.6813970201
  O         2.7128895196       10.3842380623        8.2662725981
  H         2.7601976430        9.5606293685        8.7832265945
  H         0.2242170233       10.6280350764        6.6867239885
  O         5.5517109632        6.0747582542        8.2448710221
  H         5.7055924819        5.2464402597        8.7372571700
  H         2.7674642789        6.2944269531        6.5943543652
  O         7.9189336632        1.4963177674        8.2627366406
  H         7.8840618574        0.6658286378        8.7713036230
  H         5.3621115666        1.8664530436        6.7041540592
  O        -2.4093752420       10.3683405236        8.2676610250
  H        -2.3646737570        9.5316333975        8.7657712920
  H        -4.9042940603       10.6221940042        6.6836354878
  O        -0.1841029504        5.9878292668        8.2109695979
  H        -0.5374967751        5.2115139980        8.6828514907
  H        -2.3485400272        6.1921498672        6.6496024090
  O         2.1881369136        1.1306476619        8.2333528870
  H         2.3494414252        0.2721125489        8.6605730428
  H         0.2369069991        1.6451458018        6.6903676842
  C         2.6705080290        4.7945347503        8.9045289904
  C         3.6560795525        3.8039583420        8.5252140884
  H         1.7906367486        4.7632524556        8.2382646346
  H         2.3147930390        4.6291876976        9.9302046258
  H         3.1369683177        5.7915045721        8.8485761656
  N         4.4662129712        3.0358821111        8.1856066675
     168
 i =       15, E =     -8144.3532081340
 Fe         5.0938794100       11.8196869300        0.3885799900
 Fe         7.6575796300        7.3792284900        0.3885799900
 Fe        10.2212798400        2.9387700600        0.3885799900
 Fe        -0.0335205200       11.8196869300        0.3885799900
 Fe         2.5301797000        7.3792284900        0.3885799900
 Fe         5.0938799200        2.9387700600        0.3885799900
 Fe        -5.1609204400       11.8196869300        0.3885799900
 Fe        -2.5972202200        7.3792284900        0.3885799900
 Fe        -0.0335200000        2.9387700600        0.3885799900
  O         8.4519195100        8.9577468800        1.1642700400
  O        11.0156197300        4.5172884400        1.1642700400
  O        13.5793199500        0.0768300000        1.1642700400
  O         3.3245195900        8.9577468800        1.1642700400
  O         5.8882198100        4.5172884400        1.1642700400
  O         8.4519200300        0.0768300000        1.1642700400
  O        -1.8028803300        8.9577468800        1.1642700400
  O         0.7608198900        4.5172884400        1.1642700400
  O         3.3245201100        0.0768300000        1.1642700400
  O         8.4568493000       11.7183869300        1.1650400200
  O        11.0205495200        7.2779284900        1.1650400200
  O        13.5842497300        2.8374700500        1.1650400200
  O         3.3294493700       11.7183869300        1.1650400200
  O         5.8931495900        7.2779284900        1.1650400200
  O         8.4568498100        2.8374700500        1.1650400200
  O        -1.7979505500       11.7183869300        1.1650400200
  O         0.7657496700        7.2779284900        1.1650400200
  O         3.3294498900        2.8374700500        1.1650400200
  O         6.0627194200       10.3425368500        1.1660399400
  O         8.6264196400        5.9020784100        1.1660399400
  O        11.1901198600        1.4616199700        1.1660399400
  O         0.9353195000       10.3425368500        1.1660399400
  O         3.4990197200        5.9020784100        1.1660399400
  O         6.0627199400        1.4616199700        1.1660399400
  O        -4.1920804200       10.3425368500        1.1660399400
  O        -1.6283802000        5.9020784100        1.1660399400
  O         0.9353200200        1.4616199700        1.1660399400
 Fe         7.6576695000       13.2997167500        1.9292099500
 Fe        10.2213697200        8.8592583200        1.9292099500
 Fe        12.7850699400        4.4187998800        1.9292099500
 Fe         2.5302695800       13.2997167500        1.9292099500
 Fe         5.0939698000        8.8592583200        1.9292099500
 Fe         7.6576700200        4.4187998800        1.9292099500
 Fe        -2.5971303400       13.2997167500        1.9292099500
 Fe        -0.0334301200        8.8592583200        1.9292099500
 Fe         2.5302701000        4.4187998800        1.9292099500
 Fe         7.6573893600       10.3392168700        2.7128999200
 Fe        10.2210895800        5.8987584300        2.7128999200
 Fe        12.7847898000        1.4582999900        2.7128999200
 Fe         2.5299894400       10.3392168700        2.7128999200
 Fe         5.0936896600        5.8987584300        2.7128999200
 Fe         7.6573898800        1.4582999900        2.7128999200
 Fe        -2.5974104800       10.3392168700        2.7128999200
 Fe        -0.0337102600        5.8987584300        2.7128999200
 Fe         2.5299899600        1.4582999900        2.7128999200
  O         4.0946865385       13.3231727399        3.5284954160
  O         6.6420047623        8.8693046378        3.4882563583
  O         9.2130402763        4.4400559328        3.5075841053
  O        -1.0202247595       13.3261016821        3.5440784368
  O         1.5276506629        8.8840930932        3.5183885857
  O         4.0987214711        4.4501195098        3.5462863158
  O        -6.1446215578       13.3170118985        3.5375989912
  O        -3.6226807870        8.8691543605        3.4742777923
  O        -0.9923793087        4.4549299302        3.5881636094
  O         6.8140296938       11.8545818465        3.5248939817
  O         9.3835728969        7.4565659170        3.4682229502
  O        11.9293637919        2.9401494455        3.5636026714
  O         1.6855821266       11.8624962775        3.5126219803
  O         4.2544353602        7.4531910673        3.4756983152
  O         6.8115585789        2.9911974556        3.4958391721
  O        -3.4359181280       11.8559559234        3.5254071908
  O        -0.8621348993        7.4327091653        3.5114000516
  O         1.6662168984        2.9845613950        3.5017690425
  O         9.4439807931       10.2012644572        3.4572911186
  O        11.9524022939        5.8100256306        3.5494387934
  O        14.5345243465        1.3439839894        3.5048031981
  O         4.3036005802       10.2070132659        3.4787475416
  O         6.8570412274        5.7850359846        3.4920701622
  O         9.4188937687        1.3457773822        3.5010067607
  O        -0.8233399794       10.2170184093        3.4888755136
  O         1.7155931567        5.8009271912        3.5310628506
  O         4.2908464351        1.3277657837        3.5035466722
 Fe         5.0241669832       11.8281959690        4.4144818750
 Fe         7.6178864912        7.4042752076        4.4012569104
 Fe        10.1386985578        2.9668017010        4.4144892274
 Fe        -0.1002822198       11.8272659102        4.4219661398
 Fe         2.4868595751        7.4145301809        4.4009633520
 Fe         5.0302492606        2.9449452167        4.4186139921
 Fe        -5.2198906922       11.8075427184        4.4139375474
 Fe        -2.6572383298        7.4349757068        4.4127665365
 Fe        -0.0860854401        2.9322304792        4.4363451428
 Fe         7.6035145405       13.1818674305        4.8133866098
 Fe        10.1752917618        8.7429685047        4.8347111935
 Fe        12.7241343732        4.2973203616        4.8238684588
 Fe         2.4736458066       13.1910521204        4.8154047862
 Fe         5.0484223830        8.7552787948        4.8240879748
 Fe         7.6084456982        4.3083628358        4.8129358666
 Fe        -2.6393123549       13.1970059258        4.8473831402
 Fe        -0.0735372936        8.7472710168        4.8466252567
 Fe         2.4788180528        4.2972406944        4.8352784876
  O         5.8521790283       10.3519160965        5.8866794190
  O         8.4082094415        5.9029981968        5.8912486734
  O        10.9795535377        1.4698773290        5.8696730863
  O         0.7307203443       10.3518568952        5.8891977724
  O         3.3234460187        5.8995355506        5.8927605958
  O         5.8334726798        1.5042558822        5.8994786838
  O        -4.3974385617       10.3405588650        5.8912963653
  O        -1.8798435453        5.9201084980        5.8301215479
  O         0.7006804978        1.4639630394        5.8255961135
  O         5.9109743393       13.1756248856        5.6754913186
  O         8.4899496956        8.7365785601        5.7017606390
  O        11.0340489884        4.2913314842        5.6799047198
  O         0.7840350496       13.1803626287        5.6756612649
  O         3.3765609679        8.7211084321        5.7247463014
  O         5.9150885005        4.3052718167        5.6643821741
  O        -4.3312338372       13.1435816887        5.6878716565
  O        -1.7482851447        8.7339919574        5.7205867385
  O         0.7998658731        4.3054780017        5.7138329351
  O         3.4585503302       11.7765199541        5.6713285498
  O         6.0408361925        7.3424216404        5.6422515059
  O         8.5841884745        2.8923391192        5.6636675466
  O        -1.6589722796       11.7834728985        5.6907349929
  O         0.9391494465        7.3364052244        5.7146736694
  O         3.4070396705        2.8256983523        5.6113793323
  O        -6.7926924199       11.7820491300        5.6742782214
  O        -4.2226272587        7.3322865617        5.6856881030
  O        -1.6712082793        2.8976283573        5.6711255544
 Fe         7.7834698503       10.2797135573        6.4386679772
 Fe        10.3418055204        5.8277909421        6.4401360281
 Fe        12.9079918834        1.3939408035        6.4344591221
 Fe         2.6564755161       10.2738659027        6.4395755020
 Fe         5.2598974167        5.8492788965        6.4351652853
 Fe         7.7642627876        1.3948457547        6.4358059948
 Fe        -2.4712543121       10.2758791223        6.4393996053
 Fe         0.0301582924        5.8484124549        6.3713601138
 Fe         2.6174195207        1.3281381257        6.4475767781
  O         7.8490708478       10.3790705386        8.2688901981
  H         7.8825270583        9.5397331146        8.7628099840
  H         5.3560865367       10.6369886826        6.6896410759
  O        10.4163596863        5.9323502678        8.2699976840
  H        10.4361343357        5.0993822059        8.7748457358
  H         7.8984378556        6.1752010643        6.6902931040
  O        12.9602527364        1.5187625321        8.2631130675
  H        13.0340544352        0.6961128492        8.7798739701
  H        10.4681524466        1.7127151469        6.6755542356
  O         2.7142711386       10.3877959928        8.2699713325
  H         2.7601572422        9.5600679712        8.7803952154
  H         0.2278042692       10.6332272067        6.6871602057
  O         5.5582462707        6.0769447341        8.2448541708
  H         5.7168279513        5.2490727078        8.7372212141
  H         2.7626381196        6.2912826982        6.5982600079
  O         7.9278542784        1.4926311404        8.2585912403
  H         7.8849697418        0.6660692091        8.7742247399
  H         5.3731676394        1.8644019272        6.7102963600
  O        -2.4086071683       10.3712370029        8.2689073904
  H        -2.3645598649        9.5320910195        8.7614099972
  H        -4.9026661058       10.6275861886        6.6853921927
  O        -0.1840552851        5.9806118359        8.2078287393
  H        -0.5453385519        5.2102565015        8.6868502274
  H        -2.3511729130        6.1910251422        6.6508376355
  O         2.1575816296        1.1330752242        8.2240461771
  H         2.3467981597        0.2718778489        8.6533418879
  H         0.2396999436        1.6410011892        6.6756224649
  C         2.6762841936        4.7847727864        8.9178541285
  C         3.6745988056        3.7969977186        8.5509379369
  H         1.8104481890        4.7527034522        8.2511543797
  H         2.3084700294        4.6277520610        9.9394495100
  H         3.1273713654        5.7869486323        8.8559885178
  N         4.5040685985        3.0396388921        8.2158306161
     168
 i =       16, E =     -8144.3674262942
 Fe         5.0938794100       11.8196869300        0.3885799900
 Fe         7.6575796300        7.3792284900        0.3885799900
 Fe        10.2212798400        2.9387700600        0.3885799900
 Fe        -0.0335205200       11.8196869300        0.3885799900
 Fe         2.5301797000        7.3792284900        0.3885799900
 Fe         5.0938799200        2.9387700600        0.3885799900
 Fe        -5.1609204400       11.8196869300        0.3885799900
 Fe        -2.5972202200        7.3792284900        0.3885799900
 Fe        -0.0335200000        2.9387700600        0.3885799900
  O         8.4519195100        8.9577468800        1.1642700400
  O        11.0156197300        4.5172884400        1.1642700400
  O        13.5793199500        0.0768300000        1.1642700400
  O         3.3245195900        8.9577468800        1.1642700400
  O         5.8882198100        4.5172884400        1.1642700400
  O         8.4519200300        0.0768300000        1.1642700400
  O        -1.8028803300        8.9577468800        1.1642700400
  O         0.7608198900        4.5172884400        1.1642700400
  O         3.3245201100        0.0768300000        1.1642700400
  O         8.4568493000       11.7183869300        1.1650400200
  O        11.0205495200        7.2779284900        1.1650400200
  O        13.5842497300        2.8374700500        1.1650400200
  O         3.3294493700       11.7183869300        1.1650400200
  O         5.8931495900        7.2779284900        1.1650400200
  O         8.4568498100        2.8374700500        1.1650400200
  O        -1.7979505500       11.7183869300        1.1650400200
  O         0.7657496700        7.2779284900        1.1650400200
  O         3.3294498900        2.8374700500        1.1650400200
  O         6.0627194200       10.3425368500        1.1660399400
  O         8.6264196400        5.9020784100        1.1660399400
  O        11.1901198600        1.4616199700        1.1660399400
  O         0.9353195000       10.3425368500        1.1660399400
  O         3.4990197200        5.9020784100        1.1660399400
  O         6.0627199400        1.4616199700        1.1660399400
  O        -4.1920804200       10.3425368500        1.1660399400
  O        -1.6283802000        5.9020784100        1.1660399400
  O         0.9353200200        1.4616199700        1.1660399400
 Fe         7.6576695000       13.2997167500        1.9292099500
 Fe        10.2213697200        8.8592583200        1.9292099500
 Fe        12.7850699400        4.4187998800        1.9292099500
 Fe         2.5302695800       13.2997167500        1.9292099500
 Fe         5.0939698000        8.8592583200        1.9292099500
 Fe         7.6576700200        4.4187998800        1.9292099500
 Fe        -2.5971303400       13.2997167500        1.9292099500
 Fe        -0.0334301200        8.8592583200        1.9292099500
 Fe         2.5302701000        4.4187998800        1.9292099500
 Fe         7.6573893600       10.3392168700        2.7128999200
 Fe        10.2210895800        5.8987584300        2.7128999200
 Fe        12.7847898000        1.4582999900        2.7128999200
 Fe         2.5299894400       10.3392168700        2.7128999200
 Fe         5.0936896600        5.8987584300        2.7128999200
 Fe         7.6573898800        1.4582999900        2.7128999200
 Fe        -2.5974104800       10.3392168700        2.7128999200
 Fe        -0.0337102600        5.8987584300        2.7128999200
 Fe         2.5299899600        1.4582999900        2.7128999200
  O         4.0901829535       13.3132567379        3.5105366480
  O         6.6580400896        8.8755513068        3.5092229266
  O         9.2165136183        4.4340049669        3.5170548414
  O        -1.0388150402       13.3182468059        3.5133848603
  O         1.5337255948        8.8805337079        3.5262665233
  O         4.0904070748        4.4395714777        3.5291417946
  O        -6.1580351361       13.3105795201        3.5121752296
  O        -3.6027988065        8.8733533528        3.5058440216
  O        -1.0165677776        4.4434040916        3.5491093264
  O         6.8115400384       11.8664035279        3.5011327361
  O         9.3783686867        7.4391834105        3.4912133635
  O        11.9339407364        2.9688513900        3.5249822512
  O         1.6859996761       11.8703225627        3.4990004013
  O         4.2493562234        7.4390290159        3.4923114277
  O         6.8088552594        2.9859463973        3.5050310397
  O        -3.4327581011       11.8746458876        3.4992387337
  O        -0.8664490886        7.4307013990        3.5169270015
  O         1.6687178279        2.9938588808        3.4917858193
  O         9.4315648864       10.2159446985        3.4824767793
  O        11.9733542963        5.7947531335        3.5079414711
  O        14.5497159288        1.3404193973        3.4831739622
  O         4.2949960741       10.2209179992        3.4965208170
  O         6.8605278538        5.7890144481        3.4910568284
  O         9.4249285901        1.3426609985        3.4870286461
  O        -0.8273033515       10.2196054689        3.4976401060
  O         1.7263434281        5.7964581534        3.5132178184
  O         4.3066524891        1.3252391989        3.4774919440
 Fe         5.0316631284       11.8394070049        4.4184035678
 Fe         7.6111567575        7.3986468497        4.4140544038
 Fe        10.1516592310        2.9550333168        4.4242512818
 Fe        -0.0990354575       11.8393942618        4.4146387344
 Fe         2.4822448801        7.4036150293        4.4091231200
 Fe         5.0225088292        2.9420287281        4.4238727642
 Fe        -5.2127714133       11.8251819797        4.4117720313
 Fe        -2.6604721143        7.4092202804        4.4177877865
 Fe        -0.0909236102        2.9402971559        4.4277476008
 Fe         7.6050106943       13.1774546939        4.8068252240
 Fe        10.1721465204        8.7437931070        4.8358436404
 Fe        12.7240717062        4.2967198455        4.8217495138
 Fe         2.4756980275       13.1904766215        4.8102813512
 Fe         5.0483238584        8.7558108566        4.8217181856
 Fe         7.6017894715        4.3073067588        4.8215286636
 Fe        -2.6390721145       13.1999548722        4.8381151141
 Fe        -0.0747435045        8.7464985631        4.8490744826
 Fe         2.4789454336        4.2969888498        4.8366389788
  O         5.8525980881       10.3531928996        5.8842082559
  O         8.4085733487        5.9031730960        5.8893007905
  O        10.9755066863        1.4628048130        5.8751381177
  O         0.7302247421       10.3523705272        5.8896133919
  O         3.3245408412        5.8986941817        5.8927087230
  O         5.8353957953        1.5033165506        5.9036165338
  O        -4.3992289103       10.3416881364        5.8877672450
  O        -1.8764797702        5.9180295742        5.8348700902
  O         0.6971198723        1.4679047579        5.8266043828
  O         5.9189759173       13.1773454548        5.6850915887
  O         8.4871952409        8.7372941541        5.6970195758
  O        11.0359534475        4.2923611027        5.6880023925
  O         0.7887051618       13.1789617183        5.6785431314
  O         3.3740572519        8.7211419130        5.7168447056
  O         5.9077785124        4.3027963045        5.6716326146
  O        -4.3238265382       13.1460461463        5.6946018072
  O        -1.7573044997        8.7313666984        5.7124188587
  O         0.8013401145        4.3007006453        5.7202557310
  O         3.4612906067       11.7765504543        5.6696185834
  O         6.0363062185        7.3458584533        5.6465788344
  O         8.5847220375        2.8937932204        5.6678002586
  O        -1.6575437876       11.7845315320        5.6870443764
  O         0.9354132668        7.3379147521        5.7169323556
  O         3.4046039221        2.8277001352        5.6231415660
  O        -6.7859721063       11.7785544336        5.6744938969
  O        -4.2267431178        7.3389933623        5.6882914029
  O        -1.6665223634        2.8996728662        5.6794374023
 Fe         7.7820753606       10.2785420707        6.4376538611
 Fe        10.3398746502        5.8307322307        6.4385636104
 Fe        12.9037930122        1.3946738885        6.4342544075
 Fe         2.6591636737       10.2730794097        6.4370762235
 Fe         5.2579452244        5.8516019094        6.4350944240
 Fe         7.7672747154        1.3936945282        6.4375510391
 Fe        -2.4708400331       10.2770258650        6.4395533081
 Fe         0.0333951265        5.8463765603        6.3744520938
 Fe         2.6148080526        1.3279840209        6.4467294170
  O         7.8495698062       10.3778832106        8.2682684610
  H         7.8823530938        9.5396871884        8.7643450252
  H         5.3539461269       10.6331749230        6.6857614394
  O        10.4174802067        5.9315859916        8.2686426214
  H        10.4358904413        5.0991956247        8.7746673205
  H         7.9016023684        6.1757095630        6.6893921844
  O        12.9603394292        1.5186396006        8.2632034109
  H        13.0340924182        0.6961087658        8.7802703655
  H        10.4679083216        1.7153881907        6.6788996674
  O         2.7137154027       10.3865818628        8.2685739362
  H         2.7605539922        9.5607157395        8.7820371226
  H         0.2270869593       10.6330496421        6.6877724903
  O         5.5619029361        6.0773443056        8.2430191860
  H         5.7195562165        5.2503667408        8.7366306341
  H         2.7652758688        6.2928673739        6.5970939525
  O         7.9293762691        1.4935331176        8.2601649604
  H         7.8863584585        0.6660337250        8.7733395573
  H         5.3700692921        1.8649545114        6.7084882964
  O        -2.4089106418       10.3714627368        8.2701336907
  H        -2.3644122973        9.5316525294        8.7624335149
  H        -4.9024849298       10.6258897825        6.6843624315
  O        -0.1817756327        5.9805617580        8.2087597146
  H        -0.5438429318        5.2096678351        8.6843506632
  H        -2.3510164753        6.1927335171        6.6522549268
  O         2.1668497083        1.1368192579        8.2217216356
  H         2.3411489623        0.2775284676        8.6506892876
  H         0.2401858172        1.6426080628        6.6809637330
  C         2.6783789871        4.7834930577        8.9189152059
  C         3.6759076102        3.7956475229        8.5554951039
  H         1.8104151184        4.7436541278        8.2476898174
  H         2.3124798510        4.6222232149        9.9407656974
  H         3.1329649036        5.7843641641        8.8612492391
  N         4.4962316123        3.0370044517        8.2149897057
     168
 i =       17, E =     -8144.3674226557
 Fe         5.0938794100       11.8196869300        0.3885799900
 Fe         7.6575796300        7.3792284900        0.3885799900
 Fe        10.2212798400        2.9387700600        0.3885799900
 Fe        -0.0335205200       11.8196869300        0.3885799900
 Fe         2.5301797000        7.3792284900        0.3885799900
 Fe         5.0938799200        2.9387700600        0.3885799900
 Fe        -5.1609204400       11.8196869300        0.3885799900
 Fe        -2.5972202200        7.3792284900        0.3885799900
 Fe        -0.0335200000        2.9387700600        0.3885799900
  O         8.4519195100        8.9577468800        1.1642700400
  O        11.0156197300        4.5172884400        1.1642700400
  O        13.5793199500        0.0768300000        1.1642700400
  O         3.3245195900        8.9577468800        1.1642700400
  O         5.8882198100        4.5172884400        1.1642700400
  O         8.4519200300        0.0768300000        1.1642700400
  O        -1.8028803300        8.9577468800        1.1642700400
  O         0.7608198900        4.5172884400        1.1642700400
  O         3.3245201100        0.0768300000        1.1642700400
  O         8.4568493000       11.7183869300        1.1650400200
  O        11.0205495200        7.2779284900        1.1650400200
  O        13.5842497300        2.8374700500        1.1650400200
  O         3.3294493700       11.7183869300        1.1650400200
  O         5.8931495900        7.2779284900        1.1650400200
  O         8.4568498100        2.8374700500        1.1650400200
  O        -1.7979505500       11.7183869300        1.1650400200
  O         0.7657496700        7.2779284900        1.1650400200
  O         3.3294498900        2.8374700500        1.1650400200
  O         6.0627194200       10.3425368500        1.1660399400
  O         8.6264196400        5.9020784100        1.1660399400
  O        11.1901198600        1.4616199700        1.1660399400
  O         0.9353195000       10.3425368500        1.1660399400
  O         3.4990197200        5.9020784100        1.1660399400
  O         6.0627199400        1.4616199700        1.1660399400
  O        -4.1920804200       10.3425368500        1.1660399400
  O        -1.6283802000        5.9020784100        1.1660399400
  O         0.9353200200        1.4616199700        1.1660399400
 Fe         7.6576695000       13.2997167500        1.9292099500
 Fe        10.2213697200        8.8592583200        1.9292099500
 Fe        12.7850699400        4.4187998800        1.9292099500
 Fe         2.5302695800       13.2997167500        1.9292099500
 Fe         5.0939698000        8.8592583200        1.9292099500
 Fe         7.6576700200        4.4187998800        1.9292099500
 Fe        -2.5971303400       13.2997167500        1.9292099500
 Fe        -0.0334301200        8.8592583200        1.9292099500
 Fe         2.5302701000        4.4187998800        1.9292099500
 Fe         7.6573893600       10.3392168700        2.7128999200
 Fe        10.2210895800        5.8987584300        2.7128999200
 Fe        12.7847898000        1.4582999900        2.7128999200
 Fe         2.5299894400       10.3392168700        2.7128999200
 Fe         5.0936896600        5.8987584300        2.7128999200
 Fe         7.6573898800        1.4582999900        2.7128999200
 Fe        -2.5974104800       10.3392168700        2.7128999200
 Fe        -0.0337102600        5.8987584300        2.7128999200
 Fe         2.5299899600        1.4582999900        2.7128999200
  O         4.0901829535       13.3132567379        3.5105366480
  O         6.6580400896        8.8755513068        3.5092229266
  O         9.2165136183        4.4340049669        3.5170548414
  O        -1.0388150402       13.3182468059        3.5133848603
  O         1.5337255948        8.8805337079        3.5262665233
  O         4.0904070748        4.4395714777        3.5291417946
  O        -6.1580351361       13.3105795201        3.5121752296
  O        -3.6027988065        8.8733533528        3.5058440216
  O        -1.0165677776        4.4434040916        3.5491093264
  O         6.8115400384       11.8664035279        3.5011327361
  O         9.3783686867        7.4391834105        3.4912133635
  O        11.9339407364        2.9688513900        3.5249822512
  O         1.6859996761       11.8703225627        3.4990004013
  O         4.2493562234        7.4390290159        3.4923114277
  O         6.8088552594        2.9859463973        3.5050310397
  O        -3.4327581011       11.8746458876        3.4992387337
  O        -0.8664490886        7.4307013990        3.5169270015
  O         1.6687178279        2.9938588808        3.4917858193
  O         9.4315648864       10.2159446985        3.4824767793
  O        11.9733542963        5.7947531335        3.5079414711
  O        14.5497159288        1.3404193973        3.4831739622
  O         4.2949960741       10.2209179992        3.4965208170
  O         6.8605278538        5.7890144481        3.4910568284
  O         9.4249285901        1.3426609985        3.4870286461
  O        -0.8273033515       10.2196054689        3.4976401060
  O         1.7263434281        5.7964581534        3.5132178184
  O         4.3066524891        1.3252391989        3.4774919440
 Fe         5.0316631284       11.8394070049        4.4184035678
 Fe         7.6111567575        7.3986468497        4.4140544038
 Fe        10.1516592310        2.9550333168        4.4242512818
 Fe        -0.0990354575       11.8393942618        4.4146387344
 Fe         2.4822448801        7.4036150293        4.4091231200
 Fe         5.0225088292        2.9420287281        4.4238727642
 Fe        -5.2127714133       11.8251819797        4.4117720313
 Fe        -2.6604721143        7.4092202804        4.4177877865
 Fe        -0.0909236102        2.9402971559        4.4277476008
 Fe         7.6050106943       13.1774546939        4.8068252240
 Fe        10.1721465204        8.7437931070        4.8358436404
 Fe        12.7240717062        4.2967198455        4.8217495138
 Fe         2.4756980275       13.1904766215        4.8102813512
 Fe         5.0483238584        8.7558108566        4.8217181856
 Fe         7.6017894715        4.3073067588        4.8215286636
 Fe        -2.6390721145       13.1999548722        4.8381151141
 Fe        -0.0747435045        8.7464985631        4.8490744826
 Fe         2.4789454336        4.2969888498        4.8366389788
  O         5.8525980881       10.3531928996        5.8842082559
  O         8.4085733487        5.9031730960        5.8893007905
  O        10.9755066863        1.4628048130        5.8751381177
  O         0.7302247421       10.3523705272        5.8896133919
  O         3.3245408412        5.8986941817        5.8927087230
  O         5.8353957953        1.5033165506        5.9036165338
  O        -4.3992289103       10.3416881364        5.8877672450
  O        -1.8764797702        5.9180295742        5.8348700902
  O         0.6971198723        1.4679047579        5.8266043828
  O         5.9189759173       13.1773454548        5.6850915887
  O         8.4871952409        8.7372941541        5.6970195758
  O        11.0359534475        4.2923611027        5.6880023925
  O         0.7887051618       13.1789617183        5.6785431314
  O         3.3740572519        8.7211419130        5.7168447056
  O         5.9077785124        4.3027963045        5.6716326146
  O        -4.3238265382       13.1460461463        5.6946018072
  O        -1.7573044997        8.7313666984        5.7124188587
  O         0.8013401145        4.3007006453        5.7202557310
  O         3.4612906067       11.7765504543        5.6696185834
  O         6.0363062185        7.3458584533        5.6465788344
  O         8.5847220375        2.8937932204        5.6678002586
  O        -1.6575437876       11.7845315320        5.6870443764
  O         0.9354132668        7.3379147521        5.7169323556
  O         3.4046039221        2.8277001352        5.6231415660
  O        -6.7859721063       11.7785544336        5.6744938969
  O        -4.2267431178        7.3389933623        5.6882914029
  O        -1.6665223634        2.8996728662        5.6794374023
 Fe         7.7820753606       10.2785420707        6.4376538611
 Fe        10.3398746502        5.8307322307        6.4385636104
 Fe        12.9037930122        1.3946738885        6.4342544075
 Fe         2.6591636737       10.2730794097        6.4370762235
 Fe         5.2579452244        5.8516019094        6.4350944240
 Fe         7.7672747154        1.3936945282        6.4375510391
 Fe        -2.4708400331       10.2770258650        6.4395533081
 Fe         0.0333951265        5.8463765603        6.3744520938
 Fe         2.6148080526        1.3279840209        6.4467294170
  O         7.8495698062       10.3778832106        8.2682684610
  H         7.8823530938        9.5396871884        8.7643450252
  H         5.3539461269       10.6331749230        6.6857614394
  O        10.4174802067        5.9315859916        8.2686426214
  H        10.4358904413        5.0991956247        8.7746673205
  H         7.9016023684        6.1757095630        6.6893921844
  O        12.9603394292        1.5186396006        8.2632034109
  H        13.0340924182        0.6961087658        8.7802703655
  H        10.4679083216        1.7153881907        6.6788996674
  O         2.7137154027       10.3865818628        8.2685739362
  H         2.7605539922        9.5607157395        8.7820371226
  H         0.2270869593       10.6330496421        6.6877724903
  O         5.5619029361        6.0773443056        8.2430191860
  H         5.7195562165        5.2503667408        8.7366306341
  H         2.7652758688        6.2928673739        6.5970939525
  O         7.9293762691        1.4935331176        8.2601649604
  H         7.8863584585        0.6660337250        8.7733395573
  H         5.3700692921        1.8649545114        6.7084882964
  O        -2.4089106418       10.3714627368        8.2701336907
  H        -2.3644122973        9.5316525294        8.7624335149
  H        -4.9024849298       10.6258897825        6.6843624315
  O        -0.1817756327        5.9805617580        8.2087597146
  H        -0.5438429318        5.2096678351        8.6843506632
  H        -2.3510164753        6.1927335171        6.6522549268
  O         2.1668497083        1.1368192579        8.2217216356
  H         2.3411489623        0.2775284676        8.6506892876
  H         0.2401858172        1.6426080628        6.6809637330
  C         2.6783789871        4.7834930577        8.9189152059
  C         3.6759076102        3.7956475229        8.5554951039
  H         1.8104151184        4.7436541278        8.2476898174
  H         2.3124798510        4.6222232149        9.9407656974
  H         3.1329649036        5.7843641641        8.8612492391
  N         4.4962316123        3.0370044517        8.2149897057
