 DBCSR| Multiplication driver                                               XSMM
 DBCSR| Multrec recursion limit                                              512
 DBCSR| Multiplication stack size                                           1000
 DBCSR| Maximum elements for images                                    UNLIMITED
 DBCSR| Multiplicative factor virtual images                                   1
 DBCSR| Multiplication size stacks                                             3
 DBCSR| Number of 3D layers                                               SINGLE
 DBCSR| Use MPI memory allocation                                              T
 DBCSR| Use RMA algorithm                                                      F
 DBCSR| Use Communication thread                                               T
 DBCSR| Communication thread load                                             87


  **** **** ******  **  PROGRAM STARTED AT               2020-10-08 17:37:16.847
 ***** ** ***  *** **   PROGRAM STARTED ON                             irene6265
 **    ****   ******    PROGRAM STARTED BY                              marticar
 ***** **    ** ** **   PROGRAM PROCESS ID                                240160
  **** **  *******  **  PROGRAM STARTED IN /ccc/scratch/cont003/gen0609/marticar
                                           /687724

 CP2K| version string:                                          CP2K version 6.1
 CP2K| source code revision number:                                    svn:18464
 CP2K| cp2kflags: libint fftw3 parallel mpi3 scalapack xsmm mkl                 
 CP2K| is freely available from                            https://www.cp2k.org/
 CP2K| Program compiled at                          Thu Dec 12 15:40:57 CET 2019
 CP2K| Program compiled on                                             cobalt175
 CP2K| Program compiled for                                   Linux-x86-64-iomkl
 CP2K| Data directory path          /tmp/cp2k/6.1/iomkl-195281.401/cp2k-6.1/data
 CP2K| Input file name                                            refinement.inp
 
 GLOBAL| Force Environment number                                              1
 GLOBAL| Basis set file name            /ccc/work/cont003/gen0609/marticar/data/
 GLOBAL| Potential file name            /ccc/work/cont003/gen0609/marticar/data/
 GLOBAL| MM Potential file name                                     MM_POTENTIAL
 GLOBAL| Coordinate file name                                          coord.xyz
 GLOBAL| Method name                                                        CP2K
 GLOBAL| Project name                                                    PROJECT
 GLOBAL| Preferred FFT library                                             FFTW3
 GLOBAL| Preferred diagonalization lib.                                       SL
 GLOBAL| Run type                                                        GEO_OPT
 GLOBAL| All-to-all communication in single precision                          F
 GLOBAL| FFTs using library dependent lengths                                  F
 GLOBAL| Global print level                                                  LOW
 GLOBAL| Total number of message passing processes                             8
 GLOBAL| Number of threads for this process                                    1
 GLOBAL| This output is from process                                           0
 GLOBAL| CPU model name :  AMD EPYC 7H12 64-Core Processor

 MEMORY| system memory details [Kb]
 MEMORY|                        rank 0           min           max       average
 MEMORY| MemTotal            263246936     263246936     263246936     263246936
 MEMORY| MemFree             199052984     199052984     199054224     199054069
 MEMORY| Buffers                     0             0             0             0
 MEMORY| Cached                3374924       3374924       3374924       3374924
 MEMORY| Slab                  1986688       1986688       1986688       1986688
 MEMORY| SReclaimable           310616        310616        310616        310616
 MEMORY| MemLikelyFree       202738524     202738524     202739764     202739609

 
 GENERATE|  Preliminary Number of Bonds generated:                             0
 GENERATE|  Achieved consistency in connectivity generation.

 *******************************************************************************
 *******************************************************************************
 **                                                                           **
 **     #####                         ##              ##                      **
 **    ##   ##            ##          ##              ##                      **
 **   ##     ##                       ##            ######                    **
 **   ##     ##  ##   ##  ##   #####  ##  ##   ####   ##    #####    #####    **
 **   ##     ##  ##   ##  ##  ##      ## ##   ##      ##   ##   ##  ##   ##   **
 **   ##  ## ##  ##   ##  ##  ##      ####     ###    ##   ######   ######    **
 **    ##  ###   ##   ##  ##  ##      ## ##      ##   ##   ##       ##        **
 **     #######   #####   ##   #####  ##  ##  ####    ##    #####   ##        **
 **           ##                                                    ##        **
 **                                                                           **
 **                                                ... make the atoms dance   **
 **                                                                           **
 **            Copyright (C) by CP2K developers group (2000 - 2018)           **
 **                                                                           **
 *******************************************************************************


 TOTAL NUMBERS AND MAXIMUM NUMBERS

  Total number of            - Atomic kinds:                                   3
                             - Atoms:                                         40
                             - Shell sets:                                    40
                             - Shells:                                       276
                             - Primitive Cartesian functions:                204
                             - Cartesian basis functions:                   1168
                             - Spherical basis functions:                    976

  Maximum angular momentum of- Orbital basis functions:                        3
                             - Local part of the GTH pseudopotential:          2
                             - Non-local part of the GTH pseudopotential:      4


 SCF PARAMETERS         Density guess:                                   RESTART
                        --------------------------------------------------------
                        max_scf:                                             300
                        max_scf_history:                                       0
                        max_diis:                                              4
                        --------------------------------------------------------
                        eps_scf:                                        1.00E-07
                        eps_scf_history:                                0.00E+00
                        eps_diis:                                       1.00E-01
                        eps_eigval:                                     1.00E-05
                        --------------------------------------------------------
                        level_shift [a.u.]:                                 0.00
                        added MOs                                        38    0
                        --------------------------------------------------------
                        Mixing method:                            BROYDEN_MIXING
                                                charge density mixing in g-space
                        --------------------------------------------------------
                        Smear method:                                FERMI_DIRAC
                        Electronic temperature [K]:                        300.0
                        Electronic temperature [a.u.]:                  9.50E-04
                        Accuracy threshold:                             1.00E-10
                        --------------------------------------------------------
                        No outer SCF

 BFGS| Use rational function optimization for step estimation:                NO
 BFGS| Use model Hessian for initial guess:                                  YES
 BFGS| Restart Hessian:                                                       NO
 BFGS| Trust radius:                                                       0.472

 *******************************************************************************
 ***                     STARTING GEOMETRY OPTIMIZATION                      ***
 ***                                   BFGS                                  ***
 *******************************************************************************

 Number of electrons:                                                        428
 Number of occupied orbitals:                                                214
 Number of molecular orbitals:                                               252

 Number of orbital functions:                                                976
 Number of independent orbital functions:                                    976

 Extrapolation method: initial_guess

 *** WARNING in qs_initial_guess.F:263 :: User requested to restart the    ***
 *** wavefunction from the file named: PROJECT-RESTART.wfn. This file does ***
 *** not exist. Please check the existence of the file or change properly  ***
 *** the value of the keyword WFN_RESTART_FILE_NAME. Calculation continues ***
 *** using ATOMIC GUESS.                                                   ***



 SCF WAVEFUNCTION OPTIMIZATION

  Step     Update method      Time    Convergence         Total energy    Change
  ------------------------------------------------------------------------------
     1 NoMix/Diag. 0.10E+00    5.6     1.11813771     -1284.1798794687 -1.28E+03
     2 Broy./Diag. 0.10E+00   10.1     0.03350555     -1314.0116621142 -2.98E+01
     3 Broy./Diag. 0.10E+00   10.4     0.23368605     -1302.8406761244  1.12E+01
     4 Broy./Diag. 0.10E+00   10.9     0.01119076     -1291.1621644873  1.17E+01
     5 Broy./Diag. 0.10E+00   10.9     0.07002215     -1287.6858085563  3.48E+00
     6 Broy./Diag. 0.10E+00   11.6     0.00164420     -1284.9481802849  2.74E+00
     7 Broy./Diag. 0.10E+00   12.5     0.01410486     -1284.7611055438  1.87E-01
     8 Broy./Diag. 0.10E+00   12.3     0.00057642     -1284.6955448094  6.56E-02
     9 Broy./Diag. 0.10E+00   13.5     0.00483496     -1284.6856921149  9.85E-03
    10 Broy./Diag. 0.10E+00   13.6     0.00047832     -1284.5832687914  1.02E-01
    11 Broy./Diag. 0.10E+00   13.8     0.00287558     -1284.6140924607 -3.08E-02
    12 Broy./Diag. 0.10E+00   13.7     0.00020518     -1284.5660550472  4.80E-02
    13 Broy./Diag. 0.10E+00   13.4     0.00147059     -1284.5474882799  1.86E-02
    14 Broy./Diag. 0.10E+00   14.3     0.00007127     -1284.5213508108  2.61E-02
    15 Broy./Diag. 0.10E+00   13.7     0.00055503     -1284.5220962753 -7.45E-04
    16 Broy./Diag. 0.10E+00   14.0     0.00005571     -1284.5072187705  1.49E-02
    17 Broy./Diag. 0.10E+00   14.1     0.00027397     -1284.5062291300  9.90E-04
    18 Broy./Diag. 0.10E+00   14.9     0.00014507     -1284.5054475481  7.82E-04
    19 Broy./Diag. 0.10E+00   13.7     0.00009710     -1284.5076939175 -2.25E-03
    20 Broy./Diag. 0.10E+00   13.7     0.00009855     -1284.5061190213  1.57E-03
    21 Broy./Diag. 0.10E+00   14.1     0.00003904     -1284.5077070647 -1.59E-03
    22 Broy./Diag. 0.10E+00   13.6     0.00009999     -1284.5107925244 -3.09E-03
    23 Broy./Diag. 0.10E+00   13.0     0.00006748     -1284.5085971637  2.20E-03
    24 Broy./Diag. 0.10E+00   13.7     0.00005729     -1284.5027781055  5.82E-03
    25 Broy./Diag. 0.10E+00   13.9     0.00001866     -1284.5003561697  2.42E-03
    26 Broy./Diag. 0.10E+00   13.9     0.00002393     -1284.5011427878 -7.87E-04
    27 Broy./Diag. 0.10E+00   13.7     0.00000888     -1284.5009031448  2.40E-04
    28 Broy./Diag. 0.10E+00   14.0     0.00001235     -1284.5005223731  3.81E-04
    29 Broy./Diag. 0.10E+00   14.1     0.00001832     -1284.5011093044 -5.87E-04
    30 Broy./Diag. 0.10E+00   15.0     0.00002016     -1284.5019398168 -8.31E-04
    31 Broy./Diag. 0.10E+00   13.7     0.00002705     -1284.5021237257 -1.84E-04
    32 Broy./Diag. 0.10E+00   13.6     0.00002602     -1284.5025965667 -4.73E-04
    33 Broy./Diag. 0.10E+00   13.8     0.00001747     -1284.5031132465 -5.17E-04
    34 Broy./Diag. 0.10E+00   13.5     0.00001792     -1284.5023706115  7.43E-04
    35 Broy./Diag. 0.10E+00   14.1     0.00000647     -1284.5012447067  1.13E-03
    36 Broy./Diag. 0.10E+00   14.2     0.00000721     -1284.5013455895 -1.01E-04
    37 Broy./Diag. 0.10E+00   13.6     0.00000689     -1284.5020361561 -6.91E-04
    38 Broy./Diag. 0.10E+00   13.9     0.00000534     -1284.5020805402 -4.44E-05
    39 Broy./Diag. 0.10E+00   13.8     0.00000596     -1284.5019245458  1.56E-04
    40 Broy./Diag. 0.10E+00   13.7     0.00000314     -1284.5020773547 -1.53E-04
    41 Broy./Diag. 0.10E+00   13.9     0.00000695     -1284.5022689570 -1.92E-04
    42 Broy./Diag. 0.10E+00   13.1     0.00000652     -1284.5023189439 -5.00E-05
    43 Broy./Diag. 0.10E+00   15.2     0.00000708     -1284.5023641244 -4.52E-05
    44 Broy./Diag. 0.10E+00   14.2     0.00000333     -1284.5024296615 -6.55E-05
    45 Broy./Diag. 0.10E+00   15.2     0.00000171     -1284.5023171865  1.12E-04
    46 Broy./Diag. 0.10E+00   13.7     0.00000176     -1284.5021107782  2.06E-04
    47 Broy./Diag. 0.10E+00   13.8     0.00000414     -1284.5021587891 -4.80E-05
    48 Broy./Diag. 0.10E+00   14.1     0.00000387     -1284.5023786179 -2.20E-04
    49 Broy./Diag. 0.10E+00   13.8     0.00000598     -1284.5023802115 -1.59E-06
    50 Broy./Diag. 0.10E+00   13.1     0.00000278     -1284.5022916849  8.85E-05
    51 Broy./Diag. 0.10E+00   13.8     0.00000218     -1284.5023698202 -7.81E-05
    52 Broy./Diag. 0.10E+00   14.3     0.00000235     -1284.5024566281 -8.68E-05
    53 Broy./Diag. 0.10E+00   14.0     0.00000158     -1284.5024474610  9.17E-06
    54 Broy./Diag. 0.10E+00   13.8     0.00000195     -1284.5024427416  4.72E-06
    55 Broy./Diag. 0.10E+00   13.8     0.00000105     -1284.5024584077 -1.57E-05
    56 Broy./Diag. 0.10E+00   14.1     0.00000098     -1284.5024176977  4.07E-05
    57 Broy./Diag. 0.10E+00   15.0     0.00000152     -1284.5023658816  5.18E-05
    58 Broy./Diag. 0.10E+00   14.0     0.00000112     -1284.5024022227 -3.63E-05
    59 Broy./Diag. 0.10E+00   14.2     0.00000120     -1284.5024619201 -5.97E-05
    60 Broy./Diag. 0.10E+00   14.6     0.00000154     -1284.5024496405  1.23E-05
    61 Broy./Diag. 0.10E+00   13.4     0.00000061     -1284.5024187463  3.09E-05
    62 Broy./Diag. 0.10E+00   13.8     0.00000150     -1284.5024507056 -3.20E-05
    63 Broy./Diag. 0.10E+00   14.0     0.00000049     -1284.5024703837 -1.97E-05
    64 Broy./Diag. 0.10E+00   13.9     0.00000062     -1284.5024470065  2.34E-05
    65 Broy./Diag. 0.10E+00   14.1     0.00000048     -1284.5024430883  3.92E-06
    66 Broy./Diag. 0.10E+00   14.0     0.00000073     -1284.5024421467  9.42E-07
    67 Broy./Diag. 0.10E+00   13.7     0.00000055     -1284.5024159705  2.62E-05
    68 Broy./Diag. 0.10E+00   14.0     0.00000041     -1284.5024094096  6.56E-06
    69 Broy./Diag. 0.10E+00   13.1     0.00000017     -1284.5024346598 -2.53E-05
    70 Broy./Diag. 0.10E+00   15.2     0.00000018     -1284.5024467443 -1.21E-05
    71 Broy./Diag. 0.10E+00   14.2     0.00000028     -1284.5024336829  1.31E-05
    72 Broy./Diag. 0.10E+00   15.1     0.00000033     -1284.5024295900  4.09E-06
    73 Broy./Diag. 0.10E+00   14.0     0.00000044     -1284.5024370918 -7.50E-06
    74 Broy./Diag. 0.10E+00   13.9     0.00000017     -1284.5024300006  7.09E-06
    75 Broy./Diag. 0.10E+00   14.1     0.00000031     -1284.5024193509  1.06E-05
    76 Broy./Diag. 0.10E+00   13.8     0.00000032     -1284.5024203271 -9.76E-07
    77 Broy./Diag. 0.10E+00   14.1     0.00000044     -1284.5024143702  5.96E-06
    78 Broy./Diag. 0.10E+00   14.0     0.00000029     -1284.5024031061  1.13E-05
    79 Broy./Diag. 0.10E+00   13.5     0.00000017     -1284.5024099050 -6.80E-06
    80 Broy./Diag. 0.10E+00   15.2     0.00000014     -1284.5024249220 -1.50E-05
    81 Broy./Diag. 0.10E+00   14.1     0.00000013     -1284.5024229061  2.02E-06
    82 Broy./Diag. 0.10E+00   15.1     0.00000010     -1284.5024152506  7.66E-06
    83 Broy./Diag. 0.10E+00   13.8     0.00000020     -1284.5024168358 -1.59E-06
    84 Broy./Diag. 0.10E+00   13.6     0.00000011     -1284.5024177665 -9.31E-07
    85 Broy./Diag. 0.10E+00   14.3     0.00000015     -1284.5024102831  7.48E-06
    86 Broy./Diag. 0.10E+00   13.6     0.00000015     -1284.5024069301  3.35E-06
    87 Broy./Diag. 0.10E+00   14.0     0.00000016     -1284.5024081788 -1.25E-06
    88 Broy./Diag. 0.10E+00   13.6     0.00000017     -1284.5024040496  4.13E-06
    89 Broy./Diag. 0.10E+00   12.9     0.00000013     -1284.5024024732  1.58E-06
    90 Broy./Diag. 0.10E+00   12.9     0.00000014     -1284.5024107639 -8.29E-06
    91 Broy./Diag. 0.10E+00   13.8     0.00000009     -1284.5024142980 -3.53E-06

  *** SCF run converged in    91 steps ***


  Electronic density on regular grids:       -427.9999999959        0.0000000041
  Core density on regular grids:              427.9999993676       -0.0000006324
  Total charge density on r-space grids:       -0.0000006283
  Total charge density g-space grids:          -0.0000006283

  Overlap energy of the core charge distribution:               0.00000289612906
  Self energy of the core charge distribution:              -2253.28808377914038
  Core Hamiltonian energy:                                    717.44401693553334
  Hartree energy:                                             454.86929141389049
  Exchange-correlation energy:                               -203.21208359492763
  Dispersion energy:                                           -0.31555731337772
  Electronic entropic energy:                                  -0.00000085615552
  Fermi energy:                                                -0.16696012297208

  Total energy:                                             -1284.50241429804851

 ENERGY| Total FORCE_EVAL ( QS ) energy (a.u.):            -1284.502407652365719


 --------  Informations at step =     0 ------------
  Optimization Method        =                 BFGS
  Total Energy               =     -1284.5024076524
  Used time                  =             1260.608
 ---------------------------------------------------

 --------------------------
 OPTIMIZATION STEP:      1
 --------------------------

 Number of electrons:                                                        428
 Number of occupied orbitals:                                                218
 Number of molecular orbitals:                                               252

 Number of orbital functions:                                                976
 Number of independent orbital functions:                                    976

 Extrapolation method: PS Nth order


 SCF WAVEFUNCTION OPTIMIZATION

  Step     Update method      Time    Convergence         Total energy    Change
  ------------------------------------------------------------------------------
     1 Broy./Diag. 0.10E+00    6.2     0.03279940     -1284.5027862790 -1.28E+03
     2 Broy./Diag. 0.10E+00   11.2     0.00127234     -1284.7086501848 -2.06E-01
     3 Broy./Diag. 0.10E+00   11.8     0.00896538     -1284.6218303520  8.68E-02
     4 Broy./Diag. 0.10E+00   13.0     0.00036778     -1284.5274459669  9.44E-02
     5 Broy./Diag. 0.10E+00   12.3     0.00160693     -1284.5162180473  1.12E-02
     6 Broy./Diag. 0.10E+00   15.6     0.00011628     -1284.5110315856  5.19E-03
     7 Broy./Diag. 0.10E+00   14.3     0.00056535     -1284.5074499544  3.58E-03
     8 Broy./Diag. 0.10E+00   14.6     0.00003598     -1284.5047187866  2.73E-03
     9 Broy./Diag. 0.10E+00   15.7     0.00020867     -1284.5060509250 -1.33E-03
    10 Broy./Diag. 0.10E+00   15.5     0.00000987     -1284.5062953138 -2.44E-04
    11 Broy./Diag. 0.10E+00   18.5     0.00008559     -1284.5062961781 -8.64E-07
    12 Broy./Diag. 0.10E+00   18.1     0.00000815     -1284.5055657341  7.30E-04
    13 Broy./Diag. 0.10E+00   16.9     0.00004616     -1284.5055480261  1.77E-05
    14 Broy./Diag. 0.10E+00   17.4     0.00000351     -1284.5052650136  2.83E-04
    15 Broy./Diag. 0.10E+00   17.0     0.00001923     -1284.5054335356 -1.69E-04
    16 Broy./Diag. 0.10E+00   17.2     0.00001632     -1284.5054134774  2.01E-05
    17 Broy./Diag. 0.10E+00   18.2     0.00001272     -1284.5052380002  1.75E-04
    18 Broy./Diag. 0.10E+00   18.4     0.00001305     -1284.5051254435  1.13E-04
    19 Broy./Diag. 0.10E+00   15.9     0.00000686     -1284.5051106505  1.48E-05
    20 Broy./Diag. 0.10E+00   16.3     0.00001377     -1284.5051124915 -1.84E-06
    21 Broy./Diag. 0.10E+00   16.4     0.00000470     -1284.5051240621 -1.16E-05
    22 Broy./Diag. 0.10E+00   16.9     0.00000829     -1284.5051478504 -2.38E-05
    23 Broy./Diag. 0.10E+00   17.0     0.00000208     -1284.5051771998 -2.93E-05
    24 Broy./Diag. 0.10E+00   18.2     0.00000395     -1284.5051741321  3.07E-06
    25 Broy./Diag. 0.10E+00   17.3     0.00000087     -1284.5051625143  1.16E-05
    26 Broy./Diag. 0.10E+00   18.5     0.00000223     -1284.5051420543  2.05E-05
    27 Broy./Diag. 0.10E+00   18.6     0.00000054     -1284.5051235436  1.85E-05
    28 Broy./Diag. 0.10E+00   18.5     0.00000150     -1284.5051377794 -1.42E-05
    29 Broy./Diag. 0.10E+00   18.1     0.00000101     -1284.5051450849 -7.31E-06
    30 Broy./Diag. 0.10E+00   17.0     0.00000109     -1284.5051386166  6.47E-06
    31 Broy./Diag. 0.10E+00   16.9     0.00000064     -1284.5051297537  8.86E-06
    32 Broy./Diag. 0.10E+00   16.7     0.00000046     -1284.5051240077  5.75E-06
    33 Broy./Diag. 0.10E+00   17.1     0.00000029     -1284.5051192466  4.76E-06
    34 Broy./Diag. 0.10E+00   16.4     0.00000025     -1284.5051162817  2.96E-06
    35 Broy./Diag. 0.10E+00   18.1     0.00000027     -1284.5051166156 -3.34E-07
    36 Broy./Diag. 0.10E+00   18.2     0.00000019     -1284.5051189795 -2.36E-06
    37 Broy./Diag. 0.10E+00   17.9     0.00000036     -1284.5051209090 -1.93E-06
    38 Broy./Diag. 0.10E+00   17.8     0.00000018     -1284.5051216957 -7.87E-07
    39 Broy./Diag. 0.10E+00   17.1     0.00000053     -1284.5051191523  2.54E-06
    40 Broy./Diag. 0.10E+00   18.5     0.00000012     -1284.5051167463  2.41E-06
    41 Broy./Diag. 0.10E+00   18.1     0.00000024     -1284.5051173619 -6.16E-07
    42 Broy./Diag. 0.10E+00   17.3     0.00000010     -1284.5051184393 -1.08E-06

  *** SCF run converged in    42 steps ***


  Electronic density on regular grids:       -427.9999999959        0.0000000041
  Core density on regular grids:              427.9999993677       -0.0000006323
  Total charge density on r-space grids:       -0.0000006282
  Total charge density g-space grids:          -0.0000006282

  Overlap energy of the core charge distribution:               0.00000305758525
  Self energy of the core charge distribution:              -2253.28808377914038
  Core Hamiltonian energy:                                    717.47532120832864
  Hartree energy:                                             454.86153630993505
  Exchange-correlation energy:                               -203.23746470578391
  Dispersion energy:                                           -0.31642960941082
  Electronic entropic energy:                                  -0.00000092081720
  Fermi energy:                                                -0.16708864992605

  Total energy:                                             -1284.50511843930281

 ENERGY| Total FORCE_EVAL ( QS ) energy (a.u.):            -1284.505117227639857


 --------  Informations at step =     1 ------------
  Optimization Method        =                 BFGS
  Total Energy               =     -1284.5051172276
  Real energy change         =        -0.0027095753
  Predicted change in energy =        -0.0015516244
  Scaling factor             =         0.0000000000
  Step size                  =         0.0675185827
  Trust radius               =         0.4724315332
  Decrease in energy         =                  YES
  Used time                  =              710.592

  Convergence check :
  Max. step size             =         0.0675185827
  Conv. limit for step size  =         0.0030000000
  Convergence in step size   =                   NO
  RMS step size              =         0.0153581677
  Conv. limit for RMS step   =         0.0015000000
  Convergence in RMS step    =                   NO
  Max. gradient              =         0.0095267972
  Conv. limit for gradients  =         0.0004500000
  Conv. for gradients        =                   NO
  RMS gradient               =         0.0016238519
  Conv. limit for RMS grad.  =         0.0003000000
  Conv. for gradients        =                   NO
 ---------------------------------------------------

 --------------------------
 OPTIMIZATION STEP:      2
 --------------------------

 Number of electrons:                                                        428
 Number of occupied orbitals:                                                218
 Number of molecular orbitals:                                               252

 Number of orbital functions:                                                976
 Number of independent orbital functions:                                    976

 Extrapolation method: PS Nth order


 SCF WAVEFUNCTION OPTIMIZATION

  Step     Update method      Time    Convergence         Total energy    Change
  ------------------------------------------------------------------------------
     1 Broy./Diag. 0.10E+00    7.3     0.19632992     -1284.4275299479 -1.28E+03
     2 Broy./Diag. 0.10E+00   11.8     0.01086621     -1285.6490987080 -1.22E+00
     3 Broy./Diag. 0.10E+00   14.1     0.06486591     -1285.2174383325  4.32E-01
     4 Broy./Diag. 0.10E+00   13.0     0.00620581     -1284.6681773319  5.49E-01
     5 Broy./Diag. 0.10E+00   13.3     0.00884911     -1284.5406475849  1.28E-01
     6 Broy./Diag. 0.10E+00   14.1     0.00357858     -1284.4718866991  6.88E-02
     7 Broy./Diag. 0.10E+00   14.4     0.00116364     -1284.4858560035 -1.40E-02
     8 Broy./Diag. 0.10E+00   16.0     0.00208116     -1284.4960449233 -1.02E-02
     9 Broy./Diag. 0.10E+00   16.7     0.00033523     -1284.4953130042  7.32E-04
    10 Broy./Diag. 0.10E+00   17.8     0.00162310     -1284.4965079125 -1.19E-03
    11 Broy./Diag. 0.10E+00   18.2     0.00019995     -1284.4975147249 -1.01E-03
    12 Broy./Diag. 0.10E+00   18.8     0.00034943     -1284.4955848997  1.93E-03
    13 Broy./Diag. 0.10E+00   16.7     0.00008106     -1284.4916092892  3.98E-03
    14 Broy./Diag. 0.10E+00   18.1     0.00052904     -1284.4911791415  4.30E-04
    15 Broy./Diag. 0.10E+00   17.6     0.00004452     -1284.4915308971 -3.52E-04
    16 Broy./Diag. 0.10E+00   17.2     0.00016713     -1284.4926236803 -1.09E-03
    17 Broy./Diag. 0.10E+00   17.4     0.00003658     -1284.4935771453 -9.53E-04
    18 Broy./Diag. 0.10E+00   17.9     0.00016556     -1284.4922782901  1.30E-03
    19 Broy./Diag. 0.10E+00   18.5     0.00001825     -1284.4916546748  6.24E-04
    20 Broy./Diag. 0.10E+00   16.3     0.00014692     -1284.4917685837 -1.14E-04
    21 Broy./Diag. 0.10E+00   15.6     0.00001113     -1284.4920945385 -3.26E-04
    22 Broy./Diag. 0.10E+00   15.4     0.00005899     -1284.4920619704  3.26E-05
    23 Broy./Diag. 0.10E+00   15.5     0.00001082     -1284.4921926135 -1.31E-04
    24 Broy./Diag. 0.10E+00   15.2     0.00001177     -1284.4922219226 -2.93E-05
    25 Broy./Diag. 0.10E+00   16.5     0.00000772     -1284.4921743905  4.75E-05
    26 Broy./Diag. 0.10E+00   15.3     0.00001203     -1284.4920823565  9.20E-05
    27 Broy./Diag. 0.10E+00   16.5     0.00000572     -1284.4920637336  1.86E-05
    28 Broy./Diag. 0.10E+00   16.2     0.00000815     -1284.4921148776 -5.11E-05
    29 Broy./Diag. 0.10E+00   16.2     0.00000197     -1284.4921378764 -2.30E-05
    30 Broy./Diag. 0.10E+00   17.3     0.00000726     -1284.4920946636  4.32E-05
    31 Broy./Diag. 0.10E+00   15.9     0.00000303     -1284.4920650886  2.96E-05
    32 Broy./Diag. 0.10E+00   15.9     0.00000320     -1284.4920724518 -7.36E-06
    33 Broy./Diag. 0.10E+00   16.2     0.00000143     -1284.4920788186 -6.37E-06
    34 Broy./Diag. 0.10E+00   15.7     0.00000165     -1284.4920838728 -5.05E-06
    35 Broy./Diag. 0.10E+00   15.8     0.00000108     -1284.4920995773 -1.57E-05
    36 Broy./Diag. 0.10E+00   16.7     0.00000078     -1284.4921154536 -1.59E-05
    37 Broy./Diag. 0.10E+00   15.6     0.00000047     -1284.4921150293  4.24E-07
    38 Broy./Diag. 0.10E+00   15.2     0.00000045     -1284.4921063256  8.70E-06
    39 Broy./Diag. 0.10E+00   16.7     0.00000036     -1284.4921033599  2.97E-06
    40 Broy./Diag. 0.10E+00   15.7     0.00000051     -1284.4921057342 -2.37E-06
    41 Broy./Diag. 0.10E+00   16.5     0.00000034     -1284.4921069473 -1.21E-06
    42 Broy./Diag. 0.10E+00   16.7     0.00000047     -1284.4921044082  2.54E-06
    43 Broy./Diag. 0.10E+00   15.7     0.00000014     -1284.4921031430  1.27E-06
    44 Broy./Diag. 0.10E+00   15.3     0.00000023     -1284.4921048806 -1.74E-06
    45 Broy./Diag. 0.10E+00   15.6     0.00000016     -1284.4921049862 -1.06E-07
    46 Broy./Diag. 0.10E+00   15.1     0.00000015     -1284.4921035349  1.45E-06
    47 Broy./Diag. 0.10E+00   16.0     0.00000006     -1284.4921035109  2.39E-08

  *** SCF run converged in    47 steps ***


  Electronic density on regular grids:       -427.9999999954        0.0000000046
  Core density on regular grids:              427.9999993679       -0.0000006321
  Total charge density on r-space grids:       -0.0000006275
  Total charge density g-space grids:          -0.0000006275

  Overlap energy of the core charge distribution:               0.00001129067794
  Self energy of the core charge distribution:              -2253.28808377914038
  Core Hamiltonian energy:                                    717.64414724528774
  Hartree energy:                                             454.84063779317307
  Exchange-correlation energy:                               -203.36887774608243
  Dispersion energy:                                           -0.31993690745766
  Electronic entropic energy:                                  -0.00000140740171
  Fermi energy:                                                -0.16811511435385

  Total energy:                                             -1284.49210351094484

 ENERGY| Total FORCE_EVAL ( QS ) energy (a.u.):            -1284.492105628585705


 --------  Informations at step =     2 ------------
  Optimization Method        =                 BFGS
  Total Energy               =     -1284.4921056286
  Real energy change         =         0.0130115991
  Predicted change in energy =        -0.0060417391
  Scaling factor             =         0.0000000000
  Step size                  =         0.3278553105
  Trust radius               =         0.4724315332
  Decrease in energy         =                   NO
  Used time                  =              764.116

  Convergence check :
  Max. step size             =         0.3278553105
  Conv. limit for step size  =         0.0030000000
  Convergence in step size   =                   NO
  RMS step size              =         0.0736420712
  Conv. limit for RMS step   =         0.0015000000
  Convergence in RMS step    =                   NO
  Max. gradient              =         0.0771276269
  Conv. limit for gradients  =         0.0004500000
  Conv. for gradients        =                   NO
  RMS gradient               =         0.0113533904
  Conv. limit for RMS grad.  =         0.0003000000
  Conv. for gradients        =                   NO
 ---------------------------------------------------

 --------------------------
 OPTIMIZATION STEP:      3
 --------------------------

 Number of electrons:                                                        428
 Number of occupied orbitals:                                                217
 Number of molecular orbitals:                                               252

 Number of orbital functions:                                                976
 Number of independent orbital functions:                                    976

 Extrapolation method: PS Nth order


 SCF WAVEFUNCTION OPTIMIZATION

  Step     Update method      Time    Convergence         Total energy    Change
  ------------------------------------------------------------------------------
     1 Broy./Diag. 0.10E+00    7.0     0.37314250     -1284.2563601798 -1.28E+03
     2 Broy./Diag. 0.10E+00   12.0     0.01671324     -1284.4019772529 -1.46E-01
     3 Broy./Diag. 0.10E+00   12.4     0.08331223     -1284.5344884709 -1.33E-01
     4 Broy./Diag. 0.10E+00   11.9     0.00392989     -1284.6865755703 -1.52E-01
     5 Broy./Diag. 0.10E+00   12.6     0.00725806     -1284.6177632348  6.88E-02
     6 Broy./Diag. 0.10E+00   13.3     0.00037420     -1284.5093035514  1.08E-01
     7 Broy./Diag. 0.10E+00   13.5     0.00320978     -1284.5542574750 -4.50E-02
     8 Broy./Diag. 0.10E+00   15.1     0.00021063     -1284.5586575528 -4.40E-03
     9 Broy./Diag. 0.10E+00   16.0     0.00151276     -1284.5571667236  1.49E-03
    10 Broy./Diag. 0.10E+00   16.3     0.00007579     -1284.5253599239  3.18E-02
    11 Broy./Diag. 0.10E+00   15.9     0.00056693     -1284.5213309207  4.03E-03
    12 Broy./Diag. 0.10E+00   16.5     0.00004899     -1284.5107222427  1.06E-02
    13 Broy./Diag. 0.10E+00   15.9     0.00035372     -1284.5125161428 -1.79E-03
    14 Broy./Diag. 0.10E+00   16.0     0.00003748     -1284.5113922606  1.12E-03
    15 Broy./Diag. 0.10E+00   16.1     0.00020628     -1284.5103365547  1.06E-03
    16 Broy./Diag. 0.10E+00   16.2     0.00003640     -1284.5086551037  1.68E-03
    17 Broy./Diag. 0.10E+00   16.1     0.00003252     -1284.5083284751  3.27E-04
    18 Broy./Diag. 0.10E+00   16.2     0.00014006     -1284.5078533310  4.75E-04
    19 Broy./Diag. 0.10E+00   16.3     0.00002076     -1284.5081825292 -3.29E-04
    20 Broy./Diag. 0.10E+00   16.1     0.00003627     -1284.5083875423 -2.05E-04
    21 Broy./Diag. 0.10E+00   16.5     0.00001460     -1284.5085071226 -1.20E-04
    22 Broy./Diag. 0.10E+00   16.0     0.00001091     -1284.5081635664  3.44E-04
    23 Broy./Diag. 0.10E+00   16.2     0.00002588     -1284.5078266822  3.37E-04
    24 Broy./Diag. 0.10E+00   17.5     0.00000657     -1284.5077624052  6.43E-05
    25 Broy./Diag. 0.10E+00   16.3     0.00001115     -1284.5076951424  6.73E-05
    26 Broy./Diag. 0.10E+00   16.7     0.00000497     -1284.5076881581  6.98E-06
    27 Broy./Diag. 0.10E+00   15.7     0.00000509     -1284.5077431236 -5.50E-05
    28 Broy./Diag. 0.10E+00   19.1     0.00000714     -1284.5078542735 -1.11E-04
    29 Broy./Diag. 0.10E+00   16.3     0.00000051     -1284.5079011145 -4.68E-05
    30 Broy./Diag. 0.10E+00   17.3     0.00000221     -1284.5078488553  5.23E-05
    31 Broy./Diag. 0.10E+00   17.1     0.00000047     -1284.5077912429  5.76E-05
    32 Broy./Diag. 0.10E+00   16.2     0.00000235     -1284.5077869395  4.30E-06
    33 Broy./Diag. 0.10E+00   16.9     0.00000063     -1284.5078042846 -1.73E-05
    34 Broy./Diag. 0.10E+00   16.8     0.00000177     -1284.5078143442 -1.01E-05
    35 Broy./Diag. 0.10E+00   16.9     0.00000050     -1284.5078266893 -1.23E-05
    36 Broy./Diag. 0.10E+00   18.2     0.00000112     -1284.5078259125  7.77E-07
    37 Broy./Diag. 0.10E+00   17.2     0.00000045     -1284.5078222475  3.66E-06
    38 Broy./Diag. 0.10E+00   18.2     0.00000086     -1284.5078174953  4.75E-06
    39 Broy./Diag. 0.10E+00   17.4     0.00000013     -1284.5078111627  6.33E-06
    40 Broy./Diag. 0.10E+00   18.4     0.00000051     -1284.5078117763 -6.14E-07
    41 Broy./Diag. 0.10E+00   17.4     0.00000007     -1284.5078104671  1.31E-06

  *** SCF run converged in    41 steps ***


  Electronic density on regular grids:       -427.9999999959        0.0000000041
  Core density on regular grids:              427.9999993675       -0.0000006325
  Total charge density on r-space grids:       -0.0000006283
  Total charge density g-space grids:          -0.0000006283

  Overlap energy of the core charge distribution:               0.00000302209970
  Self energy of the core charge distribution:              -2253.28808377914038
  Core Hamiltonian energy:                                    717.51670892428206
  Hartree energy:                                             454.85292939586157
  Exchange-correlation energy:                               -203.27170129760711
  Dispersion energy:                                           -0.31766571005986
  Electronic entropic energy:                                  -0.00000102254276
  Fermi energy:                                                -0.16717027840047

  Total energy:                                             -1284.50781046710699

 ENERGY| Total FORCE_EVAL ( QS ) energy (a.u.):            -1284.507809512399945


 --------  Informations at step =     3 ------------
  Optimization Method        =                 BFGS
  Total Energy               =     -1284.5078095124
  Real energy change         =        -0.0157038838
  Predicted change in energy =        -0.0285533173
  Scaling factor             =         0.0000000000
  Step size                  =         0.2860303207
  Trust radius               =         0.4724315332
  Decrease in energy         =                  YES
  Used time                  =              671.645

  Convergence check :
  Max. step size             =         0.2860303207
  Conv. limit for step size  =         0.0030000000
  Convergence in step size   =                   NO
  RMS step size              =         0.0549132075
  Conv. limit for RMS step   =         0.0015000000
  Convergence in RMS step    =                   NO
  Max. gradient              =         0.0068256137
  Conv. limit for gradients  =         0.0004500000
  Conv. for gradients        =                   NO
  RMS gradient               =         0.0011952456
  Conv. limit for RMS grad.  =         0.0003000000
  Conv. for gradients        =                   NO
 ---------------------------------------------------

 --------------------------
 OPTIMIZATION STEP:      4
 --------------------------

 Number of electrons:                                                        428
 Number of occupied orbitals:                                                218
 Number of molecular orbitals:                                               252

 Number of orbital functions:                                                976
 Number of independent orbital functions:                                    976

 Extrapolation method: PS Nth order


 SCF WAVEFUNCTION OPTIMIZATION

  Step     Update method      Time    Convergence         Total energy    Change
  ------------------------------------------------------------------------------
     1 Broy./Diag. 0.10E+00    6.7     0.47817353     -1284.2529391051 -1.28E+03
     2 Broy./Diag. 0.10E+00   11.7     0.03334860     -1283.3138336903  9.39E-01
     3 Broy./Diag. 0.10E+00   11.9     0.15391911     -1283.4071217908 -9.33E-02
     4 Broy./Diag. 0.10E+00   12.9     0.03537800     -1283.4039514886  3.17E-03
     5 Broy./Diag. 0.10E+00   12.6     0.05329606     -1283.8626620224 -4.59E-01
     6 Broy./Diag. 0.10E+00   12.7     0.00623159     -1284.2977361634 -4.35E-01
     7 Broy./Diag. 0.10E+00   14.7     0.02441051     -1284.3381085855 -4.04E-02
     8 Broy./Diag. 0.10E+00   14.6     0.00836416     -1284.4890568736 -1.51E-01
     9 Broy./Diag. 0.10E+00   14.9     0.00457318     -1284.4456679501  4.34E-02
    10 Broy./Diag. 0.10E+00   16.3     0.00803544     -1284.4557541255 -1.01E-02
    11 Broy./Diag. 0.10E+00   16.5     0.00124760     -1284.4491548142  6.60E-03
    12 Broy./Diag. 0.10E+00   16.5     0.00178963     -1284.4556721251 -6.52E-03
    13 Broy./Diag. 0.10E+00   16.3     0.00033927     -1284.4801325062 -2.45E-02
    14 Broy./Diag. 0.10E+00   17.4     0.00144665     -1284.4859833317 -5.85E-03
    15 Broy./Diag. 0.10E+00   16.2     0.00010441     -1284.5062012932 -2.02E-02
    16 Broy./Diag. 0.10E+00   16.2     0.00044084     -1284.5060229010  1.78E-04
    17 Broy./Diag. 0.10E+00   16.0     0.00025063     -1284.5104650310 -4.44E-03
    18 Broy./Diag. 0.10E+00   15.7     0.00030522     -1284.5097136616  7.51E-04
    19 Broy./Diag. 0.10E+00   15.5     0.00022728     -1284.5087194746  9.94E-04
    20 Broy./Diag. 0.10E+00   15.6     0.00004634     -1284.5086834040  3.61E-05
    21 Broy./Diag. 0.10E+00   15.8     0.00018696     -1284.5099648489 -1.28E-03
    22 Broy./Diag. 0.10E+00   15.7     0.00001864     -1284.5092251700  7.40E-04
    23 Broy./Diag. 0.10E+00   16.1     0.00005603     -1284.5088570523  3.68E-04
    24 Broy./Diag. 0.10E+00   16.2     0.00006590     -1284.5082757261  5.81E-04
    25 Broy./Diag. 0.10E+00   15.5     0.00003931     -1284.5084717573 -1.96E-04
    26 Broy./Diag. 0.10E+00   16.2     0.00004447     -1284.5084844734 -1.27E-05
    27 Broy./Diag. 0.10E+00   14.9     0.00002092     -1284.5085212090 -3.67E-05
    28 Broy./Diag. 0.10E+00   15.8     0.00002740     -1284.5088599309 -3.39E-04
    29 Broy./Diag. 0.10E+00   15.4     0.00002331     -1284.5094164178 -5.56E-04
    30 Broy./Diag. 0.10E+00   16.2     0.00001469     -1284.5094827775 -6.64E-05
    31 Broy./Diag. 0.10E+00   15.8     0.00001486     -1284.5094381486  4.46E-05
    32 Broy./Diag. 0.10E+00   16.8     0.00001340     -1284.5094318022  6.35E-06
    33 Broy./Diag. 0.10E+00   15.9     0.00000971     -1284.5094484890 -1.67E-05
    34 Broy./Diag. 0.10E+00   16.7     0.00000576     -1284.5094046445  4.38E-05
    35 Broy./Diag. 0.10E+00   16.5     0.00000765     -1284.5092983201  1.06E-04
    36 Broy./Diag. 0.10E+00   16.3     0.00000260     -1284.5092046592  9.37E-05
    37 Broy./Diag. 0.10E+00   15.1     0.00000564     -1284.5091872352  1.74E-05
    38 Broy./Diag. 0.10E+00   16.0     0.00000243     -1284.5091434389  4.38E-05
    39 Broy./Diag. 0.10E+00   16.4     0.00000288     -1284.5091001740  4.33E-05
    40 Broy./Diag. 0.10E+00   15.0     0.00000454     -1284.5091008863 -7.12E-07
    41 Broy./Diag. 0.10E+00   16.1     0.00000114     -1284.5091311904 -3.03E-05
    42 Broy./Diag. 0.10E+00   16.4     0.00000469     -1284.5091431531 -1.20E-05
    43 Broy./Diag. 0.10E+00   16.5     0.00000064     -1284.5091513227 -8.17E-06
    44 Broy./Diag. 0.10E+00   15.8     0.00000136     -1284.5091545653 -3.24E-06
    45 Broy./Diag. 0.10E+00   16.5     0.00000097     -1284.5091730724 -1.85E-05
    46 Broy./Diag. 0.10E+00   16.9     0.00000095     -1284.5091829966 -9.92E-06
    47 Broy./Diag. 0.10E+00   15.4     0.00000206     -1284.5091795752  3.42E-06
    48 Broy./Diag. 0.10E+00   17.0     0.00000039     -1284.5091783029  1.27E-06
    49 Broy./Diag. 0.10E+00   15.6     0.00000121     -1284.5091816559 -3.35E-06
    50 Broy./Diag. 0.10E+00   15.8     0.00000040     -1284.5091838601 -2.20E-06
    51 Broy./Diag. 0.10E+00   16.4     0.00000034     -1284.5091776737  6.19E-06
    52 Broy./Diag. 0.10E+00   15.4     0.00000116     -1284.5091742734  3.40E-06
    53 Broy./Diag. 0.10E+00   16.0     0.00000018     -1284.5091741082  1.65E-07
    54 Broy./Diag. 0.10E+00   16.5     0.00000033     -1284.5091747196 -6.11E-07
    55 Broy./Diag. 0.10E+00   16.1     0.00000014     -1284.5091710596  3.66E-06
    56 Broy./Diag. 0.10E+00   15.9     0.00000034     -1284.5091693531  1.71E-06
    57 Broy./Diag. 0.10E+00   16.4     0.00000024     -1284.5091677706  1.58E-06
    58 Broy./Diag. 0.10E+00   16.0     0.00000009     -1284.5091680221 -2.51E-07

  *** SCF run converged in    58 steps ***


  Electronic density on regular grids:       -427.9999999960        0.0000000040
  Core density on regular grids:              427.9999993678       -0.0000006322
  Total charge density on r-space grids:       -0.0000006283
  Total charge density g-space grids:          -0.0000006283

  Overlap energy of the core charge distribution:               0.00000300466471
  Self energy of the core charge distribution:              -2253.28808377914038
  Core Hamiltonian energy:                                    717.52246378085761
  Hartree energy:                                             454.85567934589153
  Exchange-correlation energy:                               -203.28082374738835
  Dispersion energy:                                           -0.31840555659521
  Electronic entropic energy:                                  -0.00000107039884
  Fermi energy:                                                -0.16724293550362

  Total energy:                                             -1284.50916802210986

 ENERGY| Total FORCE_EVAL ( QS ) energy (a.u.):            -1284.509167272381774


 --------  Informations at step =     4 ------------
  Optimization Method        =                 BFGS
  Total Energy               =     -1284.5091672724
  Real energy change         =        -0.0013577600
  Predicted change in energy =        -0.0007492296
  Scaling factor             =         0.0000000000
  Step size                  =         0.0489984982
  Trust radius               =         0.4724315332
  Decrease in energy         =                  YES
  Used time                  =              919.299

  Convergence check :
  Max. step size             =         0.0489984982
  Conv. limit for step size  =         0.0030000000
  Convergence in step size   =                   NO
  RMS step size              =         0.0137382281
  Conv. limit for RMS step   =         0.0015000000
  Convergence in RMS step    =                   NO
  Max. gradient              =         0.0046362285
  Conv. limit for gradients  =         0.0004500000
  Conv. for gradients        =                   NO
  RMS gradient               =         0.0008893270
  Conv. limit for RMS grad.  =         0.0003000000
  Conv. for gradients        =                   NO
 ---------------------------------------------------

 --------------------------
 OPTIMIZATION STEP:      5
 --------------------------

 Number of electrons:                                                        428
 Number of occupied orbitals:                                                218
 Number of molecular orbitals:                                               252

 Number of orbital functions:                                                976
 Number of independent orbital functions:                                    976

 Extrapolation method: PS Nth order


 SCF WAVEFUNCTION OPTIMIZATION

  Step     Update method      Time    Convergence         Total energy    Change
  ------------------------------------------------------------------------------
     1 Broy./Diag. 0.10E+00   27.3     0.11750740     -1284.4787868753 -1.28E+03
     2 Broy./Diag. 0.10E+00   20.4     0.00937866     -1284.9827350184 -5.04E-01
     3 Broy./Diag. 0.10E+00   26.4     0.04339459     -1284.8795915785  1.03E-01
     4 Broy./Diag. 0.10E+00   24.1     0.00489709     -1284.6893471858  1.90E-01
     5 Broy./Diag. 0.10E+00   23.0     0.01169871     -1284.6042255890  8.51E-02
     6 Broy./Diag. 0.10E+00   26.8     0.00197021     -1284.5021992755  1.02E-01
     7 Broy./Diag. 0.10E+00   29.7     0.00504552     -1284.5256602489 -2.35E-02
     8 Broy./Diag. 0.10E+00   26.8     0.00091923     -1284.5381206321 -1.25E-02
     9 Broy./Diag. 0.10E+00   30.4     0.00303666     -1284.5333462785  4.77E-03
    10 Broy./Diag. 0.10E+00   62.8     0.00082218     -1284.5191369459  1.42E-02
    11 Broy./Diag. 0.10E+00  102.8     0.00034218     -1284.5194632101 -3.26E-04
    12 Broy./Diag. 0.10E+00   65.6     0.00092487     -1284.5162290703  3.23E-03
    13 Broy./Diag. 0.10E+00   28.9     0.00016060     -1284.5101162068  6.11E-03
    14 Broy./Diag. 0.10E+00  111.4     0.00047995     -1284.5108392888 -7.23E-04
    15 Broy./Diag. 0.10E+00   51.2     0.00007703     -1284.5123463793 -1.51E-03
    16 Broy./Diag. 0.10E+00   32.0     0.00041443     -1284.5112586725  1.09E-03
    17 Broy./Diag. 0.10E+00   24.9     0.00010838     -1284.5107964923  4.62E-04
    18 Broy./Diag. 0.10E+00   25.5     0.00020257     -1284.5110720130 -2.76E-04
    19 Broy./Diag. 0.10E+00   25.5     0.00007974     -1284.5114465602 -3.75E-04
    20 Broy./Diag. 0.10E+00   23.7     0.00005889     -1284.5110767409  3.70E-04
    21 Broy./Diag. 0.10E+00   21.5     0.00007510     -1284.5108494270  2.27E-04
    22 Broy./Diag. 0.10E+00   29.8     0.00007075     -1284.5109803399 -1.31E-04
    23 Broy./Diag. 0.10E+00   25.4     0.00008746     -1284.5112123020 -2.32E-04
    24 Broy./Diag. 0.10E+00   25.5     0.00000775     -1284.5112651108 -5.28E-05
    25 Broy./Diag. 0.10E+00   25.7     0.00001797     -1284.5111020951  1.63E-04
    26 Broy./Diag. 0.10E+00   16.4     0.00000972     -1284.5109188778  1.83E-04
    27 Broy./Diag. 0.10E+00   16.3     0.00000882     -1284.5109919923 -7.31E-05
    28 Broy./Diag. 0.10E+00   17.5     0.00001787     -1284.5110218208 -2.98E-05
    29 Broy./Diag. 0.10E+00   16.4     0.00000808     -1284.5109678341  5.40E-05
    30 Broy./Diag. 0.10E+00   15.9     0.00002014     -1284.5109605539  7.28E-06
    31 Broy./Diag. 0.10E+00   15.8     0.00000600     -1284.5110175637 -5.70E-05
    32 Broy./Diag. 0.10E+00   15.1     0.00000334     -1284.5110240297 -6.47E-06
    33 Broy./Diag. 0.10E+00   16.2     0.00000127     -1284.5110168649  7.16E-06
    34 Broy./Diag. 0.10E+00   16.0     0.00000250     -1284.5110172291 -3.64E-07
    35 Broy./Diag. 0.10E+00   16.9     0.00000142     -1284.5110245382 -7.31E-06
    36 Broy./Diag. 0.10E+00   16.2     0.00000067     -1284.5110275727 -3.03E-06
    37 Broy./Diag. 0.10E+00   17.5     0.00000074     -1284.5110273486  2.24E-07
    38 Broy./Diag. 0.10E+00   16.4     0.00000023     -1284.5110244418  2.91E-06
    39 Broy./Diag. 0.10E+00   16.5     0.00000055     -1284.5110165311  7.91E-06
    40 Broy./Diag. 0.10E+00   15.8     0.00000019     -1284.5110097024  6.83E-06
    41 Broy./Diag. 0.10E+00   15.7     0.00000060     -1284.5110137833 -4.08E-06
    42 Broy./Diag. 0.10E+00   15.6     0.00000019     -1284.5110195717 -5.79E-06
    43 Broy./Diag. 0.10E+00   15.9     0.00000064     -1284.5110195566  1.52E-08
    44 Broy./Diag. 0.10E+00   16.4     0.00000008     -1284.5110206462 -1.09E-06

  *** SCF run converged in    44 steps ***


  Electronic density on regular grids:       -427.9999999968        0.0000000032
  Core density on regular grids:              427.9999993681       -0.0000006319
  Total charge density on r-space grids:       -0.0000006287
  Total charge density g-space grids:          -0.0000006287

  Overlap energy of the core charge distribution:               0.00000338117767
  Self energy of the core charge distribution:              -2253.28808377914038
  Core Hamiltonian energy:                                    717.53431830348268
  Hartree energy:                                             454.87371842363115
  Exchange-correlation energy:                               -203.30916938148906
  Dispersion energy:                                           -0.32180630095269
  Electronic entropic energy:                                  -0.00000129292301
  Fermi energy:                                                -0.16750561193277

  Total energy:                                             -1284.51102064621364

 ENERGY| Total FORCE_EVAL ( QS ) energy (a.u.):            -1284.511021390014093


 --------  Informations at step =     5 ------------
  Optimization Method        =                 BFGS
  Total Energy               =     -1284.5110213900
  Real energy change         =        -0.0018541176
  Predicted change in energy =        -0.0030651509
  Scaling factor             =         0.0000000000
  Step size                  =         0.2417324639
  Trust radius               =         0.4724315332
  Decrease in energy         =                  YES
  Used time                  =             1252.688

  Convergence check :
  Max. step size             =         0.2417324639
  Conv. limit for step size  =         0.0030000000
  Convergence in step size   =                   NO
  RMS step size              =         0.0684039926
  Conv. limit for RMS step   =         0.0015000000
  Convergence in RMS step    =                   NO
  Max. gradient              =         0.0229281292
  Conv. limit for gradients  =         0.0004500000
  Conv. for gradients        =                   NO
  RMS gradient               =         0.0031083401
  Conv. limit for RMS grad.  =         0.0003000000
  Conv. for gradients        =                   NO
 ---------------------------------------------------

 --------------------------
 OPTIMIZATION STEP:      6
 --------------------------

 Number of electrons:                                                        428
 Number of occupied orbitals:                                                217
 Number of molecular orbitals:                                               252

 Number of orbital functions:                                                976
 Number of independent orbital functions:                                    976

 Extrapolation method: PS Nth order


 SCF WAVEFUNCTION OPTIMIZATION

  Step     Update method      Time    Convergence         Total energy    Change
  ------------------------------------------------------------------------------
     1 Broy./Diag. 0.10E+00   27.7     0.09596746     -1284.4554871563 -1.28E+03
     2 Broy./Diag. 0.10E+00   24.2     0.00597613     -1284.1880698754  2.67E-01
     3 Broy./Diag. 0.10E+00   25.7     0.02967721     -1284.3274149889 -1.39E-01
     4 Broy./Diag. 0.10E+00   29.8     0.00132264     -1284.4432989594 -1.16E-01
     5 Broy./Diag. 0.10E+00   21.8     0.00520775     -1284.4873853757 -4.41E-02
     6 Broy./Diag. 0.10E+00   34.0     0.00047781     -1284.4943353568 -6.95E-03
     7 Broy./Diag. 0.10E+00   28.3     0.00259981     -1284.5171493617 -2.28E-02
     8 Broy./Diag. 0.10E+00  144.3     0.00020217     -1284.5321629990 -1.50E-02
     9 Broy./Diag. 0.10E+00   33.7     0.00124217     -1284.5247663366  7.40E-03
    10 Broy./Diag. 0.10E+00   30.1     0.00005751     -1284.5130261949  1.17E-02
    11 Broy./Diag. 0.10E+00  182.5     0.00043525     -1284.5118013190  1.22E-03
    12 Broy./Diag. 0.10E+00  147.6     0.00002909     -1284.5112387976  5.63E-04
    13 Broy./Diag. 0.10E+00  129.8     0.00017013     -1284.5114821371 -2.43E-04
    14 Broy./Diag. 0.10E+00   69.7     0.00015941     -1284.5123198695 -8.38E-04
    15 Broy./Diag. 0.10E+00  146.9     0.00009999     -1284.5130435275 -7.24E-04
    16 Broy./Diag. 0.10E+00  123.7     0.00007275     -1284.5128788511  1.65E-04
    17 Broy./Diag. 0.10E+00   51.8     0.00001614     -1284.5125429357  3.36E-04
    18 Broy./Diag. 0.10E+00   36.5     0.00005353     -1284.5120270602  5.16E-04
    19 Broy./Diag. 0.10E+00   26.2     0.00002154     -1284.5119753636  5.17E-05
    20 Broy./Diag. 0.10E+00   27.1     0.00003486     -1284.5121876357 -2.12E-04
    21 Broy./Diag. 0.10E+00   22.8     0.00001693     -1284.5125202641 -3.33E-04
    22 Broy./Diag. 0.10E+00   22.8     0.00003335     -1284.5125078218  1.24E-05
    23 Broy./Diag. 0.10E+00   25.8     0.00001064     -1284.5123428610  1.65E-04
    24 Broy./Diag. 0.10E+00   25.4     0.00001888     -1284.5122548277  8.80E-05
    25 Broy./Diag. 0.10E+00   24.4     0.00000315     -1284.5122419793  1.28E-05
    26 Broy./Diag. 0.10E+00   31.4     0.00000484     -1284.5122267741  1.52E-05
    27 Broy./Diag. 0.10E+00   28.5     0.00000454     -1284.5122440158 -1.72E-05
    28 Broy./Diag. 0.10E+00   28.4     0.00000836     -1284.5123078262 -6.38E-05
    29 Broy./Diag. 0.10E+00   27.7     0.00000208     -1284.5123654659 -5.76E-05
    30 Broy./Diag. 0.10E+00   25.2     0.00000425     -1284.5123737332 -8.27E-06
    31 Broy./Diag. 0.10E+00   33.2     0.00000069     -1284.5123746622 -9.29E-07
    32 Broy./Diag. 0.10E+00   27.1     0.00000263     -1284.5123455453  2.91E-05
    33 Broy./Diag. 0.10E+00   40.5     0.00000030     -1284.5123433195  2.23E-06
    34 Broy./Diag. 0.10E+00   26.6     0.00000107     -1284.5123512157 -7.90E-06
    35 Broy./Diag. 0.10E+00   34.5     0.00000032     -1284.5123611374 -9.92E-06
    36 Broy./Diag. 0.10E+00   36.4     0.00000088     -1284.5123621823 -1.04E-06
    37 Broy./Diag. 0.10E+00   45.2     0.00000015     -1284.5123603913  1.79E-06
    38 Broy./Diag. 0.10E+00   47.7     0.00000034     -1284.5123610387 -6.47E-07
    39 Broy./Diag. 0.10E+00   16.0     0.00000030     -1284.5123601691  8.70E-07
    40 Broy./Diag. 0.10E+00   15.8     0.00000027     -1284.5123568871  3.28E-06
    41 Broy./Diag. 0.10E+00   16.2     0.00000028     -1284.5123550664  1.82E-06
    42 Broy./Diag. 0.10E+00   15.7     0.00000019     -1284.5123554472 -3.81E-07
    43 Broy./Diag. 0.10E+00   15.2     0.00000012     -1284.5123565253 -1.08E-06
    44 Broy./Diag. 0.10E+00   54.3     0.00000012     -1284.5123578413 -1.32E-06
    45 Broy./Diag. 0.10E+00   42.3     0.00000006     -1284.5123583136 -4.72E-07

  *** SCF run converged in    45 steps ***


  Electronic density on regular grids:       -427.9999999991        0.0000000009
  Core density on regular grids:              427.9999993678       -0.0000006322
  Total charge density on r-space grids:       -0.0000006314
  Total charge density g-space grids:          -0.0000006314

  Overlap energy of the core charge distribution:               0.00000313269355
  Self energy of the core charge distribution:              -2253.28808377914038
  Core Hamiltonian energy:                                    717.52246143165496
  Hartree energy:                                             454.86649331992368
  Exchange-correlation energy:                               -203.29229593005431
  Dispersion energy:                                           -0.32093528610938
  Electronic entropic energy:                                  -0.00000120252143
  Fermi energy:                                                -0.16731028276688

  Total energy:                                             -1284.51235831355439

 ENERGY| Total FORCE_EVAL ( QS ) energy (a.u.):            -1284.512357572581550


 --------  Informations at step =     6 ------------
  Optimization Method        =                 BFGS
  Total Energy               =     -1284.5123575726
  Real energy change         =        -0.0013361826
  Predicted change in energy =        -0.0012551377
  Scaling factor             =         0.0000000000
  Step size                  =         0.0626915170
  Trust radius               =         0.4724315332
  Decrease in energy         =                  YES
  Used time                  =             2136.554

  Convergence check :
  Max. step size             =         0.0626915170
  Conv. limit for step size  =         0.0030000000
  Convergence in step size   =                   NO
  RMS step size              =         0.0171402770
  Conv. limit for RMS step   =         0.0015000000
  Convergence in RMS step    =                   NO
  Max. gradient              =         0.0049026608
  Conv. limit for gradients  =         0.0004500000
  Conv. for gradients        =                   NO
  RMS gradient               =         0.0008903461
  Conv. limit for RMS grad.  =         0.0003000000
  Conv. for gradients        =                   NO
 ---------------------------------------------------

 --------------------------
 OPTIMIZATION STEP:      7
 --------------------------

 Number of electrons:                                                        428
 Number of occupied orbitals:                                                217
 Number of molecular orbitals:                                               252

 Number of orbital functions:                                                976
 Number of independent orbital functions:                                    976

 Extrapolation method: PS Nth order


 SCF WAVEFUNCTION OPTIMIZATION

  Step     Update method      Time    Convergence         Total energy    Change
  ------------------------------------------------------------------------------
     1 Broy./Diag. 0.10E+00   12.7     0.09537787     -1284.4738895945 -1.28E+03
     2 Broy./Diag. 0.10E+00   11.9     0.00803461     -1284.4944101467 -2.05E-02
     3 Broy./Diag. 0.10E+00   13.0     0.04001304     -1284.4362168382  5.82E-02
     4 Broy./Diag. 0.10E+00   14.7     0.00308296     -1284.4189521712  1.73E-02
     5 Broy./Diag. 0.10E+00   16.7     0.00828468     -1284.4553505227 -3.64E-02
     6 Broy./Diag. 0.10E+00   13.2     0.00101710     -1284.5237049416 -6.84E-02
     7 Broy./Diag. 0.10E+00   13.8     0.00419577     -1284.4965505769  2.72E-02
     8 Broy./Diag. 0.10E+00   13.7     0.00024059     -1284.4903216976  6.23E-03
     9 Broy./Diag. 0.10E+00   16.2     0.00139844     -1284.4931290899 -2.81E-03
    10 Broy./Diag. 0.10E+00   16.2     0.00006340     -1284.5049747237 -1.18E-02
    11 Broy./Diag. 0.10E+00   16.1     0.00062678     -1284.5077143992 -2.74E-03
    12 Broy./Diag. 0.10E+00   16.3     0.00009489     -1284.5137872634 -6.07E-03
    13 Broy./Diag. 0.10E+00   16.7     0.00036700     -1284.5123654914  1.42E-03
    14 Broy./Diag. 0.10E+00   16.2     0.00002728     -1284.5125574027 -1.92E-04
    15 Broy./Diag. 0.10E+00   15.7     0.00012820     -1284.5125219460  3.55E-05
    16 Broy./Diag. 0.10E+00   14.9     0.00013775     -1284.5128794313 -3.57E-04
    17 Broy./Diag. 0.10E+00   16.9     0.00002808     -1284.5130683465 -1.89E-04
    18 Broy./Diag. 0.10E+00   17.1     0.00004046     -1284.5133357319 -2.67E-04
    19 Broy./Diag. 0.10E+00   16.5     0.00003222     -1284.5133558829 -2.02E-05
    20 Broy./Diag. 0.10E+00   15.9     0.00001424     -1284.5133426121  1.33E-05
    21 Broy./Diag. 0.10E+00   16.1     0.00003753     -1284.5130827150  2.60E-04
    22 Broy./Diag. 0.10E+00   17.2     0.00004591     -1284.5129184232  1.64E-04
    23 Broy./Diag. 0.10E+00   22.6     0.00001739     -1284.5132236080 -3.05E-04
    24 Broy./Diag. 0.10E+00   25.6     0.00001350     -1284.5133385411 -1.15E-04
    25 Broy./Diag. 0.10E+00   24.5     0.00000634     -1284.5133473565 -8.82E-06
    26 Broy./Diag. 0.10E+00  180.1     0.00001139     -1284.5133700587 -2.27E-05
    27 Broy./Diag. 0.10E+00  200.1     0.00000331     -1284.5133842337 -1.42E-05
    28 Broy./Diag. 0.10E+00  164.8     0.00001027     -1284.5133088125  7.54E-05
    29 Broy./Diag. 0.10E+00   33.4     0.00000291     -1284.5132704519  3.84E-05
    30 Broy./Diag. 0.10E+00   49.8     0.00000467     -1284.5132688174  1.63E-06
    31 Broy./Diag. 0.10E+00   96.5     0.00000328     -1284.5132727584 -3.94E-06
    32 Broy./Diag. 0.10E+00   99.8     0.00000238     -1284.5132932499 -2.05E-05
    33 Broy./Diag. 0.10E+00  246.2     0.00000407     -1284.5132706853  2.26E-05
    34 Broy./Diag. 0.10E+00   69.0     0.00000050     -1284.5132197897  5.09E-05
    35 Broy./Diag. 0.10E+00  325.6     0.00000133     -1284.5132267355 -6.95E-06
    36 Broy./Diag. 0.10E+00   50.1     0.00000282     -1284.5132322135 -5.48E-06
    37 Broy./Diag. 0.10E+00   40.0     0.00000196     -1284.5132359766 -3.76E-06
    38 Broy./Diag. 0.10E+00   28.3     0.00000105     -1284.5132465978 -1.06E-05
    39 Broy./Diag. 0.10E+00   27.2     0.00000036     -1284.5132559772 -9.38E-06
    40 Broy./Diag. 0.10E+00  101.2     0.00000140     -1284.5132570654 -1.09E-06
    41 Broy./Diag. 0.10E+00   25.2     0.00000038     -1284.5132607009 -3.64E-06
    42 Broy./Diag. 0.10E+00   52.8     0.00000071     -1284.5132544900  6.21E-06
    43 Broy./Diag. 0.10E+00   34.9     0.00000058     -1284.5132518898  2.60E-06
    44 Broy./Diag. 0.10E+00   32.9     0.00000028     -1284.5132564400 -4.55E-06
    45 Broy./Diag. 0.10E+00  115.3     0.00000038     -1284.5132563842  5.58E-08
    46 Broy./Diag. 0.10E+00   44.1     0.00000027     -1284.5132543689  2.02E-06
    47 Broy./Diag. 0.10E+00   81.2     0.00000048     -1284.5132540534  3.15E-07
    48 Broy./Diag. 0.10E+00   88.1     0.00000016     -1284.5132525908  1.46E-06
    49 Broy./Diag. 0.10E+00   35.5     0.00000023     -1284.5132513888  1.20E-06
    50 Broy./Diag. 0.10E+00   37.0     0.00000013     -1284.5132513226  6.62E-08
    51 Broy./Diag. 0.10E+00   35.0     0.00000006     -1284.5132514695 -1.47E-07

  *** SCF run converged in    51 steps ***


  Electronic density on regular grids:       -428.0000000002       -0.0000000002
  Core density on regular grids:              427.9999993679       -0.0000006321
  Total charge density on r-space grids:       -0.0000006323
  Total charge density g-space grids:          -0.0000006323

  Overlap energy of the core charge distribution:               0.00000308725915
  Self energy of the core charge distribution:              -2253.28808377914038
  Core Hamiltonian energy:                                    717.51073402455927
  Hartree energy:                                             454.86963257577736
  Exchange-correlation energy:                               -203.28406290909550
  Dispersion energy:                                           -0.32147324461761
  Electronic entropic energy:                                  -0.00000122423561
  Fermi energy:                                                -0.16721853335107

  Total energy:                                             -1284.51325146949307

 ENERGY| Total FORCE_EVAL ( QS ) energy (a.u.):            -1284.513253109207199


 --------  Informations at step =     7 ------------
  Optimization Method        =                 BFGS
  Total Energy               =     -1284.5132531092
  Real energy change         =        -0.0008955366
  Predicted change in energy =        -0.0005102911
  Scaling factor             =         0.0000000000
  Step size                  =         0.0423043801
  Trust radius               =         0.4724315332
  Decrease in energy         =                  YES
  Used time                  =             2757.665

  Convergence check :
  Max. step size             =         0.0423043801
  Conv. limit for step size  =         0.0030000000
  Convergence in step size   =                   NO
  RMS step size              =         0.0153615544
  Conv. limit for RMS step   =         0.0015000000
  Convergence in RMS step    =                   NO
  Max. gradient              =         0.0023161473
  Conv. limit for gradients  =         0.0004500000
  Conv. for gradients        =                   NO
  RMS gradient               =         0.0005676095
  Conv. limit for RMS grad.  =         0.0003000000
  Conv. for gradients        =                   NO
 ---------------------------------------------------

 --------------------------
 OPTIMIZATION STEP:      8
 --------------------------

 Number of electrons:                                                        428
 Number of occupied orbitals:                                                217
 Number of molecular orbitals:                                               252

 Number of orbital functions:                                                976
 Number of independent orbital functions:                                    976

 Extrapolation method: PS Nth order


 SCF WAVEFUNCTION OPTIMIZATION

  Step     Update method      Time    Convergence         Total energy    Change
  ------------------------------------------------------------------------------
     1 Broy./Diag. 0.10E+00   19.1     0.05156544     -1284.5045951045 -1.28E+03
     2 Broy./Diag. 0.10E+00   19.3     0.00059119     -1284.2938504080  2.11E-01
     3 Broy./Diag. 0.10E+00   20.7     0.00532415     -1284.3985479386 -1.05E-01
     4 Broy./Diag. 0.10E+00   29.4     0.00060917     -1284.5332433580 -1.35E-01
     5 Broy./Diag. 0.10E+00   24.8     0.00273992     -1284.5219285346  1.13E-02
     6 Broy./Diag. 0.10E+00   44.5     0.00023858     -1284.5105815290  1.13E-02
     7 Broy./Diag. 0.10E+00   28.3     0.00099536     -1284.5050569100  5.52E-03
     8 Broy./Diag. 0.10E+00   38.8     0.00010577     -1284.5062002087 -1.14E-03
     9 Broy./Diag. 0.10E+00   38.5     0.00045998     -1284.5078646002 -1.66E-03
    10 Broy./Diag. 0.10E+00   26.5     0.00002217     -1284.5125112430 -4.65E-03
    11 Broy./Diag. 0.10E+00   31.1     0.00015350     -1284.5131287721 -6.18E-04
    12 Broy./Diag. 0.10E+00   36.4     0.00001663     -1284.5142063005 -1.08E-03
    13 Broy./Diag. 0.10E+00   27.3     0.00009968     -1284.5137302736  4.76E-04
    14 Broy./Diag. 0.10E+00   28.9     0.00000971     -1284.5138838053 -1.54E-04
    15 Broy./Diag. 0.10E+00   27.0     0.00006088     -1284.5139038230 -2.00E-05
    16 Broy./Diag. 0.10E+00   28.1     0.00000510     -1284.5144900128 -5.86E-04
    17 Broy./Diag. 0.10E+00   25.0     0.00003091     -1284.5145365496 -4.65E-05
    18 Broy./Diag. 0.10E+00   35.7     0.00000370     -1284.5147939555 -2.57E-04
    19 Broy./Diag. 0.10E+00   29.3     0.00001665     -1284.5146995881  9.44E-05
    20 Broy./Diag. 0.10E+00   31.8     0.00000743     -1284.5146340780  6.55E-05
    21 Broy./Diag. 0.10E+00   23.4     0.00001274     -1284.5146539185 -1.98E-05
    22 Broy./Diag. 0.10E+00   39.6     0.00000287     -1284.5146909320 -3.70E-05
    23 Broy./Diag. 0.10E+00   30.4     0.00000519     -1284.5147120457 -2.11E-05
    24 Broy./Diag. 0.10E+00   34.2     0.00000094     -1284.5147306806 -1.86E-05
    25 Broy./Diag. 0.10E+00   28.5     0.00000210     -1284.5147232955  7.39E-06
    26 Broy./Diag. 0.10E+00   18.3     0.00000049     -1284.5147115623  1.17E-05
    27 Broy./Diag. 0.10E+00   16.6     0.00000146     -1284.5146978040  1.38E-05
    28 Broy./Diag. 0.10E+00   69.0     0.00000026     -1284.5146878513  9.95E-06
    29 Broy./Diag. 0.10E+00   92.4     0.00000083     -1284.5146852453  2.61E-06
    30 Broy./Diag. 0.10E+00   33.9     0.00000033     -1284.5146866793 -1.43E-06
    31 Broy./Diag. 0.10E+00   26.7     0.00000097     -1284.5146949128 -8.23E-06
    32 Broy./Diag. 0.10E+00   39.0     0.00000034     -1284.5147042916 -9.38E-06
    33 Broy./Diag. 0.10E+00  210.5     0.00000062     -1284.5147026139  1.68E-06
    34 Broy./Diag. 0.10E+00   45.5     0.00000011     -1284.5147011440  1.47E-06
    35 Broy./Diag. 0.10E+00   33.0     0.00000030     -1284.5146996981  1.45E-06
    36 Broy./Diag. 0.10E+00   32.3     0.00000004     -1284.5146996750  2.30E-08

  *** SCF run converged in    36 steps ***


  Electronic density on regular grids:       -427.9999999948        0.0000000052
  Core density on regular grids:              427.9999993680       -0.0000006320
  Total charge density on r-space grids:       -0.0000006269
  Total charge density g-space grids:          -0.0000006269

  Overlap energy of the core charge distribution:               0.00000293287323
  Self energy of the core charge distribution:              -2253.28808377914038
  Core Hamiltonian energy:                                    717.48570550886177
  Hartree energy:                                             454.87736567403948
  Exchange-correlation energy:                               -203.26589718355220
  Dispersion energy:                                           -0.32379136338765
  Electronic entropic energy:                                  -0.00000146472183
  Fermi energy:                                                -0.16690753885608

  Total energy:                                             -1284.51469967502771

 ENERGY| Total FORCE_EVAL ( QS ) energy (a.u.):            -1284.514700204126484


 --------  Informations at step =     8 ------------
  Optimization Method        =                 BFGS
  Total Energy               =     -1284.5147002041
  Real energy change         =        -0.0014470949
  Predicted change in energy =        -0.0014288103
  Scaling factor             =         0.0000000000
  Step size                  =         0.1671595753
  Trust radius               =         0.4724315332
  Decrease in energy         =                  YES
  Used time                  =             1432.992

  Convergence check :
  Max. step size             =         0.1671595753
  Conv. limit for step size  =         0.0030000000
  Convergence in step size   =                   NO
  RMS step size              =         0.0589972745
  Conv. limit for RMS step   =         0.0015000000
  Convergence in RMS step    =                   NO
  Max. gradient              =         0.0021191479
  Conv. limit for gradients  =         0.0004500000
  Conv. for gradients        =                   NO
  RMS gradient               =         0.0005519666
  Conv. limit for RMS grad.  =         0.0003000000
  Conv. for gradients        =                   NO
 ---------------------------------------------------

 --------------------------
 OPTIMIZATION STEP:      9
 --------------------------

 Number of electrons:                                                        428
 Number of occupied orbitals:                                                217
 Number of molecular orbitals:                                               252

 Number of orbital functions:                                                976
 Number of independent orbital functions:                                    976

 Extrapolation method: PS Nth order


 SCF WAVEFUNCTION OPTIMIZATION

  Step     Update method      Time    Convergence         Total energy    Change
  ------------------------------------------------------------------------------
     1 Broy./Diag. 0.10E+00   42.0     0.06570192     -1284.4964082510 -1.28E+03
     2 Broy./Diag. 0.10E+00   15.5     0.00069204     -1284.1660251452  3.30E-01
     3 Broy./Diag. 0.10E+00   18.9     0.00554100     -1284.3072503414 -1.41E-01
     4 Broy./Diag. 0.10E+00   25.0     0.00055021     -1284.4597538244 -1.53E-01
     5 Broy./Diag. 0.10E+00   21.8     0.00259532     -1284.4822688290 -2.25E-02
     6 Broy./Diag. 0.10E+00   20.2     0.00047883     -1284.5074973081 -2.52E-02
     7 Broy./Diag. 0.10E+00   21.0     0.00112826     -1284.5038375627  3.66E-03
     8 Broy./Diag. 0.10E+00   33.2     0.00017614     -1284.5037520592  8.55E-05
     9 Broy./Diag. 0.10E+00   30.8     0.00054845     -1284.5035100922  2.42E-04
    10 Broy./Diag. 0.10E+00   35.8     0.00003338     -1284.5091321578 -5.62E-03
    11 Broy./Diag. 0.10E+00   21.6     0.00020174     -1284.5091949753 -6.28E-05
    12 Broy./Diag. 0.10E+00   22.4     0.00001137     -1284.5119886765 -2.79E-03
    13 Broy./Diag. 0.10E+00   24.6     0.00007265     -1284.5117922402  1.96E-04
    14 Broy./Diag. 0.10E+00   25.2     0.00000960     -1284.5130805999 -1.29E-03
    15 Broy./Diag. 0.10E+00   19.3     0.00006773     -1284.5132814131 -2.01E-04
    16 Broy./Diag. 0.10E+00   22.3     0.00000384     -1284.5146193654 -1.34E-03
    17 Broy./Diag. 0.10E+00   35.4     0.00002329     -1284.5145239346  9.54E-05
    18 Broy./Diag. 0.10E+00   31.9     0.00000337     -1284.5147493781 -2.25E-04
    19 Broy./Diag. 0.10E+00  119.6     0.00001655     -1284.5148115396 -6.22E-05
    20 Broy./Diag. 0.10E+00   69.9     0.00000564     -1284.5149555301 -1.44E-04
    21 Broy./Diag. 0.10E+00   17.7     0.00001093     -1284.5149244011  3.11E-05
    22 Broy./Diag. 0.10E+00  282.8     0.00000214     -1284.5149009593  2.34E-05
    23 Broy./Diag. 0.10E+00   17.1     0.00000455     -1284.5149092740 -8.31E-06
    24 Broy./Diag. 0.10E+00   16.2     0.00000069     -1284.5149206006 -1.13E-05
    25 Broy./Diag. 0.10E+00   17.2     0.00000197     -1284.5149316865 -1.11E-05
    26 Broy./Diag. 0.10E+00   16.4     0.00000068     -1284.5149518572 -2.02E-05
    27 Broy./Diag. 0.10E+00   16.8     0.00000176     -1284.5149367667  1.51E-05
    28 Broy./Diag. 0.10E+00   16.7     0.00000034     -1284.5149294418  7.32E-06
    29 Broy./Diag. 0.10E+00   17.1     0.00000087     -1284.5149315246 -2.08E-06
    30 Broy./Diag. 0.10E+00   16.4     0.00000032     -1284.5149420144 -1.05E-05
    31 Broy./Diag. 0.10E+00   16.0     0.00000102     -1284.5149425405 -5.26E-07
    32 Broy./Diag. 0.10E+00   15.6     0.00000030     -1284.5149478746 -5.33E-06
    33 Broy./Diag. 0.10E+00   15.1     0.00000061     -1284.5149514240 -3.55E-06
    34 Broy./Diag. 0.10E+00   16.1     0.00000017     -1284.5149557119 -4.29E-06
    35 Broy./Diag. 0.10E+00   15.0     0.00000031     -1284.5149535213  2.19E-06
    36 Broy./Diag. 0.10E+00   15.7     0.00000007     -1284.5149529598  5.61E-07

  *** SCF run converged in    36 steps ***


  Electronic density on regular grids:       -427.9999999949        0.0000000051
  Core density on regular grids:              427.9999993681       -0.0000006319
  Total charge density on r-space grids:       -0.0000006267
  Total charge density g-space grids:          -0.0000006267

  Overlap energy of the core charge distribution:               0.00000296760680
  Self energy of the core charge distribution:              -2253.28808377914038
  Core Hamiltonian energy:                                    717.48742303945983
  Hartree energy:                                             454.87616376391401
  Exchange-correlation energy:                               -203.26684553137764
  Dispersion energy:                                           -0.32361194761827
  Electronic entropic energy:                                  -0.00000147268011
  Fermi energy:                                                -0.16689684061235

  Total energy:                                             -1284.51495295983500

 ENERGY| Total FORCE_EVAL ( QS ) energy (a.u.):            -1284.514955439817186


 --------  Informations at step =     9 ------------
  Optimization Method        =                 BFGS
  Total Energy               =     -1284.5149554398
  Real energy change         =        -0.0002552357
  Predicted change in energy =        -0.0001537193
  Scaling factor             =         0.0000000000
  Step size                  =         0.0266070044
  Trust radius               =         0.4724315332
  Decrease in energy         =                  YES
  Used time                  =             1245.270

  Convergence check :
  Max. step size             =         0.0266070044
  Conv. limit for step size  =         0.0030000000
  Convergence in step size   =                   NO
  RMS step size              =         0.0055388567
  Conv. limit for RMS step   =         0.0015000000
  Convergence in RMS step    =                   NO
  Max. gradient              =         0.0019855330
  Conv. limit for gradients  =         0.0004500000
  Conv. for gradients        =                   NO
  RMS gradient               =         0.0004772486
  Conv. limit for RMS grad.  =         0.0003000000
  Conv. for gradients        =                   NO
 ---------------------------------------------------

 --------------------------
 OPTIMIZATION STEP:     10
 --------------------------

 Number of electrons:                                                        428
 Number of occupied orbitals:                                                217
 Number of molecular orbitals:                                               252

 Number of orbital functions:                                                976
 Number of independent orbital functions:                                    976

 Extrapolation method: PS Nth order


 SCF WAVEFUNCTION OPTIMIZATION

  Step     Update method      Time    Convergence         Total energy    Change
  ------------------------------------------------------------------------------
     1 Broy./Diag. 0.10E+00   14.9     0.06088750     -1284.5042820043 -1.28E+03
     2 Broy./Diag. 0.10E+00   25.1     0.00045479     -1284.7835562354 -2.79E-01
     3 Broy./Diag. 0.10E+00   18.6     0.00390493     -1284.6655952655  1.18E-01
     4 Broy./Diag. 0.10E+00   17.7     0.00015907     -1284.5338865531  1.32E-01
     5 Broy./Diag. 0.10E+00   29.0     0.00102274     -1284.5308934424  2.99E-03
     6 Broy./Diag. 0.10E+00   20.6     0.00009928     -1284.5252779964  5.62E-03
     7 Broy./Diag. 0.10E+00   21.3     0.00053436     -1284.5267762834 -1.50E-03
     8 Broy./Diag. 0.10E+00   24.7     0.00013445     -1284.5221929310  4.58E-03
     9 Broy./Diag. 0.10E+00  107.2     0.00034167     -1284.5223305418 -1.38E-04
    10 Broy./Diag. 0.10E+00  141.7     0.00004848     -1284.5205136981  1.82E-03
    11 Broy./Diag. 0.10E+00   75.8     0.00012022     -1284.5192286669  1.29E-03
    12 Broy./Diag. 0.10E+00   69.2     0.00001355     -1284.5167925942  2.44E-03
    13 Broy./Diag. 0.10E+00  147.2     0.00006120     -1284.5172105103 -4.18E-04
    14 Broy./Diag. 0.10E+00  253.8     0.00000966     -1284.5168100509  4.00E-04
    15 Broy./Diag. 0.10E+00   41.8     0.00006352     -1284.5166579552  1.52E-04
    16 Broy./Diag. 0.10E+00   24.7     0.00000501     -1284.5158886451  7.69E-04
    17 Broy./Diag. 0.10E+00   54.0     0.00003057     -1284.5157668539  1.22E-04
    18 Broy./Diag. 0.10E+00   25.2     0.00000283     -1284.5155585646  2.08E-04
    19 Broy./Diag. 0.10E+00   24.2     0.00001405     -1284.5155706971 -1.21E-05
    20 Broy./Diag. 0.10E+00   26.9     0.00000327     -1284.5156016509 -3.10E-05
    21 Broy./Diag. 0.10E+00   34.8     0.00000939     -1284.5155711489  3.05E-05
    22 Broy./Diag. 0.10E+00   92.4     0.00000275     -1284.5155479120  2.32E-05
    23 Broy./Diag. 0.10E+00   38.0     0.00000390     -1284.5155641204 -1.62E-05
    24 Broy./Diag. 0.10E+00   27.5     0.00000135     -1284.5155703925 -6.27E-06
    25 Broy./Diag. 0.10E+00  105.4     0.00000161     -1284.5155409152  2.95E-05
    26 Broy./Diag. 0.10E+00   29.7     0.00000045     -1284.5155140734  2.68E-05
    27 Broy./Diag. 0.10E+00   66.7     0.00000115     -1284.5155240238 -9.95E-06
    28 Broy./Diag. 0.10E+00  174.7     0.00000017     -1284.5155226139  1.41E-06
    29 Broy./Diag. 0.10E+00  214.7     0.00000055     -1284.5155214915  1.12E-06
    30 Broy./Diag. 0.10E+00  154.4     0.00000011     -1284.5155157924  5.70E-06
    31 Broy./Diag. 0.10E+00   99.3     0.00000036     -1284.5155121419  3.65E-06
    32 Broy./Diag. 0.10E+00   67.2     0.00000020     -1284.5155101930  1.95E-06
    33 Broy./Diag. 0.10E+00   59.8     0.00000049     -1284.5155114132 -1.22E-06
    34 Broy./Diag. 0.10E+00  166.2     0.00000013     -1284.5155130914 -1.68E-06
    35 Broy./Diag. 0.10E+00   95.2     0.00000027     -1284.5155132732 -1.82E-07
    36 Broy./Diag. 0.10E+00   18.4     0.00000005     -1284.5155138402 -5.67E-07

  *** SCF run converged in    36 steps ***


  Electronic density on regular grids:       -427.9999999995        0.0000000005
  Core density on regular grids:              427.9999993679       -0.0000006321
  Total charge density on r-space grids:       -0.0000006316
  Total charge density g-space grids:          -0.0000006316

  Overlap energy of the core charge distribution:               0.00000292614122
  Self energy of the core charge distribution:              -2253.28808377914038
  Core Hamiltonian energy:                                    717.48943279243656
  Hartree energy:                                             454.87634872428902
  Exchange-correlation energy:                               -203.26938723830426
  Dispersion energy:                                           -0.32382563847760
  Electronic entropic energy:                                  -0.00000162711679
  Fermi energy:                                                -0.16681032948534

  Total energy:                                             -1284.51551384017262

 ENERGY| Total FORCE_EVAL ( QS ) energy (a.u.):            -1284.515515522741225


 --------  Informations at step =    10 ------------
  Optimization Method        =                 BFGS
  Total Energy               =     -1284.5155155227
  Real energy change         =        -0.0005600829
  Predicted change in energy =        -0.0004369046
  Scaling factor             =         0.0000000000
  Step size                  =         0.0690433704
  Trust radius               =         0.4724315332
  Decrease in energy         =                  YES
  Used time                  =             2630.870

  Convergence check :
  Max. step size             =         0.0690433704
  Conv. limit for step size  =         0.0030000000
  Convergence in step size   =                   NO
  RMS step size              =         0.0223414984
  Conv. limit for RMS step   =         0.0015000000
  Convergence in RMS step    =                   NO
  Max. gradient              =         0.0017276644
  Conv. limit for gradients  =         0.0004500000
  Conv. for gradients        =                   NO
  RMS gradient               =         0.0004047377
  Conv. limit for RMS grad.  =         0.0003000000
  Conv. for gradients        =                   NO
 ---------------------------------------------------

 --------------------------
 OPTIMIZATION STEP:     11
 --------------------------

 Number of electrons:                                                        428
 Number of occupied orbitals:                                                217
 Number of molecular orbitals:                                               252

 Number of orbital functions:                                                976
 Number of independent orbital functions:                                    976

 Extrapolation method: PS Nth order


 SCF WAVEFUNCTION OPTIMIZATION

  Step     Update method      Time    Convergence         Total energy    Change
  ------------------------------------------------------------------------------
     1 Broy./Diag. 0.10E+00    6.0     0.02694829     -1284.5129799688 -1.28E+03
     2 Broy./Diag. 0.10E+00   11.7     0.00031889     -1284.4984943322  1.45E-02
     3 Broy./Diag. 0.10E+00   12.2     0.00294040     -1284.5118163381 -1.33E-02
     4 Broy./Diag. 0.10E+00   12.1     0.00007524     -1284.5131138172 -1.30E-03
     5 Broy./Diag. 0.10E+00   12.5     0.00056273     -1284.5152349561 -2.12E-03
     6 Broy./Diag. 0.10E+00   20.4     0.00005264     -1284.5161735578 -9.39E-04
     7 Broy./Diag. 0.10E+00   25.3     0.00039759     -1284.5171320414 -9.58E-04
     8 Broy./Diag. 0.10E+00   21.2     0.00002028     -1284.5175973095 -4.65E-04
     9 Broy./Diag. 0.10E+00   21.4     0.00012446     -1284.5169433432  6.54E-04
    10 Broy./Diag. 0.10E+00   24.3     0.00002514     -1284.5156014562  1.34E-03
    11 Broy./Diag. 0.10E+00  194.2     0.00010555     -1284.5158958796 -2.94E-04
    12 Broy./Diag. 0.10E+00  162.3     0.00001502     -1284.5161358750 -2.40E-04
    13 Broy./Diag. 0.10E+00   24.6     0.00003412     -1284.5160512431  8.46E-05
    14 Broy./Diag. 0.10E+00   25.2     0.00000711     -1284.5159017437  1.49E-04
    15 Broy./Diag. 0.10E+00  110.8     0.00002591     -1284.5158355888  6.62E-05
    16 Broy./Diag. 0.10E+00   31.2     0.00000256     -1284.5157749500  6.06E-05
    17 Broy./Diag. 0.10E+00   68.8     0.00001409     -1284.5157471293  2.78E-05
    18 Broy./Diag. 0.10E+00   48.1     0.00000159     -1284.5157451251  2.00E-06
    19 Broy./Diag. 0.10E+00   27.2     0.00000729     -1284.5157357302  9.39E-06
    20 Broy./Diag. 0.10E+00   26.4     0.00000165     -1284.5157498984 -1.42E-05
    21 Broy./Diag. 0.10E+00   19.9     0.00000385     -1284.5157639209 -1.40E-05
    22 Broy./Diag. 0.10E+00  126.2     0.00000173     -1284.5157779294 -1.40E-05
    23 Broy./Diag. 0.10E+00   60.3     0.00000303     -1284.5157541876  2.37E-05
    24 Broy./Diag. 0.10E+00   45.2     0.00000110     -1284.5157351152  1.91E-05
    25 Broy./Diag. 0.10E+00   81.6     0.00000123     -1284.5157415618 -6.45E-06
    26 Broy./Diag. 0.10E+00  253.9     0.00000078     -1284.5157492574 -7.70E-06
    27 Broy./Diag. 0.10E+00   38.5     0.00000085     -1284.5157543714 -5.11E-06
    28 Broy./Diag. 0.10E+00   36.2     0.00000025     -1284.5157555399 -1.17E-06
    29 Broy./Diag. 0.10E+00   43.8     0.00000045     -1284.5157521608  3.38E-06
    30 Broy./Diag. 0.10E+00   22.7     0.00000015     -1284.5157485251  3.64E-06
    31 Broy./Diag. 0.10E+00   21.4     0.00000037     -1284.5157477758  7.49E-07
    32 Broy./Diag. 0.10E+00   16.3     0.00000007     -1284.5157467745  1.00E-06

  *** SCF run converged in    32 steps ***


  Electronic density on regular grids:       -427.9999999998        0.0000000002
  Core density on regular grids:              427.9999993674       -0.0000006326
  Total charge density on r-space grids:       -0.0000006324
  Total charge density g-space grids:          -0.0000006324

  Overlap energy of the core charge distribution:               0.00000295952947
  Self energy of the core charge distribution:              -2253.28808377914038
  Core Hamiltonian energy:                                    717.49614701442783
  Hartree energy:                                             454.87426000039989
  Exchange-correlation energy:                               -203.27402055061444
  Dispersion energy:                                           -0.32405075570157
  Electronic entropic energy:                                  -0.00000166342539
  Fermi energy:                                                -0.16679419576127

  Total energy:                                             -1284.51574677452459

 ENERGY| Total FORCE_EVAL ( QS ) energy (a.u.):            -1284.515747929144482


 --------  Informations at step =    11 ------------
  Optimization Method        =                 BFGS
  Total Energy               =     -1284.5157479291
  Real energy change         =        -0.0002324064
  Predicted change in energy =        -0.0001599996
  Scaling factor             =         0.0000000000
  Step size                  =         0.0368731904
  Trust radius               =         0.4724315332
  Decrease in energy         =                  YES
  Used time                  =             1671.669

  Convergence check :
  Max. step size             =         0.0368731904
  Conv. limit for step size  =         0.0030000000
  Convergence in step size   =                   NO
  RMS step size              =         0.0129701606
  Conv. limit for RMS step   =         0.0015000000
  Convergence in RMS step    =                   NO
  Max. gradient              =         0.0013901616
  Conv. limit for gradients  =         0.0004500000
  Conv. for gradients        =                   NO
  RMS gradient               =         0.0003738557
  Conv. limit for RMS grad.  =         0.0003000000
  Conv. for gradients        =                   NO
 ---------------------------------------------------

 --------------------------
 OPTIMIZATION STEP:     12
 --------------------------

 Number of electrons:                                                        428
 Number of occupied orbitals:                                                217
 Number of molecular orbitals:                                               252

 Number of orbital functions:                                                976
 Number of independent orbital functions:                                    976

 Extrapolation method: PS Nth order


 SCF WAVEFUNCTION OPTIMIZATION

  Step     Update method      Time    Convergence         Total energy    Change
  ------------------------------------------------------------------------------
     1 Broy./Diag. 0.10E+00   23.6     0.01921589     -1284.5148827169 -1.28E+03
     2 Broy./Diag. 0.10E+00   20.9     0.00056042     -1284.5884779373 -7.36E-02
     3 Broy./Diag. 0.10E+00   25.4     0.00444863     -1284.5608888965  2.76E-02
     4 Broy./Diag. 0.10E+00   28.2     0.00012236     -1284.5167115423  4.42E-02
     5 Broy./Diag. 0.10E+00   28.0     0.00065826     -1284.5171631246 -4.52E-04
     6 Broy./Diag. 0.10E+00   24.7     0.00012434     -1284.5163924860  7.71E-04
     7 Broy./Diag. 0.10E+00   20.3     0.00052835     -1284.5186219038 -2.23E-03
     8 Broy./Diag. 0.10E+00  132.2     0.00007008     -1284.5199319591 -1.31E-03
     9 Broy./Diag. 0.10E+00  116.6     0.00016897     -1284.5188246865  1.11E-03
    10 Broy./Diag. 0.10E+00  110.2     0.00001540     -1284.5170094618  1.82E-03
    11 Broy./Diag. 0.10E+00   65.8     0.00008591     -1284.5166131885  3.96E-04
    12 Broy./Diag. 0.10E+00   59.3     0.00000735     -1284.5158939483  7.19E-04
    13 Broy./Diag. 0.10E+00  175.8     0.00003869     -1284.5161392142 -2.45E-04
    14 Broy./Diag. 0.10E+00  187.9     0.00000435     -1284.5162975542 -1.58E-04
    15 Broy./Diag. 0.10E+00  373.5     0.00002529     -1284.5162351240  6.24E-05
    16 Broy./Diag. 0.10E+00  150.3     0.00000335     -1284.5160932499  1.42E-04
    17 Broy./Diag. 0.10E+00   19.7     0.00001772     -1284.5160257180  6.75E-05
    18 Broy./Diag. 0.10E+00   17.0     0.00000176     -1284.5159879751  3.77E-05
    19 Broy./Diag. 0.10E+00   16.2     0.00000541     -1284.5159772578  1.07E-05
    20 Broy./Diag. 0.10E+00   15.8     0.00000370     -1284.5159943256 -1.71E-05
    21 Broy./Diag. 0.10E+00   16.8     0.00000571     -1284.5160219557 -2.76E-05
    22 Broy./Diag. 0.10E+00   16.2     0.00000203     -1284.5160425300 -2.06E-05
    23 Broy./Diag. 0.10E+00   16.1     0.00000230     -1284.5160251409  1.74E-05
    24 Broy./Diag. 0.10E+00   15.9     0.00000114     -1284.5160093353  1.58E-05
    25 Broy./Diag. 0.10E+00   15.7     0.00000183     -1284.5160028120  6.52E-06
    26 Broy./Diag. 0.10E+00   16.1     0.00000055     -1284.5160015181  1.29E-06
    27 Broy./Diag. 0.10E+00   15.6     0.00000093     -1284.5160117805 -1.03E-05
    28 Broy./Diag. 0.10E+00   15.7     0.00000023     -1284.5160199896 -8.21E-06
    29 Broy./Diag. 0.10E+00   15.7     0.00000055     -1284.5160185708  1.42E-06
    30 Broy./Diag. 0.10E+00   16.6     0.00000015     -1284.5160162607  2.31E-06
    31 Broy./Diag. 0.10E+00   16.4     0.00000033     -1284.5160154378  8.23E-07
    32 Broy./Diag. 0.10E+00   16.2     0.00000015     -1284.5160148496  5.88E-07
    33 Broy./Diag. 0.10E+00   15.7     0.00000028     -1284.5160138246  1.02E-06
    34 Broy./Diag. 0.10E+00   15.8     0.00000006     -1284.5160134362  3.88E-07

  *** SCF run converged in    34 steps ***


  Electronic density on regular grids:       -427.9999999986        0.0000000014
  Core density on regular grids:              427.9999993680       -0.0000006320
  Total charge density on r-space grids:       -0.0000006306
  Total charge density g-space grids:          -0.0000006306

  Overlap energy of the core charge distribution:               0.00000301155132
  Self energy of the core charge distribution:              -2253.28808377914038
  Core Hamiltonian energy:                                    717.50124546328630
  Hartree energy:                                             454.87354433820479
  Exchange-correlation energy:                               -203.27834855479318
  Dispersion energy:                                           -0.32437226593978
  Electronic entropic energy:                                  -0.00000164936663
  Fermi energy:                                                -0.16682516694179

  Total energy:                                             -1284.51601343619654

 ENERGY| Total FORCE_EVAL ( QS ) energy (a.u.):            -1284.516014738240301


 --------  Informations at step =    12 ------------
  Optimization Method        =                 BFGS
  Total Energy               =     -1284.5160147382
  Real energy change         =        -0.0002668091
  Predicted change in energy =        -0.0001777578
  Scaling factor             =         0.0000000000
  Step size                  =         0.0465353563
  Trust radius               =         0.4724315332
  Decrease in energy         =                  YES
  Used time                  =             1874.997

  Convergence check :
  Max. step size             =         0.0465353563
  Conv. limit for step size  =         0.0030000000
  Convergence in step size   =                   NO
  RMS step size              =         0.0148652988
  Conv. limit for RMS step   =         0.0015000000
  Convergence in RMS step    =                   NO
  Max. gradient              =         0.0014107088
  Conv. limit for gradients  =         0.0004500000
  Conv. for gradients        =                   NO
  RMS gradient               =         0.0003748366
  Conv. limit for RMS grad.  =         0.0003000000
  Conv. for gradients        =                   NO
 ---------------------------------------------------

 --------------------------
 OPTIMIZATION STEP:     13
 --------------------------

 Number of electrons:                                                        428
 Number of occupied orbitals:                                                217
 Number of molecular orbitals:                                               252

 Number of orbital functions:                                                976
 Number of independent orbital functions:                                    976

 Extrapolation method: PS Nth order


 SCF WAVEFUNCTION OPTIMIZATION

  Step     Update method      Time    Convergence         Total energy    Change
  ------------------------------------------------------------------------------
     1 Broy./Diag. 0.10E+00    6.5     0.02473967     -1284.5141999571 -1.28E+03
     2 Broy./Diag. 0.10E+00   11.1     0.00042226     -1284.5528937808 -3.87E-02
     3 Broy./Diag. 0.10E+00   11.8     0.00362107     -1284.5404565465  1.24E-02
     4 Broy./Diag. 0.10E+00   12.5     0.00011377     -1284.5129775212  2.75E-02
     5 Broy./Diag. 0.10E+00   12.5     0.00084306     -1284.5151152931 -2.14E-03
     6 Broy./Diag. 0.10E+00   25.3     0.00013430     -1284.5174604354 -2.35E-03
     7 Broy./Diag. 0.10E+00   42.9     0.00063111     -1284.5190052909 -1.54E-03
     8 Broy./Diag. 0.10E+00  118.4     0.00009876     -1284.5199489929 -9.44E-04
     9 Broy./Diag. 0.10E+00   36.2     0.00022454     -1284.5182733524  1.68E-03
    10 Broy./Diag. 0.10E+00  295.8     0.00002291     -1284.5163641174  1.91E-03
    11 Broy./Diag. 0.10E+00   77.5     0.00010872     -1284.5164206483 -5.65E-05
    12 Broy./Diag. 0.10E+00   99.2     0.00001011     -1284.5163458004  7.48E-05
    13 Broy./Diag. 0.10E+00   27.5     0.00005961     -1284.5164762393 -1.30E-04
    14 Broy./Diag. 0.10E+00   29.0     0.00000540     -1284.5165886157 -1.12E-04
    15 Broy./Diag. 0.10E+00   15.5     0.00003150     -1284.5164496915  1.39E-04
    16 Broy./Diag. 0.10E+00   15.3     0.00000350     -1284.5163312167  1.18E-04
    17 Broy./Diag. 0.10E+00   14.9     0.00002016     -1284.5163242837  6.93E-06
    18 Broy./Diag. 0.10E+00   15.3     0.00000180     -1284.5163911346 -6.69E-05
    19 Broy./Diag. 0.10E+00   15.5     0.00000728     -1284.5163581647  3.30E-05
    20 Broy./Diag. 0.10E+00   15.7     0.00000429     -1284.5163505660  7.60E-06
    21 Broy./Diag. 0.10E+00   15.3     0.00000734     -1284.5163693707 -1.88E-05
    22 Broy./Diag. 0.10E+00   15.4     0.00000288     -1284.5163838947 -1.45E-05
    23 Broy./Diag. 0.10E+00   15.7     0.00000312     -1284.5163650860  1.88E-05
    24 Broy./Diag. 0.10E+00   15.7     0.00000137     -1284.5163542590  1.08E-05
    25 Broy./Diag. 0.10E+00   16.2     0.00000233     -1284.5163615475 -7.29E-06
    26 Broy./Diag. 0.10E+00   15.5     0.00000060     -1284.5163704366 -8.89E-06
    27 Broy./Diag. 0.10E+00   16.3     0.00000099     -1284.5163751251 -4.69E-06
    28 Broy./Diag. 0.10E+00   16.0     0.00000026     -1284.5163777835 -2.66E-06
    29 Broy./Diag. 0.10E+00   15.2     0.00000062     -1284.5163723965  5.39E-06
    30 Broy./Diag. 0.10E+00   16.1     0.00000017     -1284.5163682608  4.14E-06
    31 Broy./Diag. 0.10E+00   15.1     0.00000040     -1284.5163701777 -1.92E-06
    32 Broy./Diag. 0.10E+00   15.3     0.00000016     -1284.5163725013 -2.32E-06
    33 Broy./Diag. 0.10E+00   14.9     0.00000031     -1284.5163718905  6.11E-07
    34 Broy./Diag. 0.10E+00   15.1     0.00000011     -1284.5163713827  5.08E-07
    35 Broy./Diag. 0.10E+00   15.6     0.00000018     -1284.5163719348 -5.52E-07
    36 Broy./Diag. 0.10E+00   15.7     0.00000004     -1284.5163721977 -2.63E-07

  *** SCF run converged in    36 steps ***


  Electronic density on regular grids:       -427.9999999968        0.0000000032
  Core density on regular grids:              427.9999993681       -0.0000006319
  Total charge density on r-space grids:       -0.0000006287
  Total charge density g-space grids:          -0.0000006287

  Overlap energy of the core charge distribution:               0.00000299679333
  Self energy of the core charge distribution:              -2253.28808377914038
  Core Hamiltonian energy:                                    717.49783705200093
  Hartree energy:                                             454.87732905193241
  Exchange-correlation energy:                               -203.27852612124593
  Dispersion energy:                                           -0.32492977791510
  Electronic entropic energy:                                  -0.00000162009331
  Fermi energy:                                                -0.16689873730333

  Total energy:                                             -1284.51637219766894

 ENERGY| Total FORCE_EVAL ( QS ) energy (a.u.):            -1284.516371618512494


 --------  Informations at step =    13 ------------
  Optimization Method        =                 BFGS
  Total Energy               =     -1284.5163716185
  Real energy change         =        -0.0003568803
  Predicted change in energy =        -0.0002344479
  Scaling factor             =         0.0000000000
  Step size                  =         0.0794076499
  Trust radius               =         0.4724315332
  Decrease in energy         =                  YES
  Used time                  =             1165.896

  Convergence check :
  Max. step size             =         0.0794076499
  Conv. limit for step size  =         0.0030000000
  Convergence in step size   =                   NO
  RMS step size              =         0.0239928753
  Conv. limit for RMS step   =         0.0015000000
  Convergence in RMS step    =                   NO
  Max. gradient              =         0.0024263718
  Conv. limit for gradients  =         0.0004500000
  Conv. for gradients        =                   NO
  RMS gradient               =         0.0005348581
  Conv. limit for RMS grad.  =         0.0003000000
  Conv. for gradients        =                   NO
 ---------------------------------------------------

 --------------------------
 OPTIMIZATION STEP:     14
 --------------------------

 Number of electrons:                                                        428
 Number of occupied orbitals:                                                217
 Number of molecular orbitals:                                               252

 Number of orbital functions:                                                976
 Number of independent orbital functions:                                    976

 Extrapolation method: PS Nth order


 SCF WAVEFUNCTION OPTIMIZATION

  Step     Update method      Time    Convergence         Total energy    Change
  ------------------------------------------------------------------------------
     1 Broy./Diag. 0.10E+00    6.1     0.04302036     -1284.5106394798 -1.28E+03
     2 Broy./Diag. 0.10E+00   11.2     0.00055076     -1284.4806999792  2.99E-02
     3 Broy./Diag. 0.10E+00   11.2     0.00515447     -1284.5018321277 -2.11E-02
     4 Broy./Diag. 0.10E+00   12.0     0.00009919     -1284.5083843603 -6.55E-03
     5 Broy./Diag. 0.10E+00   12.8     0.00099761     -1284.5120949713 -3.71E-03
     6 Broy./Diag. 0.10E+00   12.9     0.00007858     -1284.5195143586 -7.42E-03
     7 Broy./Diag. 0.10E+00   12.8     0.00062416     -1284.5168279669  2.69E-03
     8 Broy./Diag. 0.10E+00   14.6     0.00009340     -1284.5145548836  2.27E-03
     9 Broy./Diag. 0.10E+00   14.6     0.00036219     -1284.5153371090 -7.82E-04
    10 Broy./Diag. 0.10E+00   15.6     0.00003915     -1284.5166137805 -1.28E-03
    11 Broy./Diag. 0.10E+00   14.8     0.00008762     -1284.5166183790 -4.60E-06
    12 Broy./Diag. 0.10E+00   15.1     0.00002225     -1284.5166234474 -5.07E-06
    13 Broy./Diag. 0.10E+00   19.5     0.00008094     -1284.5166572356 -3.38E-05
    14 Broy./Diag. 0.10E+00   26.1     0.00000869     -1284.5168667640 -2.10E-04
    15 Broy./Diag. 0.10E+00   27.9     0.00003887     -1284.5167080643  1.59E-04
    16 Broy./Diag. 0.10E+00   58.1     0.00000397     -1284.5167206502 -1.26E-05
    17 Broy./Diag. 0.10E+00   31.5     0.00002421     -1284.5167584419 -3.78E-05
    18 Broy./Diag. 0.10E+00   23.3     0.00000272     -1284.5169172909 -1.59E-04
    19 Broy./Diag. 0.10E+00   27.4     0.00001264     -1284.5168930804  2.42E-05
    20 Broy./Diag. 0.10E+00   29.7     0.00000250     -1284.5169079224 -1.48E-05
    21 Broy./Diag. 0.10E+00   46.2     0.00000689     -1284.5168580147  4.99E-05
    22 Broy./Diag. 0.10E+00   26.7     0.00000334     -1284.5168240798  3.39E-05
    23 Broy./Diag. 0.10E+00   58.6     0.00000452     -1284.5168481654 -2.41E-05
    24 Broy./Diag. 0.10E+00   28.0     0.00000213     -1284.5168736045 -2.54E-05
    25 Broy./Diag. 0.10E+00   26.4     0.00000230     -1284.5168869149 -1.33E-05
    26 Broy./Diag. 0.10E+00   27.3     0.00000061     -1284.5168934854 -6.57E-06
    27 Broy./Diag. 0.10E+00   28.8     0.00000133     -1284.5168861949  7.29E-06
    28 Broy./Diag. 0.10E+00  105.2     0.00000022     -1284.5168824178  3.78E-06
    29 Broy./Diag. 0.10E+00   25.5     0.00000052     -1284.5168782679  4.15E-06
    30 Broy./Diag. 0.10E+00   76.6     0.00000016     -1284.5168773061  9.62E-07
    31 Broy./Diag. 0.10E+00   29.0     0.00000057     -1284.5168807518 -3.45E-06
    32 Broy./Diag. 0.10E+00   35.7     0.00000018     -1284.5168843805 -3.63E-06
    33 Broy./Diag. 0.10E+00   30.3     0.00000049     -1284.5168858988 -1.52E-06
    34 Broy./Diag. 0.10E+00  138.6     0.00000014     -1284.5168866837 -7.85E-07
    35 Broy./Diag. 0.10E+00   16.6     0.00000028     -1284.5168842833  2.40E-06
    36 Broy./Diag. 0.10E+00   16.5     0.00000006     -1284.5168822679  2.02E-06

  *** SCF run converged in    36 steps ***


  Electronic density on regular grids:       -427.9999999987        0.0000000013
  Core density on regular grids:              427.9999993672       -0.0000006328
  Total charge density on r-space grids:       -0.0000006314
  Total charge density g-space grids:          -0.0000006314

  Overlap energy of the core charge distribution:               0.00000291788339
  Self energy of the core charge distribution:              -2253.28808377914038
  Core Hamiltonian energy:                                    717.48307676959018
  Hartree energy:                                             454.88710706567076
  Exchange-correlation energy:                               -203.27334594222583
  Dispersion energy:                                           -0.32563766214579
  Electronic entropic energy:                                  -0.00000163749378
  Fermi energy:                                                -0.16709920000490

  Total energy:                                             -1284.51688226786268

 ENERGY| Total FORCE_EVAL ( QS ) energy (a.u.):            -1284.516883454988374


 --------  Informations at step =    14 ------------
  Optimization Method        =                 BFGS
  Total Energy               =     -1284.5168834550
  Real energy change         =        -0.0005118365
  Predicted change in energy =        -0.0003694779
  Scaling factor             =         0.0000000000
  Step size                  =         0.1413222353
  Trust radius               =         0.4724315332
  Decrease in energy         =                  YES
  Used time                  =             1131.806

  Convergence check :
  Max. step size             =         0.1413222353
  Conv. limit for step size  =         0.0030000000
  Convergence in step size   =                   NO
  RMS step size              =         0.0414750240
  Conv. limit for RMS step   =         0.0015000000
  Convergence in RMS step    =                   NO
  Max. gradient              =         0.0051208816
  Conv. limit for gradients  =         0.0004500000
  Conv. for gradients        =                   NO
  RMS gradient               =         0.0009536084
  Conv. limit for RMS grad.  =         0.0003000000
  Conv. for gradients        =                   NO
 ---------------------------------------------------

 --------------------------
 OPTIMIZATION STEP:     15
 --------------------------

 Number of electrons:                                                        428
 Number of occupied orbitals:                                                217
 Number of molecular orbitals:                                               252

 Number of orbital functions:                                                976
 Number of independent orbital functions:                                    976

 Extrapolation method: PS Nth order


 SCF WAVEFUNCTION OPTIMIZATION

  Step     Update method      Time    Convergence         Total energy    Change
  ------------------------------------------------------------------------------
     1 Broy./Diag. 0.10E+00    6.3     0.04036729     -1284.5119729899 -1.28E+03
     2 Broy./Diag. 0.10E+00   11.4     0.00058059     -1284.3845987630  1.27E-01
     3 Broy./Diag. 0.10E+00   12.2     0.00528714     -1284.4517181853 -6.71E-02
     4 Broy./Diag. 0.10E+00   12.0     0.00013549     -1284.5091621720 -5.74E-02
     5 Broy./Diag. 0.10E+00   12.4     0.00106214     -1284.5104332140 -1.27E-03
     6 Broy./Diag. 0.10E+00   12.9     0.00005507     -1284.5143001675 -3.87E-03
     7 Broy./Diag. 0.10E+00   14.3     0.00050204     -1284.5135017762  7.98E-04
     8 Broy./Diag. 0.10E+00   14.4     0.00002613     -1284.5163387693 -2.84E-03
     9 Broy./Diag. 0.10E+00   14.7     0.00019030     -1284.5160613777  2.77E-04
    10 Broy./Diag. 0.10E+00   15.9     0.00003605     -1284.5162221985 -1.61E-04
    11 Broy./Diag. 0.10E+00   15.3     0.00013732     -1284.5167088188 -4.87E-04
    12 Broy./Diag. 0.10E+00   15.9     0.00002291     -1284.5175119512 -8.03E-04
    13 Broy./Diag. 0.10E+00   16.2     0.00005786     -1284.5173773747  1.35E-04
    14 Broy./Diag. 0.10E+00   16.6     0.00000977     -1284.5173231707  5.42E-05
    15 Broy./Diag. 0.10E+00   16.2     0.00002630     -1284.5172489522  7.42E-05
    16 Broy./Diag. 0.10E+00   16.0     0.00000429     -1284.5173374053 -8.85E-05
    17 Broy./Diag. 0.10E+00   15.8     0.00001875     -1284.5174234485 -8.60E-05
    18 Broy./Diag. 0.10E+00   16.3     0.00000226     -1284.5175550711 -1.32E-04
    19 Broy./Diag. 0.10E+00   15.8     0.00000863     -1284.5175200127  3.51E-05
    20 Broy./Diag. 0.10E+00   15.9     0.00000216     -1284.5175127763  7.24E-06
    21 Broy./Diag. 0.10E+00   15.5     0.00000558     -1284.5175151279 -2.35E-06
    22 Broy./Diag. 0.10E+00   15.9     0.00000293     -1284.5175364365 -2.13E-05
    23 Broy./Diag. 0.10E+00   16.4     0.00000540     -1284.5175181950  1.82E-05
    24 Broy./Diag. 0.10E+00   16.1     0.00000188     -1284.5175097864  8.41E-06
    25 Broy./Diag. 0.10E+00   16.6     0.00000261     -1284.5175310689 -2.13E-05
    26 Broy./Diag. 0.10E+00   16.0     0.00000087     -1284.5175463273 -1.53E-05
    27 Broy./Diag. 0.10E+00   16.1     0.00000160     -1284.5175443658  1.96E-06
    28 Broy./Diag. 0.10E+00   15.3     0.00000023     -1284.5175432285  1.14E-06
    29 Broy./Diag. 0.10E+00   15.5     0.00000062     -1284.5175359662  7.26E-06
    30 Broy./Diag. 0.10E+00   14.6     0.00000016     -1284.5175310883  4.88E-06
    31 Broy./Diag. 0.10E+00   38.7     0.00000060     -1284.5175346148 -3.53E-06
    32 Broy./Diag. 0.10E+00   24.7     0.00000007     -1284.5175384389 -3.82E-06

  *** SCF run converged in    32 steps ***


  Electronic density on regular grids:       -427.9999999958        0.0000000042
  Core density on regular grids:              427.9999993678       -0.0000006322
  Total charge density on r-space grids:       -0.0000006280
  Total charge density g-space grids:          -0.0000006280

  Overlap energy of the core charge distribution:               0.00000304776526
  Self energy of the core charge distribution:              -2253.28808377914038
  Core Hamiltonian energy:                                    717.47808205296542
  Hartree energy:                                             454.88859251677729
  Exchange-correlation energy:                               -203.27015462752706
  Dispersion energy:                                           -0.32597599789310
  Electronic entropic energy:                                  -0.00000165183385
  Fermi energy:                                                -0.16732558368173

  Total energy:                                             -1284.51753843888423

 ENERGY| Total FORCE_EVAL ( QS ) energy (a.u.):            -1284.517537296835144


 --------  Informations at step =    15 ------------
  Optimization Method        =                 BFGS
  Total Energy               =     -1284.5175372968
  Real energy change         =        -0.0006538418
  Predicted change in energy =        -0.0004059834
  Scaling factor             =         0.0000000000
  Step size                  =         0.1265536562
  Trust radius               =         0.4724315332
  Decrease in energy         =                  YES
  Used time                  =              540.851

  Convergence check :
  Max. step size             =         0.1265536562
  Conv. limit for step size  =         0.0030000000
  Convergence in step size   =                   NO
  RMS step size              =         0.0356988651
  Conv. limit for RMS step   =         0.0015000000
  Convergence in RMS step    =                   NO
  Max. gradient              =         0.0024897862
  Conv. limit for gradients  =         0.0004500000
  Conv. for gradients        =                   NO
  RMS gradient               =         0.0008485732
  Conv. limit for RMS grad.  =         0.0003000000
  Conv. for gradients        =                   NO
 ---------------------------------------------------

 --------------------------
 OPTIMIZATION STEP:     16
 --------------------------

 Number of electrons:                                                        428
 Number of occupied orbitals:                                                217
 Number of molecular orbitals:                                               252

 Number of orbital functions:                                                976
 Number of independent orbital functions:                                    976

 Extrapolation method: PS Nth order


 SCF WAVEFUNCTION OPTIMIZATION

  Step     Update method      Time    Convergence         Total energy    Change
  ------------------------------------------------------------------------------
     1 Broy./Diag. 0.10E+00    6.5     0.08020328     -1284.4816877161 -1.28E+03
     2 Broy./Diag. 0.10E+00   11.8     0.00167000     -1284.7044013265 -2.23E-01
     3 Broy./Diag. 0.10E+00   12.3     0.01251217     -1284.6007923353  1.04E-01
     4 Broy./Diag. 0.10E+00   13.6     0.00150568     -1284.5085195773  9.23E-02
     5 Broy./Diag. 0.10E+00   19.6     0.00533399     -1284.5111566177 -2.64E-03
     6 Broy./Diag. 0.10E+00   13.8     0.00023916     -1284.5231645879 -1.20E-02
     7 Broy./Diag. 0.10E+00   13.9     0.00138688     -1284.5167336094  6.43E-03
     8 Broy./Diag. 0.10E+00   14.9     0.00011915     -1284.5125843380  4.15E-03
     9 Broy./Diag. 0.10E+00   14.3     0.00057438     -1284.5133905104 -8.06E-04
    10 Broy./Diag. 0.10E+00   16.3     0.00003705     -1284.5161428274 -2.75E-03
    11 Broy./Diag. 0.10E+00   16.0     0.00023873     -1284.5164408850 -2.98E-04
    12 Broy./Diag. 0.10E+00   15.5     0.00002649     -1284.5174728800 -1.03E-03
    13 Broy./Diag. 0.10E+00   16.3     0.00018131     -1284.5176396805 -1.67E-04
    14 Broy./Diag. 0.10E+00   16.7     0.00001306     -1284.5186716525 -1.03E-03
    15 Broy./Diag. 0.10E+00   16.1     0.00007544     -1284.5183770054  2.95E-04
    16 Broy./Diag. 0.10E+00   15.8     0.00001098     -1284.5184746367 -9.76E-05
    17 Broy./Diag. 0.10E+00   15.7     0.00005887     -1284.5183480124  1.27E-04
    18 Broy./Diag. 0.10E+00   15.9     0.00001966     -1284.5183258493  2.22E-05
    19 Broy./Diag. 0.10E+00   15.9     0.00004024     -1284.5184769633 -1.51E-04
    20 Broy./Diag. 0.10E+00   16.1     0.00000614     -1284.5185862046 -1.09E-04
    21 Broy./Diag. 0.10E+00   16.5     0.00001367     -1284.5184716187  1.15E-04
    22 Broy./Diag. 0.10E+00   16.0     0.00000389     -1284.5183668135  1.05E-04
    23 Broy./Diag. 0.10E+00   15.6     0.00000730     -1284.5183620233  4.79E-06
    24 Broy./Diag. 0.10E+00   15.7     0.00000191     -1284.5183687778 -6.75E-06
    25 Broy./Diag. 0.10E+00   16.1     0.00000331     -1284.5183725788 -3.80E-06
    26 Broy./Diag. 0.10E+00   16.0     0.00000095     -1284.5183771127 -4.53E-06
    27 Broy./Diag. 0.10E+00   16.2     0.00000207     -1284.5183738127  3.30E-06
    28 Broy./Diag. 0.10E+00   15.8     0.00000089     -1284.5183793002 -5.49E-06
    29 Broy./Diag. 0.10E+00   15.9     0.00000233     -1284.5183702551  9.05E-06
    30 Broy./Diag. 0.10E+00   16.7     0.00000108     -1284.5183676826  2.57E-06
    31 Broy./Diag. 0.10E+00   16.8     0.00000233     -1284.5183616353  6.05E-06
    32 Broy./Diag. 0.10E+00   16.2     0.00000073     -1284.5183605614  1.07E-06
    33 Broy./Diag. 0.10E+00   15.9     0.00000124     -1284.5183710982 -1.05E-05
    34 Broy./Diag. 0.10E+00   16.0     0.00000015     -1284.5183781460 -7.05E-06
    35 Broy./Diag. 0.10E+00   16.3     0.00000042     -1284.5183742002  3.95E-06
    36 Broy./Diag. 0.10E+00   15.8     0.00000006     -1284.5183688861  5.31E-06

  *** SCF run converged in    36 steps ***


  Electronic density on regular grids:       -427.9999999970        0.0000000030
  Core density on regular grids:              427.9999993682       -0.0000006318
  Total charge density on r-space grids:       -0.0000006287
  Total charge density g-space grids:          -0.0000006287

  Overlap energy of the core charge distribution:               0.00000289254048
  Self energy of the core charge distribution:              -2253.28808377914038
  Core Hamiltonian energy:                                    717.42345378365735
  Hartree energy:                                             454.92120888201242
  Exchange-correlation energy:                               -203.24831970231341
  Dispersion energy:                                           -0.32662871376849
  Electronic entropic energy:                                  -0.00000224907555
  Fermi energy:                                                -0.16812125345374

  Total energy:                                             -1284.51836888608932

 ENERGY| Total FORCE_EVAL ( QS ) energy (a.u.):            -1284.518369043386429


 --------  Informations at step =    16 ------------
  Optimization Method        =                 BFGS
  Total Energy               =     -1284.5183690434
  Real energy change         =        -0.0008317466
  Predicted change in energy =        -0.0012682393
  Scaling factor             =         0.0000000000
  Step size                  =         0.3779490359
  Trust radius               =         0.4724315332
  Decrease in energy         =                  YES
  Used time                  =              581.517

  Convergence check :
  Max. step size             =         0.3779490359
  Conv. limit for step size  =         0.0030000000
  Convergence in step size   =                   NO
  RMS step size              =         0.1037920458
  Conv. limit for RMS step   =         0.0015000000
  Convergence in RMS step    =                   NO
  Max. gradient              =         0.0050470777
  Conv. limit for gradients  =         0.0004500000
  Conv. for gradients        =                   NO
  RMS gradient               =         0.0014296483
  Conv. limit for RMS grad.  =         0.0003000000
  Conv. for gradients        =                   NO
 ---------------------------------------------------

 --------------------------
 OPTIMIZATION STEP:     17
 --------------------------

 Number of electrons:                                                        428
 Number of occupied orbitals:                                                217
 Number of molecular orbitals:                                               252

 Number of orbital functions:                                                976
 Number of independent orbital functions:                                    976

 Extrapolation method: PS Nth order


 SCF WAVEFUNCTION OPTIMIZATION

  Step     Update method      Time    Convergence         Total energy    Change
  ------------------------------------------------------------------------------
     1 Broy./Diag. 0.10E+00   94.9     0.16019250     -1284.4160597960 -1.28E+03
     2 Broy./Diag. 0.10E+00  222.9     0.00185643     -1284.3372988428  7.88E-02
     3 Broy./Diag. 0.10E+00   69.8     0.01477019     -1284.4058182239 -6.85E-02
     4 Broy./Diag. 0.10E+00  154.3     0.00144604     -1284.4528197671 -4.70E-02
     5 Broy./Diag. 0.10E+00  108.3     0.00530330     -1284.4821531271 -2.93E-02
     6 Broy./Diag. 0.10E+00  150.2     0.00032938     -1284.5135673751 -3.14E-02
     7 Broy./Diag. 0.10E+00   75.1     0.00120238     -1284.5118113290  1.76E-03
     8 Broy./Diag. 0.10E+00  174.0     0.00009745     -1284.5136042555 -1.79E-03
     9 Broy./Diag. 0.10E+00  128.2     0.00053919     -1284.5141653662 -5.61E-04
    10 Broy./Diag. 0.10E+00  112.0     0.00002205     -1284.5181099680 -3.94E-03
    11 Broy./Diag. 0.10E+00  165.9     0.00017680     -1284.5180156325  9.43E-05
    12 Broy./Diag. 0.10E+00   65.7     0.00001846     -1284.5179414950  7.41E-05
    13 Broy./Diag. 0.10E+00   75.1     0.00014183     -1284.5182597773 -3.18E-04
    14 Broy./Diag. 0.10E+00  165.2     0.00001575     -1284.5192870019 -1.03E-03
    15 Broy./Diag. 0.10E+00  243.2     0.00008773     -1284.5191179633  1.69E-04
    16 Broy./Diag. 0.10E+00  144.2     0.00000888     -1284.5193545519 -2.37E-04
    17 Broy./Diag. 0.10E+00  174.4     0.00004728     -1284.5193305306  2.40E-05
    18 Broy./Diag. 0.10E+00  203.0     0.00000485     -1284.5194795359 -1.49E-04
    19 Broy./Diag. 0.10E+00  126.8     0.00002328     -1284.5195934453 -1.14E-04
    20 Broy./Diag. 0.10E+00   42.0     0.00001137     -1284.5197603279 -1.67E-04
    21 Broy./Diag. 0.10E+00   22.3     0.00001895     -1284.5196721765  8.82E-05
    22 Broy./Diag. 0.10E+00  226.8     0.00000219     -1284.5195894934  8.27E-05
    23 Broy./Diag. 0.10E+00   30.5     0.00000395     -1284.5195503435  3.91E-05
    24 Broy./Diag. 0.10E+00   73.9     0.00000098     -1284.5195248160  2.55E-05
    25 Broy./Diag. 0.10E+00  183.0     0.00000267     -1284.5195381147 -1.33E-05
    26 Broy./Diag. 0.10E+00   95.2     0.00000083     -1284.5195492073 -1.11E-05
    27 Broy./Diag. 0.10E+00  267.0     0.00000198     -1284.5195613121 -1.21E-05
    28 Broy./Diag. 0.10E+00   46.9     0.00000035     -1284.5195714614 -1.01E-05
    29 Broy./Diag. 0.10E+00   59.3     0.00000100     -1284.5195618279  9.63E-06
    30 Broy./Diag. 0.10E+00  165.5     0.00000044     -1284.5195531936  8.63E-06
    31 Broy./Diag. 0.10E+00  273.0     0.00000135     -1284.5195485057  4.69E-06
    32 Broy./Diag. 0.10E+00   83.9     0.00000042     -1284.5195461921  2.31E-06
    33 Broy./Diag. 0.10E+00  115.9     0.00000083     -1284.5195526873 -6.50E-06
    34 Broy./Diag. 0.10E+00  115.2     0.00000019     -1284.5195589357 -6.25E-06
    35 Broy./Diag. 0.10E+00  179.9     0.00000045     -1284.5195576709  1.26E-06
    36 Broy./Diag. 0.10E+00  217.9     0.00000008     -1284.5195568235  8.47E-07

  *** SCF run converged in    36 steps ***


  Electronic density on regular grids:       -427.9999999917        0.0000000083
  Core density on regular grids:              427.9999993686       -0.0000006314
  Total charge density on r-space grids:       -0.0000006231
  Total charge density g-space grids:          -0.0000006231

  Overlap energy of the core charge distribution:               0.00000369493426
  Self energy of the core charge distribution:              -2253.28808377914038
  Core Hamiltonian energy:                                    717.49630273556625
  Hartree energy:                                             454.87564184573034
  Exchange-correlation energy:                               -203.27723705228019
  Dispersion energy:                                           -0.32618248016144
  Electronic entropic energy:                                  -0.00000178815159
  Fermi energy:                                                -0.16768456071527

  Total energy:                                             -1284.51955682350240

 ENERGY| Total FORCE_EVAL ( QS ) energy (a.u.):            -1284.519555374254196


 --------  Informations at step =    17 ------------
  Optimization Method        =                 BFGS
  Total Energy               =     -1284.5195553743
  Real energy change         =        -0.0011863309
  Predicted change in energy =        -0.0017841562
  Scaling factor             =         0.0000000000
  Step size                  =         0.1706405644
  Trust radius               =         0.4724315332
  Decrease in energy         =                  YES
  Used time                  =             4884.259

  Convergence check :
  Max. step size             =         0.1706405644
  Conv. limit for step size  =         0.0030000000
  Convergence in step size   =                   NO
  RMS step size              =         0.0532594799
  Conv. limit for RMS step   =         0.0015000000
  Convergence in RMS step    =                   NO
  Max. gradient              =         0.0208750201
  Conv. limit for gradients  =         0.0004500000
  Conv. for gradients        =                   NO
  RMS gradient               =         0.0032590941
  Conv. limit for RMS grad.  =         0.0003000000
  Conv. for gradients        =                   NO
 ---------------------------------------------------

 --------------------------
 OPTIMIZATION STEP:     18
 --------------------------

 Number of electrons:                                                        428
 Number of occupied orbitals:                                                217
 Number of molecular orbitals:                                               252

 Number of orbital functions:                                                976
 Number of independent orbital functions:                                    976

 Extrapolation method: PS Nth order


 SCF WAVEFUNCTION OPTIMIZATION

  Step     Update method      Time    Convergence         Total energy    Change
  ------------------------------------------------------------------------------
     1 Broy./Diag. 0.10E+00    5.9     0.12979345     -1284.4196462422 -1.28E+03
     2 Broy./Diag. 0.10E+00   11.0     0.00202153     -1284.8141504606 -3.95E-01
     3 Broy./Diag. 0.10E+00   11.6     0.01642094     -1284.6375029819  1.77E-01
     4 Broy./Diag. 0.10E+00   12.3     0.00161939     -1284.5687597461  6.87E-02
     5 Broy./Diag. 0.10E+00   12.2     0.00679690     -1284.5506614119  1.81E-02
     6 Broy./Diag. 0.10E+00   12.4     0.00074546     -1284.5464167830  4.24E-03
     7 Broy./Diag. 0.10E+00   14.0     0.00272497     -1284.5252656506  2.12E-02
     8 Broy./Diag. 0.10E+00   14.0     0.00025369     -1284.5063578885  1.89E-02
     9 Broy./Diag. 0.10E+00   14.6     0.00108293     -1284.5130291343 -6.67E-03
    10 Broy./Diag. 0.10E+00  224.1     0.00005641     -1284.5208004226 -7.77E-03
    11 Broy./Diag. 0.10E+00   55.6     0.00032020     -1284.5207295694  7.09E-05
    12 Broy./Diag. 0.10E+00   52.9     0.00003520     -1284.5212396018 -5.10E-04
    13 Broy./Diag. 0.10E+00  276.5     0.00017532     -1284.5198917936  1.35E-03
    14 Broy./Diag. 0.10E+00  149.2     0.00005855     -1284.5197542130  1.38E-04
    15 Broy./Diag. 0.10E+00   27.0     0.00009807     -1284.5205261722 -7.72E-04
    16 Broy./Diag. 0.10E+00  196.6     0.00003101     -1284.5210241793 -4.98E-04
    17 Broy./Diag. 0.10E+00   75.9     0.00007888     -1284.5212511111 -2.27E-04
    18 Broy./Diag. 0.10E+00  154.9     0.00002825     -1284.5214465036 -1.95E-04
    19 Broy./Diag. 0.10E+00  191.0     0.00003099     -1284.5215000696 -5.36E-05
    20 Broy./Diag. 0.10E+00  187.3     0.00002406     -1284.5213712354  1.29E-04
    21 Broy./Diag. 0.10E+00   21.4     0.00002061     -1284.5209575991  4.14E-04
    22 Broy./Diag. 0.10E+00  136.8     0.00000576     -1284.5207685226  1.89E-04
    23 Broy./Diag. 0.10E+00  205.7     0.00001210     -1284.5209017319 -1.33E-04
    24 Broy./Diag. 0.10E+00  261.0     0.00000298     -1284.5210141688 -1.12E-04
    25 Broy./Diag. 0.10E+00  191.8     0.00000783     -1284.5210146453 -4.77E-07
    26 Broy./Diag. 0.10E+00  128.2     0.00000147     -1284.5209915451  2.31E-05
    27 Broy./Diag. 0.10E+00  194.8     0.00000515     -1284.5209420074  4.95E-05
    28 Broy./Diag. 0.10E+00  132.1     0.00000123     -1284.5208875139  5.45E-05
    29 Broy./Diag. 0.10E+00  179.9     0.00000478     -1284.5208893470 -1.83E-06
    30 Broy./Diag. 0.10E+00   24.5     0.00000044     -1284.5208836719  5.68E-06
    31 Broy./Diag. 0.10E+00   15.8     0.00000171     -1284.5208819378  1.73E-06
    32 Broy./Diag. 0.10E+00   15.1     0.00000107     -1284.5208782673  3.67E-06
    33 Broy./Diag. 0.10E+00   15.4     0.00000200     -1284.5208814102 -3.14E-06
    34 Broy./Diag. 0.10E+00   16.0     0.00000023     -1284.5208836343 -2.22E-06
    35 Broy./Diag. 0.10E+00   16.0     0.00000068     -1284.5208765976  7.04E-06
    36 Broy./Diag. 0.10E+00   15.9     0.00000010     -1284.5208705284  6.07E-06

  *** SCF run converged in    36 steps ***


  Electronic density on regular grids:       -427.9999999921        0.0000000079
  Core density on regular grids:              427.9999993685       -0.0000006315
  Total charge density on r-space grids:       -0.0000006236
  Total charge density g-space grids:          -0.0000006236

  Overlap energy of the core charge distribution:               0.00000315826321
  Self energy of the core charge distribution:              -2253.28808377914038
  Core Hamiltonian energy:                                    717.47066158057953
  Hartree energy:                                             454.89790114689816
  Exchange-correlation energy:                               -203.27513977107722
  Dispersion energy:                                           -0.32621096857008
  Electronic entropic energy:                                  -0.00000189532899
  Fermi energy:                                                -0.16775525242328

  Total energy:                                             -1284.52087052837373

 ENERGY| Total FORCE_EVAL ( QS ) energy (a.u.):            -1284.520875271553450


 --------  Informations at step =    18 ------------
  Optimization Method        =                 BFGS
  Total Energy               =     -1284.5208752716
  Real energy change         =        -0.0013198973
  Predicted change in energy =        -0.0008123977
  Scaling factor             =         0.0000000000
  Step size                  =         0.0654365187
  Trust radius               =         0.4724315332
  Decrease in energy         =                  YES
  Used time                  =             3288.410

  Convergence check :
  Max. step size             =         0.0654365187
  Conv. limit for step size  =         0.0030000000
  Convergence in step size   =                   NO
  RMS step size              =         0.0174025105
  Conv. limit for RMS step   =         0.0015000000
  Convergence in RMS step    =                   NO
  Max. gradient              =         0.0072952320
  Conv. limit for gradients  =         0.0004500000
  Conv. for gradients        =                   NO
  RMS gradient               =         0.0012142596
  Conv. limit for RMS grad.  =         0.0003000000
  Conv. for gradients        =                   NO
 ---------------------------------------------------

 --------------------------
 OPTIMIZATION STEP:     19
 --------------------------

 Number of electrons:                                                        428
 Number of occupied orbitals:                                                217
 Number of molecular orbitals:                                               252

 Number of orbital functions:                                                976
 Number of independent orbital functions:                                    976

 Extrapolation method: PS Nth order


 SCF WAVEFUNCTION OPTIMIZATION

  Step     Update method      Time    Convergence         Total energy    Change
  ------------------------------------------------------------------------------
     1 Broy./Diag. 0.10E+00    6.4     0.07164425     -1284.4819692088 -1.28E+03
     2 Broy./Diag. 0.10E+00   11.3     0.00147332     -1284.5362314360 -5.43E-02
     3 Broy./Diag. 0.10E+00   12.0     0.01051448     -1284.5345191490  1.71E-03
     4 Broy./Diag. 0.10E+00   12.0     0.00118458     -1284.5531947473 -1.87E-02
     5 Broy./Diag. 0.10E+00   12.9     0.00508867     -1284.5229239211  3.03E-02
     6 Broy./Diag. 0.10E+00   12.9     0.00050932     -1284.5023256766  2.06E-02
     7 Broy./Diag. 0.10E+00   13.7     0.00208698     -1284.4996229664  2.70E-03
     8 Broy./Diag. 0.10E+00   14.1     0.00013934     -1284.5095489399 -9.93E-03
     9 Broy./Diag. 0.10E+00   15.4     0.00052705     -1284.5098208683 -2.72E-04
    10 Broy./Diag. 0.10E+00   16.2     0.00004398     -1284.5140452017 -4.22E-03
    11 Broy./Diag. 0.10E+00   16.4     0.00030203     -1284.5159702054 -1.93E-03
    12 Broy./Diag. 0.10E+00   15.9     0.00002285     -1284.5186131116 -2.64E-03
    13 Broy./Diag. 0.10E+00   16.2     0.00016243     -1284.5183365840  2.77E-04
    14 Broy./Diag. 0.10E+00   16.2     0.00001725     -1284.5194027060 -1.07E-03
    15 Broy./Diag. 0.10E+00   16.1     0.00010708     -1284.5189194082  4.83E-04
    16 Broy./Diag. 0.10E+00   16.1     0.00001850     -1284.5193507575 -4.31E-04
    17 Broy./Diag. 0.10E+00   16.1     0.00006588     -1284.5195684613 -2.18E-04
    18 Broy./Diag. 0.10E+00   15.9     0.00003009     -1284.5199301337 -3.62E-04
    19 Broy./Diag. 0.10E+00   16.7     0.00004162     -1284.5197713602  1.59E-04
    20 Broy./Diag. 0.10E+00   15.2     0.00001119     -1284.5196296267  1.42E-04
    21 Broy./Diag. 0.10E+00   16.1     0.00001495     -1284.5195962847  3.33E-05
    22 Broy./Diag. 0.10E+00   15.9     0.00000787     -1284.5195773148  1.90E-05
    23 Broy./Diag. 0.10E+00   16.8     0.00000680     -1284.5195875926 -1.03E-05
    24 Broy./Diag. 0.10E+00   15.9     0.00000294     -1284.5196094344 -2.18E-05
    25 Broy./Diag. 0.10E+00   16.1     0.00000364     -1284.5196238326 -1.44E-05
    26 Broy./Diag. 0.10E+00   16.1     0.00000274     -1284.5196225086  1.32E-06
    27 Broy./Diag. 0.10E+00   19.9     0.00000415     -1284.5196167619  5.75E-06
    28 Broy./Diag. 0.10E+00   15.8     0.00000139     -1284.5196104693  6.29E-06
    29 Broy./Diag. 0.10E+00   15.7     0.00000353     -1284.5195865318  2.39E-05
    30 Broy./Diag. 0.10E+00   15.4     0.00000171     -1284.5195723695  1.42E-05
    31 Broy./Diag. 0.10E+00   16.7     0.00000272     -1284.5195856075 -1.32E-05
    32 Broy./Diag. 0.10E+00   16.6     0.00000080     -1284.5195981953 -1.26E-05
    33 Broy./Diag. 0.10E+00   15.8     0.00000133     -1284.5195987530 -5.58E-07
    34 Broy./Diag. 0.10E+00   15.9     0.00000020     -1284.5195987178  3.52E-08
    35 Broy./Diag. 0.10E+00   16.5     0.00000047     -1284.5195984532  2.65E-07
    36 Broy./Diag. 0.10E+00   15.9     0.00000012     -1284.5195996161 -1.16E-06
    37 Broy./Diag. 0.10E+00   15.6     0.00000049     -1284.5195968637  2.75E-06
    38 Broy./Diag. 0.10E+00   17.0     0.00000004     -1284.5195951866  1.68E-06

  *** SCF run converged in    38 steps ***


  Electronic density on regular grids:       -427.9999999951        0.0000000049
  Core density on regular grids:              427.9999993683       -0.0000006317
  Total charge density on r-space grids:       -0.0000006268
  Total charge density g-space grids:          -0.0000006268

  Overlap energy of the core charge distribution:               0.00000288897957
  Self energy of the core charge distribution:              -2253.28808377914038
  Core Hamiltonian energy:                                    717.46835883210542
  Hartree energy:                                             454.91964053233409
  Exchange-correlation energy:                               -203.29280669851977
  Dispersion energy:                                           -0.32670377096509
  Electronic entropic energy:                                  -0.00000319136155
  Fermi energy:                                                -0.16812542017161

  Total energy:                                             -1284.51959518656759

 ENERGY| Total FORCE_EVAL ( QS ) energy (a.u.):            -1284.519596554731606


 --------  Informations at step =    19 ------------
  Optimization Method        =                 BFGS
  Total Energy               =     -1284.5195965547
  Real energy change         =         0.0012787168
  Predicted change in energy =        -0.0023517959
  Scaling factor             =         0.0000000000
  Step size                  =         0.3662434124
  Trust radius               =         0.4724315332
  Decrease in energy         =                   NO
  Used time                  =              599.590

  Convergence check :
  Max. step size             =         0.3662434124
  Conv. limit for step size  =         0.0030000000
  Convergence in step size   =                   NO
  RMS step size              =         0.1040853634
  Conv. limit for RMS step   =         0.0015000000
  Convergence in RMS step    =                   NO
  Max. gradient              =         0.0136312302
  Conv. limit for gradients  =         0.0004500000
  Conv. for gradients        =                   NO
  RMS gradient               =         0.0024001746
  Conv. limit for RMS grad.  =         0.0003000000
  Conv. for gradients        =                   NO
 ---------------------------------------------------

 --------------------------
 OPTIMIZATION STEP:     20
 --------------------------

 Number of electrons:                                                        428
 Number of occupied orbitals:                                                217
 Number of molecular orbitals:                                               252

 Number of orbital functions:                                                976
 Number of independent orbital functions:                                    976

 Extrapolation method: PS Nth order


 SCF WAVEFUNCTION OPTIMIZATION

  Step     Update method      Time    Convergence         Total energy    Change
  ------------------------------------------------------------------------------
     1 Broy./Diag. 0.10E+00   28.6     0.18485550     -1284.3869447907 -1.28E+03
     2 Broy./Diag. 0.10E+00   32.0     0.00148614     -1284.4777086303 -9.08E-02
     3 Broy./Diag. 0.10E+00   26.4     0.01334484     -1284.5130589888 -3.54E-02
     4 Broy./Diag. 0.10E+00   28.3     0.00047354     -1284.4935352831  1.95E-02
     5 Broy./Diag. 0.10E+00   25.5     0.00321927     -1284.5136739423 -2.01E-02
     6 Broy./Diag. 0.10E+00   29.9     0.00074523     -1284.5212447716 -7.57E-03
     7 Broy./Diag. 0.10E+00   29.8     0.00250802     -1284.5329737759 -1.17E-02
     8 Broy./Diag. 0.10E+00   30.7     0.00031125     -1284.5402183712 -7.24E-03
     9 Broy./Diag. 0.10E+00  252.1     0.00072749     -1284.5348640498  5.35E-03
    10 Broy./Diag. 0.10E+00   29.6     0.00003644     -1284.5270795244  7.78E-03
    11 Broy./Diag. 0.10E+00   28.8     0.00024685     -1284.5261987206  8.81E-04
    12 Broy./Diag. 0.10E+00   73.9     0.00002199     -1284.5233433664  2.86E-03
    13 Broy./Diag. 0.10E+00   30.0     0.00012573     -1284.5243755489 -1.03E-03
    14 Broy./Diag. 0.10E+00   28.3     0.00002673     -1284.5245487989 -1.73E-04
    15 Broy./Diag. 0.10E+00   26.1     0.00016246     -1284.5240530061  4.96E-04
    16 Broy./Diag. 0.10E+00   33.6     0.00001419     -1284.5229891217  1.06E-03
    17 Broy./Diag. 0.10E+00  112.4     0.00007355     -1284.5227709011  2.18E-04
    18 Broy./Diag. 0.10E+00   42.8     0.00000664     -1284.5226926855  7.82E-05
    19 Broy./Diag. 0.10E+00   32.4     0.00003244     -1284.5226671674  2.55E-05
    20 Broy./Diag. 0.10E+00   37.5     0.00001395     -1284.5227753784 -1.08E-04
    21 Broy./Diag. 0.10E+00   26.6     0.00001808     -1284.5228525242 -7.71E-05
    22 Broy./Diag. 0.10E+00   32.4     0.00001235     -1284.5228633939 -1.09E-05
    23 Broy./Diag. 0.10E+00   40.7     0.00000776     -1284.5227745565  8.88E-05
    24 Broy./Diag. 0.10E+00   62.5     0.00000654     -1284.5227092442  6.53E-05
    25 Broy./Diag. 0.10E+00  132.4     0.00000406     -1284.5226885557  2.07E-05
    26 Broy./Diag. 0.10E+00  129.6     0.00000451     -1284.5227297399 -4.12E-05
    27 Broy./Diag. 0.10E+00   85.6     0.00000171     -1284.5227908290 -6.11E-05
    28 Broy./Diag. 0.10E+00   43.2     0.00000240     -1284.5228048668 -1.40E-05
    29 Broy./Diag. 0.10E+00   27.0     0.00000100     -1284.5227875713  1.73E-05
    30 Broy./Diag. 0.10E+00   25.7     0.00000259     -1284.5227728101  1.48E-05
    31 Broy./Diag. 0.10E+00  117.9     0.00000035     -1284.5227589125  1.39E-05
    32 Broy./Diag. 0.10E+00  143.4     0.00000193     -1284.5227553222  3.59E-06
    33 Broy./Diag. 0.10E+00   89.2     0.00000027     -1284.5227538069  1.52E-06
    34 Broy./Diag. 0.10E+00  245.3     0.00000118     -1284.5227624715 -8.66E-06
    35 Broy./Diag. 0.10E+00  177.5     0.00000006     -1284.5227743507 -1.19E-05

  *** SCF run converged in    35 steps ***


  Electronic density on regular grids:       -427.9999999948        0.0000000052
  Core density on regular grids:              427.9999993679       -0.0000006321
  Total charge density on r-space grids:       -0.0000006269
  Total charge density g-space grids:          -0.0000006269

  Overlap energy of the core charge distribution:               0.00000265768952
  Self energy of the core charge distribution:              -2253.28808377914038
  Core Hamiltonian energy:                                    717.45977571225194
  Hartree energy:                                             454.92157533734655
  Exchange-correlation energy:                               -203.28989239452585
  Dispersion energy:                                           -0.32614972456102
  Electronic entropic energy:                                  -0.00000215972563
  Fermi energy:                                                -0.16779998154016

  Total energy:                                             -1284.52277435066594

 ENERGY| Total FORCE_EVAL ( QS ) energy (a.u.):            -1284.522766821939058


 --------  Informations at step =    20 ------------
  Optimization Method        =                 BFGS
  Total Energy               =     -1284.5227668219
  Real energy change         =        -0.0031702672
  Predicted change in energy =        -0.0056628152
  Scaling factor             =         0.0000000000
  Step size                  =         0.2850864436
  Trust radius               =         0.4724315332
  Decrease in energy         =                  YES
  Used time                  =             2401.302

  Convergence check :
  Max. step size             =         0.2850864436
  Conv. limit for step size  =         0.0030000000
  Convergence in step size   =                   NO
  RMS step size              =         0.0739242119
  Conv. limit for RMS step   =         0.0015000000
  Convergence in RMS step    =                   NO
  Max. gradient              =         0.0111136309
  Conv. limit for gradients  =         0.0004500000
  Conv. for gradients        =                   NO
  RMS gradient               =         0.0017794418
  Conv. limit for RMS grad.  =         0.0003000000
  Conv. for gradients        =                   NO
 ---------------------------------------------------

 --------------------------
 OPTIMIZATION STEP:     21
 --------------------------

 Number of electrons:                                                        428
 Number of occupied orbitals:                                                217
 Number of molecular orbitals:                                               252

 Number of orbital functions:                                                976
 Number of independent orbital functions:                                    976

 Extrapolation method: PS Nth order


 SCF WAVEFUNCTION OPTIMIZATION

  Step     Update method      Time    Convergence         Total energy    Change
  ------------------------------------------------------------------------------
     1 Broy./Diag. 0.10E+00   13.0     0.16197632     -1284.4015779033 -1.28E+03
     2 Broy./Diag. 0.10E+00   11.5     0.00308883     -1284.2280178469  1.74E-01
     3 Broy./Diag. 0.10E+00   12.6     0.02549366     -1284.3204145763 -9.24E-02
     4 Broy./Diag. 0.10E+00   12.5     0.00051678     -1284.5368690708 -2.16E-01
     5 Broy./Diag. 0.10E+00   12.9     0.00573953     -1284.4901861720  4.67E-02
     6 Broy./Diag. 0.10E+00   13.1     0.00042305     -1284.4924289594 -2.24E-03
     7 Broy./Diag. 0.10E+00   13.4     0.00192574     -1284.4928315999 -4.03E-04
     8 Broy./Diag. 0.10E+00   13.6     0.00044787     -1284.5075495852 -1.47E-02
     9 Broy./Diag. 0.10E+00   15.0     0.00114969     -1284.5082035672 -6.54E-04
    10 Broy./Diag. 0.10E+00   15.7     0.00011288     -1284.5121279284 -3.92E-03
    11 Broy./Diag. 0.10E+00   15.4     0.00035835     -1284.5154503167 -3.32E-03
    12 Broy./Diag. 0.10E+00   16.4     0.00004005     -1284.5209234582 -5.47E-03
    13 Broy./Diag. 0.10E+00   15.9     0.00017478     -1284.5196447338  1.28E-03
    14 Broy./Diag. 0.10E+00   16.5     0.00001456     -1284.5208354417 -1.19E-03
    15 Broy./Diag. 0.10E+00   15.5     0.00011107     -1284.5207627782  7.27E-05
    16 Broy./Diag. 0.10E+00   15.5     0.00001392     -1284.5225235027 -1.76E-03
    17 Broy./Diag. 0.10E+00   15.4     0.00004981     -1284.5229411752 -4.18E-04
    18 Broy./Diag. 0.10E+00   15.7     0.00002080     -1284.5236642453 -7.23E-04
    19 Broy./Diag. 0.10E+00   15.6     0.00004188     -1284.5234894264  1.75E-04
    20 Broy./Diag. 0.10E+00   36.7     0.00000620     -1284.5233284405  1.61E-04
    21 Broy./Diag. 0.10E+00   29.2     0.00001370     -1284.5234752015 -1.47E-04
    22 Broy./Diag. 0.10E+00   35.3     0.00000923     -1284.5236177740 -1.43E-04
    23 Broy./Diag. 0.10E+00   25.0     0.00002117     -1284.5235803869  3.74E-05
    24 Broy./Diag. 0.10E+00   26.2     0.00000587     -1284.5235409117  3.95E-05
    25 Broy./Diag. 0.10E+00  134.7     0.00000880     -1284.5235412264 -3.15E-07
    26 Broy./Diag. 0.10E+00   35.7     0.00000169     -1284.5235353637  5.86E-06
    27 Broy./Diag. 0.10E+00   48.2     0.00000456     -1284.5234869767  4.84E-05
    28 Broy./Diag. 0.10E+00   45.6     0.00000037     -1284.5234124370  7.45E-05
    29 Broy./Diag. 0.10E+00   21.8     0.00000199     -1284.5234303986 -1.80E-05
    30 Broy./Diag. 0.10E+00   23.7     0.00000020     -1284.5234356758 -5.28E-06
    31 Broy./Diag. 0.10E+00   24.3     0.00000128     -1284.5234258129  9.86E-06
    32 Broy./Diag. 0.10E+00   25.6     0.00000010     -1284.5234185083  7.30E-06
    33 Broy./Diag. 0.10E+00   28.7     0.00000084     -1284.5234140996  4.41E-06
    34 Broy./Diag. 0.10E+00   16.7     0.00000006     -1284.5234156940 -1.59E-06

  *** SCF run converged in    34 steps ***


  Electronic density on regular grids:       -427.9999999962        0.0000000038
  Core density on regular grids:              427.9999993681       -0.0000006319
  Total charge density on r-space grids:       -0.0000006280
  Total charge density g-space grids:          -0.0000006280

  Overlap energy of the core charge distribution:               0.00000289400532
  Self energy of the core charge distribution:              -2253.28808377914038
  Core Hamiltonian energy:                                    717.45982161707843
  Hartree energy:                                             454.91865734399533
  Exchange-correlation energy:                               -203.28746816623189
  Dispersion energy:                                           -0.32634350211046
  Electronic entropic energy:                                  -0.00000210160487
  Fermi energy:                                                -0.16782867604935

  Total energy:                                             -1284.52341569400801

 ENERGY| Total FORCE_EVAL ( QS ) energy (a.u.):            -1284.523414375367338


 --------  Informations at step =    21 ------------
  Optimization Method        =                 BFGS
  Total Energy               =     -1284.5234143754
  Real energy change         =        -0.0006475534
  Predicted change in energy =        -0.0004051916
  Scaling factor             =         0.0000000000
  Step size                  =         0.0620123835
  Trust radius               =         0.4724315332
  Decrease in energy         =                  YES
  Used time                  =              867.178

  Convergence check :
  Max. step size             =         0.0620123835
  Conv. limit for step size  =         0.0030000000
  Convergence in step size   =                   NO
  RMS step size              =         0.0140474690
  Conv. limit for RMS step   =         0.0015000000
  Convergence in RMS step    =                   NO
  Max. gradient              =         0.0037185548
  Conv. limit for gradients  =         0.0004500000
  Conv. for gradients        =                   NO
  RMS gradient               =         0.0007258205
  Conv. limit for RMS grad.  =         0.0003000000
  Conv. for gradients        =                   NO
 ---------------------------------------------------

 --------------------------
 OPTIMIZATION STEP:     22
 --------------------------

 Number of electrons:                                                        428
 Number of occupied orbitals:                                                217
 Number of molecular orbitals:                                               252

 Number of orbital functions:                                                976
 Number of independent orbital functions:                                    976

 Extrapolation method: PS Nth order


 SCF WAVEFUNCTION OPTIMIZATION

  Step     Update method      Time    Convergence         Total energy    Change
  ------------------------------------------------------------------------------
     1 Broy./Diag. 0.10E+00    6.3     0.03419141     -1284.5096611394 -1.28E+03
     2 Broy./Diag. 0.10E+00   11.0     0.00159154     -1284.4464630592  6.32E-02
     3 Broy./Diag. 0.10E+00   11.6     0.01039010     -1284.4600819625 -1.36E-02
     4 Broy./Diag. 0.10E+00   11.8     0.00109770     -1284.4841812144 -2.41E-02
     5 Broy./Diag. 0.10E+00   12.4     0.00361192     -1284.5037462882 -1.96E-02
     6 Broy./Diag. 0.10E+00   12.6     0.00023012     -1284.5251859497 -2.14E-02
     7 Broy./Diag. 0.10E+00   13.1     0.00095193     -1284.5205463132  4.64E-03
     8 Broy./Diag. 0.10E+00   14.0     0.00008356     -1284.5170323912  3.51E-03
     9 Broy./Diag. 0.10E+00   14.5     0.00047401     -1284.5179102586 -8.78E-04
    10 Broy./Diag. 0.10E+00   15.7     0.00002878     -1284.5219688630 -4.06E-03
    11 Broy./Diag. 0.10E+00   16.6     0.00025261     -1284.5218370817  1.32E-04
    12 Broy./Diag. 0.10E+00   16.2     0.00001611     -1284.5230253068 -1.19E-03
    13 Broy./Diag. 0.10E+00   15.8     0.00009062     -1284.5231917816 -1.66E-04
    14 Broy./Diag. 0.10E+00   15.3     0.00000880     -1284.5240494230 -8.58E-04
    15 Broy./Diag. 0.10E+00   15.6     0.00005225     -1284.5239995273  4.99E-05
    16 Broy./Diag. 0.10E+00   19.3     0.00000546     -1284.5242293663 -2.30E-04
    17 Broy./Diag. 0.10E+00   28.3     0.00003397     -1284.5241102310  1.19E-04
    18 Broy./Diag. 0.10E+00   99.0     0.00001029     -1284.5240934013  1.68E-05
    19 Broy./Diag. 0.10E+00   40.4     0.00003064     -1284.5242025228 -1.09E-04
    20 Broy./Diag. 0.10E+00  138.2     0.00000548     -1284.5243145799 -1.12E-04
    21 Broy./Diag. 0.10E+00   79.2     0.00001085     -1284.5242373848  7.72E-05
    22 Broy./Diag. 0.10E+00  120.3     0.00000176     -1284.5241603823  7.70E-05
    23 Broy./Diag. 0.10E+00  231.3     0.00000403     -1284.5241505399  9.84E-06
    24 Broy./Diag. 0.10E+00  124.2     0.00000133     -1284.5241516905 -1.15E-06
    25 Broy./Diag. 0.10E+00  104.8     0.00000314     -1284.5241477262  3.96E-06
    26 Broy./Diag. 0.10E+00  162.5     0.00000080     -1284.5241525930 -4.87E-06
    27 Broy./Diag. 0.10E+00  356.4     0.00000176     -1284.5241587576 -6.16E-06
    28 Broy./Diag. 0.10E+00   87.0     0.00000049     -1284.5241706147 -1.19E-05
    29 Broy./Diag. 0.10E+00  144.7     0.00000133     -1284.5241675617  3.05E-06
    30 Broy./Diag. 0.10E+00  167.6     0.00000064     -1284.5241652046  2.36E-06
    31 Broy./Diag. 0.10E+00  173.5     0.00000155     -1284.5241584361  6.77E-06
    32 Broy./Diag. 0.10E+00  124.8     0.00000050     -1284.5241547673  3.67E-06
    33 Broy./Diag. 0.10E+00  163.3     0.00000082     -1284.5241608325 -6.07E-06
    34 Broy./Diag. 0.10E+00   38.0     0.00000015     -1284.5241660558 -5.22E-06
    35 Broy./Diag. 0.10E+00   29.0     0.00000034     -1284.5241652314  8.24E-07
    36 Broy./Diag. 0.10E+00   25.1     0.00000005     -1284.5241639159  1.32E-06

  *** SCF run converged in    36 steps ***


  Electronic density on regular grids:       -428.0000000003       -0.0000000003
  Core density on regular grids:              427.9999993683       -0.0000006317
  Total charge density on r-space grids:       -0.0000006320
  Total charge density g-space grids:          -0.0000006320

  Overlap energy of the core charge distribution:               0.00000315147303
  Self energy of the core charge distribution:              -2253.28808377914038
  Core Hamiltonian energy:                                    717.45652415587188
  Hartree energy:                                             454.92355268896830
  Exchange-correlation energy:                               -203.28956475127524
  Dispersion energy:                                           -0.32659306321475
  Electronic entropic energy:                                  -0.00000231859173
  Fermi energy:                                                -0.16799456952305

  Total energy:                                             -1284.52416391590964

 ENERGY| Total FORCE_EVAL ( QS ) energy (a.u.):            -1284.524163423164282


 --------  Informations at step =    22 ------------
  Optimization Method        =                 BFGS
  Total Energy               =     -1284.5241634232
  Real energy change         =        -0.0007490478
  Predicted change in energy =        -0.0009952908
  Scaling factor             =         0.0000000000
  Step size                  =         0.1974204014
  Trust radius               =         0.4724315332
  Decrease in energy         =                  YES
  Used time                  =             2692.321

  Convergence check :
  Max. step size             =         0.1974204014
  Conv. limit for step size  =         0.0030000000
  Convergence in step size   =                   NO
  RMS step size              =         0.0542976673
  Conv. limit for RMS step   =         0.0015000000
  Convergence in RMS step    =                   NO
  Max. gradient              =         0.0033808823
  Conv. limit for gradients  =         0.0004500000
  Conv. for gradients        =                   NO
  RMS gradient               =         0.0009273646
  Conv. limit for RMS grad.  =         0.0003000000
  Conv. for gradients        =                   NO
 ---------------------------------------------------

 --------------------------
 OPTIMIZATION STEP:     23
 --------------------------

 Number of electrons:                                                        428
 Number of occupied orbitals:                                                217
 Number of molecular orbitals:                                               252

 Number of orbital functions:                                                976
 Number of independent orbital functions:                                    976

 Extrapolation method: PS Nth order


 SCF WAVEFUNCTION OPTIMIZATION

  Step     Update method      Time    Convergence         Total energy    Change
  ------------------------------------------------------------------------------
     1 Broy./Diag. 0.10E+00   22.6     0.06893948     -1284.5030421872 -1.28E+03
     2 Broy./Diag. 0.10E+00   22.8     0.00069118     -1284.4447706479  5.83E-02
     3 Broy./Diag. 0.10E+00   33.4     0.00607932     -1284.4832799417 -3.85E-02
     4 Broy./Diag. 0.10E+00   84.6     0.00025225     -1284.5101899608 -2.69E-02
     5 Broy./Diag. 0.10E+00  103.9     0.00182912     -1284.5242019770 -1.40E-02
     6 Broy./Diag. 0.10E+00   23.3     0.00027656     -1284.5319326122 -7.73E-03
     7 Broy./Diag. 0.10E+00   67.2     0.00087703     -1284.5306910921  1.24E-03
     8 Broy./Diag. 0.10E+00   42.7     0.00014292     -1284.5271664267  3.52E-03
     9 Broy./Diag. 0.10E+00  236.4     0.00034227     -1284.5273741116 -2.08E-04
    10 Broy./Diag. 0.10E+00  207.3     0.00001503     -1284.5271762323  1.98E-04
    11 Broy./Diag. 0.10E+00   21.2     0.00009502     -1284.5262173619  9.59E-04
    12 Broy./Diag. 0.10E+00  240.3     0.00000678     -1284.5245405227  1.68E-03
    13 Broy./Diag. 0.10E+00   36.4     0.00005351     -1284.5251768945 -6.36E-04
    14 Broy./Diag. 0.10E+00  135.8     0.00000738     -1284.5254600460 -2.83E-04
    15 Broy./Diag. 0.10E+00  196.2     0.00004530     -1284.5252336528  2.26E-04
    16 Broy./Diag. 0.10E+00  112.9     0.00000495     -1284.5247489944  4.85E-04
    17 Broy./Diag. 0.10E+00  178.0     0.00002362     -1284.5246520052  9.70E-05
    18 Broy./Diag. 0.10E+00  150.9     0.00000525     -1284.5246135950  3.84E-05
    19 Broy./Diag. 0.10E+00  150.4     0.00001878     -1284.5246732848 -5.97E-05
    20 Broy./Diag. 0.10E+00  184.6     0.00000415     -1284.5247684791 -9.52E-05
    21 Broy./Diag. 0.10E+00   21.4     0.00000596     -1284.5247340790  3.44E-05
    22 Broy./Diag. 0.10E+00   40.2     0.00000324     -1284.5247028751  3.12E-05
    23 Broy./Diag. 0.10E+00  266.4     0.00000433     -1284.5246871292  1.57E-05
    24 Broy./Diag. 0.10E+00  310.6     0.00000195     -1284.5246767972  1.03E-05
    25 Broy./Diag. 0.10E+00  258.5     0.00000297     -1284.5246592961  1.75E-05
    26 Broy./Diag. 0.10E+00  338.1     0.00000088     -1284.5246605512 -1.26E-06
    27 Broy./Diag. 0.10E+00  274.0     0.00000157     -1284.5246898819 -2.93E-05
    28 Broy./Diag. 0.10E+00   68.0     0.00000035     -1284.5247129607 -2.31E-05
    29 Broy./Diag. 0.10E+00  175.6     0.00000081     -1284.5247094771  3.48E-06
    30 Broy./Diag. 0.10E+00  141.1     0.00000017     -1284.5246997644  9.71E-06
    31 Broy./Diag. 0.10E+00  151.9     0.00000058     -1284.5246940600  5.70E-06
    32 Broy./Diag. 0.10E+00   72.4     0.00000026     -1284.5246886141  5.45E-06
    33 Broy./Diag. 0.10E+00   26.1     0.00000053     -1284.5246915343 -2.92E-06
    34 Broy./Diag. 0.10E+00   15.6     0.00000014     -1284.5246945532 -3.02E-06
    35 Broy./Diag. 0.10E+00   17.0     0.00000024     -1284.5246944710  8.21E-08
    36 Broy./Diag. 0.10E+00  206.3     0.00000004     -1284.5246941108  3.60E-07

  *** SCF run converged in    36 steps ***


  Electronic density on regular grids:       -428.0000000007       -0.0000000007
  Core density on regular grids:              427.9999993679       -0.0000006321
  Total charge density on r-space grids:       -0.0000006328
  Total charge density g-space grids:          -0.0000006328

  Overlap energy of the core charge distribution:               0.00000310486367
  Self energy of the core charge distribution:              -2253.28808377914038
  Core Hamiltonian energy:                                    717.45905229182210
  Hartree energy:                                             454.92232046941905
  Exchange-correlation energy:                               -203.29154549487285
  Dispersion energy:                                           -0.32643861508403
  Electronic entropic energy:                                  -0.00000208780452
  Fermi energy:                                                -0.16796513580776

  Total energy:                                             -1284.52469411079733

 ENERGY| Total FORCE_EVAL ( QS ) energy (a.u.):            -1284.524693323156953


 --------  Informations at step =    23 ------------
  Optimization Method        =                 BFGS
  Total Energy               =     -1284.5246933232
  Real energy change         =        -0.0005299000
  Predicted change in energy =        -0.0004194282
  Scaling factor             =         0.0000000000
  Step size                  =         0.0563305027
  Trust radius               =         0.4724315332
  Decrease in energy         =                  YES
  Used time                  =             4695.423

  Convergence check :
  Max. step size             =         0.0563305027
  Conv. limit for step size  =         0.0030000000
  Convergence in step size   =                   NO
  RMS step size              =         0.0149326037
  Conv. limit for RMS step   =         0.0015000000
  Convergence in RMS step    =                   NO
  Max. gradient              =         0.0017832902
  Conv. limit for gradients  =         0.0004500000
  Conv. for gradients        =                   NO
  RMS gradient               =         0.0005084735
  Conv. limit for RMS grad.  =         0.0003000000
  Conv. for gradients        =                   NO
 ---------------------------------------------------

 --------------------------
 OPTIMIZATION STEP:     24
 --------------------------

 Number of electrons:                                                        428
 Number of occupied orbitals:                                                217
 Number of molecular orbitals:                                               252

 Number of orbital functions:                                                976
 Number of independent orbital functions:                                    976

 Extrapolation method: PS Nth order


 SCF WAVEFUNCTION OPTIMIZATION

  Step     Update method      Time    Convergence         Total energy    Change
  ------------------------------------------------------------------------------
     1 Broy./Diag. 0.10E+00   66.0     0.05136614     -1284.5108864071 -1.28E+03
     2 Broy./Diag. 0.10E+00   43.8     0.00064428     -1284.5959303859 -8.50E-02
     3 Broy./Diag. 0.10E+00  175.9     0.00520281     -1284.5654962234  3.04E-02
     4 Broy./Diag. 0.10E+00   39.8     0.00050826     -1284.5487484504  1.67E-02
     5 Broy./Diag. 0.10E+00   29.3     0.00219571     -1284.5328198111  1.59E-02
     6 Broy./Diag. 0.10E+00   57.0     0.00026238     -1284.5207060493  1.21E-02
     7 Broy./Diag. 0.10E+00   24.5     0.00069019     -1284.5199145721  7.91E-04
     8 Broy./Diag. 0.10E+00   26.0     0.00007241     -1284.5225704849 -2.66E-03
     9 Broy./Diag. 0.10E+00   23.5     0.00031488     -1284.5234613531 -8.91E-04
    10 Broy./Diag. 0.10E+00   28.5     0.00001272     -1284.5243140790 -8.53E-04
    11 Broy./Diag. 0.10E+00   29.8     0.00008228     -1284.5249032233 -5.89E-04
    12 Broy./Diag. 0.10E+00   28.1     0.00000987     -1284.5256978182 -7.95E-04
    13 Broy./Diag. 0.10E+00  139.0     0.00006926     -1284.5252647728  4.33E-04
    14 Broy./Diag. 0.10E+00   25.4     0.00000548     -1284.5249534431  3.11E-04
    15 Broy./Diag. 0.10E+00   71.2     0.00003261     -1284.5249800287 -2.66E-05
    16 Broy./Diag. 0.10E+00  102.3     0.00000337     -1284.5251802311 -2.00E-04
    17 Broy./Diag. 0.10E+00   96.6     0.00002067     -1284.5252857269 -1.05E-04
    18 Broy./Diag. 0.10E+00  118.6     0.00000422     -1284.5253491717 -6.34E-05
    19 Broy./Diag. 0.10E+00  106.8     0.00001767     -1284.5252799437  6.92E-05
    20 Broy./Diag. 0.10E+00  124.5     0.00000357     -1284.5251826043  9.73E-05
    21 Broy./Diag. 0.10E+00   30.0     0.00000672     -1284.5252019759 -1.94E-05
    22 Broy./Diag. 0.10E+00  111.8     0.00000128     -1284.5252262854 -2.43E-05
    23 Broy./Diag. 0.10E+00   98.5     0.00000287     -1284.5252341540 -7.87E-06
    24 Broy./Diag. 0.10E+00  186.8     0.00000054     -1284.5252388555 -4.70E-06
    25 Broy./Diag. 0.10E+00   56.2     0.00000155     -1284.5252392728 -4.17E-07
    26 Broy./Diag. 0.10E+00   29.0     0.00000044     -1284.5252291598  1.01E-05
    27 Broy./Diag. 0.10E+00  270.5     0.00000134     -1284.5252156140  1.35E-05
    28 Broy./Diag. 0.10E+00   28.6     0.00000020     -1284.5252000963  1.55E-05
    29 Broy./Diag. 0.10E+00   49.5     0.00000057     -1284.5252003015 -2.05E-07
    30 Broy./Diag. 0.10E+00  146.7     0.00000021     -1284.5252041621 -3.86E-06
    31 Broy./Diag. 0.10E+00  165.8     0.00000064     -1284.5252081588 -4.00E-06
    32 Broy./Diag. 0.10E+00  228.0     0.00000021     -1284.5252122811 -4.12E-06
    33 Broy./Diag. 0.10E+00  155.6     0.00000046     -1284.5252091943  3.09E-06
    34 Broy./Diag. 0.10E+00   39.0     0.00000008     -1284.5252062342  2.96E-06

  *** SCF run converged in    34 steps ***


  Electronic density on regular grids:       -427.9999999994        0.0000000006
  Core density on regular grids:              427.9999993679       -0.0000006321
  Total charge density on r-space grids:       -0.0000006315
  Total charge density g-space grids:          -0.0000006315

  Overlap energy of the core charge distribution:               0.00000307491577
  Self energy of the core charge distribution:              -2253.28808377914038
  Core Hamiltonian energy:                                    717.45911440684665
  Hartree energy:                                             454.92433955124011
  Exchange-correlation energy:                               -203.29419008249286
  Dispersion energy:                                           -0.32638756035400
  Electronic entropic energy:                                  -0.00000184524018
  Fermi energy:                                                -0.16800618147780

  Total energy:                                             -1284.52520623422515

 ENERGY| Total FORCE_EVAL ( QS ) energy (a.u.):            -1284.525207170770045


 --------  Informations at step =    24 ------------
  Optimization Method        =                 BFGS
  Total Energy               =     -1284.5252071708
  Real energy change         =        -0.0005138476
  Predicted change in energy =        -0.0003289509
  Scaling factor             =         0.0000000000
  Step size                  =         0.0550983143
  Trust radius               =         0.4724315332
  Decrease in energy         =                  YES
  Used time                  =             3022.032

  Convergence check :
  Max. step size             =         0.0550983143
  Conv. limit for step size  =         0.0030000000
  Convergence in step size   =                   NO
  RMS step size              =         0.0171486904
  Conv. limit for RMS step   =         0.0015000000
  Convergence in RMS step    =                   NO
  Max. gradient              =         0.0010769665
  Conv. limit for gradients  =         0.0004500000
  Conv. for gradients        =                   NO
  RMS gradient               =         0.0003579868
  Conv. limit for RMS grad.  =         0.0003000000
  Conv. for gradients        =                   NO
 ---------------------------------------------------

 --------------------------
 OPTIMIZATION STEP:     25
 --------------------------

 Number of electrons:                                                        428
 Number of occupied orbitals:                                                217
 Number of molecular orbitals:                                               252

 Number of orbital functions:                                                976
 Number of independent orbital functions:                                    976

 Extrapolation method: PS Nth order


 SCF WAVEFUNCTION OPTIMIZATION

  Step     Update method      Time    Convergence         Total energy    Change
  ------------------------------------------------------------------------------
     1 Broy./Diag. 0.10E+00   23.6     0.01477584     -1284.5233799243 -1.28E+03
     2 Broy./Diag. 0.10E+00  249.9     0.00033947     -1284.5282626537 -4.88E-03
     3 Broy./Diag. 0.10E+00  244.0     0.00298992     -1284.5280578075  2.05E-04
     4 Broy./Diag. 0.10E+00   35.1     0.00015393     -1284.5291876193 -1.13E-03
     5 Broy./Diag. 0.10E+00  139.9     0.00096176     -1284.5271682669  2.02E-03
     6 Broy./Diag. 0.10E+00   32.0     0.00015485     -1284.5236556984  3.51E-03
     7 Broy./Diag. 0.10E+00   23.5     0.00054636     -1284.5257549557 -2.10E-03
     8 Broy./Diag. 0.10E+00   20.1     0.00009354     -1284.5275318110 -1.78E-03
     9 Broy./Diag. 0.10E+00   25.2     0.00021673     -1284.5271514839  3.80E-04
    10 Broy./Diag. 0.10E+00   29.5     0.00002096     -1284.5262411723  9.10E-04
    11 Broy./Diag. 0.10E+00   27.5     0.00012112     -1284.5261457907  9.54E-05
    12 Broy./Diag. 0.10E+00   26.9     0.00001007     -1284.5258706609  2.75E-04
    13 Broy./Diag. 0.10E+00   22.2     0.00004780     -1284.5258671289  3.53E-06
    14 Broy./Diag. 0.10E+00   27.4     0.00000555     -1284.5256956995  1.71E-04
    15 Broy./Diag. 0.10E+00   35.0     0.00003407     -1284.5257859413 -9.02E-05
    16 Broy./Diag. 0.10E+00   30.9     0.00000324     -1284.5258765433 -9.06E-05
    17 Broy./Diag. 0.10E+00   39.4     0.00001988     -1284.5257701018  1.06E-04
    18 Broy./Diag. 0.10E+00   30.5     0.00000152     -1284.5257072820  6.28E-05
    19 Broy./Diag. 0.10E+00  140.0     0.00000800     -1284.5257080185 -7.36E-07
    20 Broy./Diag. 0.10E+00   26.9     0.00000245     -1284.5257379281 -2.99E-05
    21 Broy./Diag. 0.10E+00  151.5     0.00000780     -1284.5257681602 -3.02E-05
    22 Broy./Diag. 0.10E+00   40.9     0.00000175     -1284.5257984117 -3.03E-05
    23 Broy./Diag. 0.10E+00  143.1     0.00000341     -1284.5257734764  2.49E-05
    24 Broy./Diag. 0.10E+00   96.1     0.00000039     -1284.5257510015  2.25E-05
    25 Broy./Diag. 0.10E+00  351.2     0.00000104     -1284.5257459286  5.07E-06
    26 Broy./Diag. 0.10E+00  187.6     0.00000018     -1284.5257447134  1.22E-06
    27 Broy./Diag. 0.10E+00  146.6     0.00000077     -1284.5257518656 -7.15E-06
    28 Broy./Diag. 0.10E+00  147.5     0.00000012     -1284.5257592004 -7.33E-06
    29 Broy./Diag. 0.10E+00  185.1     0.00000047     -1284.5257587715  4.29E-07
    30 Broy./Diag. 0.10E+00  262.5     0.00000009     -1284.5257574345  1.34E-06

  *** SCF run converged in    30 steps ***


  Electronic density on regular grids:       -427.9999999973        0.0000000027
  Core density on regular grids:              427.9999993681       -0.0000006319
  Total charge density on r-space grids:       -0.0000006292
  Total charge density g-space grids:          -0.0000006292

  Overlap energy of the core charge distribution:               0.00000306681129
  Self energy of the core charge distribution:              -2253.28808377914038
  Core Hamiltonian energy:                                    717.45561643148289
  Hartree energy:                                             454.92802567616002
  Exchange-correlation energy:                               -203.29496537146676
  Dispersion energy:                                           -0.32635195440912
  Electronic entropic energy:                                  -0.00000150392466
  Fermi energy:                                                -0.16813044989285

  Total energy:                                             -1284.52575743448733

 ENERGY| Total FORCE_EVAL ( QS ) energy (a.u.):            -1284.525752473534567


 --------  Informations at step =    25 ------------
  Optimization Method        =                 BFGS
  Total Energy               =     -1284.5257524735
  Real energy change         =        -0.0005453028
  Predicted change in energy =        -0.0004145999
  Scaling factor             =         0.0000000000
  Step size                  =         0.1079055637
  Trust radius               =         0.4724315332
  Decrease in energy         =                  YES
  Used time                  =             3015.301

  Convergence check :
  Max. step size             =         0.1079055637
  Conv. limit for step size  =         0.0030000000
  Convergence in step size   =                   NO
  RMS step size              =         0.0316250494
  Conv. limit for RMS step   =         0.0015000000
  Convergence in RMS step    =                   NO
  Max. gradient              =         0.0013858384
  Conv. limit for gradients  =         0.0004500000
  Conv. for gradients        =                   NO
  RMS gradient               =         0.0004312244
  Conv. limit for RMS grad.  =         0.0003000000
  Conv. for gradients        =                   NO
 ---------------------------------------------------

 --------------------------
 OPTIMIZATION STEP:     26
 --------------------------

 Number of electrons:                                                        428
 Number of occupied orbitals:                                                217
 Number of molecular orbitals:                                               252

 Number of orbital functions:                                                976
 Number of independent orbital functions:                                    976

 Extrapolation method: PS Nth order


 SCF WAVEFUNCTION OPTIMIZATION

  Step     Update method      Time    Convergence         Total energy    Change
  ------------------------------------------------------------------------------
     1 Broy./Diag. 0.10E+00   15.6     0.01235775     -1284.5240098946 -1.28E+03
     2 Broy./Diag. 0.10E+00   27.0     0.00027226     -1284.5122303160  1.18E-02
     3 Broy./Diag. 0.10E+00   24.7     0.00241637     -1284.5181856512 -5.96E-03
     4 Broy./Diag. 0.10E+00   28.6     0.00008555     -1284.5271290888 -8.94E-03
     5 Broy./Diag. 0.10E+00   22.5     0.00061585     -1284.5271440888 -1.50E-05
     6 Broy./Diag. 0.10E+00   25.5     0.00005379     -1284.5264275177  7.17E-04
     7 Broy./Diag. 0.10E+00   14.5     0.00034115     -1284.5262262853  2.01E-04
     8 Broy./Diag. 0.10E+00  216.7     0.00004601     -1284.5256716673  5.55E-04
     9 Broy./Diag. 0.10E+00  158.1     0.00016594     -1284.5262765375 -6.05E-04
    10 Broy./Diag. 0.10E+00   38.3     0.00003147     -1284.5268276532 -5.51E-04
    11 Broy./Diag. 0.10E+00  158.0     0.00008605     -1284.5264314183  3.96E-04
    12 Broy./Diag. 0.10E+00  223.7     0.00000976     -1284.5259636452  4.68E-04
    13 Broy./Diag. 0.10E+00   89.5     0.00002624     -1284.5259697595 -6.11E-06
    14 Broy./Diag. 0.10E+00   28.0     0.00000469     -1284.5259430228  2.67E-05
    15 Broy./Diag. 0.10E+00   23.0     0.00002555     -1284.5260443931 -1.01E-04
    16 Broy./Diag. 0.10E+00   27.7     0.00000242     -1284.5261625063 -1.18E-04
    17 Broy./Diag. 0.10E+00   36.4     0.00001540     -1284.5260627011  9.98E-05
    18 Broy./Diag. 0.10E+00  202.8     0.00000136     -1284.5260009024  6.18E-05
    19 Broy./Diag. 0.10E+00   35.3     0.00000859     -1284.5260371370 -3.62E-05
    20 Broy./Diag. 0.10E+00  223.3     0.00000125     -1284.5261024951 -6.54E-05
    21 Broy./Diag. 0.10E+00  144.8     0.00000494     -1284.5260871421  1.54E-05
    22 Broy./Diag. 0.10E+00   91.9     0.00000171     -1284.5260702041  1.69E-05
    23 Broy./Diag. 0.10E+00  202.8     0.00000360     -1284.5260730884 -2.88E-06
    24 Broy./Diag. 0.10E+00  113.8     0.00000051     -1284.5260749520 -1.86E-06
    25 Broy./Diag. 0.10E+00   95.3     0.00000120     -1284.5260652476  9.70E-06
    26 Broy./Diag. 0.10E+00   33.3     0.00000022     -1284.5260583363  6.91E-06
    27 Broy./Diag. 0.10E+00   20.7     0.00000070     -1284.5260626571 -4.32E-06
    28 Broy./Diag. 0.10E+00   56.8     0.00000009     -1284.5260674035 -4.75E-06

  *** SCF run converged in    28 steps ***


  Electronic density on regular grids:       -427.9999999990        0.0000000010
  Core density on regular grids:              427.9999993681       -0.0000006319
  Total charge density on r-space grids:       -0.0000006310
  Total charge density g-space grids:          -0.0000006310

  Overlap energy of the core charge distribution:               0.00000308801626
  Self energy of the core charge distribution:              -2253.28808377914038
  Core Hamiltonian energy:                                    717.44986199581706
  Hartree energy:                                             454.93135941630510
  Exchange-correlation energy:                               -203.29281696191862
  Dispersion energy:                                           -0.32638989242436
  Electronic entropic energy:                                  -0.00000127016621
  Fermi energy:                                                -0.16825117929773

  Total energy:                                             -1284.52606740350939

 ENERGY| Total FORCE_EVAL ( QS ) energy (a.u.):            -1284.526064183931794


 --------  Informations at step =    26 ------------
  Optimization Method        =                 BFGS
  Total Energy               =     -1284.5260641839
  Real energy change         =        -0.0003117104
  Predicted change in energy =        -0.0002066278
  Scaling factor             =         0.0000000000
  Step size                  =         0.0677032153
  Trust radius               =         0.4724315332
  Decrease in energy         =                  YES
  Used time                  =             2551.016

  Convergence check :
  Max. step size             =         0.0677032153
  Conv. limit for step size  =         0.0030000000
  Convergence in step size   =                   NO
  RMS step size              =         0.0222287228
  Conv. limit for RMS step   =         0.0015000000
  Convergence in RMS step    =                   NO
  Max. gradient              =         0.0018695962
  Conv. limit for gradients  =         0.0004500000
  Conv. for gradients        =                   NO
  RMS gradient               =         0.0004619974
  Conv. limit for RMS grad.  =         0.0003000000
  Conv. for gradients        =                   NO
 ---------------------------------------------------

 --------------------------
 OPTIMIZATION STEP:     27
 --------------------------

 Number of electrons:                                                        428
 Number of occupied orbitals:                                                217
 Number of molecular orbitals:                                               252

 Number of orbital functions:                                                976
 Number of independent orbital functions:                                    976

 Extrapolation method: PS Nth order


 SCF WAVEFUNCTION OPTIMIZATION

  Step     Update method      Time    Convergence         Total energy    Change
  ------------------------------------------------------------------------------
     1 Broy./Diag. 0.10E+00   27.0     0.01910270     -1284.5244993002 -1.28E+03
     2 Broy./Diag. 0.10E+00   14.9     0.00024209     -1284.5401462963 -1.56E-02
     3 Broy./Diag. 0.10E+00   11.3     0.00210855     -1284.5315718739  8.57E-03
     4 Broy./Diag. 0.10E+00   11.9     0.00020423     -1284.5178791726  1.37E-02
     5 Broy./Diag. 0.10E+00   12.2     0.00099778     -1284.5225428867 -4.66E-03
     6 Broy./Diag. 0.10E+00   12.3     0.00011143     -1284.5271243897 -4.58E-03
     7 Broy./Diag. 0.10E+00   13.1     0.00042053     -1284.5270980968  2.63E-05
     8 Broy./Diag. 0.10E+00   13.5     0.00007229     -1284.5262062557  8.92E-04
     9 Broy./Diag. 0.10E+00   13.9     0.00021266     -1284.5264471418 -2.41E-04
    10 Broy./Diag. 0.10E+00   14.6     0.00001394     -1284.5265881162 -1.41E-04
    11 Broy./Diag. 0.10E+00   14.6     0.00007306     -1284.5262819780  3.06E-04
    12 Broy./Diag. 0.10E+00   14.9     0.00000727     -1284.5260429071  2.39E-04
    13 Broy./Diag. 0.10E+00   14.7     0.00004242     -1284.5262286240 -1.86E-04
    14 Broy./Diag. 0.10E+00   14.8     0.00000367     -1284.5264585528 -2.30E-04
    15 Broy./Diag. 0.10E+00   14.4     0.00002133     -1284.5264570067  1.55E-06
    16 Broy./Diag. 0.10E+00   14.5     0.00000201     -1284.5264825991 -2.56E-05
    17 Broy./Diag. 0.10E+00   14.8     0.00001303     -1284.5264195442  6.31E-05
    18 Broy./Diag. 0.10E+00   14.8     0.00000127     -1284.5263729440  4.66E-05
    19 Broy./Diag. 0.10E+00   15.3     0.00000653     -1284.5264205205 -4.76E-05
    20 Broy./Diag. 0.10E+00   15.4     0.00000279     -1284.5264880635 -6.75E-05
    21 Broy./Diag. 0.10E+00   15.3     0.00000556     -1284.5264718531  1.62E-05
    22 Broy./Diag. 0.10E+00   15.2     0.00000089     -1284.5264537350  1.81E-05
    23 Broy./Diag. 0.10E+00   14.7     0.00000214     -1284.5264456098  8.13E-06
    24 Broy./Diag. 0.10E+00   14.8     0.00000029     -1284.5264421785  3.43E-06
    25 Broy./Diag. 0.10E+00   15.3     0.00000076     -1284.5264418134  3.65E-07
    26 Broy./Diag. 0.10E+00   15.7     0.00000012     -1284.5264460777 -4.26E-06
    27 Broy./Diag. 0.10E+00   15.0     0.00000044     -1284.5264509462 -4.87E-06
    28 Broy./Diag. 0.10E+00   14.8     0.00000009     -1284.5264570362 -6.09E-06

  *** SCF run converged in    28 steps ***


  Electronic density on regular grids:       -427.9999999962        0.0000000038
  Core density on regular grids:              427.9999993671       -0.0000006329
  Total charge density on r-space grids:       -0.0000006291
  Total charge density g-space grids:          -0.0000006291

  Overlap energy of the core charge distribution:               0.00000309930807
  Self energy of the core charge distribution:              -2253.28808377914038
  Core Hamiltonian energy:                                    717.43795446760578
  Hartree energy:                                             454.93752755156004
  Exchange-correlation energy:                               -203.28745958576386
  Dispersion energy:                                           -0.32639775426398
  Electronic entropic energy:                                  -0.00000103545855
  Fermi energy:                                                -0.16846880908401

  Total energy:                                             -1284.52645703615121

 ENERGY| Total FORCE_EVAL ( QS ) energy (a.u.):            -1284.526451802595602


 --------  Informations at step =    27 ------------
  Optimization Method        =                 BFGS
  Total Energy               =     -1284.5264518026
  Real energy change         =        -0.0003876187
  Predicted change in energy =        -0.0002974489
  Scaling factor             =         0.0000000000
  Step size                  =         0.0708568412
  Trust radius               =         0.4724315332
  Decrease in energy         =                  YES
  Used time                  =              511.544

  Convergence check :
  Max. step size             =         0.0708568412
  Conv. limit for step size  =         0.0030000000
  Convergence in step size   =                   NO
  RMS step size              =         0.0270503882
  Conv. limit for RMS step   =         0.0015000000
  Convergence in RMS step    =                   NO
  Max. gradient              =         0.0015458159
  Conv. limit for gradients  =         0.0004500000
  Conv. for gradients        =                   NO
  RMS gradient               =         0.0004604070
  Conv. limit for RMS grad.  =         0.0003000000
  Conv. for gradients        =                   NO
 ---------------------------------------------------

 --------------------------
 OPTIMIZATION STEP:     28
 --------------------------

 Number of electrons:                                                        428
 Number of occupied orbitals:                                                217
 Number of molecular orbitals:                                               252

 Number of orbital functions:                                                976
 Number of independent orbital functions:                                    976

 Extrapolation method: PS Nth order


 SCF WAVEFUNCTION OPTIMIZATION

  Step     Update method      Time    Convergence         Total energy    Change
  ------------------------------------------------------------------------------
     1 Broy./Diag. 0.10E+00    6.1     0.01698511     -1284.5256079351 -1.28E+03
     2 Broy./Diag. 0.10E+00   10.7     0.00026696     -1284.5496491182 -2.40E-02
     3 Broy./Diag. 0.10E+00   11.2     0.00222283     -1284.5387058995  1.09E-02
     4 Broy./Diag. 0.10E+00   11.5     0.00019109     -1284.5218330008  1.69E-02
     5 Broy./Diag. 0.10E+00   12.0     0.00091656     -1284.5253273009 -3.49E-03
     6 Broy./Diag. 0.10E+00   12.4     0.00009380     -1284.5283045088 -2.98E-03
     7 Broy./Diag. 0.10E+00   12.7     0.00033455     -1284.5281882947  1.16E-04
     8 Broy./Diag. 0.10E+00   13.9     0.00004484     -1284.5271699257  1.02E-03
     9 Broy./Diag. 0.10E+00   14.1     0.00015113     -1284.5275271587 -3.57E-04
    10 Broy./Diag. 0.10E+00   14.4     0.00001201     -1284.5275014752  2.57E-05
    11 Broy./Diag. 0.10E+00   14.8     0.00006837     -1284.5271756701  3.26E-04
    12 Broy./Diag. 0.10E+00   14.6     0.00000619     -1284.5266987143  4.77E-04
    13 Broy./Diag. 0.10E+00   14.7     0.00003647     -1284.5267867398 -8.80E-05
    14 Broy./Diag. 0.10E+00   14.8     0.00000274     -1284.5268505368 -6.38E-05
    15 Broy./Diag. 0.10E+00   14.6     0.00001973     -1284.5268931591 -4.26E-05
    16 Broy./Diag. 0.10E+00   14.5     0.00000170     -1284.5269399081 -4.67E-05
    17 Broy./Diag. 0.10E+00   14.6     0.00001089     -1284.5268650673  7.48E-05
    18 Broy./Diag. 0.10E+00   14.7     0.00000144     -1284.5268011532  6.39E-05
    19 Broy./Diag. 0.10E+00   15.1     0.00000624     -1284.5268409314 -3.98E-05
    20 Broy./Diag. 0.10E+00   15.1     0.00000244     -1284.5269009607 -6.00E-05
    21 Broy./Diag. 0.10E+00   15.3     0.00000463     -1284.5268965944  4.37E-06
    22 Broy./Diag. 0.10E+00   15.2     0.00000072     -1284.5268896084  6.99E-06
    23 Broy./Diag. 0.10E+00   15.3     0.00000164     -1284.5268862675  3.34E-06
    24 Broy./Diag. 0.10E+00   15.2     0.00000024     -1284.5268826027  3.66E-06
    25 Broy./Diag. 0.10E+00   15.3     0.00000073     -1284.5268756805  6.92E-06
    26 Broy./Diag. 0.10E+00   15.0     0.00000013     -1284.5268711853  4.50E-06
    27 Broy./Diag. 0.10E+00   14.8     0.00000043     -1284.5268741871 -3.00E-06
    28 Broy./Diag. 0.10E+00   14.5     0.00000010     -1284.5268785226 -4.34E-06

  *** SCF run converged in    28 steps ***


  Electronic density on regular grids:       -427.9999999937        0.0000000063
  Core density on regular grids:              427.9999993671       -0.0000006329
  Total charge density on r-space grids:       -0.0000006265
  Total charge density g-space grids:          -0.0000006265

  Overlap energy of the core charge distribution:               0.00000310469073
  Self energy of the core charge distribution:              -2253.28808377914038
  Core Hamiltonian energy:                                    717.42864726100743
  Hartree energy:                                             454.94222615379977
  Exchange-correlation energy:                               -203.28329497557249
  Dispersion energy:                                           -0.32637537020940
  Electronic entropic energy:                                  -0.00000091716562
  Fermi energy:                                                -0.16864973490342

  Total energy:                                             -1284.52687852258896

 ENERGY| Total FORCE_EVAL ( QS ) energy (a.u.):            -1284.526877156018372


 --------  Informations at step =    28 ------------
  Optimization Method        =                 BFGS
  Total Energy               =     -1284.5268771560
  Real energy change         =        -0.0004253534
  Predicted change in energy =        -0.0002748770
  Scaling factor             =         0.0000000000
  Step size                  =         0.0390795222
  Trust radius               =         0.4724315332
  Decrease in energy         =                  YES
  Used time                  =              403.726

  Convergence check :
  Max. step size             =         0.0390795222
  Conv. limit for step size  =         0.0030000000
  Convergence in step size   =                   NO
  RMS step size              =         0.0179030852
  Conv. limit for RMS step   =         0.0015000000
  Convergence in RMS step    =                   NO
  Max. gradient              =         0.0013267194
  Conv. limit for gradients  =         0.0004500000
  Conv. for gradients        =                   NO
  RMS gradient               =         0.0004562233
  Conv. limit for RMS grad.  =         0.0003000000
  Conv. for gradients        =                   NO
 ---------------------------------------------------

 --------------------------
 OPTIMIZATION STEP:     29
 --------------------------

 Number of electrons:                                                        428
 Number of occupied orbitals:                                                217
 Number of molecular orbitals:                                               252

 Number of orbital functions:                                                976
 Number of independent orbital functions:                                    976

 Extrapolation method: PS Nth order


 SCF WAVEFUNCTION OPTIMIZATION

  Step     Update method      Time    Convergence         Total energy    Change
  ------------------------------------------------------------------------------
     1 Broy./Diag. 0.10E+00    6.0     0.03307354     -1284.5212988723 -1.28E+03
     2 Broy./Diag. 0.10E+00   10.7     0.00048193     -1284.5923740267 -7.11E-02
     3 Broy./Diag. 0.10E+00   11.5     0.00411455     -1284.5619238294  3.05E-02
     4 Broy./Diag. 0.10E+00   14.3     0.00025233     -1284.5152825568  4.66E-02
     5 Broy./Diag. 0.10E+00   12.2     0.00129532     -1284.5229368272 -7.65E-03
     6 Broy./Diag. 0.10E+00   12.6     0.00017145     -1284.5292664894 -6.33E-03
     7 Broy./Diag. 0.10E+00   13.1     0.00060715     -1284.5300219214 -7.55E-04
     8 Broy./Diag. 0.10E+00   13.7     0.00010617     -1284.5288515585  1.17E-03
     9 Broy./Diag. 0.10E+00   13.8     0.00025265     -1284.5292382315 -3.87E-04
    10 Broy./Diag. 0.10E+00   14.7     0.00001471     -1284.5288470842  3.91E-04
    11 Broy./Diag. 0.10E+00   14.6     0.00008190     -1284.5280455797  8.02E-04
    12 Broy./Diag. 0.10E+00   14.7     0.00001282     -1284.5269234517  1.12E-03
    13 Broy./Diag. 0.10E+00   14.6     0.00008683     -1284.5273411577 -4.18E-04
    14 Broy./Diag. 0.10E+00   14.7     0.00000624     -1284.5276180397 -2.77E-04
    15 Broy./Diag. 0.10E+00   14.7     0.00003473     -1284.5275727433  4.53E-05
    16 Broy./Diag. 0.10E+00   14.8     0.00000257     -1284.5273910706  1.82E-04
    17 Broy./Diag. 0.10E+00   14.8     0.00001484     -1284.5272871737  1.04E-04
    18 Broy./Diag. 0.10E+00   14.8     0.00000178     -1284.5271903579  9.68E-05
    19 Broy./Diag. 0.10E+00   14.5     0.00000858     -1284.5272436971 -5.33E-05
    20 Broy./Diag. 0.10E+00   14.5     0.00000322     -1284.5273352831 -9.16E-05
    21 Broy./Diag. 0.10E+00   14.6     0.00000665     -1284.5273147144  2.06E-05
    22 Broy./Diag. 0.10E+00   14.6     0.00000127     -1284.5272981484  1.66E-05
    23 Broy./Diag. 0.10E+00   14.8     0.00000266     -1284.5272945887  3.56E-06
    24 Broy./Diag. 0.10E+00   15.0     0.00000045     -1284.5272948165 -2.28E-07
    25 Broy./Diag. 0.10E+00   15.3     0.00000107     -1284.5272868907  7.93E-06
    26 Broy./Diag. 0.10E+00   15.3     0.00000026     -1284.5272871810 -2.90E-07
    27 Broy./Diag. 0.10E+00   15.2     0.00000068     -1284.5273013816 -1.42E-05
    28 Broy./Diag. 0.10E+00   15.3     0.00000012     -1284.5273153651 -1.40E-05
    29 Broy./Diag. 0.10E+00   15.1     0.00000038     -1284.5273149188  4.46E-07
    30 Broy./Diag. 0.10E+00   15.2     0.00000015     -1284.5273126808  2.24E-06
    31 Broy./Diag. 0.10E+00   15.2     0.00000049     -1284.5273059797  6.70E-06
    32 Broy./Diag. 0.10E+00   14.8     0.00000014     -1284.5272989250  7.05E-06
    33 Broy./Diag. 0.10E+00   14.7     0.00000032     -1284.5273008885 -1.96E-06
    34 Broy./Diag. 0.10E+00   14.6     0.00000011     -1284.5273030394 -2.15E-06
    35 Broy./Diag. 0.10E+00   15.0     0.00000021     -1284.5273039981 -9.59E-07
    36 Broy./Diag. 0.10E+00   15.0     0.00000002     -1284.5273042450 -2.47E-07

  *** SCF run converged in    36 steps ***


  Electronic density on regular grids:       -427.9999999935        0.0000000065
  Core density on regular grids:              427.9999993681       -0.0000006319
  Total charge density on r-space grids:       -0.0000006253
  Total charge density g-space grids:          -0.0000006253

  Overlap energy of the core charge distribution:               0.00000292879284
  Self energy of the core charge distribution:              -2253.28808377914038
  Core Hamiltonian energy:                                    717.40582455056256
  Hartree energy:                                             454.95734601172700
  Exchange-correlation energy:                               -203.27615330906733
  Dispersion energy:                                           -0.32623991366114
  Electronic entropic energy:                                  -0.00000073422169
  Fermi energy:                                                -0.16903926193004

  Total energy:                                             -1284.52730424500783

 ENERGY| Total FORCE_EVAL ( QS ) energy (a.u.):            -1284.527303314085430


 --------  Informations at step =    29 ------------
  Optimization Method        =                 BFGS
  Total Energy               =     -1284.5273033141
  Real energy change         =        -0.0004261581
  Predicted change in energy =        -0.0004282441
  Scaling factor             =         0.0000000000
  Step size                  =         0.1055650118
  Trust radius               =         0.4724315332
  Decrease in energy         =                  YES
  Used time                  =              557.204

  Convergence check :
  Max. step size             =         0.1055650118
  Conv. limit for step size  =         0.0030000000
  Convergence in step size   =                   NO
  RMS step size              =         0.0424950489
  Conv. limit for RMS step   =         0.0015000000
  Convergence in RMS step    =                   NO
  Max. gradient              =         0.0039201874
  Conv. limit for gradients  =         0.0004500000
  Conv. for gradients        =                   NO
  RMS gradient               =         0.0008314586
  Conv. limit for RMS grad.  =         0.0003000000
  Conv. for gradients        =                   NO
 ---------------------------------------------------

 --------------------------
 OPTIMIZATION STEP:     30
 --------------------------

 Number of electrons:                                                        428
 Number of occupied orbitals:                                                217
 Number of molecular orbitals:                                               252

 Number of orbital functions:                                                976
 Number of independent orbital functions:                                    976

 Extrapolation method: PS Nth order


 SCF WAVEFUNCTION OPTIMIZATION

  Step     Update method      Time    Convergence         Total energy    Change
  ------------------------------------------------------------------------------
     1 Broy./Diag. 0.10E+00    5.6     0.03040580     -1284.5209423182 -1.28E+03
     2 Broy./Diag. 0.10E+00   10.8     0.00042908     -1284.5477160592 -2.68E-02
     3 Broy./Diag. 0.10E+00   16.8     0.00350641     -1284.5437585743  3.96E-03
     4 Broy./Diag. 0.10E+00   51.0     0.00024117     -1284.5375794178  6.18E-03
     5 Broy./Diag. 0.10E+00   28.1     0.00128082     -1284.5319931824  5.59E-03
     6 Broy./Diag. 0.10E+00   75.6     0.00021723     -1284.5252872602  6.71E-03
     7 Broy./Diag. 0.10E+00   13.2     0.00060820     -1284.5271601860 -1.87E-03
     8 Broy./Diag. 0.10E+00   13.9     0.00009959     -1284.5291706580 -2.01E-03
     9 Broy./Diag. 0.10E+00   14.7     0.00031793     -1284.5293065078 -1.36E-04
    10 Broy./Diag. 0.10E+00   15.1     0.00001475     -1284.5287212538  5.85E-04
    11 Broy./Diag. 0.10E+00   14.7     0.00009605     -1284.5286394113  8.18E-05
    12 Broy./Diag. 0.10E+00   14.6     0.00000669     -1284.5279390560  7.00E-04
    13 Broy./Diag. 0.10E+00   15.0     0.00003811     -1284.5279663697 -2.73E-05
    14 Broy./Diag. 0.10E+00   15.2     0.00000531     -1284.5277495345  2.17E-04
    15 Broy./Diag. 0.10E+00   15.3     0.00003945     -1284.5277267680  2.28E-05
    16 Broy./Diag. 0.10E+00   15.3     0.00000308     -1284.5276670179  5.98E-05
    17 Broy./Diag. 0.10E+00   15.4     0.00001843     -1284.5276372416  2.98E-05
    18 Broy./Diag. 0.10E+00   15.4     0.00000150     -1284.5275994410  3.78E-05
    19 Broy./Diag. 0.10E+00   15.4     0.00000789     -1284.5276040145 -4.57E-06
    20 Broy./Diag. 0.10E+00   15.2     0.00000191     -1284.5276248110 -2.08E-05
    21 Broy./Diag. 0.10E+00   15.2     0.00000501     -1284.5276449868 -2.02E-05
    22 Broy./Diag. 0.10E+00   14.6     0.00000145     -1284.5276617209 -1.67E-05
    23 Broy./Diag. 0.10E+00   15.0     0.00000298     -1284.5276377165  2.40E-05
    24 Broy./Diag. 0.10E+00   14.7     0.00000036     -1284.5276168614  2.09E-05
    25 Broy./Diag. 0.10E+00   15.2     0.00000100     -1284.5276133003  3.56E-06
    26 Broy./Diag. 0.10E+00   15.1     0.00000014     -1284.5276096265  3.67E-06
    27 Broy./Diag. 0.10E+00   15.3     0.00000062     -1284.5276140773 -4.45E-06
    28 Broy./Diag. 0.10E+00   15.4     0.00000008     -1284.5276153326 -1.26E-06

  *** SCF run converged in    28 steps ***


  Electronic density on regular grids:       -427.9999999928        0.0000000072
  Core density on regular grids:              427.9999993681       -0.0000006319
  Total charge density on r-space grids:       -0.0000006247
  Total charge density g-space grids:          -0.0000006247

  Overlap energy of the core charge distribution:               0.00000302633501
  Self energy of the core charge distribution:              -2253.28808377914038
  Core Hamiltonian energy:                                    717.41107896942822
  Hartree energy:                                             454.95354532634946
  Exchange-correlation energy:                               -203.27781649430239
  Dispersion energy:                                           -0.32634166254419
  Electronic entropic energy:                                  -0.00000071871782
  Fermi energy:                                                -0.16902598596631

  Total energy:                                             -1284.52761533259127

 ENERGY| Total FORCE_EVAL ( QS ) energy (a.u.):            -1284.527611204300683


 --------  Informations at step =    30 ------------
  Optimization Method        =                 BFGS
  Total Energy               =     -1284.5276112043
  Real energy change         =        -0.0003078902
  Predicted change in energy =        -0.0002006217
  Scaling factor             =         0.0000000000
  Step size                  =         0.0297255342
  Trust radius               =         0.4724315332
  Decrease in energy         =                  YES
  Used time                  =              545.993

  Convergence check :
  Max. step size             =         0.0297255342
  Conv. limit for step size  =         0.0030000000
  Convergence in step size   =                   NO
  RMS step size              =         0.0093341867
  Conv. limit for RMS step   =         0.0015000000
  Convergence in RMS step    =                   NO
  Max. gradient              =         0.0016844400
  Conv. limit for gradients  =         0.0004500000
  Conv. for gradients        =                   NO
  RMS gradient               =         0.0005115029
  Conv. limit for RMS grad.  =         0.0003000000
  Conv. for gradients        =                   NO
 ---------------------------------------------------

 --------------------------
 OPTIMIZATION STEP:     31
 --------------------------

 Number of electrons:                                                        428
 Number of occupied orbitals:                                                217
 Number of molecular orbitals:                                               252

 Number of orbital functions:                                                976
 Number of independent orbital functions:                                    976

 Extrapolation method: PS Nth order


 SCF WAVEFUNCTION OPTIMIZATION

  Step     Update method      Time    Convergence         Total energy    Change
  ------------------------------------------------------------------------------
     1 Broy./Diag. 0.10E+00    6.0     0.04180519     -1284.5212106634 -1.28E+03
     2 Broy./Diag. 0.10E+00   12.8     0.00058603     -1284.5953953908 -7.42E-02
     3 Broy./Diag. 0.10E+00   11.5     0.00429283     -1284.5607155904  3.47E-02
     4 Broy./Diag. 0.10E+00   11.6     0.00050847     -1284.5143577971  4.64E-02
     5 Broy./Diag. 0.10E+00   12.1     0.00172471     -1284.5206098952 -6.25E-03
     6 Broy./Diag. 0.10E+00   12.0     0.00010859     -1284.5274502966 -6.84E-03
     7 Broy./Diag. 0.10E+00   12.9     0.00044850     -1284.5303441089 -2.89E-03
     8 Broy./Diag. 0.10E+00   13.5     0.00005505     -1284.5308095095 -4.65E-04
     9 Broy./Diag. 0.10E+00   14.7     0.00028243     -1284.5299348148  8.75E-04
    10 Broy./Diag. 0.10E+00   15.4     0.00001245     -1284.5281705454  1.76E-03
    11 Broy./Diag. 0.10E+00   14.8     0.00007884     -1284.5280455010  1.25E-04
    12 Broy./Diag. 0.10E+00   14.7     0.00001120     -1284.5281483714 -1.03E-04
    13 Broy./Diag. 0.10E+00   15.5     0.00006783     -1284.5282393323 -9.10E-05
    14 Broy./Diag. 0.10E+00   15.7     0.00000462     -1284.5283130421 -7.37E-05
    15 Broy./Diag. 0.10E+00   15.2     0.00002481     -1284.5282900104  2.30E-05
    16 Broy./Diag. 0.10E+00   14.4     0.00000250     -1284.5281439236  1.46E-04
    17 Broy./Diag. 0.10E+00   14.8     0.00001526     -1284.5281494821 -5.56E-06
    18 Broy./Diag. 0.10E+00   14.6     0.00000259     -1284.5281424557  7.03E-06
    19 Broy./Diag. 0.10E+00   14.6     0.00001031     -1284.5281479656 -5.51E-06
    20 Broy./Diag. 0.10E+00   14.8     0.00000303     -1284.5281564506 -8.49E-06
    21 Broy./Diag. 0.10E+00   14.6     0.00000525     -1284.5281284938  2.80E-05
    22 Broy./Diag. 0.10E+00   14.3     0.00000099     -1284.5281118376  1.67E-05
    23 Broy./Diag. 0.10E+00   14.4     0.00000219     -1284.5281236923 -1.19E-05
    24 Broy./Diag. 0.10E+00   14.5     0.00000039     -1284.5281393708 -1.57E-05
    25 Broy./Diag. 0.10E+00   14.9     0.00000124     -1284.5281395003 -1.30E-07
    26 Broy./Diag. 0.10E+00   15.2     0.00000024     -1284.5281425687 -3.07E-06
    27 Broy./Diag. 0.10E+00   15.5     0.00000077     -1284.5281413311  1.24E-06
    28 Broy./Diag. 0.10E+00   15.2     0.00000012     -1284.5281409723  3.59E-07
    29 Broy./Diag. 0.10E+00   15.4     0.00000036     -1284.5281412423 -2.70E-07
    30 Broy./Diag. 0.10E+00   15.4     0.00000019     -1284.5281410810  1.61E-07
    31 Broy./Diag. 0.10E+00   15.2     0.00000053     -1284.5281388801  2.20E-06
    32 Broy./Diag. 0.10E+00   14.7     0.00000015     -1284.5281363647  2.52E-06
    33 Broy./Diag. 0.10E+00   14.5     0.00000029     -1284.5281369654 -6.01E-07
    34 Broy./Diag. 0.10E+00   14.7     0.00000006     -1284.5281372179 -2.53E-07

  *** SCF run converged in    34 steps ***


  Electronic density on regular grids:       -427.9999999944        0.0000000056
  Core density on regular grids:              427.9999993683       -0.0000006317
  Total charge density on r-space grids:       -0.0000006261
  Total charge density g-space grids:          -0.0000006261

  Overlap energy of the core charge distribution:               0.00000306596761
  Self energy of the core charge distribution:              -2253.28808377914038
  Core Hamiltonian energy:                                    717.41503485136366
  Hartree energy:                                             454.95311520547602
  Exchange-correlation energy:                               -203.28173441491288
  Dispersion energy:                                           -0.32647146799376
  Electronic entropic energy:                                  -0.00000067865966
  Fermi energy:                                                -0.16906536564359

  Total energy:                                             -1284.52813721789971

 ENERGY| Total FORCE_EVAL ( QS ) energy (a.u.):            -1284.528136465578655


 --------  Informations at step =    31 ------------
  Optimization Method        =                 BFGS
  Total Energy               =     -1284.5281364656
  Real energy change         =        -0.0005252613
  Predicted change in energy =        -0.0003881505
  Scaling factor             =         0.0000000000
  Step size                  =         0.0850296643
  Trust radius               =         0.4724315332
  Decrease in energy         =                  YES
  Used time                  =              528.425

  Convergence check :
  Max. step size             =         0.0850296643
  Conv. limit for step size  =         0.0030000000
  Convergence in step size   =                   NO
  RMS step size              =         0.0252091754
  Conv. limit for RMS step   =         0.0015000000
  Convergence in RMS step    =                   NO
  Max. gradient              =         0.0014257466
  Conv. limit for gradients  =         0.0004500000
  Conv. for gradients        =                   NO
  RMS gradient               =         0.0004300962
  Conv. limit for RMS grad.  =         0.0003000000
  Conv. for gradients        =                   NO
 ---------------------------------------------------

 --------------------------
 OPTIMIZATION STEP:     32
 --------------------------

 Number of electrons:                                                        428
 Number of occupied orbitals:                                                217
 Number of molecular orbitals:                                               252

 Number of orbital functions:                                                976
 Number of independent orbital functions:                                    976

 Extrapolation method: PS Nth order


 SCF WAVEFUNCTION OPTIMIZATION

  Step     Update method      Time    Convergence         Total energy    Change
  ------------------------------------------------------------------------------
     1 Broy./Diag. 0.10E+00    5.6     0.02707231     -1284.5253004143 -1.28E+03
     2 Broy./Diag. 0.10E+00   10.8     0.00039624     -1284.5330442968 -7.74E-03
     3 Broy./Diag. 0.10E+00   11.4     0.00352609     -1284.5335976390 -5.53E-04
     4 Broy./Diag. 0.10E+00   11.7     0.00032711     -1284.5378859450 -4.29E-03
     5 Broy./Diag. 0.10E+00   12.0     0.00156444     -1284.5332503929  4.64E-03
     6 Broy./Diag. 0.10E+00   12.2     0.00013694     -1284.5269185678  6.33E-03
     7 Broy./Diag. 0.10E+00   13.1     0.00051977     -1284.5286620067 -1.74E-03
     8 Broy./Diag. 0.10E+00   13.7     0.00006698     -1284.5301178604 -1.46E-03
     9 Broy./Diag. 0.10E+00   13.9     0.00027049     -1284.5300589825  5.89E-05
    10 Broy./Diag. 0.10E+00   14.7     0.00001416     -1284.5291964015  8.63E-04
    11 Broy./Diag. 0.10E+00   15.6     0.00008355     -1284.5291669351  2.95E-05
    12 Broy./Diag. 0.10E+00   15.5     0.00000762     -1284.5287818610  3.85E-04
    13 Broy./Diag. 0.10E+00   15.0     0.00004398     -1284.5287559561  2.59E-05
    14 Broy./Diag. 0.10E+00   14.5     0.00000520     -1284.5285178900  2.38E-04
    15 Broy./Diag. 0.10E+00   14.5     0.00003201     -1284.5285409108 -2.30E-05
    16 Broy./Diag. 0.10E+00   14.6     0.00000197     -1284.5285349060  6.00E-06
    17 Broy./Diag. 0.10E+00   14.8     0.00001319     -1284.5284931288  4.18E-05
    18 Broy./Diag. 0.10E+00   14.5     0.00000325     -1284.5284834906  9.64E-06
    19 Broy./Diag. 0.10E+00   14.8     0.00001012     -1284.5284532212  3.03E-05
    20 Broy./Diag. 0.10E+00   15.2     0.00000313     -1284.5284431787  1.00E-05
    21 Broy./Diag. 0.10E+00   15.2     0.00000539     -1284.5284803405 -3.72E-05
    22 Broy./Diag. 0.10E+00   15.5     0.00000118     -1284.5285098761 -2.95E-05
    23 Broy./Diag. 0.10E+00   15.2     0.00000212     -1284.5284970482  1.28E-05
    24 Broy./Diag. 0.10E+00   15.5     0.00000051     -1284.5284815432  1.55E-05
    25 Broy./Diag. 0.10E+00   15.3     0.00000110     -1284.5284731993  8.34E-06
    26 Broy./Diag. 0.10E+00   15.3     0.00000039     -1284.5284642900  8.91E-06
    27 Broy./Diag. 0.10E+00   15.3     0.00000078     -1284.5284651254 -8.35E-07
    28 Broy./Diag. 0.10E+00   14.9     0.00000018     -1284.5284634899  1.64E-06
    29 Broy./Diag. 0.10E+00   14.5     0.00000046     -1284.5284651008 -1.61E-06
    30 Broy./Diag. 0.10E+00   14.9     0.00000024     -1284.5284646482  4.53E-07
    31 Broy./Diag. 0.10E+00   14.8     0.00000057     -1284.5284646210  2.72E-08
    32 Broy./Diag. 0.10E+00   15.2     0.00000023     -1284.5284637381  8.83E-07
    33 Broy./Diag. 0.10E+00   15.0     0.00000037     -1284.5284612653  2.47E-06
    34 Broy./Diag. 0.10E+00   15.2     0.00000005     -1284.5284600073  1.26E-06

  *** SCF run converged in    34 steps ***


  Electronic density on regular grids:       -427.9999999963        0.0000000037
  Core density on regular grids:              427.9999993681       -0.0000006319
  Total charge density on r-space grids:       -0.0000006283
  Total charge density g-space grids:          -0.0000006283

  Overlap energy of the core charge distribution:               0.00000303398433
  Self energy of the core charge distribution:              -2253.28808377914038
  Core Hamiltonian energy:                                    717.41234882538333
  Hartree energy:                                             454.95573327986182
  Exchange-correlation energy:                               -203.28182273180931
  Dispersion energy:                                           -0.32663801859353
  Electronic entropic energy:                                  -0.00000061699548
  Fermi energy:                                                -0.16909192883463

  Total energy:                                             -1284.52846000730869

 ENERGY| Total FORCE_EVAL ( QS ) energy (a.u.):            -1284.528462028174545


 --------  Informations at step =    32 ------------
  Optimization Method        =                 BFGS
  Total Energy               =     -1284.5284620282
  Real energy change         =        -0.0003255626
  Predicted change in energy =        -0.0002404221
  Scaling factor             =         0.0000000000
  Step size                  =         0.0822817166
  Trust radius               =         0.4724315332
  Decrease in energy         =                  YES
  Used time                  =              497.620

  Convergence check :
  Max. step size             =         0.0822817166
  Conv. limit for step size  =         0.0030000000
  Convergence in step size   =                   NO
  RMS step size              =         0.0258953182
  Conv. limit for RMS step   =         0.0015000000
  Convergence in RMS step    =                   NO
  Max. gradient              =         0.0030586471
  Conv. limit for gradients  =         0.0004500000
  Conv. for gradients        =                   NO
  RMS gradient               =         0.0005551601
  Conv. limit for RMS grad.  =         0.0003000000
  Conv. for gradients        =                   NO
 ---------------------------------------------------

 --------------------------
 OPTIMIZATION STEP:     33
 --------------------------

 Number of electrons:                                                        428
 Number of occupied orbitals:                                                217
 Number of molecular orbitals:                                               252

 Number of orbital functions:                                                976
 Number of independent orbital functions:                                    976

 Extrapolation method: PS Nth order


 SCF WAVEFUNCTION OPTIMIZATION

  Step     Update method      Time    Convergence         Total energy    Change
  ------------------------------------------------------------------------------
     1 Broy./Diag. 0.10E+00    5.7     0.01778074     -1284.5272373732 -1.28E+03
     2 Broy./Diag. 0.10E+00   11.1     0.00017328     -1284.5143355097  1.29E-02
     3 Broy./Diag. 0.10E+00   11.5     0.00160402     -1284.5215359635 -7.20E-03
     4 Broy./Diag. 0.10E+00   11.7     0.00012698     -1284.5300343134 -8.50E-03
     5 Broy./Diag. 0.10E+00   11.9     0.00074956     -1284.5278767056  2.16E-03
     6 Broy./Diag. 0.10E+00   12.3     0.00007859     -1284.5258415152  2.04E-03
     7 Broy./Diag. 0.10E+00   12.6     0.00028291     -1284.5265015645 -6.60E-04
     8 Broy./Diag. 0.10E+00   12.9     0.00003053     -1284.5279171946 -1.42E-03
     9 Broy./Diag. 0.10E+00   13.6     0.00011555     -1284.5276552106  2.62E-04
    10 Broy./Diag. 0.10E+00   15.0     0.00000787     -1284.5279367484 -2.82E-04
    11 Broy./Diag. 0.10E+00   14.4     0.00004750     -1284.5280245225 -8.78E-05
    12 Broy./Diag. 0.10E+00   14.7     0.00000471     -1284.5284609437 -4.36E-04
    13 Broy./Diag. 0.10E+00   14.9     0.00002775     -1284.5284313587  2.96E-05
    14 Broy./Diag. 0.10E+00   15.2     0.00000354     -1284.5285548423 -1.23E-04
    15 Broy./Diag. 0.10E+00   15.2     0.00001757     -1284.5285621404 -7.30E-06
    16 Broy./Diag. 0.10E+00   15.3     0.00000115     -1284.5286329172 -7.08E-05
    17 Broy./Diag. 0.10E+00   15.1     0.00000714     -1284.5286604651 -2.75E-05
    18 Broy./Diag. 0.10E+00   15.4     0.00000167     -1284.5286876429 -2.72E-05
    19 Broy./Diag. 0.10E+00   15.3     0.00000722     -1284.5286662054  2.14E-05
    20 Broy./Diag. 0.10E+00   15.2     0.00000187     -1284.5286469106  1.93E-05
    21 Broy./Diag. 0.10E+00   14.7     0.00000326     -1284.5286594034 -1.25E-05
    22 Broy./Diag. 0.10E+00   14.7     0.00000071     -1284.5286703286 -1.09E-05
    23 Broy./Diag. 0.10E+00   14.6     0.00000131     -1284.5286665603  3.77E-06
    24 Broy./Diag. 0.10E+00   15.1     0.00000027     -1284.5286636178  2.94E-06
    25 Broy./Diag. 0.10E+00   15.2     0.00000064     -1284.5286651332 -1.52E-06
    26 Broy./Diag. 0.10E+00   15.1     0.00000020     -1284.5286684361 -3.30E-06
    27 Broy./Diag. 0.10E+00   15.2     0.00000055     -1284.5286667539  1.68E-06
    28 Broy./Diag. 0.10E+00   15.2     0.00000008     -1284.5286665341  2.20E-07

  *** SCF run converged in    28 steps ***


  Electronic density on regular grids:       -427.9999999951        0.0000000049
  Core density on regular grids:              427.9999993677       -0.0000006323
  Total charge density on r-space grids:       -0.0000006274
  Total charge density g-space grids:          -0.0000006274

  Overlap energy of the core charge distribution:               0.00000310203453
  Self energy of the core charge distribution:              -2253.28808377914038
  Core Hamiltonian energy:                                    717.42112430464863
  Hartree energy:                                             454.95024806653663
  Exchange-correlation energy:                               -203.28521436825241
  Dispersion energy:                                           -0.32674322479398
  Electronic entropic energy:                                  -0.00000063511113
  Fermi energy:                                                -0.16898025005528

  Total energy:                                             -1284.52866653407682

 ENERGY| Total FORCE_EVAL ( QS ) energy (a.u.):            -1284.528666745250803


 --------  Informations at step =    33 ------------
  Optimization Method        =                 BFGS
  Total Energy               =     -1284.5286667453
  Real energy change         =        -0.0002047171
  Predicted change in energy =        -0.0001579431
  Scaling factor             =         0.0000000000
  Step size                  =         0.0375629149
  Trust radius               =         0.4724315332
  Decrease in energy         =                  YES
  Used time                  =              406.035

  Convergence check :
  Max. step size             =         0.0375629149
  Conv. limit for step size  =         0.0030000000
  Convergence in step size   =                   NO
  RMS step size              =         0.0136808768
  Conv. limit for RMS step   =         0.0015000000
  Convergence in RMS step    =                   NO
  Max. gradient              =         0.0008376893
  Conv. limit for gradients  =         0.0004500000
  Conv. for gradients        =                   NO
  RMS gradient               =         0.0003070089
  Conv. limit for RMS grad.  =         0.0003000000
  Conv. for gradients        =                   NO
 ---------------------------------------------------

 --------------------------
 OPTIMIZATION STEP:     34
 --------------------------

 Number of electrons:                                                        428
 Number of occupied orbitals:                                                217
 Number of molecular orbitals:                                               252

 Number of orbital functions:                                                976
 Number of independent orbital functions:                                    976

 Extrapolation method: PS Nth order


 SCF WAVEFUNCTION OPTIMIZATION

  Step     Update method      Time    Convergence         Total energy    Change
  ------------------------------------------------------------------------------
     1 Broy./Diag. 0.10E+00    5.9     0.02957266     -1284.5264640526 -1.28E+03
     2 Broy./Diag. 0.10E+00   10.5     0.00043498     -1284.5319192450 -5.46E-03
     3 Broy./Diag. 0.10E+00   11.3     0.00317306     -1284.5264044003  5.51E-03
     4 Broy./Diag. 0.10E+00   11.7     0.00037885     -1284.5189852952  7.42E-03
     5 Broy./Diag. 0.10E+00   12.3     0.00119377     -1284.5243099149 -5.32E-03
     6 Broy./Diag. 0.10E+00   12.4     0.00003870     -1284.5295764972 -5.27E-03
     7 Broy./Diag. 0.10E+00   13.3     0.00021434     -1284.5297233572 -1.47E-04
     8 Broy./Diag. 0.10E+00   13.9     0.00001773     -1284.5288948387  8.29E-04
     9 Broy./Diag. 0.10E+00   14.6     0.00010781     -1284.5289323516 -3.75E-05
    10 Broy./Diag. 0.10E+00   14.9     0.00000757     -1284.5288788527  5.35E-05
    11 Broy./Diag. 0.10E+00   14.5     0.00005584     -1284.5288131588  6.57E-05
    12 Broy./Diag. 0.10E+00   14.5     0.00000404     -1284.5287838370  2.93E-05
    13 Broy./Diag. 0.10E+00   14.8     0.00002612     -1284.5288136936 -2.99E-05
    14 Broy./Diag. 0.10E+00   15.2     0.00000203     -1284.5288263274 -1.26E-05
    15 Broy./Diag. 0.10E+00   15.5     0.00001475     -1284.5288417030 -1.54E-05
    16 Broy./Diag. 0.10E+00   15.3     0.00000127     -1284.5288516002 -9.90E-06
    17 Broy./Diag. 0.10E+00   15.2     0.00000820     -1284.5288210970  3.05E-05
    18 Broy./Diag. 0.10E+00   15.5     0.00000173     -1284.5287902359  3.09E-05
    19 Broy./Diag. 0.10E+00   15.3     0.00000580     -1284.5288133619 -2.31E-05
    20 Broy./Diag. 0.10E+00   15.4     0.00000176     -1284.5288427068 -2.93E-05
    21 Broy./Diag. 0.10E+00   15.3     0.00000298     -1284.5288346683  8.04E-06
    22 Broy./Diag. 0.10E+00   14.7     0.00000076     -1284.5288256752  8.99E-06
    23 Broy./Diag. 0.10E+00   14.9     0.00000165     -1284.5288210517  4.62E-06
    24 Broy./Diag. 0.10E+00   14.8     0.00000027     -1284.5288173042  3.75E-06
    25 Broy./Diag. 0.10E+00   15.1     0.00000072     -1284.5288177435 -4.39E-07
    26 Broy./Diag. 0.10E+00   15.3     0.00000016     -1284.5288194234 -1.68E-06
    27 Broy./Diag. 0.10E+00   15.3     0.00000047     -1284.5288199029 -4.80E-07
    28 Broy./Diag. 0.10E+00   15.5     0.00000009     -1284.5288204958 -5.93E-07

  *** SCF run converged in    28 steps ***


  Electronic density on regular grids:       -427.9999999943        0.0000000057
  Core density on regular grids:              427.9999993679       -0.0000006321
  Total charge density on r-space grids:       -0.0000006264
  Total charge density g-space grids:          -0.0000006264

  Overlap energy of the core charge distribution:               0.00000299556203
  Self energy of the core charge distribution:              -2253.28808377914038
  Core Hamiltonian energy:                                    717.41350246713853
  Hartree energy:                                             454.95546841633075
  Exchange-correlation energy:                               -203.28291287013869
  Dispersion energy:                                           -0.32679711993775
  Electronic entropic energy:                                  -0.00000060557734
  Fermi energy:                                                -0.16900866522749

  Total energy:                                             -1284.52882049576192

 ENERGY| Total FORCE_EVAL ( QS ) energy (a.u.):            -1284.528819620265267


 --------  Informations at step =    34 ------------
  Optimization Method        =                 BFGS
  Total Energy               =     -1284.5288196203
  Real energy change         =        -0.0001528750
  Predicted change in energy =        -0.0001153137
  Scaling factor             =         0.0000000000
  Step size                  =         0.0529368224
  Trust radius               =         0.4724315332
  Decrease in energy         =                  YES
  Used time                  =              410.412

  Convergence check :
  Max. step size             =         0.0529368224
  Conv. limit for step size  =         0.0030000000
  Convergence in step size   =                   NO
  RMS step size              =         0.0188223720
  Conv. limit for RMS step   =         0.0015000000
  Convergence in RMS step    =                   NO
  Max. gradient              =         0.0035304430
  Conv. limit for gradients  =         0.0004500000
  Conv. for gradients        =                   NO
  RMS gradient               =         0.0005744616
  Conv. limit for RMS grad.  =         0.0003000000
  Conv. for gradients        =                   NO
 ---------------------------------------------------

 --------------------------
 OPTIMIZATION STEP:     35
 --------------------------

 Number of electrons:                                                        428
 Number of occupied orbitals:                                                217
 Number of molecular orbitals:                                               252

 Number of orbital functions:                                                976
 Number of independent orbital functions:                                    976

 Extrapolation method: PS Nth order


 SCF WAVEFUNCTION OPTIMIZATION

  Step     Update method      Time    Convergence         Total energy    Change
  ------------------------------------------------------------------------------
     1 Broy./Diag. 0.10E+00    6.0     0.01947961     -1284.5277915369 -1.28E+03
     2 Broy./Diag. 0.10E+00   10.8     0.00032372     -1284.5020742464  2.57E-02
     3 Broy./Diag. 0.10E+00   11.0     0.00246135     -1284.5170079001 -1.49E-02
     4 Broy./Diag. 0.10E+00   11.7     0.00032315     -1284.5315700928 -1.46E-02
     5 Broy./Diag. 0.10E+00   12.1     0.00112089     -1284.5290935081  2.48E-03
     6 Broy./Diag. 0.10E+00   12.5     0.00003422     -1284.5260870091  3.01E-03
     7 Broy./Diag. 0.10E+00   13.4     0.00022070     -1284.5265280051 -4.41E-04
     8 Broy./Diag. 0.10E+00   14.0     0.00001915     -1284.5280552232 -1.53E-03
     9 Broy./Diag. 0.10E+00   14.6     0.00011013     -1284.5277885436  2.67E-04
    10 Broy./Diag. 0.10E+00   15.3     0.00000573     -1284.5281901516 -4.02E-04
    11 Broy./Diag. 0.10E+00   14.7     0.00004024     -1284.5282275139 -3.74E-05
    12 Broy./Diag. 0.10E+00   14.5     0.00000419     -1284.5285770852 -3.50E-04
    13 Broy./Diag. 0.10E+00   14.4     0.00002700     -1284.5285981773 -2.11E-05
    14 Broy./Diag. 0.10E+00   14.6     0.00000344     -1284.5288180504 -2.20E-04
    15 Broy./Diag. 0.10E+00   14.7     0.00002003     -1284.5287928012  2.52E-05
    16 Broy./Diag. 0.10E+00   15.1     0.00000121     -1284.5288587963 -6.60E-05
    17 Broy./Diag. 0.10E+00   15.4     0.00000619     -1284.5289016230 -4.28E-05
    18 Broy./Diag. 0.10E+00   15.5     0.00000275     -1284.5289576512 -5.60E-05
    19 Broy./Diag. 0.10E+00   15.3     0.00000721     -1284.5289408521  1.68E-05
    20 Broy./Diag. 0.10E+00   15.2     0.00000107     -1284.5289230297  1.78E-05
    21 Broy./Diag. 0.10E+00   15.4     0.00000192     -1284.5289293314 -6.30E-06
    22 Broy./Diag. 0.10E+00   15.3     0.00000070     -1284.5289342419 -4.91E-06
    23 Broy./Diag. 0.10E+00   15.2     0.00000144     -1284.5289315867  2.66E-06
    24 Broy./Diag. 0.10E+00   15.1     0.00000041     -1284.5289296669  1.92E-06
    25 Broy./Diag. 0.10E+00   14.8     0.00000077     -1284.5289306529 -9.86E-07
    26 Broy./Diag. 0.10E+00   14.7     0.00000017     -1284.5289329541 -2.30E-06
    27 Broy./Diag. 0.10E+00   14.9     0.00000037     -1284.5289339696 -1.02E-06
    28 Broy./Diag. 0.10E+00   15.3     0.00000011     -1284.5289364151 -2.45E-06
    29 Broy./Diag. 0.10E+00   15.1     0.00000028     -1284.5289332320  3.18E-06
    30 Broy./Diag. 0.10E+00   15.2     0.00000014     -1284.5289327273  5.05E-07
    31 Broy./Diag. 0.10E+00   15.5     0.00000034     -1284.5289344875 -1.76E-06
    32 Broy./Diag. 0.10E+00   15.3     0.00000013     -1284.5289367119 -2.22E-06
    33 Broy./Diag. 0.10E+00   15.5     0.00000022     -1284.5289365775  1.34E-07
    34 Broy./Diag. 0.10E+00   15.3     0.00000004     -1284.5289363694  2.08E-07

  *** SCF run converged in    34 steps ***


  Electronic density on regular grids:       -427.9999999954        0.0000000046
  Core density on regular grids:              427.9999993676       -0.0000006324
  Total charge density on r-space grids:       -0.0000006277
  Total charge density g-space grids:          -0.0000006277

  Overlap energy of the core charge distribution:               0.00000302869043
  Self energy of the core charge distribution:              -2253.28808377914038
  Core Hamiltonian energy:                                    717.41707613602921
  Hartree energy:                                             454.95256628267725
  Exchange-correlation energy:                               -203.28368792368880
  Dispersion energy:                                           -0.32680950039206
  Electronic entropic energy:                                  -0.00000061354046
  Fermi energy:                                                -0.16897278252051

  Total energy:                                             -1284.52893636936437

 ENERGY| Total FORCE_EVAL ( QS ) energy (a.u.):            -1284.528936517490592


 --------  Informations at step =    35 ------------
  Optimization Method        =                 BFGS
  Total Energy               =     -1284.5289365175
  Real energy change         =        -0.0001168972
  Predicted change in energy =        -0.0000868635
  Scaling factor             =         0.0000000000
  Step size                  =         0.0265546166
  Trust radius               =         0.4724315332
  Decrease in energy         =                  YES
  Used time                  =              500.554

  Convergence check :
  Max. step size             =         0.0265546166
  Conv. limit for step size  =         0.0030000000
  Convergence in step size   =                   NO
  RMS step size              =         0.0122045788
  Conv. limit for RMS step   =         0.0015000000
  Convergence in RMS step    =                   NO
  Max. gradient              =         0.0022441418
  Conv. limit for gradients  =         0.0004500000
  Conv. for gradients        =                   NO
  RMS gradient               =         0.0003835294
  Conv. limit for RMS grad.  =         0.0003000000
  Conv. for gradients        =                   NO
 ---------------------------------------------------

 --------------------------
 OPTIMIZATION STEP:     36
 --------------------------

 Number of electrons:                                                        428
 Number of occupied orbitals:                                                217
 Number of molecular orbitals:                                               252

 Number of orbital functions:                                                976
 Number of independent orbital functions:                                    976

 Extrapolation method: PS Nth order


 SCF WAVEFUNCTION OPTIMIZATION

  Step     Update method      Time    Convergence         Total energy    Change
  ------------------------------------------------------------------------------
     1 Broy./Diag. 0.10E+00    6.0     0.00807268     -1284.5287466061 -1.28E+03
     2 Broy./Diag. 0.10E+00   10.9     0.00031636     -1284.5447089254 -1.60E-02
     3 Broy./Diag. 0.10E+00   11.2     0.00203709     -1284.5358707674  8.84E-03
     4 Broy./Diag. 0.10E+00   11.6     0.00020271     -1284.5272054822  8.67E-03
     5 Broy./Diag. 0.10E+00   12.1     0.00060060     -1284.5282898345 -1.08E-03
     6 Broy./Diag. 0.10E+00   12.6     0.00001732     -1284.5299703457 -1.68E-03
     7 Broy./Diag. 0.10E+00   12.5     0.00011912     -1284.5297950332  1.75E-04
     8 Broy./Diag. 0.10E+00   13.4     0.00000872     -1284.5291053420  6.90E-04
     9 Broy./Diag. 0.10E+00   14.1     0.00005670     -1284.5292237464 -1.18E-04
    10 Broy./Diag. 0.10E+00   14.6     0.00000312     -1284.5292983827 -7.46E-05
    11 Broy./Diag. 0.10E+00   14.6     0.00002276     -1284.5292096936  8.87E-05
    12 Broy./Diag. 0.10E+00   14.6     0.00000192     -1284.5290628850  1.47E-04
    13 Broy./Diag. 0.10E+00   14.7     0.00001309     -1284.5290933088 -3.04E-05
    14 Broy./Diag. 0.10E+00   15.0     0.00000129     -1284.5290926829  6.26E-07
    15 Broy./Diag. 0.10E+00   15.2     0.00000682     -1284.5290938642 -1.18E-06
    16 Broy./Diag. 0.10E+00   15.2     0.00000075     -1284.5290660562  2.78E-05
    17 Broy./Diag. 0.10E+00   15.2     0.00000431     -1284.5290538006  1.23E-05
    18 Broy./Diag. 0.10E+00   15.3     0.00000125     -1284.5290359220  1.79E-05
    19 Broy./Diag. 0.10E+00   15.2     0.00000273     -1284.5290489732 -1.31E-05
    20 Broy./Diag. 0.10E+00   14.8     0.00000082     -1284.5290610297 -1.21E-05
    21 Broy./Diag. 0.10E+00   14.5     0.00000101     -1284.5290573724  3.66E-06
    22 Broy./Diag. 0.10E+00   14.6     0.00000044     -1284.5290537085  3.66E-06
    23 Broy./Diag. 0.10E+00   15.1     0.00000072     -1284.5290544483 -7.40E-07
    24 Broy./Diag. 0.10E+00   15.1     0.00000026     -1284.5290539084  5.40E-07
    25 Broy./Diag. 0.10E+00   15.1     0.00000041     -1284.5290509411  2.97E-06
    26 Broy./Diag. 0.10E+00   15.4     0.00000013     -1284.5290484447  2.50E-06
    27 Broy./Diag. 0.10E+00   15.2     0.00000022     -1284.5290483511  9.37E-08
    28 Broy./Diag. 0.10E+00   45.8     0.00000007     -1284.5290481523  1.99E-07

  *** SCF run converged in    28 steps ***


  Electronic density on regular grids:       -427.9999999941        0.0000000059
  Core density on regular grids:              427.9999993680       -0.0000006320
  Total charge density on r-space grids:       -0.0000006260
  Total charge density g-space grids:          -0.0000006260

  Overlap energy of the core charge distribution:               0.00000306653463
  Self energy of the core charge distribution:              -2253.28808377914038
  Core Hamiltonian energy:                                    717.42219774429952
  Hartree energy:                                             454.94984400233534
  Exchange-correlation energy:                               -203.28614642702843
  Dispersion energy:                                           -0.32686211851570
  Electronic entropic energy:                                  -0.00000064078648
  Fermi energy:                                                -0.16891628756362

  Total energy:                                             -1284.52904815230113

 ENERGY| Total FORCE_EVAL ( QS ) energy (a.u.):            -1284.529047004673885


 --------  Informations at step =    36 ------------
  Optimization Method        =                 BFGS
  Total Energy               =     -1284.5290470047
  Real energy change         =        -0.0001104872
  Predicted change in energy =        -0.0000750029
  Scaling factor             =         0.0000000000
  Step size                  =         0.0216212296
  Trust radius               =         0.4724315332
  Decrease in energy         =                  YES
  Used time                  =              496.431

  Convergence check :
  Max. step size             =         0.0216212296
  Conv. limit for step size  =         0.0030000000
  Convergence in step size   =                   NO
  RMS step size              =         0.0077724745
  Conv. limit for RMS step   =         0.0015000000
  Convergence in RMS step    =                   NO
  Max. gradient              =         0.0013299819
  Conv. limit for gradients  =         0.0004500000
  Conv. for gradients        =                   NO
  RMS gradient               =         0.0002751882
  Conv. limit for RMS grad.  =         0.0003000000
  Conv. in RMS gradients     =                  YES
 ---------------------------------------------------

 --------------------------
 OPTIMIZATION STEP:     37
 --------------------------

 Number of electrons:                                                        428
 Number of occupied orbitals:                                                217
 Number of molecular orbitals:                                               252

 Number of orbital functions:                                                976
 Number of independent orbital functions:                                    976

 Extrapolation method: PS Nth order


 SCF WAVEFUNCTION OPTIMIZATION

  Step     Update method      Time    Convergence         Total energy    Change
  ------------------------------------------------------------------------------
     1 Broy./Diag. 0.10E+00  124.1     0.01653121     -1284.5285242756 -1.28E+03
     2 Broy./Diag. 0.10E+00   11.7     0.00008349     -1284.5540014151 -2.55E-02
     3 Broy./Diag. 0.10E+00   11.3     0.00077409     -1284.5417391277  1.23E-02
     4 Broy./Diag. 0.10E+00   11.9     0.00002930     -1284.5259876479  1.58E-02
     5 Broy./Diag. 0.10E+00   12.2     0.00022993     -1284.5280734734 -2.09E-03
     6 Broy./Diag. 0.10E+00   12.6     0.00002518     -1284.5305704787 -2.50E-03
     7 Broy./Diag. 0.10E+00   13.1     0.00014064     -1284.5301931579  3.77E-04
     8 Broy./Diag. 0.10E+00   13.5     0.00002409     -1284.5293172521  8.76E-04
     9 Broy./Diag. 0.10E+00   14.0     0.00006444     -1284.5292335803  8.37E-05
    10 Broy./Diag. 0.10E+00   14.8     0.00000647     -1284.5291397469  9.38E-05
    11 Broy./Diag. 0.10E+00   14.6     0.00002528     -1284.5290965265  4.32E-05
    12 Broy./Diag. 0.10E+00   14.6     0.00000308     -1284.5290937991  2.73E-06
    13 Broy./Diag. 0.10E+00   14.6     0.00001605     -1284.5291582335 -6.44E-05
    14 Broy./Diag. 0.10E+00   14.7     0.00000148     -1284.5292334700 -7.52E-05
    15 Broy./Diag. 0.10E+00   14.4     0.00000856     -1284.5292041115  2.94E-05
    16 Broy./Diag. 0.10E+00   14.5     0.00000085     -1284.5291427785  6.13E-05
    17 Broy./Diag. 0.10E+00   14.7     0.00000581     -1284.5291538807 -1.11E-05
    18 Broy./Diag. 0.10E+00   14.8     0.00000048     -1284.5291595500 -5.67E-06
    19 Broy./Diag. 0.10E+00   15.1     0.00000244     -1284.5291652667 -5.72E-06
    20 Broy./Diag. 0.10E+00   32.9     0.00000093     -1284.5291662100 -9.43E-07
    21 Broy./Diag. 0.10E+00   76.2     0.00000245     -1284.5291542309  1.20E-05
    22 Broy./Diag. 0.10E+00   77.3     0.00000050     -1284.5291438912  1.03E-05
    23 Broy./Diag. 0.10E+00   40.7     0.00000101     -1284.5291484445 -4.55E-06
    24 Broy./Diag. 0.10E+00   18.8     0.00000014     -1284.5291544282 -5.98E-06
    25 Broy./Diag. 0.10E+00   68.9     0.00000029     -1284.5291559486 -1.52E-06
    26 Broy./Diag. 0.10E+00   81.1     0.00000006     -1284.5291581252 -2.18E-06

  *** SCF run converged in    26 steps ***


  Electronic density on regular grids:       -427.9999999927        0.0000000073
  Core density on regular grids:              427.9999993687       -0.0000006313
  Total charge density on r-space grids:       -0.0000006240
  Total charge density g-space grids:          -0.0000006240

  Overlap energy of the core charge distribution:               0.00000308784864
  Self energy of the core charge distribution:              -2253.28808377914038
  Core Hamiltonian energy:                                    717.42468145163980
  Hartree energy:                                             454.94922399121231
  Exchange-correlation energy:                               -203.28814582826939
  Dispersion energy:                                           -0.32683638174609
  Electronic entropic energy:                                  -0.00000066672815
  Fermi energy:                                                -0.16888577163894

  Total energy:                                             -1284.52915812518404

 ENERGY| Total FORCE_EVAL ( QS ) energy (a.u.):            -1284.529155996219060


 --------  Informations at step =    37 ------------
  Optimization Method        =                 BFGS
  Total Energy               =     -1284.5291559962
  Real energy change         =        -0.0001089915
  Predicted change in energy =        -0.0000823923
  Scaling factor             =         0.0000000000
  Step size                  =         0.0261426867
  Trust radius               =         0.4724315332
  Decrease in energy         =                  YES
  Used time                  =              882.423

  Convergence check :
  Max. step size             =         0.0261426867
  Conv. limit for step size  =         0.0030000000
  Convergence in step size   =                   NO
  RMS step size              =         0.0103822118
  Conv. limit for RMS step   =         0.0015000000
  Convergence in RMS step    =                   NO
  Max. gradient              =         0.0011666681
  Conv. limit for gradients  =         0.0004500000
  Conv. for gradients        =                   NO
  RMS gradient               =         0.0002793499
  Conv. limit for RMS grad.  =         0.0003000000
  Conv. in RMS gradients     =                  YES
 ---------------------------------------------------

 --------------------------
 OPTIMIZATION STEP:     38
 --------------------------

 Number of electrons:                                                        428
 Number of occupied orbitals:                                                217
 Number of molecular orbitals:                                               252

 Number of orbital functions:                                                976
 Number of independent orbital functions:                                    976

 Extrapolation method: PS Nth order


 SCF WAVEFUNCTION OPTIMIZATION

  Step     Update method      Time    Convergence         Total energy    Change
  ------------------------------------------------------------------------------
     1 Broy./Diag. 0.10E+00   11.5     0.01074669     -1284.5288471801 -1.28E+03
     2 Broy./Diag. 0.10E+00   10.8     0.00017137     -1284.5367511630 -7.90E-03
     3 Broy./Diag. 0.10E+00   45.9     0.00134746     -1284.5354894482  1.26E-03
     4 Broy./Diag. 0.10E+00   66.2     0.00016963     -1284.5337051684  1.78E-03
     5 Broy./Diag. 0.10E+00   19.1     0.00064614     -1284.5315460664  2.16E-03
     6 Broy./Diag. 0.10E+00  117.6     0.00003111     -1284.5290924573  2.45E-03
     7 Broy./Diag. 0.10E+00   69.4     0.00015009     -1284.5296700028 -5.78E-04
     8 Broy./Diag. 0.10E+00   13.8     0.00001358     -1284.5302383144 -5.68E-04
     9 Broy./Diag. 0.10E+00   14.7     0.00006181     -1284.5300916247  1.47E-04
    10 Broy./Diag. 0.10E+00   15.8     0.00000515     -1284.5295395589  5.52E-04
    11 Broy./Diag. 0.10E+00   14.8     0.00003454     -1284.5295385945  9.64E-07
    12 Broy./Diag. 0.10E+00   14.8     0.00000248     -1284.5293027440  2.36E-04
    13 Broy./Diag. 0.10E+00   15.4     0.00001708     -1284.5293492931 -4.65E-05
    14 Broy./Diag. 0.10E+00   15.3     0.00000185     -1284.5293076480  4.16E-05
    15 Broy./Diag. 0.10E+00   15.4     0.00001030     -1284.5292812729  2.64E-05
    16 Broy./Diag. 0.10E+00   14.8     0.00000091     -1284.5292252614  5.60E-05
    17 Broy./Diag. 0.10E+00   14.8     0.00000499     -1284.5292381241 -1.29E-05
    18 Broy./Diag. 0.10E+00   14.8     0.00000167     -1284.5292638695 -2.57E-05
    19 Broy./Diag. 0.10E+00   15.2     0.00000467     -1284.5292486896  1.52E-05
    20 Broy./Diag. 0.10E+00   15.4     0.00000109     -1284.5292360244  1.27E-05
    21 Broy./Diag. 0.10E+00   15.3     0.00000170     -1284.5292428057 -6.78E-06
    22 Broy./Diag. 0.10E+00   15.4     0.00000045     -1284.5292483517 -5.55E-06
    23 Broy./Diag. 0.10E+00   15.2     0.00000088     -1284.5292441348  4.22E-06
    24 Broy./Diag. 0.10E+00   15.1     0.00000020     -1284.5292391028  5.03E-06
    25 Broy./Diag. 0.10E+00   15.1     0.00000047     -1284.5292377711  1.33E-06
    26 Broy./Diag. 0.10E+00   14.6     0.00000010     -1284.5292351542  2.62E-06
    27 Broy./Diag. 0.10E+00   14.8     0.00000025     -1284.5292363529 -1.20E-06
    28 Broy./Diag. 0.10E+00   15.1     0.00000007     -1284.5292355627  7.90E-07

  *** SCF run converged in    28 steps ***


  Electronic density on regular grids:       -427.9999999920        0.0000000080
  Core density on regular grids:              427.9999993684       -0.0000006316
  Total charge density on r-space grids:       -0.0000006236
  Total charge density g-space grids:          -0.0000006236

  Overlap energy of the core charge distribution:               0.00000317627879
  Self energy of the core charge distribution:              -2253.28808377914038
  Core Hamiltonian energy:                                    717.42914205697207
  Hartree energy:                                             454.94628127647707
  Exchange-correlation energy:                               -203.28967703864231
  Dispersion energy:                                           -0.32690056031221
  Electronic entropic energy:                                  -0.00000069430315
  Fermi energy:                                                -0.16883161379847

  Total energy:                                             -1284.52923556266978

 ENERGY| Total FORCE_EVAL ( QS ) energy (a.u.):            -1284.529232884735620


 --------  Informations at step =    38 ------------
  Optimization Method        =                 BFGS
  Total Energy               =     -1284.5292328847
  Real energy change         =        -0.0000768885
  Predicted change in energy =        -0.0000556940
  Scaling factor             =         0.0000000000
  Step size                  =         0.0245651845
  Trust radius               =         0.4724315332
  Decrease in energy         =                  YES
  Used time                  =              674.564

  Convergence check :
  Max. step size             =         0.0245651845
  Conv. limit for step size  =         0.0030000000
  Convergence in step size   =                   NO
  RMS step size              =         0.0083359527
  Conv. limit for RMS step   =         0.0015000000
  Convergence in RMS step    =                   NO
  Max. gradient              =         0.0010637297
  Conv. limit for gradients  =         0.0004500000
  Conv. for gradients        =                   NO
  RMS gradient               =         0.0002523956
  Conv. limit for RMS grad.  =         0.0003000000
  Conv. in RMS gradients     =                  YES
 ---------------------------------------------------

 --------------------------
 OPTIMIZATION STEP:     39
 --------------------------

 Number of electrons:                                                        428
 Number of occupied orbitals:                                                217
 Number of molecular orbitals:                                               252

 Number of orbital functions:                                                976
 Number of independent orbital functions:                                    976

 Extrapolation method: PS Nth order


 SCF WAVEFUNCTION OPTIMIZATION

  Step     Update method      Time    Convergence         Total energy    Change
  ------------------------------------------------------------------------------
     1 Broy./Diag. 0.10E+00    5.6     0.03166022     -1284.5274528023 -1.28E+03
     2 Broy./Diag. 0.10E+00   10.8     0.00028092     -1284.5591198014 -3.17E-02
     3 Broy./Diag. 0.10E+00   11.3     0.00222114     -1284.5422471889  1.69E-02
     4 Broy./Diag. 0.10E+00   11.6     0.00029112     -1284.5227032616  1.95E-02
     5 Broy./Diag. 0.10E+00   11.9     0.00102953     -1284.5259135729 -3.21E-03
     6 Broy./Diag. 0.10E+00   12.2     0.00003326     -1284.5297535306 -3.84E-03
     7 Broy./Diag. 0.10E+00   13.1     0.00016497     -1284.5301957221 -4.42E-04
     8 Broy./Diag. 0.10E+00   13.0     0.00001711     -1284.5298885616  3.07E-04
     9 Broy./Diag. 0.10E+00   14.4     0.00010063     -1284.5296934991  1.95E-04
    10 Broy./Diag. 0.10E+00   15.4     0.00000686     -1284.5292627052  4.31E-04
    11 Broy./Diag. 0.10E+00   15.4     0.00004253     -1284.5291967311  6.60E-05
    12 Broy./Diag. 0.10E+00   15.3     0.00000472     -1284.5291886476  8.08E-06
    13 Broy./Diag. 0.10E+00   15.3     0.00003096     -1284.5292799296 -9.13E-05
    14 Broy./Diag. 0.10E+00   15.3     0.00000242     -1284.5294158206 -1.36E-04
    15 Broy./Diag. 0.10E+00   15.3     0.00001395     -1284.5293627977  5.30E-05
    16 Broy./Diag. 0.10E+00   15.1     0.00000150     -1284.5293077438  5.51E-05
    17 Broy./Diag. 0.10E+00   15.0     0.00000884     -1284.5293074100  3.34E-07
    18 Broy./Diag. 0.10E+00   15.0     0.00000217     -1284.5293198024 -1.24E-05
    19 Broy./Diag. 0.10E+00   15.5     0.00000708     -1284.5293324497 -1.26E-05
    20 Broy./Diag. 0.10E+00   14.8     0.00000169     -1284.5293445826 -1.21E-05
    21 Broy./Diag. 0.10E+00   14.7     0.00000254     -1284.5293264036  1.82E-05
    22 Broy./Diag. 0.10E+00   14.7     0.00000102     -1284.5293125966  1.38E-05
    23 Broy./Diag. 0.10E+00   15.5     0.00000195     -1284.5293147059 -2.11E-06
    24 Broy./Diag. 0.10E+00   15.6     0.00000043     -1284.5293193994 -4.69E-06
    25 Broy./Diag. 0.10E+00   15.1     0.00000099     -1284.5293222111 -2.81E-06
    26 Broy./Diag. 0.10E+00   15.2     0.00000021     -1284.5293263300 -4.12E-06
    27 Broy./Diag. 0.10E+00   15.2     0.00000052     -1284.5293265174 -1.87E-07
    28 Broy./Diag. 0.10E+00   15.0     0.00000011     -1284.5293264675  4.99E-08
    29 Broy./Diag. 0.10E+00   14.6     0.00000031     -1284.5293255392  9.28E-07
    30 Broy./Diag. 0.10E+00   14.7     0.00000009     -1284.5293245542  9.85E-07

  *** SCF run converged in    30 steps ***


  Electronic density on regular grids:       -427.9999999951        0.0000000049
  Core density on regular grids:              427.9999993678       -0.0000006322
  Total charge density on r-space grids:       -0.0000006274
  Total charge density g-space grids:          -0.0000006274

  Overlap energy of the core charge distribution:               0.00000306023609
  Self energy of the core charge distribution:              -2253.28808377914038
  Core Hamiltonian energy:                                    717.41855589576278
  Hartree energy:                                             454.95372124517337
  Exchange-correlation energy:                               -203.28660870439589
  Dispersion energy:                                           -0.32691156547906
  Electronic entropic energy:                                  -0.00000070635158
  Fermi energy:                                                -0.16887372624174

  Total energy:                                             -1284.52932455419455

 ENERGY| Total FORCE_EVAL ( QS ) energy (a.u.):            -1284.529324329769906


 --------  Informations at step =    39 ------------
  Optimization Method        =                 BFGS
  Total Energy               =     -1284.5293243298
  Real energy change         =        -0.0000914450
  Predicted change in energy =        -0.0000711765
  Scaling factor             =         0.0000000000
  Step size                  =         0.0473132528
  Trust radius               =         0.4724315332
  Decrease in energy         =                  YES
  Used time                  =              439.255

  Convergence check :
  Max. step size             =         0.0473132528
  Conv. limit for step size  =         0.0030000000
  Convergence in step size   =                   NO
  RMS step size              =         0.0170499568
  Conv. limit for RMS step   =         0.0015000000
  Convergence in RMS step    =                   NO
  Max. gradient              =         0.0029722632
  Conv. limit for gradients  =         0.0004500000
  Conv. for gradients        =                   NO
  RMS gradient               =         0.0005171142
  Conv. limit for RMS grad.  =         0.0003000000
  Conv. for gradients        =                   NO
 ---------------------------------------------------

 --------------------------
 OPTIMIZATION STEP:     40
 --------------------------

 Number of electrons:                                                        428
 Number of occupied orbitals:                                                217
 Number of molecular orbitals:                                               252

 Number of orbital functions:                                                976
 Number of independent orbital functions:                                    976

 Extrapolation method: PS Nth order


 SCF WAVEFUNCTION OPTIMIZATION

  Step     Update method      Time    Convergence         Total energy    Change
  ------------------------------------------------------------------------------
     1 Broy./Diag. 0.10E+00    5.6     0.02217291     -1284.5278335652 -1.28E+03
     2 Broy./Diag. 0.10E+00   10.8     0.00051975     -1284.4901771316  3.77E-02
     3 Broy./Diag. 0.10E+00   11.3     0.00367669     -1284.5131815942 -2.30E-02
     4 Broy./Diag. 0.10E+00   11.8     0.00051170     -1284.5330500151 -1.99E-02
     5 Broy./Diag. 0.10E+00   11.8     0.00153140     -1284.5309896965  2.06E-03
     6 Broy./Diag. 0.10E+00   12.3     0.00004074     -1284.5273034199  3.69E-03
     7 Broy./Diag. 0.10E+00   13.3     0.00023006     -1284.5281396272 -8.36E-04
     8 Broy./Diag. 0.10E+00   13.7     0.00002603     -1284.5297906622 -1.65E-03
     9 Broy./Diag. 0.10E+00   13.9     0.00015670     -1284.5295373060  2.53E-04
    10 Broy./Diag. 0.10E+00   15.0     0.00001045     -1284.5292450198  2.92E-04
    11 Broy./Diag. 0.10E+00   15.2     0.00006201     -1284.5293259948 -8.10E-05
    12 Broy./Diag. 0.10E+00   15.2     0.00000578     -1284.5293237288  2.27E-06
    13 Broy./Diag. 0.10E+00   15.4     0.00003783     -1284.5293845779 -6.08E-05
    14 Broy./Diag. 0.10E+00   15.4     0.00000373     -1284.5294452403 -6.07E-05
    15 Broy./Diag. 0.10E+00   15.6     0.00002209     -1284.5293995677  4.57E-05
    16 Broy./Diag. 0.10E+00   15.3     0.00000171     -1284.5293676802  3.19E-05
    17 Broy./Diag. 0.10E+00   15.5     0.00000936     -1284.5294059155 -3.82E-05
    18 Broy./Diag. 0.10E+00   15.4     0.00000393     -1284.5294732386 -6.73E-05
    19 Broy./Diag. 0.10E+00   15.2     0.00000915     -1284.5294443331  2.89E-05
    20 Broy./Diag. 0.10E+00   14.9     0.00000158     -1284.5294172085  2.71E-05
    21 Broy./Diag. 0.10E+00   14.8     0.00000228     -1284.5294196921 -2.48E-06
    22 Broy./Diag. 0.10E+00   15.0     0.00000062     -1284.5294241276 -4.44E-06
    23 Broy./Diag. 0.10E+00   15.3     0.00000140     -1284.5294193496  4.78E-06
    24 Broy./Diag. 0.10E+00   15.7     0.00000034     -1284.5294148611  4.49E-06
    25 Broy./Diag. 0.10E+00   15.6     0.00000077     -1284.5294157812 -9.20E-07
    26 Broy./Diag. 0.10E+00   14.5     0.00000017     -1284.5294159056 -1.24E-07
    27 Broy./Diag. 0.10E+00   14.9     0.00000046     -1284.5294174690 -1.56E-06
    28 Broy./Diag. 0.10E+00   15.1     0.00000016     -1284.5294178983 -4.29E-07
    29 Broy./Diag. 0.10E+00   15.4     0.00000045     -1284.5294144133  3.49E-06
    30 Broy./Diag. 0.10E+00   15.1     0.00000017     -1284.5294114380  2.98E-06
    31 Broy./Diag. 0.10E+00   15.0     0.00000042     -1284.5294135064 -2.07E-06
    32 Broy./Diag. 0.10E+00   15.0     0.00000013     -1284.5294156033 -2.10E-06
    33 Broy./Diag. 0.10E+00   15.0     0.00000024     -1284.5294152270  3.76E-07
    34 Broy./Diag. 0.10E+00   15.2     0.00000006     -1284.5294147091  5.18E-07

  *** SCF run converged in    34 steps ***


  Electronic density on regular grids:       -427.9999999969        0.0000000031
  Core density on regular grids:              427.9999993682       -0.0000006318
  Total charge density on r-space grids:       -0.0000006287
  Total charge density g-space grids:          -0.0000006287

  Overlap energy of the core charge distribution:               0.00000318423189
  Self energy of the core charge distribution:              -2253.28808377914038
  Core Hamiltonian energy:                                    717.42376824615098
  Hartree energy:                                             454.94887621835204
  Exchange-correlation energy:                               -203.28701882311702
  Dispersion energy:                                           -0.32695902214387
  Electronic entropic energy:                                  -0.00000073345992
  Fermi energy:                                                -0.16884997112189

  Total energy:                                             -1284.52941470912583

 ENERGY| Total FORCE_EVAL ( QS ) energy (a.u.):            -1284.529414169952588


 --------  Informations at step =    40 ------------
  Optimization Method        =                 BFGS
  Total Energy               =     -1284.5294141700
  Real energy change         =        -0.0000898402
  Predicted change in energy =        -0.0000737801
  Scaling factor             =         0.0000000000
  Step size                  =         0.0493279186
  Trust radius               =         0.4724315332
  Decrease in energy         =                  YES
  Used time                  =              502.071

  Convergence check :
  Max. step size             =         0.0493279186
  Conv. limit for step size  =         0.0030000000
  Convergence in step size   =                   NO
  RMS step size              =         0.0145827183
  Conv. limit for RMS step   =         0.0015000000
  Convergence in RMS step    =                   NO
  Max. gradient              =         0.0010939293
  Conv. limit for gradients  =         0.0004500000
  Conv. for gradients        =                   NO
  RMS gradient               =         0.0002830516
  Conv. limit for RMS grad.  =         0.0003000000
  Conv. in RMS gradients     =                  YES
 ---------------------------------------------------

 --------------------------
 OPTIMIZATION STEP:     41
 --------------------------

 Number of electrons:                                                        428
 Number of occupied orbitals:                                                217
 Number of molecular orbitals:                                               252

 Number of orbital functions:                                                976
 Number of independent orbital functions:                                    976

 Extrapolation method: PS Nth order


 SCF WAVEFUNCTION OPTIMIZATION

  Step     Update method      Time    Convergence         Total energy    Change
  ------------------------------------------------------------------------------
     1 Broy./Diag. 0.10E+00    5.7     0.02150970     -1284.5284284823 -1.28E+03
     2 Broy./Diag. 0.10E+00   10.9     0.00069539     -1284.5744915780 -4.61E-02
     3 Broy./Diag. 0.10E+00   11.2     0.00414953     -1284.5524889043  2.20E-02
     4 Broy./Diag. 0.10E+00   11.5     0.00040424     -1284.5304084176  2.21E-02
     5 Broy./Diag. 0.10E+00   12.0     0.00112545     -1284.5299239469  4.84E-04
     6 Broy./Diag. 0.10E+00   12.3     0.00002317     -1284.5313215621 -1.40E-03
     7 Broy./Diag. 0.10E+00   13.1     0.00016934     -1284.5311420796  1.79E-04
     8 Broy./Diag. 0.10E+00   13.1     0.00001434     -1284.5296337186  1.51E-03
     9 Broy./Diag. 0.10E+00   14.3     0.00009641     -1284.5299083735 -2.75E-04
    10 Broy./Diag. 0.10E+00   15.3     0.00000649     -1284.5298633157  4.51E-05
    11 Broy./Diag. 0.10E+00   15.4     0.00004552     -1284.5297256774  1.38E-04
    12 Broy./Diag. 0.10E+00   15.4     0.00000341     -1284.5294942027  2.31E-04
    13 Broy./Diag. 0.10E+00   15.2     0.00002408     -1284.5295567880 -6.26E-05
    14 Broy./Diag. 0.10E+00   15.1     0.00000312     -1284.5296149003 -5.81E-05
    15 Broy./Diag. 0.10E+00   14.7     0.00001818     -1284.5296095500  5.35E-06
    16 Broy./Diag. 0.10E+00   14.6     0.00000207     -1284.5295688691  4.07E-05
    17 Broy./Diag. 0.10E+00   14.7     0.00000827     -1284.5295333401  3.55E-05
    18 Broy./Diag. 0.10E+00   14.6     0.00000420     -1284.5294917939  4.15E-05
    19 Broy./Diag. 0.10E+00   14.7     0.00000574     -1284.5295035004 -1.17E-05
    20 Broy./Diag. 0.10E+00   14.8     0.00000217     -1284.5295107708 -7.27E-06
    21 Broy./Diag. 0.10E+00   14.6     0.00000215     -1284.5294975361  1.32E-05
    22 Broy./Diag. 0.10E+00   14.4     0.00000118     -1284.5294891223  8.41E-06
    23 Broy./Diag. 0.10E+00   14.5     0.00000112     -1284.5294912502 -2.13E-06
    24 Broy./Diag. 0.10E+00   14.5     0.00000091     -1284.5294905614  6.89E-07
    25 Broy./Diag. 0.10E+00   14.9     0.00000080     -1284.5294862913  4.27E-06
    26 Broy./Diag. 0.10E+00   15.4     0.00000052     -1284.5294844468  1.84E-06
    27 Broy./Diag. 0.10E+00   14.6     0.00000057     -1284.5294865919 -2.15E-06
    28 Broy./Diag. 0.10E+00   14.9     0.00000036     -1284.5294884370 -1.85E-06
    29 Broy./Diag. 0.10E+00   15.7     0.00000054     -1284.5294894425 -1.01E-06
    30 Broy./Diag. 0.10E+00   15.3     0.00000016     -1284.5294891751  2.67E-07
    31 Broy./Diag. 0.10E+00   14.6     0.00000026     -1284.5294872728  1.90E-06
    32 Broy./Diag. 0.10E+00   14.8     0.00000018     -1284.5294858930  1.38E-06
    33 Broy./Diag. 0.10E+00   14.6     0.00000022     -1284.5294867432 -8.50E-07
    34 Broy./Diag. 0.10E+00   14.7     0.00000005     -1284.5294871698 -4.27E-07

  *** SCF run converged in    34 steps ***


  Electronic density on regular grids:       -427.9999999972        0.0000000028
  Core density on regular grids:              427.9999993680       -0.0000006320
  Total charge density on r-space grids:       -0.0000006292
  Total charge density g-space grids:          -0.0000006292

  Overlap energy of the core charge distribution:               0.00000307789181
  Self energy of the core charge distribution:              -2253.28808377914038
  Core Hamiltonian energy:                                    717.41904772202133
  Hartree energy:                                             454.95309340255437
  Exchange-correlation energy:                               -203.28653003726268
  Dispersion energy:                                           -0.32701679069621
  Electronic entropic energy:                                  -0.00000076519156
  Fermi energy:                                                -0.16889718281126

  Total energy:                                             -1284.52948716982314

 ENERGY| Total FORCE_EVAL ( QS ) energy (a.u.):            -1284.529486506537296


 --------  Informations at step =    41 ------------
  Optimization Method        =                 BFGS
  Total Energy               =     -1284.5294865065
  Real energy change         =        -0.0000723366
  Predicted change in energy =        -0.0000573116
  Scaling factor             =         0.0000000000
  Step size                  =         0.0408493366
  Trust radius               =         0.4724315332
  Decrease in energy         =                  YES
  Used time                  =              493.910

  Convergence check :
  Max. step size             =         0.0408493366
  Conv. limit for step size  =         0.0030000000
  Convergence in step size   =                   NO
  RMS step size              =         0.0127285670
  Conv. limit for RMS step   =         0.0015000000
  Convergence in RMS step    =                   NO
  Max. gradient              =         0.0020345780
  Conv. limit for gradients  =         0.0004500000
  Conv. for gradients        =                   NO
  RMS gradient               =         0.0003817607
  Conv. limit for RMS grad.  =         0.0003000000
  Conv. for gradients        =                   NO
 ---------------------------------------------------

 --------------------------
 OPTIMIZATION STEP:     42
 --------------------------

 Number of electrons:                                                        428
 Number of occupied orbitals:                                                217
 Number of molecular orbitals:                                               252

 Number of orbital functions:                                                976
 Number of independent orbital functions:                                    976

 Extrapolation method: PS Nth order


 SCF WAVEFUNCTION OPTIMIZATION

  Step     Update method      Time    Convergence         Total energy    Change
  ------------------------------------------------------------------------------
     1 Broy./Diag. 0.10E+00    6.1     0.01838122     -1284.5287996966 -1.28E+03
     2 Broy./Diag. 0.10E+00   10.6     0.00046137     -1284.5247301709  4.07E-03
     3 Broy./Diag. 0.10E+00   11.5     0.00272539     -1284.5328531192 -8.12E-03
     4 Broy./Diag. 0.10E+00   11.9     0.00030090     -1284.5328227700  3.03E-05
     5 Broy./Diag. 0.10E+00   12.3     0.00092288     -1284.5316167588  1.21E-03
     6 Broy./Diag. 0.10E+00   12.3     0.00002374     -1284.5274988474  4.12E-03
     7 Broy./Diag. 0.10E+00   12.8     0.00013550     -1284.5300122624 -2.51E-03
     8 Broy./Diag. 0.10E+00   14.0     0.00001607     -1284.5319289331 -1.92E-03
     9 Broy./Diag. 0.10E+00   14.1     0.00010672     -1284.5315161452  4.13E-04
    10 Broy./Diag. 0.10E+00   15.0     0.00000477     -1284.5301354695  1.38E-03
    11 Broy./Diag. 0.10E+00   15.0     0.00003061     -1284.5300766189  5.89E-05
    12 Broy./Diag. 0.10E+00   14.7     0.00000410     -1284.5295840648  4.93E-04
    13 Broy./Diag. 0.10E+00   14.8     0.00002556     -1284.5298121590 -2.28E-04
    14 Broy./Diag. 0.10E+00   14.7     0.00000270     -1284.5298508327 -3.87E-05
    15 Broy./Diag. 0.10E+00   15.0     0.00001673     -1284.5297498893  1.01E-04
    16 Broy./Diag. 0.10E+00   14.7     0.00000154     -1284.5295612476  1.89E-04
    17 Broy./Diag. 0.10E+00   14.7     0.00000839     -1284.5295913058 -3.01E-05
    18 Broy./Diag. 0.10E+00   14.4     0.00000259     -1284.5296394552 -4.81E-05
    19 Broy./Diag. 0.10E+00   14.5     0.00000727     -1284.5296135401  2.59E-05
    20 Broy./Diag. 0.10E+00   14.7     0.00000159     -1284.5295858433  2.77E-05
    21 Broy./Diag. 0.10E+00   14.8     0.00000210     -1284.5295869515 -1.11E-06
    22 Broy./Diag. 0.10E+00   15.3     0.00000092     -1284.5295888619 -1.91E-06
    23 Broy./Diag. 0.10E+00   15.5     0.00000199     -1284.5295807731  8.09E-06
    24 Broy./Diag. 0.10E+00   15.3     0.00000040     -1284.5295739066  6.87E-06
    25 Broy./Diag. 0.10E+00   15.1     0.00000094     -1284.5295744885 -5.82E-07
    26 Broy./Diag. 0.10E+00   15.4     0.00000026     -1284.5295749034 -4.15E-07
    27 Broy./Diag. 0.10E+00   15.1     0.00000059     -1284.5295811037 -6.20E-06
    28 Broy./Diag. 0.10E+00   15.0     0.00000011     -1284.5295847007 -3.60E-06
    29 Broy./Diag. 0.10E+00   14.6     0.00000031     -1284.5295811737  3.53E-06
    30 Broy./Diag. 0.10E+00   15.2     0.00000008     -1284.5295776133  3.56E-06

  *** SCF run converged in    30 steps ***


  Electronic density on regular grids:       -427.9999999969        0.0000000031
  Core density on regular grids:              427.9999993683       -0.0000006317
  Total charge density on r-space grids:       -0.0000006287
  Total charge density g-space grids:          -0.0000006287

  Overlap energy of the core charge distribution:               0.00000320060621
  Self energy of the core charge distribution:              -2253.28808377914038
  Core Hamiltonian energy:                                    717.43036396834270
  Hartree energy:                                             454.94599935972190
  Exchange-correlation energy:                               -203.29077995887565
  Dispersion energy:                                           -0.32707960137987
  Electronic entropic energy:                                  -0.00000080258103
  Fermi energy:                                                -0.16892602122968

  Total energy:                                             -1284.52957761330663

 ENERGY| Total FORCE_EVAL ( QS ) energy (a.u.):            -1284.529578123431520


 --------  Informations at step =    42 ------------
  Optimization Method        =                 BFGS
  Total Energy               =     -1284.5295781234
  Real energy change         =        -0.0000916169
  Predicted change in energy =        -0.0000807795
  Scaling factor             =         0.0000000000
  Step size                  =         0.0249780454
  Trust radius               =         0.4724315332
  Decrease in energy         =                  YES
  Used time                  =              436.507

  Convergence check :
  Max. step size             =         0.0249780454
  Conv. limit for step size  =         0.0030000000
  Convergence in step size   =                   NO
  RMS step size              =         0.0092793844
  Conv. limit for RMS step   =         0.0015000000
  Convergence in RMS step    =                   NO
  Max. gradient              =         0.0021284987
  Conv. limit for gradients  =         0.0004500000
  Conv. for gradients        =                   NO
  RMS gradient               =         0.0004156710
  Conv. limit for RMS grad.  =         0.0003000000
  Conv. for gradients        =                   NO
 ---------------------------------------------------

 --------------------------
 OPTIMIZATION STEP:     43
 --------------------------

 Number of electrons:                                                        428
 Number of occupied orbitals:                                                217
 Number of molecular orbitals:                                               252

 Number of orbital functions:                                                976
 Number of independent orbital functions:                                    976

 Extrapolation method: PS Nth order


 SCF WAVEFUNCTION OPTIMIZATION

  Step     Update method      Time    Convergence         Total energy    Change
  ------------------------------------------------------------------------------
     1 Broy./Diag. 0.10E+00    6.0     0.02859476     -1284.5280869126 -1.28E+03
     2 Broy./Diag. 0.10E+00   10.9     0.00072405     -1284.5885091683 -6.04E-02
     3 Broy./Diag. 0.10E+00   11.2     0.00370068     -1284.5654900463  2.30E-02
     4 Broy./Diag. 0.10E+00   11.4     0.00030165     -1284.5383725378  2.71E-02
     5 Broy./Diag. 0.10E+00   11.8     0.00099711     -1284.5347031298  3.67E-03
     6 Broy./Diag. 0.10E+00   12.5     0.00002719     -1284.5316489507  3.05E-03
     7 Broy./Diag. 0.10E+00   13.3     0.00015747     -1284.5326614889 -1.01E-03
     8 Broy./Diag. 0.10E+00   13.7     0.00001328     -1284.5311715947  1.49E-03
     9 Broy./Diag. 0.10E+00   14.1     0.00009003     -1284.5315403258 -3.69E-04
    10 Broy./Diag. 0.10E+00   14.6     0.00000518     -1284.5306976201  8.43E-04
    11 Broy./Diag. 0.10E+00   14.7     0.00002961     -1284.5304738192  2.24E-04
    12 Broy./Diag. 0.10E+00   14.6     0.00000398     -1284.5298746000  5.99E-04
    13 Broy./Diag. 0.10E+00   14.6     0.00002500     -1284.5299354327 -6.08E-05
    14 Broy./Diag. 0.10E+00   14.8     0.00000324     -1284.5298571617  7.83E-05
    15 Broy./Diag. 0.10E+00   14.8     0.00001767     -1284.5298790054 -2.18E-05
    16 Broy./Diag. 0.10E+00   14.8     0.00000218     -1284.5297844851  9.45E-05
    17 Broy./Diag. 0.10E+00   14.4     0.00001013     -1284.5297434842  4.10E-05
    18 Broy./Diag. 0.10E+00   14.5     0.00000273     -1284.5296611865  8.23E-05
    19 Broy./Diag. 0.10E+00   14.7     0.00000550     -1284.5296658006 -4.61E-06
    20 Broy./Diag. 0.10E+00   15.0     0.00000184     -1284.5296732687 -7.47E-06
    21 Broy./Diag. 0.10E+00   15.0     0.00000255     -1284.5296703253  2.94E-06
    22 Broy./Diag. 0.10E+00   15.2     0.00000060     -1284.5296697681  5.57E-07
    23 Broy./Diag. 0.10E+00   15.2     0.00000114     -1284.5296694529  3.15E-07
    24 Broy./Diag. 0.10E+00   15.3     0.00000045     -1284.5296656952  3.76E-06
    25 Broy./Diag. 0.10E+00   15.3     0.00000083     -1284.5296612434  4.45E-06
    26 Broy./Diag. 0.10E+00   15.1     0.00000022     -1284.5296576722  3.57E-06
    27 Broy./Diag. 0.10E+00   14.7     0.00000044     -1284.5296602544 -2.58E-06
    28 Broy./Diag. 0.10E+00   14.7     0.00000013     -1284.5296626200 -2.37E-06
    29 Broy./Diag. 0.10E+00   14.9     0.00000034     -1284.5296644608 -1.84E-06
    30 Broy./Diag. 0.10E+00   14.7     0.00000010     -1284.5296648653 -4.05E-07

  *** SCF run converged in    30 steps ***


  Electronic density on regular grids:       -427.9999999960        0.0000000040
  Core density on regular grids:              427.9999993678       -0.0000006322
  Total charge density on r-space grids:       -0.0000006282
  Total charge density g-space grids:          -0.0000006282

  Overlap energy of the core charge distribution:               0.00000312367177
  Self energy of the core charge distribution:              -2253.28808377914038
  Core Hamiltonian energy:                                    717.42419707272734
  Hartree energy:                                             454.95031209703984
  Exchange-correlation energy:                               -203.28906188562905
  Dispersion energy:                                           -0.32703066366394
  Electronic entropic energy:                                  -0.00000083035198
  Fermi energy:                                                -0.16901403877193

  Total energy:                                             -1284.52966486534615

 ENERGY| Total FORCE_EVAL ( QS ) energy (a.u.):            -1284.529660987316220


 --------  Informations at step =    43 ------------
  Optimization Method        =                 BFGS
  Total Energy               =     -1284.5296609873
  Real energy change         =        -0.0000828639
  Predicted change in energy =        -0.0000545478
  Scaling factor             =         0.0000000000
  Step size                  =         0.0324726925
  Trust radius               =         0.4724315332
  Decrease in energy         =                  YES
  Used time                  =              434.062

  Convergence check :
  Max. step size             =         0.0324726925
  Conv. limit for step size  =         0.0030000000
  Convergence in step size   =                   NO
  RMS step size              =         0.0109824944
  Conv. limit for RMS step   =         0.0015000000
  Convergence in RMS step    =                   NO
  Max. gradient              =         0.0005310213
  Conv. limit for gradients  =         0.0004500000
  Conv. for gradients        =                   NO
  RMS gradient               =         0.0002199419
  Conv. limit for RMS grad.  =         0.0003000000
  Conv. in RMS gradients     =                  YES
 ---------------------------------------------------

 --------------------------
 OPTIMIZATION STEP:     44
 --------------------------

 Number of electrons:                                                        428
 Number of occupied orbitals:                                                217
 Number of molecular orbitals:                                               252

 Number of orbital functions:                                                976
 Number of independent orbital functions:                                    976

 Extrapolation method: PS Nth order


 SCF WAVEFUNCTION OPTIMIZATION

  Step     Update method      Time    Convergence         Total energy    Change
  ------------------------------------------------------------------------------
     1 Broy./Diag. 0.10E+00    5.7     0.01893804     -1284.5286245291 -1.28E+03
     2 Broy./Diag. 0.10E+00   10.8     0.00048562     -1284.5398675324 -1.12E-02
     3 Broy./Diag. 0.10E+00   11.0     0.00342810     -1284.5425280001 -2.66E-03
     4 Broy./Diag. 0.10E+00   11.7     0.00041102     -1284.5357895047  6.74E-03
     5 Broy./Diag. 0.10E+00   11.7     0.00127227     -1284.5323570327  3.43E-03
     6 Broy./Diag. 0.10E+00   12.3     0.00005641     -1284.5273268637  5.03E-03
     7 Broy./Diag. 0.10E+00   13.1     0.00027258     -1284.5300791148 -2.75E-03
     8 Broy./Diag. 0.10E+00   13.8     0.00002328     -1284.5322845946 -2.21E-03
     9 Broy./Diag. 0.10E+00   13.7     0.00013032     -1284.5318626013  4.22E-04
    10 Broy./Diag. 0.10E+00   15.0     0.00000741     -1284.5303109135  1.55E-03
    11 Broy./Diag. 0.10E+00   15.2     0.00005330     -1284.5302211082  8.98E-05
    12 Broy./Diag. 0.10E+00   15.2     0.00000454     -1284.5297330838  4.88E-04
    13 Broy./Diag. 0.10E+00   15.3     0.00002497     -1284.5299416719 -2.09E-04
    14 Broy./Diag. 0.10E+00   14.8     0.00000261     -1284.5300545034 -1.13E-04
    15 Broy./Diag. 0.10E+00   15.1     0.00001611     -1284.5299382964  1.16E-04
    16 Broy./Diag. 0.10E+00   15.6     0.00000209     -1284.5297718455  1.66E-04
    17 Broy./Diag. 0.10E+00   15.2     0.00001203     -1284.5297972961 -2.55E-05
    18 Broy./Diag. 0.10E+00   14.9     0.00000257     -1284.5298566911 -5.94E-05
    19 Broy./Diag. 0.10E+00   15.1     0.00000627     -1284.5298205555  3.61E-05
    20 Broy./Diag. 0.10E+00   16.9     0.00000192     -1284.5297912448  2.93E-05
    21 Broy./Diag. 0.10E+00   17.4     0.00000249     -1284.5297976145 -6.37E-06
    22 Broy./Diag. 0.10E+00   17.2     0.00000080     -1284.5298056962 -8.08E-06
    23 Broy./Diag. 0.10E+00   17.2     0.00000122     -1284.5297980211  7.68E-06
    24 Broy./Diag. 0.10E+00   17.2     0.00000057     -1284.5297910020  7.02E-06
    25 Broy./Diag. 0.10E+00   17.2     0.00000091     -1284.5297906299  3.72E-07
    26 Broy./Diag. 0.10E+00   16.4     0.00000025     -1284.5297918412 -1.21E-06
    27 Broy./Diag. 0.10E+00   16.6     0.00000049     -1284.5298003680 -8.53E-06
    28 Broy./Diag. 0.10E+00   16.3     0.00000014     -1284.5298048964 -4.53E-06
    29 Broy./Diag. 0.10E+00   17.3     0.00000038     -1284.5297998272  5.07E-06
    30 Broy./Diag. 0.10E+00   17.4     0.00000016     -1284.5297950654  4.76E-06
    31 Broy./Diag. 0.10E+00   17.3     0.00000039     -1284.5297966705 -1.61E-06
    32 Broy./Diag. 0.10E+00   17.5     0.00000013     -1284.5297986980 -2.03E-06
    33 Broy./Diag. 0.10E+00   17.4     0.00000023     -1284.5297982625  4.36E-07
    34 Broy./Diag. 0.10E+00   17.3     0.00000004     -1284.5297977168  5.46E-07

  *** SCF run converged in    34 steps ***


  Electronic density on regular grids:       -427.9999999942        0.0000000058
  Core density on regular grids:              427.9999993680       -0.0000006320
  Total charge density on r-space grids:       -0.0000006262
  Total charge density g-space grids:          -0.0000006262

  Overlap energy of the core charge distribution:               0.00000304720095
  Self energy of the core charge distribution:              -2253.28808377914038
  Core Hamiltonian energy:                                    717.41545047549914
  Hartree energy:                                             454.95610170661143
  Exchange-correlation energy:                               -203.28632438639045
  Dispersion energy:                                           -0.32694387162831
  Electronic entropic energy:                                  -0.00000090890312
  Fermi energy:                                                -0.16912075279222

  Total energy:                                             -1284.52979771675064

 ENERGY| Total FORCE_EVAL ( QS ) energy (a.u.):            -1284.529797254011555


 --------  Informations at step =    44 ------------
  Optimization Method        =                 BFGS
  Total Energy               =     -1284.5297972540
  Real energy change         =        -0.0001362667
  Predicted change in energy =        -0.0000926007
  Scaling factor             =         0.0000000000
  Step size                  =         0.0594677818
  Trust radius               =         0.4724315332
  Decrease in energy         =                  YES
  Used time                  =              531.667

  Convergence check :
  Max. step size             =         0.0594677818
  Conv. limit for step size  =         0.0030000000
  Convergence in step size   =                   NO
  RMS step size              =         0.0192618517
  Conv. limit for RMS step   =         0.0015000000
  Convergence in RMS step    =                   NO
  Max. gradient              =         0.0024685336
  Conv. limit for gradients  =         0.0004500000
  Conv. for gradients        =                   NO
  RMS gradient               =         0.0004117733
  Conv. limit for RMS grad.  =         0.0003000000
  Conv. for gradients        =                   NO
 ---------------------------------------------------

 --------------------------
 OPTIMIZATION STEP:     45
 --------------------------

 Number of electrons:                                                        428
 Number of occupied orbitals:                                                217
 Number of molecular orbitals:                                               252

 Number of orbital functions:                                                976
 Number of independent orbital functions:                                    976

 Extrapolation method: PS Nth order


 SCF WAVEFUNCTION OPTIMIZATION

  Step     Update method      Time    Convergence         Total energy    Change
  ------------------------------------------------------------------------------
     1 Broy./Diag. 0.10E+00    6.7     0.02570832     -1284.5266710619 -1.28E+03
     2 Broy./Diag. 0.10E+00   12.4     0.00028165     -1284.5526920682 -2.60E-02
     3 Broy./Diag. 0.10E+00   13.1     0.00262124     -1284.5468472003  5.84E-03
     4 Broy./Diag. 0.10E+00   13.1     0.00009314     -1284.5290084255  1.78E-02
     5 Broy./Diag. 0.10E+00   13.9     0.00077322     -1284.5310071304 -2.00E-03
     6 Broy./Diag. 0.10E+00   13.8     0.00008316     -1284.5308788497  1.28E-04
     7 Broy./Diag. 0.10E+00   14.4     0.00045906     -1284.5328253078 -1.95E-03
     8 Broy./Diag. 0.10E+00   15.3     0.00005739     -1284.5335633288 -7.38E-04
     9 Broy./Diag. 0.10E+00   16.9     0.00015725     -1284.5324846147  1.08E-03
    10 Broy./Diag. 0.10E+00   17.7     0.00002299     -1284.5307486964  1.74E-03
    11 Broy./Diag. 0.10E+00   17.1     0.00008300     -1284.5305514099  1.97E-04
    12 Broy./Diag. 0.10E+00   16.8     0.00000961     -1284.5299356159  6.16E-04
    13 Broy./Diag. 0.10E+00   16.5     0.00004269     -1284.5302330136 -2.97E-04
    14 Broy./Diag. 0.10E+00   16.9     0.00000400     -1284.5303400557 -1.07E-04
    15 Broy./Diag. 0.10E+00   17.5     0.00002539     -1284.5302110979  1.29E-04
    16 Broy./Diag. 0.10E+00   17.5     0.00000228     -1284.5300230255  1.88E-04
    17 Broy./Diag. 0.10E+00   17.6     0.00001541     -1284.5300040496  1.90E-05
    18 Broy./Diag. 0.10E+00   17.3     0.00000163     -1284.5300390085 -3.50E-05
    19 Broy./Diag. 0.10E+00   18.3     0.00000809     -1284.5300025934  3.64E-05
    20 Broy./Diag. 0.10E+00   17.3     0.00000288     -1284.5299808448  2.17E-05
    21 Broy./Diag. 0.10E+00   16.5     0.00000655     -1284.5299917380 -1.09E-05
    22 Broy./Diag. 0.10E+00   17.0     0.00000176     -1284.5300022044 -1.05E-05
    23 Broy./Diag. 0.10E+00   18.0     0.00000284     -1284.5299837737  1.84E-05
    24 Broy./Diag. 0.10E+00   17.1     0.00000062     -1284.5299697398  1.40E-05
    25 Broy./Diag. 0.10E+00   16.9     0.00000100     -1284.5299715936 -1.85E-06
    26 Broy./Diag. 0.10E+00   17.2     0.00000028     -1284.5299758757 -4.28E-06
    27 Broy./Diag. 0.10E+00   17.6     0.00000069     -1284.5299855083 -9.63E-06
    28 Broy./Diag. 0.10E+00   17.0     0.00000019     -1284.5299928146 -7.31E-06
    29 Broy./Diag. 0.10E+00   17.5     0.00000055     -1284.5299879191  4.90E-06
    30 Broy./Diag. 0.10E+00   18.0     0.00000014     -1284.5299829482  4.97E-06
    31 Broy./Diag. 0.10E+00   17.5     0.00000042     -1284.5299834579 -5.10E-07
    32 Broy./Diag. 0.10E+00   17.1     0.00000014     -1284.5299839355 -4.78E-07
    33 Broy./Diag. 0.10E+00   16.6     0.00000034     -1284.5299830304  9.05E-07
    34 Broy./Diag. 0.10E+00   16.5     0.00000014     -1284.5299819970  1.03E-06
    35 Broy./Diag. 0.10E+00   16.8     0.00000023     -1284.5299827976 -8.01E-07
    36 Broy./Diag. 0.10E+00   16.7     0.00000004     -1284.5299831357 -3.38E-07

  *** SCF run converged in    36 steps ***


  Electronic density on regular grids:       -427.9999999932        0.0000000068
  Core density on regular grids:              427.9999993680       -0.0000006320
  Total charge density on r-space grids:       -0.0000006253
  Total charge density g-space grids:          -0.0000006253

  Overlap energy of the core charge distribution:               0.00000295145743
  Self energy of the core charge distribution:              -2253.28808377914038
  Core Hamiltonian energy:                                    717.39732718631535
  Hartree energy:                                             454.96640485030673
  Exchange-correlation energy:                               -203.27876788209275
  Dispersion energy:                                           -0.32686539531215
  Electronic entropic energy:                                  -0.00000106722241
  Fermi energy:                                                -0.16924716162151

  Total energy:                                             -1284.52998313568742

 ENERGY| Total FORCE_EVAL ( QS ) energy (a.u.):            -1284.529981722955881


 --------  Informations at step =    45 ------------
  Optimization Method        =                 BFGS
  Total Energy               =     -1284.5299817230
  Real energy change         =        -0.0001844689
  Predicted change in energy =        -0.0001185088
  Scaling factor             =         0.0000000000
  Step size                  =         0.1094218213
  Trust radius               =         0.4724315332
  Decrease in energy         =                  YES
  Used time                  =              603.951

  Convergence check :
  Max. step size             =         0.1094218213
  Conv. limit for step size  =         0.0030000000
  Convergence in step size   =                   NO
  RMS step size              =         0.0356680763
  Conv. limit for RMS step   =         0.0015000000
  Convergence in RMS step    =                   NO
  Max. gradient              =         0.0049836310
  Conv. limit for gradients  =         0.0004500000
  Conv. for gradients        =                   NO
  RMS gradient               =         0.0008454996
  Conv. limit for RMS grad.  =         0.0003000000
  Conv. for gradients        =                   NO
 ---------------------------------------------------

 --------------------------
 OPTIMIZATION STEP:     46
 --------------------------

 Number of electrons:                                                        428
 Number of occupied orbitals:                                                217
 Number of molecular orbitals:                                               252

 Number of orbital functions:                                                976
 Number of independent orbital functions:                                    976

 Extrapolation method: PS Nth order


 SCF WAVEFUNCTION OPTIMIZATION

  Step     Update method      Time    Convergence         Total energy    Change
  ------------------------------------------------------------------------------
     1 Broy./Diag. 0.10E+00    8.3     0.03317350     -1284.5209499265 -1.28E+03
     2 Broy./Diag. 0.10E+00   13.0     0.00053887     -1284.5111649588  9.78E-03
     3 Broy./Diag. 0.10E+00   13.7     0.00494306     -1284.5252811572 -1.41E-02
     4 Broy./Diag. 0.10E+00   14.2     0.00022381     -1284.5352233909 -9.94E-03
     5 Broy./Diag. 0.10E+00   13.9     0.00143757     -1284.5318432197  3.38E-03
     6 Broy./Diag. 0.10E+00   15.3     0.00022062     -1284.5267086507  5.13E-03
     7 Broy./Diag. 0.10E+00   14.9     0.00094536     -1284.5294311789 -2.72E-03
     8 Broy./Diag. 0.10E+00   16.1     0.00013535     -1284.5324591611 -3.03E-03
     9 Broy./Diag. 0.10E+00   15.4     0.00028813     -1284.5315130743  9.46E-04
    10 Broy./Diag. 0.10E+00   17.1     0.00004506     -1284.5301401888  1.37E-03
    11 Broy./Diag. 0.10E+00   17.1     0.00019636     -1284.5302431876 -1.03E-04
    12 Broy./Diag. 0.10E+00   17.5     0.00002034     -1284.5300904405  1.53E-04
    13 Broy./Diag. 0.10E+00   18.6     0.00010103     -1284.5302999429 -2.10E-04
    14 Broy./Diag. 0.10E+00   16.9     0.00001075     -1284.5305372791 -2.37E-04
    15 Broy./Diag. 0.10E+00   17.0     0.00007086     -1284.5303931805  1.44E-04
    16 Broy./Diag. 0.10E+00   16.1     0.00000552     -1284.5303488258  4.44E-05
    17 Broy./Diag. 0.10E+00   17.1     0.00003745     -1284.5303205190  2.83E-05
    18 Broy./Diag. 0.10E+00   17.4     0.00000271     -1284.5303882252 -6.77E-05
    19 Broy./Diag. 0.10E+00   17.2     0.00001314     -1284.5302975237  9.07E-05
    20 Broy./Diag. 0.10E+00   16.6     0.00000527     -1284.5302306900  6.68E-05
    21 Broy./Diag. 0.10E+00   17.0     0.00001290     -1284.5302557531 -2.51E-05
    22 Broy./Diag. 0.10E+00   17.2     0.00000311     -1284.5302839201 -2.82E-05
    23 Broy./Diag. 0.10E+00   16.3     0.00000578     -1284.5302609313  2.30E-05
    24 Broy./Diag. 0.10E+00   17.4     0.00000091     -1284.5302410468  1.99E-05
    25 Broy./Diag. 0.10E+00   17.0     0.00000199     -1284.5302477103 -6.66E-06
    26 Broy./Diag. 0.10E+00   17.9     0.00000034     -1284.5302560568 -8.35E-06
    27 Broy./Diag. 0.10E+00   18.0     0.00000117     -1284.5302582085 -2.15E-06
    28 Broy./Diag. 0.10E+00   17.7     0.00000022     -1284.5302615676 -3.36E-06
    29 Broy./Diag. 0.10E+00   17.3     0.00000074     -1284.5302559759  5.59E-06
    30 Broy./Diag. 0.10E+00   17.6     0.00000030     -1284.5302524483  3.53E-06
    31 Broy./Diag. 0.10E+00   18.0     0.00000086     -1284.5302560230 -3.57E-06
    32 Broy./Diag. 0.10E+00   17.2     0.00000027     -1284.5302597150 -3.69E-06
    33 Broy./Diag. 0.10E+00   18.6     0.00000058     -1284.5302575306  2.18E-06
    34 Broy./Diag. 0.10E+00   18.0     0.00000021     -1284.5302554247  2.11E-06
    35 Broy./Diag. 0.10E+00   17.4     0.00000037     -1284.5302560325 -6.08E-07
    36 Broy./Diag. 0.10E+00   16.8     0.00000008     -1284.5302564796 -4.47E-07

  *** SCF run converged in    36 steps ***


  Electronic density on regular grids:       -427.9999999974        0.0000000026
  Core density on regular grids:              427.9999993679       -0.0000006321
  Total charge density on r-space grids:       -0.0000006295
  Total charge density g-space grids:          -0.0000006295

  Overlap energy of the core charge distribution:               0.00000285032269
  Self energy of the core charge distribution:              -2253.28808377914038
  Core Hamiltonian energy:                                    717.36922005511565
  Hartree energy:                                             454.98182823157600
  Exchange-correlation energy:                               -203.26632123849259
  Dispersion energy:                                           -0.32690105806803
  Electronic entropic energy:                                  -0.00000154094055
  Fermi energy:                                                -0.16934630983617

  Total energy:                                             -1284.53025647962522

 ENERGY| Total FORCE_EVAL ( QS ) energy (a.u.):            -1284.530255397715791


 --------  Informations at step =    46 ------------
  Optimization Method        =                 BFGS
  Total Energy               =     -1284.5302553977
  Real energy change         =        -0.0002736748
  Predicted change in energy =        -0.0002156646
  Scaling factor             =         0.0000000000
  Step size                  =         0.2026826252
  Trust radius               =         0.4724315332
  Decrease in energy         =                  YES
  Used time                  =              615.389

  Convergence check :
  Max. step size             =         0.2026826252
  Conv. limit for step size  =         0.0030000000
  Convergence in step size   =                   NO
  RMS step size              =         0.0637107674
  Conv. limit for RMS step   =         0.0015000000
  Convergence in RMS step    =                   NO
  Max. gradient              =         0.0079378721
  Conv. limit for gradients  =         0.0004500000
  Conv. for gradients        =                   NO
  RMS gradient               =         0.0013859145
  Conv. limit for RMS grad.  =         0.0003000000
  Conv. for gradients        =                   NO
 ---------------------------------------------------

 --------------------------
 OPTIMIZATION STEP:     47
 --------------------------

 Number of electrons:                                                        428
 Number of occupied orbitals:                                                217
 Number of molecular orbitals:                                               252

 Number of orbital functions:                                                976
 Number of independent orbital functions:                                    976

 Extrapolation method: PS Nth order


 SCF WAVEFUNCTION OPTIMIZATION

  Step     Update method      Time    Convergence         Total energy    Change
  ------------------------------------------------------------------------------
     1 Broy./Diag. 0.10E+00    7.6     0.04428700     -1284.5210482122 -1.28E+03
     2 Broy./Diag. 0.10E+00   12.3     0.00051757     -1284.4054779149  1.16E-01
     3 Broy./Diag. 0.10E+00   13.9     0.00431583     -1284.4617719339 -5.63E-02
     4 Broy./Diag. 0.10E+00   13.4     0.00022912     -1284.5313204979 -6.95E-02
     5 Broy./Diag. 0.10E+00   14.2     0.00156554     -1284.5277560719  3.56E-03
     6 Broy./Diag. 0.10E+00   14.4     0.00013479     -1284.5253683308  2.39E-03
     7 Broy./Diag. 0.10E+00   15.1     0.00057011     -1284.5268064891 -1.44E-03
     8 Broy./Diag. 0.10E+00   16.0     0.00013336     -1284.5303328912 -3.53E-03
     9 Broy./Diag. 0.10E+00   16.6     0.00034162     -1284.5301697542  1.63E-04
    10 Broy./Diag. 0.10E+00   17.1     0.00005772     -1284.5303048043 -1.35E-04
    11 Broy./Diag. 0.10E+00   16.8     0.00018102     -1284.5306733427 -3.69E-04
    12 Broy./Diag. 0.10E+00   16.8     0.00001514     -1284.5308830490 -2.10E-04
    13 Broy./Diag. 0.10E+00   17.3     0.00006159     -1284.5307728682  1.10E-04
    14 Broy./Diag. 0.10E+00   16.9     0.00000860     -1284.5304632680  3.10E-04
    15 Broy./Diag. 0.10E+00   18.0     0.00005382     -1284.5305519337 -8.87E-05
    16 Broy./Diag. 0.10E+00   16.5     0.00000352     -1284.5307569264 -2.05E-04
    17 Broy./Diag. 0.10E+00   17.3     0.00002546     -1284.5306832474  7.37E-05
    18 Broy./Diag. 0.10E+00   16.8     0.00000230     -1284.5306059062  7.73E-05
    19 Broy./Diag. 0.10E+00   17.7     0.00001506     -1284.5305798143  2.61E-05
    20 Broy./Diag. 0.10E+00   17.2     0.00000201     -1284.5305670059  1.28E-05
    21 Broy./Diag. 0.10E+00   17.5     0.00000769     -1284.5305828505 -1.58E-05
    22 Broy./Diag. 0.10E+00   18.2     0.00000326     -1284.5305922423 -9.39E-06
    23 Broy./Diag. 0.10E+00   17.9     0.00000579     -1284.5305616010  3.06E-05
    24 Broy./Diag. 0.10E+00   17.3     0.00000079     -1284.5305351859  2.64E-05
    25 Broy./Diag. 0.10E+00   17.8     0.00000182     -1284.5305409057 -5.72E-06
    26 Broy./Diag. 0.10E+00   17.5     0.00000037     -1284.5305464705 -5.56E-06
    27 Broy./Diag. 0.10E+00   17.3     0.00000131     -1284.5305409280  5.54E-06
    28 Broy./Diag. 0.10E+00   17.6     0.00000018     -1284.5305325862  8.34E-06
    29 Broy./Diag. 0.10E+00   17.1     0.00000067     -1284.5305351353 -2.55E-06
    30 Broy./Diag. 0.10E+00   16.9     0.00000012     -1284.5305385279 -3.39E-06
    31 Broy./Diag. 0.10E+00   17.1     0.00000037     -1284.5305395257 -9.98E-07
    32 Broy./Diag. 0.10E+00   17.3     0.00000018     -1284.5305409220 -1.40E-06
    33 Broy./Diag. 0.10E+00   16.9     0.00000048     -1284.5305385906  2.33E-06
    34 Broy./Diag. 0.10E+00   16.8     0.00000013     -1284.5305369509  1.64E-06
    35 Broy./Diag. 0.10E+00   16.7     0.00000024     -1284.5305374929 -5.42E-07
    36 Broy./Diag. 0.10E+00   16.8     0.00000006     -1284.5305381208 -6.28E-07

  *** SCF run converged in    36 steps ***


  Electronic density on regular grids:       -427.9999999982        0.0000000018
  Core density on regular grids:              427.9999993680       -0.0000006320
  Total charge density on r-space grids:       -0.0000006301
  Total charge density g-space grids:          -0.0000006301

  Overlap energy of the core charge distribution:               0.00000329027286
  Self energy of the core charge distribution:              -2253.28808377914038
  Core Hamiltonian energy:                                    717.39388364260139
  Hartree energy:                                             454.96355111360566
  Exchange-correlation energy:                               -203.27268922838107
  Dispersion energy:                                           -0.32720132078081
  Electronic entropic energy:                                  -0.00000183901212
  Fermi energy:                                                -0.16923315342454

  Total energy:                                             -1284.53053812083340

 ENERGY| Total FORCE_EVAL ( QS ) energy (a.u.):            -1284.530537553650902


 --------  Informations at step =    47 ------------
  Optimization Method        =                 BFGS
  Total Energy               =     -1284.5305375537
  Real energy change         =        -0.0002821559
  Predicted change in energy =        -0.0002685624
  Scaling factor             =         0.0000000000
  Step size                  =         0.0954915377
  Trust radius               =         0.4724315332
  Decrease in energy         =                  YES
  Used time                  =              610.272

  Convergence check :
  Max. step size             =         0.0954915377
  Conv. limit for step size  =         0.0030000000
  Convergence in step size   =                   NO
  RMS step size              =         0.0287096700
  Conv. limit for RMS step   =         0.0015000000
  Convergence in RMS step    =                   NO
  Max. gradient              =         0.0048241700
  Conv. limit for gradients  =         0.0004500000
  Conv. for gradients        =                   NO
  RMS gradient               =         0.0009117876
  Conv. limit for RMS grad.  =         0.0003000000
  Conv. for gradients        =                   NO
 ---------------------------------------------------

 --------------------------
 OPTIMIZATION STEP:     48
 --------------------------

 Number of electrons:                                                        428
 Number of occupied orbitals:                                                217
 Number of molecular orbitals:                                               252

 Number of orbital functions:                                                976
 Number of independent orbital functions:                                    976

 Extrapolation method: PS Nth order


 SCF WAVEFUNCTION OPTIMIZATION

  Step     Update method      Time    Convergence         Total energy    Change
  ------------------------------------------------------------------------------
     1 Broy./Diag. 0.10E+00    7.5     0.04189155     -1284.5269897113 -1.28E+03
     2 Broy./Diag. 0.10E+00   13.1     0.00137290     -1284.7212041064 -1.94E-01
     3 Broy./Diag. 0.10E+00   13.6     0.00710428     -1284.6470530065  7.42E-02
     4 Broy./Diag. 0.10E+00   13.3     0.00068357     -1284.5750346009  7.20E-02
     5 Broy./Diag. 0.10E+00   15.5     0.00216797     -1284.5514652338  2.36E-02
     6 Broy./Diag. 0.10E+00   14.1     0.00004058     -1284.5384030584  1.31E-02
     7 Broy./Diag. 0.10E+00   15.5     0.00027129     -1284.5359682952  2.43E-03
     8 Broy./Diag. 0.10E+00   17.3     0.00001455     -1284.5317174554  4.25E-03
     9 Broy./Diag. 0.10E+00   16.9     0.00012010     -1284.5321233182 -4.06E-04
    10 Broy./Diag. 0.10E+00   17.9     0.00001036     -1284.5314515316  6.72E-04
    11 Broy./Diag. 0.10E+00   17.8     0.00008626     -1284.5314980058 -4.65E-05
    12 Broy./Diag. 0.10E+00   17.4     0.00001177     -1284.5313443684  1.54E-04
    13 Broy./Diag. 0.10E+00   17.1     0.00008615     -1284.5311951272  1.49E-04
    14 Broy./Diag. 0.10E+00   16.7     0.00000837     -1284.5310570202  1.38E-04
    15 Broy./Diag. 0.10E+00   17.4     0.00005401     -1284.5310286850  2.83E-05
    16 Broy./Diag. 0.10E+00   17.0     0.00000489     -1284.5309318037  9.69E-05
    17 Broy./Diag. 0.10E+00   16.8     0.00002678     -1284.5310126862 -8.09E-05
    18 Broy./Diag. 0.10E+00   16.5     0.00000222     -1284.5310402911 -2.76E-05
    19 Broy./Diag. 0.10E+00   17.2     0.00001077     -1284.5310016572  3.86E-05
    20 Broy./Diag. 0.10E+00   17.4     0.00000163     -1284.5309713998  3.03E-05
    21 Broy./Diag. 0.10E+00   18.1     0.00000430     -1284.5309551659  1.62E-05
    22 Broy./Diag. 0.10E+00   17.9     0.00000161     -1284.5309532862  1.88E-06
    23 Broy./Diag. 0.10E+00   17.3     0.00000190     -1284.5309669535 -1.37E-05
    24 Broy./Diag. 0.10E+00   17.3     0.00000104     -1284.5309802532 -1.33E-05
    25 Broy./Diag. 0.10E+00   17.4     0.00000097     -1284.5309836287 -3.38E-06
    26 Broy./Diag. 0.10E+00   18.5     0.00000068     -1284.5309807011  2.93E-06
    27 Broy./Diag. 0.10E+00   17.5     0.00000056     -1284.5309745539  6.15E-06
    28 Broy./Diag. 0.10E+00   17.4     0.00000082     -1284.5309692988  5.26E-06
    29 Broy./Diag. 0.10E+00   18.2     0.00000051     -1284.5309655059  3.79E-06
    30 Broy./Diag. 0.10E+00   17.9     0.00000064     -1284.5309652043  3.02E-07
    31 Broy./Diag. 0.10E+00   17.3     0.00000054     -1284.5309664352 -1.23E-06
    32 Broy./Diag. 0.10E+00   17.5     0.00000030     -1284.5309672548 -8.20E-07
    33 Broy./Diag. 0.10E+00   17.2     0.00000035     -1284.5309681460 -8.91E-07
    34 Broy./Diag. 0.10E+00   16.5     0.00000013     -1284.5309677550  3.91E-07
    35 Broy./Diag. 0.10E+00   17.1     0.00000018     -1284.5309661161  1.64E-06
    36 Broy./Diag. 0.10E+00   17.6     0.00000006     -1284.5309650200  1.10E-06

  *** SCF run converged in    36 steps ***


  Electronic density on regular grids:       -427.9999999977        0.0000000023
  Core density on regular grids:              427.9999993679       -0.0000006321
  Total charge density on r-space grids:       -0.0000006298
  Total charge density g-space grids:          -0.0000006298

  Overlap energy of the core charge distribution:               0.00000322679613
  Self energy of the core charge distribution:              -2253.28808377914038
  Core Hamiltonian energy:                                    717.40608969653204
  Hartree energy:                                             454.95995399669744
  Exchange-correlation energy:                               -203.28131986751254
  Dispersion energy:                                           -0.32760638168974
  Electronic entropic energy:                                  -0.00000191168093
  Fermi energy:                                                -0.16913079811088

  Total energy:                                             -1284.53096501999835

 ENERGY| Total FORCE_EVAL ( QS ) energy (a.u.):            -1284.530966787066063


 --------  Informations at step =    48 ------------
  Optimization Method        =                 BFGS
  Total Energy               =     -1284.5309667871
  Real energy change         =        -0.0004292334
  Predicted change in energy =        -0.0002837138
  Scaling factor             =         0.0000000000
  Step size                  =         0.0334701539
  Trust radius               =         0.4724315332
  Decrease in energy         =                  YES
  Used time                  =              618.040

  Convergence check :
  Max. step size             =         0.0334701539
  Conv. limit for step size  =         0.0030000000
  Convergence in step size   =                   NO
  RMS step size              =         0.0113596396
  Conv. limit for RMS step   =         0.0015000000
  Convergence in RMS step    =                   NO
  Max. gradient              =         0.0029330048
  Conv. limit for gradients  =         0.0004500000
  Conv. for gradients        =                   NO
  RMS gradient               =         0.0005882681
  Conv. limit for RMS grad.  =         0.0003000000
  Conv. for gradients        =                   NO
 ---------------------------------------------------

 --------------------------
 OPTIMIZATION STEP:     49
 --------------------------

 Number of electrons:                                                        428
 Number of occupied orbitals:                                                217
 Number of molecular orbitals:                                               252

 Number of orbital functions:                                                976
 Number of independent orbital functions:                                    976

 Extrapolation method: PS Nth order


 SCF WAVEFUNCTION OPTIMIZATION

  Step     Update method      Time    Convergence         Total energy    Change
  ------------------------------------------------------------------------------
     1 Broy./Diag. 0.10E+00    7.3     0.03941753     -1284.5243219346 -1.28E+03
     2 Broy./Diag. 0.10E+00   12.6     0.00086732     -1284.5595753247 -3.53E-02
     3 Broy./Diag. 0.10E+00   13.2     0.00606019     -1284.5573750469  2.20E-03
     4 Broy./Diag. 0.10E+00   13.5     0.00072126     -1284.5443743862  1.30E-02
     5 Broy./Diag. 0.10E+00   13.9     0.00235530     -1284.5356720513  8.70E-03
     6 Broy./Diag. 0.10E+00   15.3     0.00013455     -1284.5269022322  8.77E-03
     7 Broy./Diag. 0.10E+00   15.8     0.00057127     -1284.5293111193 -2.41E-03
     8 Broy./Diag. 0.10E+00   16.5     0.00005582     -1284.5340441607 -4.73E-03
     9 Broy./Diag. 0.10E+00   17.7     0.00029193     -1284.5320821024  1.96E-03
    10 Broy./Diag. 0.10E+00   17.5     0.00002092     -1284.5298927201  2.19E-03
    11 Broy./Diag. 0.10E+00   18.1     0.00016571     -1284.5303715826 -4.79E-04
    12 Broy./Diag. 0.10E+00   17.7     0.00001232     -1284.5309852825 -6.14E-04
    13 Broy./Diag. 0.10E+00   17.0     0.00007953     -1284.5311718282 -1.87E-04
    14 Broy./Diag. 0.10E+00   17.8     0.00000817     -1284.5316005643 -4.29E-04
    15 Broy./Diag. 0.10E+00   18.0     0.00004484     -1284.5313151453  2.85E-04
    16 Broy./Diag. 0.10E+00   17.0     0.00000442     -1284.5311296202  1.86E-04
    17 Broy./Diag. 0.10E+00   17.2     0.00002346     -1284.5312929542 -1.63E-04
    18 Broy./Diag. 0.10E+00   16.9     0.00000589     -1284.5315183862 -2.25E-04
    19 Broy./Diag. 0.10E+00   16.9     0.00001532     -1284.5314666633  5.17E-05
    20 Broy./Diag. 0.10E+00   17.3     0.00000360     -1284.5314039347  6.27E-05
    21 Broy./Diag. 0.10E+00   16.0     0.00000476     -1284.5313982119  5.72E-06
    22 Broy./Diag. 0.10E+00   16.7     0.00000153     -1284.5313957293  2.48E-06
    23 Broy./Diag. 0.10E+00   17.7     0.00000291     -1284.5313753256  2.04E-05
    24 Broy./Diag. 0.10E+00   18.0     0.00000092     -1284.5313683650  6.96E-06
    25 Broy./Diag. 0.10E+00   17.2     0.00000166     -1284.5313858096 -1.74E-05
    26 Broy./Diag. 0.10E+00   17.0     0.00000043     -1284.5314034240 -1.76E-05
    27 Broy./Diag. 0.10E+00   17.6     0.00000097     -1284.5314104589 -7.03E-06
    28 Broy./Diag. 0.10E+00   17.9     0.00000025     -1284.5314141813 -3.72E-06
    29 Broy./Diag. 0.10E+00   17.5     0.00000072     -1284.5313976378  1.65E-05
    30 Broy./Diag. 0.10E+00   18.8     0.00000030     -1284.5313864907  1.11E-05
    31 Broy./Diag. 0.10E+00   18.0     0.00000081     -1284.5313929635 -6.47E-06
    32 Broy./Diag. 0.10E+00   17.9     0.00000025     -1284.5314014353 -8.47E-06
    33 Broy./Diag. 0.10E+00   17.6     0.00000046     -1284.5314029566 -1.52E-06
    34 Broy./Diag. 0.10E+00   17.9     0.00000010     -1284.5314031542 -1.98E-07

  *** SCF run converged in    34 steps ***


  Electronic density on regular grids:       -427.9999999941        0.0000000059
  Core density on regular grids:              427.9999993677       -0.0000006323
  Total charge density on r-space grids:       -0.0000006264
  Total charge density g-space grids:          -0.0000006264

  Overlap energy of the core charge distribution:               0.00000316495015
  Self energy of the core charge distribution:              -2253.28808377914038
  Core Hamiltonian energy:                                    717.42068011876268
  Hartree energy:                                             454.95349916727690
  Exchange-correlation energy:                               -203.28915393470541
  Dispersion energy:                                           -0.32834565297609
  Electronic entropic energy:                                  -0.00000223832522
  Fermi energy:                                                -0.16896953847037

  Total energy:                                             -1284.53140315415499

 ENERGY| Total FORCE_EVAL ( QS ) energy (a.u.):            -1284.531400875763893


 --------  Informations at step =    49 ------------
  Optimization Method        =                 BFGS
  Total Energy               =     -1284.5314008758
  Real energy change         =        -0.0004340887
  Predicted change in energy =        -0.0004687344
  Scaling factor             =         0.0000000000
  Step size                  =         0.1213787825
  Trust radius               =         0.4724315332
  Decrease in energy         =                  YES
  Used time                  =              584.777

  Convergence check :
  Max. step size             =         0.1213787825
  Conv. limit for step size  =         0.0030000000
  Convergence in step size   =                   NO
  RMS step size              =         0.0406022953
  Conv. limit for RMS step   =         0.0015000000
  Convergence in RMS step    =                   NO
  Max. gradient              =         0.0025741807
  Conv. limit for gradients  =         0.0004500000
  Conv. for gradients        =                   NO
  RMS gradient               =         0.0005941727
  Conv. limit for RMS grad.  =         0.0003000000
  Conv. for gradients        =                   NO
 ---------------------------------------------------

 --------------------------
 OPTIMIZATION STEP:     50
 --------------------------

 Number of electrons:                                                        428
 Number of occupied orbitals:                                                217
 Number of molecular orbitals:                                               252

 Number of orbital functions:                                                976
 Number of independent orbital functions:                                    976

 Extrapolation method: PS Nth order


 SCF WAVEFUNCTION OPTIMIZATION

  Step     Update method      Time    Convergence         Total energy    Change
  ------------------------------------------------------------------------------
     1 Broy./Diag. 0.10E+00    7.7     0.07778237     -1284.5027777575 -1.28E+03
     2 Broy./Diag. 0.10E+00   12.6     0.00089908     -1284.4839893228  1.88E-02
     3 Broy./Diag. 0.10E+00   13.7     0.00793418     -1284.4926533169 -8.66E-03
     4 Broy./Diag. 0.10E+00   14.0     0.00021144     -1284.5259565522 -3.33E-02
     5 Broy./Diag. 0.10E+00   14.9     0.00143374     -1284.5240651848  1.89E-03
     6 Broy./Diag. 0.10E+00   15.2     0.00025129     -1284.5287690553 -4.70E-03
     7 Broy./Diag. 0.10E+00   15.4     0.00104143     -1284.5245369830  4.23E-03
     8 Broy./Diag. 0.10E+00   15.3     0.00018479     -1284.5231196947  1.42E-03
     9 Broy./Diag. 0.10E+00   16.5     0.00040012     -1284.5255211912 -2.40E-03
    10 Broy./Diag. 0.10E+00   16.9     0.00004533     -1284.5295765538 -4.06E-03
    11 Broy./Diag. 0.10E+00   18.1     0.00021081     -1284.5300029830 -4.26E-04
    12 Broy./Diag. 0.10E+00   17.5     0.00002584     -1284.5310080687 -1.01E-03
    13 Broy./Diag. 0.10E+00   17.0     0.00011596     -1284.5306256796  3.82E-04
    14 Broy./Diag. 0.10E+00   17.3     0.00000839     -1284.5305113588  1.14E-04
    15 Broy./Diag. 0.10E+00   17.4     0.00005433     -1284.5306851460 -1.74E-04
    16 Broy./Diag. 0.10E+00   17.5     0.00000628     -1284.5311580865 -4.73E-04
    17 Broy./Diag. 0.10E+00   17.4     0.00003915     -1284.5310508694  1.07E-04
    18 Broy./Diag. 0.10E+00   18.0     0.00000469     -1284.5310156341  3.52E-05
    19 Broy./Diag. 0.10E+00   17.7     0.00001560     -1284.5310653242 -4.97E-05
    20 Broy./Diag. 0.10E+00   17.7     0.00000740     -1284.5311323733 -6.70E-05
    21 Broy./Diag. 0.10E+00   17.9     0.00001243     -1284.5310966772  3.57E-05
    22 Broy./Diag. 0.10E+00   17.7     0.00000299     -1284.5310687877  2.79E-05
    23 Broy./Diag. 0.10E+00   17.8     0.00000414     -1284.5310884523 -1.97E-05
    24 Broy./Diag. 0.10E+00   17.6     0.00000122     -1284.5311048762 -1.64E-05
    25 Broy./Diag. 0.10E+00   17.3     0.00000201     -1284.5311016760  3.20E-06
    26 Broy./Diag. 0.10E+00   16.6     0.00000077     -1284.5310921649  9.51E-06
    27 Broy./Diag. 0.10E+00   16.9     0.00000155     -1284.5310719286  2.02E-05
    28 Broy./Diag. 0.10E+00   16.9     0.00000043     -1284.5310586998  1.32E-05
    29 Broy./Diag. 0.10E+00   17.0     0.00000122     -1284.5310689404 -1.02E-05
    30 Broy./Diag. 0.10E+00   16.6     0.00000048     -1284.5310803692 -1.14E-05
    31 Broy./Diag. 0.10E+00   17.5     0.00000132     -1284.5310764185  3.95E-06
    32 Broy./Diag. 0.10E+00   17.8     0.00000033     -1284.5310730789  3.34E-06
    33 Broy./Diag. 0.10E+00   17.9     0.00000059     -1284.5310749770 -1.90E-06
    34 Broy./Diag. 0.10E+00   17.8     0.00000019     -1284.5310771631 -2.19E-06
    35 Broy./Diag. 0.10E+00   17.6     0.00000043     -1284.5310760169  1.15E-06
    36 Broy./Diag. 0.10E+00   16.9     0.00000009     -1284.5310756579  3.59E-07

  *** SCF run converged in    36 steps ***


  Electronic density on regular grids:       -427.9999999984        0.0000000016
  Core density on regular grids:              427.9999993682       -0.0000006318
  Total charge density on r-space grids:       -0.0000006303
  Total charge density g-space grids:          -0.0000006303

  Overlap energy of the core charge distribution:               0.00000343944750
  Self energy of the core charge distribution:              -2253.28808377914038
  Core Hamiltonian energy:                                    717.47862019748493
  Hartree energy:                                             454.92045703236698
  Exchange-correlation energy:                               -203.31345863696072
  Dispersion energy:                                           -0.32861242443190
  Electronic entropic energy:                                  -0.00000148662141
  Fermi energy:                                                -0.16882958931736

  Total energy:                                             -1284.53107565785626

 ENERGY| Total FORCE_EVAL ( QS ) energy (a.u.):            -1284.531076250902288


 --------  Informations at step =    50 ------------
  Optimization Method        =                 BFGS
  Total Energy               =     -1284.5310762509
  Real energy change         =         0.0003246249
  Predicted change in energy =        -0.0004683288
  Scaling factor             =         0.0000000000
  Step size                  =         0.1519621873
  Trust radius               =         0.4724315332
  Decrease in energy         =                   NO
  Used time                  =              617.774

  Convergence check :
  Max. step size             =         0.1519621873
  Conv. limit for step size  =         0.0030000000
  Convergence in step size   =                   NO
  RMS step size              =         0.0540798443
  Conv. limit for RMS step   =         0.0015000000
  Convergence in RMS step    =                   NO
  Max. gradient              =         0.0085560741
  Conv. limit for gradients  =         0.0004500000
  Conv. for gradients        =                   NO
  RMS gradient               =         0.0015784463
  Conv. limit for RMS grad.  =         0.0003000000
  Conv. for gradients        =                   NO
 ---------------------------------------------------

 --------------------------
 OPTIMIZATION STEP:     51
 --------------------------

 Number of electrons:                                                        428
 Number of occupied orbitals:                                                217
 Number of molecular orbitals:                                               252

 Number of orbital functions:                                                976
 Number of independent orbital functions:                                    976

 Extrapolation method: PS Nth order


 SCF WAVEFUNCTION OPTIMIZATION

  Step     Update method      Time    Convergence         Total energy    Change
  ------------------------------------------------------------------------------
     1 Broy./Diag. 0.10E+00    7.4     0.09861420     -1284.4790426162 -1.28E+03
     2 Broy./Diag. 0.10E+00   12.8     0.00173867     -1284.6184361453 -1.39E-01
     3 Broy./Diag. 0.10E+00   14.1     0.01134957     -1284.5705222517  4.79E-02
     4 Broy./Diag. 0.10E+00   13.8     0.00150590     -1284.5051582577  6.54E-02
     5 Broy./Diag. 0.10E+00   14.4     0.00451606     -1284.5204048618 -1.52E-02
     6 Broy./Diag. 0.10E+00   13.9     0.00067485     -1284.5351929656 -1.48E-02
     7 Broy./Diag. 0.10E+00   15.0     0.00224357     -1284.5375788799 -2.39E-03
     8 Broy./Diag. 0.10E+00   15.5     0.00024489     -1284.5347294949  2.85E-03
     9 Broy./Diag. 0.10E+00   16.7     0.00123595     -1284.5340486830  6.81E-04
    10 Broy./Diag. 0.10E+00   17.1     0.00004128     -1284.5319716049  2.08E-03
    11 Broy./Diag. 0.10E+00   17.3     0.00025288     -1284.5311836064  7.88E-04
    12 Broy./Diag. 0.10E+00   16.6     0.00002689     -1284.5308868148  2.97E-04
    13 Broy./Diag. 0.10E+00   17.4     0.00013680     -1284.5310617219 -1.75E-04
    14 Broy./Diag. 0.10E+00   17.4     0.00001441     -1284.5317510854 -6.89E-04
    15 Broy./Diag. 0.10E+00   17.9     0.00009843     -1284.5316567708  9.43E-05
    16 Broy./Diag. 0.10E+00   17.5     0.00000742     -1284.5316283316  2.84E-05
    17 Broy./Diag. 0.10E+00   17.8     0.00004781     -1284.5316709550 -4.26E-05
    18 Broy./Diag. 0.10E+00   17.9     0.00000326     -1284.5318437328 -1.73E-04
    19 Broy./Diag. 0.10E+00   17.0     0.00002197     -1284.5318217489  2.20E-05
    20 Broy./Diag. 0.10E+00   18.0     0.00000295     -1284.5318619857 -4.02E-05
    21 Broy./Diag. 0.10E+00   17.9     0.00001144     -1284.5318081701  5.38E-05
    22 Broy./Diag. 0.10E+00   17.9     0.00000476     -1284.5317791569  2.90E-05
    23 Broy./Diag. 0.10E+00   18.0     0.00000983     -1284.5318196163 -4.05E-05
    24 Broy./Diag. 0.10E+00   17.1     0.00000149     -1284.5318647461 -4.51E-05
    25 Broy./Diag. 0.10E+00   17.9     0.00000301     -1284.5318572050  7.54E-06
    26 Broy./Diag. 0.10E+00   17.5     0.00000045     -1284.5318541307  3.07E-06
    27 Broy./Diag. 0.10E+00   17.6     0.00000204     -1284.5318515597  2.57E-06
    28 Broy./Diag. 0.10E+00   17.8     0.00000024     -1284.5318537202 -2.16E-06
    29 Broy./Diag. 0.10E+00   17.7     0.00000096     -1284.5318520969  1.62E-06
    30 Broy./Diag. 0.10E+00   17.8     0.00000019     -1284.5318527675 -6.71E-07
    31 Broy./Diag. 0.10E+00   18.0     0.00000062     -1284.5318513906  1.38E-06
    32 Broy./Diag. 0.10E+00   17.6     0.00000022     -1284.5318509999  3.91E-07
    33 Broy./Diag. 0.10E+00   17.1     0.00000066     -1284.5318527336 -1.73E-06
    34 Broy./Diag. 0.10E+00   16.6     0.00000016     -1284.5318538885 -1.15E-06
    35 Broy./Diag. 0.10E+00   16.4     0.00000035     -1284.5318525574  1.33E-06
    36 Broy./Diag. 0.10E+00   17.5     0.00000007     -1284.5318512538  1.30E-06

  *** SCF run converged in    36 steps ***


  Electronic density on regular grids:       -427.9999999968        0.0000000032
  Core density on regular grids:              427.9999993684       -0.0000006316
  Total charge density on r-space grids:       -0.0000006284
  Total charge density g-space grids:          -0.0000006284

  Overlap energy of the core charge distribution:               0.00000316493712
  Self energy of the core charge distribution:              -2253.28808377914038
  Core Hamiltonian energy:                                    717.42816496125101
  Hartree energy:                                             454.95040968916288
  Exchange-correlation energy:                               -203.29370680453340
  Dispersion energy:                                           -0.32863647943297
  Electronic entropic energy:                                  -0.00000200604935
  Fermi energy:                                                -0.16897152037675

  Total energy:                                             -1284.53185125380446

 ENERGY| Total FORCE_EVAL ( QS ) energy (a.u.):            -1284.531851969820082


 --------  Informations at step =    51 ------------
  Optimization Method        =                 BFGS
  Total Energy               =     -1284.5318519698
  Real energy change         =        -0.0007757189
  Predicted change in energy =        -0.0006351047
  Scaling factor             =         0.0000000000
  Step size                  =         0.1185875392
  Trust radius               =         0.4724315332
  Decrease in energy         =                  YES
  Used time                  =              618.157

  Convergence check :
  Max. step size             =         0.1185875392
  Conv. limit for step size  =         0.0030000000
  Convergence in step size   =                   NO
  RMS step size              =         0.0380004960
  Conv. limit for RMS step   =         0.0015000000
  Convergence in RMS step    =                   NO
  Max. gradient              =         0.0015427929
  Conv. limit for gradients  =         0.0004500000
  Conv. for gradients        =                   NO
  RMS gradient               =         0.0004402794
  Conv. limit for RMS grad.  =         0.0003000000
  Conv. for gradients        =                   NO
 ---------------------------------------------------

 --------------------------
 OPTIMIZATION STEP:     52
 --------------------------

 Number of electrons:                                                        428
 Number of occupied orbitals:                                                217
 Number of molecular orbitals:                                               252

 Number of orbital functions:                                                976
 Number of independent orbital functions:                                    976

 Extrapolation method: PS Nth order


 SCF WAVEFUNCTION OPTIMIZATION

  Step     Update method      Time    Convergence         Total energy    Change
  ------------------------------------------------------------------------------
     1 Broy./Diag. 0.10E+00    7.6     0.05873529     -1284.5109550537 -1.28E+03
     2 Broy./Diag. 0.10E+00   13.8     0.00156416     -1284.3743539753  1.37E-01
     3 Broy./Diag. 0.10E+00   13.9     0.01040001     -1284.4465704308 -7.22E-02
     4 Broy./Diag. 0.10E+00   13.4     0.00120606     -1284.5423461189 -9.58E-02
     5 Broy./Diag. 0.10E+00   13.5     0.00391721     -1284.5354990165  6.85E-03
     6 Broy./Diag. 0.10E+00   14.9     0.00043370     -1284.5286362779  6.86E-03
     7 Broy./Diag. 0.10E+00   17.2     0.00164993     -1284.5248783734  3.76E-03
     8 Broy./Diag. 0.10E+00   16.7     0.00015344     -1284.5272153341 -2.34E-03
     9 Broy./Diag. 0.10E+00   18.2     0.00086690     -1284.5284665600 -1.25E-03
    10 Broy./Diag. 0.10E+00   18.2     0.00004273     -1284.5318859244 -3.42E-03
    11 Broy./Diag. 0.10E+00   17.7     0.00027560     -1284.5323447188 -4.59E-04
    12 Broy./Diag. 0.10E+00   17.0     0.00001777     -1284.5325287248 -1.84E-04
    13 Broy./Diag. 0.10E+00   17.8     0.00009517     -1284.5324856444  4.31E-05
    14 Broy./Diag. 0.10E+00   17.1     0.00001400     -1284.5324065620  7.91E-05
    15 Broy./Diag. 0.10E+00   17.1     0.00007775     -1284.5322955887  1.11E-04
    16 Broy./Diag. 0.10E+00   18.0     0.00000888     -1284.5323695453 -7.40E-05
    17 Broy./Diag. 0.10E+00   17.8     0.00003835     -1284.5324010261 -3.15E-05
    18 Broy./Diag. 0.10E+00   17.5     0.00001603     -1284.5324254356 -2.44E-05
    19 Broy./Diag. 0.10E+00   18.8     0.00002358     -1284.5322973264  1.28E-04
    20 Broy./Diag. 0.10E+00   18.2     0.00000586     -1284.5321648509  1.32E-04
    21 Broy./Diag. 0.10E+00   18.4     0.00000637     -1284.5321175449  4.73E-05
    22 Broy./Diag. 0.10E+00   17.6     0.00000455     -1284.5320988669  1.87E-05
    23 Broy./Diag. 0.10E+00   17.3     0.00000641     -1284.5321236091 -2.47E-05
    24 Broy./Diag. 0.10E+00   16.6     0.00000369     -1284.5321467950 -2.32E-05
    25 Broy./Diag. 0.10E+00   16.6     0.00000459     -1284.5321374994  9.30E-06
    26 Broy./Diag. 0.10E+00   16.8     0.00000114     -1284.5321299366  7.56E-06
    27 Broy./Diag. 0.10E+00   17.2     0.00000173     -1284.5321304644 -5.28E-07
    28 Broy./Diag. 0.10E+00   17.2     0.00000048     -1284.5321287024  1.76E-06
    29 Broy./Diag. 0.10E+00   17.0     0.00000147     -1284.5321289839 -2.82E-07
    30 Broy./Diag. 0.10E+00   17.1     0.00000082     -1284.5321296754 -6.92E-07
    31 Broy./Diag. 0.10E+00   17.3     0.00000170     -1284.5321341080 -4.43E-06
    32 Broy./Diag. 0.10E+00   18.7     0.00000061     -1284.5321364923 -2.38E-06
    33 Broy./Diag. 0.10E+00   18.2     0.00000089     -1284.5321309345  5.56E-06
    34 Broy./Diag. 0.10E+00   18.3     0.00000015     -1284.5321268788  4.06E-06
    35 Broy./Diag. 0.10E+00   18.2     0.00000032     -1284.5321272421 -3.63E-07
    36 Broy./Diag. 0.10E+00   18.1     0.00000006     -1284.5321281103 -8.68E-07

  *** SCF run converged in    36 steps ***


  Electronic density on regular grids:       -427.9999999937        0.0000000063
  Core density on regular grids:              427.9999993687       -0.0000006313
  Total charge density on r-space grids:       -0.0000006250
  Total charge density g-space grids:          -0.0000006250

  Overlap energy of the core charge distribution:               0.00000307988835
  Self energy of the core charge distribution:              -2253.28808377914038
  Core Hamiltonian energy:                                    717.40298184740209
  Hartree energy:                                             454.96378620569828
  Exchange-correlation energy:                               -203.28210208090957
  Dispersion energy:                                           -0.32871094626700
  Electronic entropic energy:                                  -0.00000243692946
  Fermi energy:                                                -0.16905751316497

  Total energy:                                             -1284.53212811025696

 ENERGY| Total FORCE_EVAL ( QS ) energy (a.u.):            -1284.532127809144185


 --------  Informations at step =    52 ------------
  Optimization Method        =                 BFGS
  Total Energy               =     -1284.5321278091
  Real energy change         =        -0.0002758393
  Predicted change in energy =        -0.0002157990
  Scaling factor             =         0.0000000000
  Step size                  =         0.1102816134
  Trust radius               =         0.4724315332
  Decrease in energy         =                  YES
  Used time                  =              628.175

  Convergence check :
  Max. step size             =         0.1102816134
  Conv. limit for step size  =         0.0030000000
  Convergence in step size   =                   NO
  RMS step size              =         0.0296643555
  Conv. limit for RMS step   =         0.0015000000
  Convergence in RMS step    =                   NO
  Max. gradient              =         0.0023961671
  Conv. limit for gradients  =         0.0004500000
  Conv. for gradients        =                   NO
  RMS gradient               =         0.0004539767
  Conv. limit for RMS grad.  =         0.0003000000
  Conv. for gradients        =                   NO
 ---------------------------------------------------

 --------------------------
 OPTIMIZATION STEP:     53
 --------------------------

 Number of electrons:                                                        428
 Number of occupied orbitals:                                                217
 Number of molecular orbitals:                                               252

 Number of orbital functions:                                                976
 Number of independent orbital functions:                                    976

 Extrapolation method: PS Nth order


 SCF WAVEFUNCTION OPTIMIZATION

  Step     Update method      Time    Convergence         Total energy    Change
  ------------------------------------------------------------------------------
     1 Broy./Diag. 0.10E+00    8.5     0.00997451     -1284.5307207629 -1.28E+03
     2 Broy./Diag. 0.10E+00   13.7     0.00027474     -1284.5175064463  1.32E-02
     3 Broy./Diag. 0.10E+00   14.9     0.00240571     -1284.5240705718 -6.56E-03
     4 Broy./Diag. 0.10E+00   14.8     0.00022612     -1284.5285421604 -4.47E-03
     5 Broy./Diag. 0.10E+00   15.9     0.00107409     -1284.5326955871 -4.15E-03
     6 Broy./Diag. 0.10E+00   16.8     0.00010170     -1284.5362791812 -3.58E-03
     7 Broy./Diag. 0.10E+00   16.2     0.00033525     -1284.5352404873  1.04E-03
     8 Broy./Diag. 0.10E+00   15.7     0.00003264     -1284.5333510706  1.89E-03
     9 Broy./Diag. 0.10E+00   18.9     0.00013366     -1284.5334634840 -1.12E-04
    10 Broy./Diag. 0.10E+00   19.1     0.00001288     -1284.5332711036  1.92E-04
    11 Broy./Diag. 0.10E+00   16.6     0.00008889     -1284.5331400722  1.31E-04
    12 Broy./Diag. 0.10E+00   17.7     0.00000597     -1284.5326232499  5.17E-04
    13 Broy./Diag. 0.10E+00   16.4     0.00003269     -1284.5327040019 -8.08E-05
    14 Broy./Diag. 0.10E+00   17.5     0.00000408     -1284.5326266461  7.74E-05
    15 Broy./Diag. 0.10E+00   17.5     0.00002384     -1284.5326040479  2.26E-05
    16 Broy./Diag. 0.10E+00   18.1     0.00000244     -1284.5325593849  4.47E-05
    17 Broy./Diag. 0.10E+00   18.6     0.00001427     -1284.5325121570  4.72E-05
    18 Broy./Diag. 0.10E+00   18.9     0.00000218     -1284.5325233910 -1.12E-05
    19 Broy./Diag. 0.10E+00   19.1     0.00000920     -1284.5325362790 -1.29E-05
    20 Broy./Diag. 0.10E+00   18.7     0.00000280     -1284.5325711888 -3.49E-05
    21 Broy./Diag. 0.10E+00   18.2     0.00000516     -1284.5325483272  2.29E-05
    22 Broy./Diag. 0.10E+00   19.3     0.00000082     -1284.5325325922  1.57E-05
    23 Broy./Diag. 0.10E+00   19.7     0.00000165     -1284.5325394270 -6.83E-06
    24 Broy./Diag. 0.10E+00   18.5     0.00000041     -1284.5325459354 -6.51E-06
    25 Broy./Diag. 0.10E+00   18.0     0.00000110     -1284.5325417669  4.17E-06
    26 Broy./Diag. 0.10E+00   19.0     0.00000018     -1284.5325359979  5.77E-06
    27 Broy./Diag. 0.10E+00   18.8     0.00000068     -1284.5325362990 -3.01E-07
    28 Broy./Diag. 0.10E+00   18.4     0.00000012     -1284.5325353787  9.20E-07
    29 Broy./Diag. 0.10E+00   18.0     0.00000035     -1284.5325365242 -1.15E-06
    30 Broy./Diag. 0.10E+00   17.9     0.00000011     -1284.5325364460  7.82E-08
    31 Broy./Diag. 0.10E+00   17.4     0.00000035     -1284.5325355098  9.36E-07
    32 Broy./Diag. 0.10E+00   17.5     0.00000014     -1284.5325349163  5.93E-07
    33 Broy./Diag. 0.10E+00   16.1     0.00000028     -1284.5325357554 -8.39E-07
    34 Broy./Diag. 0.10E+00   16.9     0.00000005     -1284.5325365649 -8.09E-07

  *** SCF run converged in    34 steps ***


  Electronic density on regular grids:       -427.9999999925        0.0000000075
  Core density on regular grids:              427.9999993677       -0.0000006323
  Total charge density on r-space grids:       -0.0000006248
  Total charge density g-space grids:          -0.0000006248

  Overlap energy of the core charge distribution:               0.00000301948856
  Self energy of the core charge distribution:              -2253.28808377914038
  Core Hamiltonian energy:                                    717.38189074155628
  Hartree energy:                                             454.97495282803015
  Exchange-correlation energy:                               -203.27231161477431
  Dispersion energy:                                           -0.32898495703420
  Electronic entropic energy:                                  -0.00000280301594
  Fermi energy:                                                -0.16913980335650

  Total energy:                                             -1284.53253656488960

 ENERGY| Total FORCE_EVAL ( QS ) energy (a.u.):            -1284.532535751455725


 --------  Informations at step =    53 ------------
  Optimization Method        =                 BFGS
  Total Energy               =     -1284.5325357515
  Real energy change         =        -0.0004079423
  Predicted change in energy =        -0.0002414922
  Scaling factor             =         0.0000000000
  Step size                  =         0.1012059496
  Trust radius               =         0.4724315332
  Decrease in energy         =                  YES
  Used time                  =              608.649

  Convergence check :
  Max. step size             =         0.1012059496
  Conv. limit for step size  =         0.0030000000
  Convergence in step size   =                   NO
  RMS step size              =         0.0253636175
  Conv. limit for RMS step   =         0.0015000000
  Convergence in RMS step    =                   NO
  Max. gradient              =         0.0027795645
  Conv. limit for gradients  =         0.0004500000
  Conv. for gradients        =                   NO
  RMS gradient               =         0.0006205819
  Conv. limit for RMS grad.  =         0.0003000000
  Conv. for gradients        =                   NO
 ---------------------------------------------------

 --------------------------
 OPTIMIZATION STEP:     54
 --------------------------

 Number of electrons:                                                        428
 Number of occupied orbitals:                                                217
 Number of molecular orbitals:                                               252

 Number of orbital functions:                                                976
 Number of independent orbital functions:                                    976

 Extrapolation method: PS Nth order


 SCF WAVEFUNCTION OPTIMIZATION

  Step     Update method      Time    Convergence         Total energy    Change
  ------------------------------------------------------------------------------
     1 Broy./Diag. 0.10E+00    7.5     0.05276756     -1284.5197332512 -1.28E+03
     2 Broy./Diag. 0.10E+00   13.3     0.00062178     -1284.5736620371 -5.39E-02
     3 Broy./Diag. 0.10E+00   13.8     0.00569148     -1284.5585285446  1.51E-02
     4 Broy./Diag. 0.10E+00   14.2     0.00021486     -1284.5244444233  3.41E-02
     5 Broy./Diag. 0.10E+00   14.8     0.00153367     -1284.5338757564 -9.43E-03
     6 Broy./Diag. 0.10E+00   14.6     0.00024926     -1284.5421907873 -8.32E-03
     7 Broy./Diag. 0.10E+00   14.8     0.00088312     -1284.5398774577  2.31E-03
     8 Broy./Diag. 0.10E+00   15.4     0.00013701     -1284.5355332800  4.34E-03
     9 Broy./Diag. 0.10E+00   16.6     0.00032267     -1284.5350383854  4.95E-04
    10 Broy./Diag. 0.10E+00   17.6     0.00003325     -1284.5341803151  8.58E-04
    11 Broy./Diag. 0.10E+00   16.7     0.00015693     -1284.5339575800  2.23E-04
    12 Broy./Diag. 0.10E+00   16.8     0.00001934     -1284.5333808212  5.77E-04
    13 Broy./Diag. 0.10E+00   16.9     0.00009391     -1284.5336874415 -3.07E-04
    14 Broy./Diag. 0.10E+00   16.6     0.00001022     -1284.5338835772 -1.96E-04
    15 Broy./Diag. 0.10E+00   17.1     0.00005217     -1284.5337017583  1.82E-04
    16 Broy./Diag. 0.10E+00   16.4     0.00000475     -1284.5334744217  2.27E-04
    17 Broy./Diag. 0.10E+00   17.5     0.00003123     -1284.5334310196  4.34E-05
    18 Broy./Diag. 0.10E+00   18.1     0.00000332     -1284.5334703842 -3.94E-05
    19 Broy./Diag. 0.10E+00   17.1     0.00001671     -1284.5334754029 -5.02E-06
    20 Broy./Diag. 0.10E+00   16.8     0.00000702     -1284.5335201891 -4.48E-05
    21 Broy./Diag. 0.10E+00   17.0     0.00001355     -1284.5334621597  5.80E-05
    22 Broy./Diag. 0.10E+00   17.5     0.00000251     -1284.5334235017  3.87E-05
    23 Broy./Diag. 0.10E+00   16.7     0.00000442     -1284.5334429560 -1.95E-05
    24 Broy./Diag. 0.10E+00   16.6     0.00000101     -1284.5334645301 -2.16E-05
    25 Broy./Diag. 0.10E+00   17.2     0.00000216     -1284.5334681710 -3.64E-06
    26 Broy./Diag. 0.10E+00   17.2     0.00000051     -1284.5334710038 -2.83E-06
    27 Broy./Diag. 0.10E+00   17.9     0.00000138     -1284.5334725074 -1.50E-06
    28 Broy./Diag. 0.10E+00   17.4     0.00000037     -1284.5334724358  7.16E-08
    29 Broy./Diag. 0.10E+00   17.9     0.00000098     -1284.5334662737  6.16E-06
    30 Broy./Diag. 0.10E+00   17.4     0.00000023     -1284.5334598524  6.42E-06
    31 Broy./Diag. 0.10E+00   17.0     0.00000071     -1284.5334581812  1.67E-06
    32 Broy./Diag. 0.10E+00   17.9     0.00000033     -1284.5334566962  1.49E-06
    33 Broy./Diag. 0.10E+00   17.7     0.00000074     -1284.5334591489 -2.45E-06
    34 Broy./Diag. 0.10E+00   17.8     0.00000021     -1284.5334606896 -1.54E-06
    35 Broy./Diag. 0.10E+00   17.6     0.00000036     -1284.5334585248  2.16E-06
    36 Broy./Diag. 0.10E+00   16.9     0.00000007     -1284.5334567742  1.75E-06

  *** SCF run converged in    36 steps ***


  Electronic density on regular grids:       -427.9999999910        0.0000000090
  Core density on regular grids:              427.9999993692       -0.0000006308
  Total charge density on r-space grids:       -0.0000006218
  Total charge density g-space grids:          -0.0000006218

  Overlap energy of the core charge distribution:               0.00000291499321
  Self energy of the core charge distribution:              -2253.28808377914038
  Core Hamiltonian energy:                                    717.33063046140308
  Hartree energy:                                             455.00179397517434
  Exchange-correlation energy:                               -203.24791618770450
  Dispersion energy:                                           -0.32988022896414
  Electronic entropic energy:                                  -0.00000393001329
  Fermi energy:                                                -0.16927916828369

  Total energy:                                             -1284.53345677424841

 ENERGY| Total FORCE_EVAL ( QS ) energy (a.u.):            -1284.533457938249512


 --------  Informations at step =    54 ------------
  Optimization Method        =                 BFGS
  Total Energy               =     -1284.5334579382
  Real energy change         =        -0.0009221868
  Predicted change in energy =        -0.0008031092
  Scaling factor             =         0.0000000000
  Step size                  =         0.3119664867
  Trust radius               =         0.4724315332
  Decrease in energy         =                  YES
  Used time                  =              612.471

  Convergence check :
  Max. step size             =         0.3119664867
  Conv. limit for step size  =         0.0030000000
  Convergence in step size   =                   NO
  RMS step size              =         0.0757596228
  Conv. limit for RMS step   =         0.0015000000
  Convergence in RMS step    =                   NO
  Max. gradient              =         0.0045192775
  Conv. limit for gradients  =         0.0004500000
  Conv. for gradients        =                   NO
  RMS gradient               =         0.0011138636
  Conv. limit for RMS grad.  =         0.0003000000
  Conv. for gradients        =                   NO
 ---------------------------------------------------

 --------------------------
 OPTIMIZATION STEP:     55
 --------------------------

 Number of electrons:                                                        428
 Number of occupied orbitals:                                                217
 Number of molecular orbitals:                                               252

 Number of orbital functions:                                                976
 Number of independent orbital functions:                                    976

 Extrapolation method: PS Nth order


 SCF WAVEFUNCTION OPTIMIZATION

  Step     Update method      Time    Convergence         Total energy    Change
  ------------------------------------------------------------------------------
     1 Broy./Diag. 0.10E+00    7.9     0.02321631     -1284.5186290931 -1.28E+03
     2 Broy./Diag. 0.10E+00   12.8     0.00064821     -1284.3340465394  1.85E-01
     3 Broy./Diag. 0.10E+00   13.6     0.00540002     -1284.4156757648 -8.16E-02
     4 Broy./Diag. 0.10E+00   14.0     0.00016819     -1284.5279130325 -1.12E-01
     5 Broy./Diag. 0.10E+00   13.6     0.00137165     -1284.5249197104  2.99E-03
     6 Broy./Diag. 0.10E+00   14.3     0.00009515     -1284.5277758569 -2.86E-03
     7 Broy./Diag. 0.10E+00   14.7     0.00062035     -1284.5274792986  2.97E-04
     8 Broy./Diag. 0.10E+00   16.0     0.00008329     -1284.5317869705 -4.31E-03
     9 Broy./Diag. 0.10E+00   16.4     0.00032351     -1284.5317126575  7.43E-05
    10 Broy./Diag. 0.10E+00   17.4     0.00004806     -1284.5325056876 -7.93E-04
    11 Broy./Diag. 0.10E+00   17.2     0.00013737     -1284.5334322491 -9.27E-04
    12 Broy./Diag. 0.10E+00   16.0     0.00003003     -1284.5344254704 -9.93E-04
    13 Broy./Diag. 0.10E+00   17.2     0.00007165     -1284.5340957720  3.30E-04
    14 Broy./Diag. 0.10E+00   17.2     0.00001708     -1284.5338656107  2.30E-04
    15 Broy./Diag. 0.10E+00   16.4     0.00006906     -1284.5338629221  2.69E-06
    16 Broy./Diag. 0.10E+00   16.5     0.00000548     -1284.5341180654 -2.55E-04
    17 Broy./Diag. 0.10E+00   17.8     0.00003233     -1284.5341671467 -4.91E-05
    18 Broy./Diag. 0.10E+00   18.1     0.00000307     -1284.5342487679 -8.16E-05
    19 Broy./Diag. 0.10E+00   17.3     0.00001966     -1284.5341908685  5.79E-05
    20 Broy./Diag. 0.10E+00   16.4     0.00000169     -1284.5341277918  6.31E-05
    21 Broy./Diag. 0.10E+00   17.2     0.00000818     -1284.5341373384 -9.55E-06
    22 Broy./Diag. 0.10E+00   17.2     0.00000288     -1284.5341370688  2.70E-07
    23 Broy./Diag. 0.10E+00   16.8     0.00000682     -1284.5341172547  1.98E-05
    24 Broy./Diag. 0.10E+00   17.4     0.00000154     -1284.5340963814  2.09E-05
    25 Broy./Diag. 0.10E+00   16.3     0.00000316     -1284.5341078895 -1.15E-05
    26 Broy./Diag. 0.10E+00   17.4     0.00000048     -1284.5341114805 -3.59E-06
    27 Broy./Diag. 0.10E+00   17.9     0.00000117     -1284.5340960601  1.54E-05
    28 Broy./Diag. 0.10E+00   17.8     0.00000025     -1284.5340782315  1.78E-05
    29 Broy./Diag. 0.10E+00   17.6     0.00000088     -1284.5340781444  8.72E-08
    30 Broy./Diag. 0.10E+00   17.0     0.00000014     -1284.5340804108 -2.27E-06
    31 Broy./Diag. 0.10E+00   17.7     0.00000054     -1284.5340864155 -6.00E-06
    32 Broy./Diag. 0.10E+00   17.4     0.00000011     -1284.5340946570 -8.24E-06
    33 Broy./Diag. 0.10E+00   17.4     0.00000039     -1284.5340911630  3.49E-06
    34 Broy./Diag. 0.10E+00   17.3     0.00000014     -1284.5340890877  2.08E-06
    35 Broy./Diag. 0.10E+00   15.9     0.00000036     -1284.5340887824  3.05E-07
    36 Broy./Diag. 0.10E+00   16.7     0.00000010     -1284.5340887568  2.56E-08

  *** SCF run converged in    36 steps ***


  Electronic density on regular grids:       -427.9999999913        0.0000000087
  Core density on regular grids:              427.9999993689       -0.0000006311
  Total charge density on r-space grids:       -0.0000006224
  Total charge density g-space grids:          -0.0000006224

  Overlap energy of the core charge distribution:               0.00000295780174
  Self energy of the core charge distribution:              -2253.28808377914038
  Core Hamiltonian energy:                                    717.33018078974555
  Hartree energy:                                             455.00294053429059
  Exchange-correlation energy:                               -203.24845519308846
  Dispersion energy:                                           -0.33066949281155
  Electronic entropic energy:                                  -0.00000457362292
  Fermi energy:                                                -0.16915686563105

  Total energy:                                             -1284.53408875682521

 ENERGY| Total FORCE_EVAL ( QS ) energy (a.u.):            -1284.534089200091785


 --------  Informations at step =    55 ------------
  Optimization Method        =                 BFGS
  Total Energy               =     -1284.5340892001
  Real energy change         =        -0.0006312618
  Predicted change in energy =        -0.0003860830
  Scaling factor             =         0.0000000000
  Step size                  =         0.1562123711
  Trust radius               =         0.4724315332
  Decrease in energy         =                  YES
  Used time                  =              607.205

  Convergence check :
  Max. step size             =         0.1562123711
  Conv. limit for step size  =         0.0030000000
  Convergence in step size   =                   NO
  RMS step size              =         0.0285004105
  Conv. limit for RMS step   =         0.0015000000
  Convergence in RMS step    =                   NO
  Max. gradient              =         0.0034178726
  Conv. limit for gradients  =         0.0004500000
  Conv. for gradients        =                   NO
  RMS gradient               =         0.0009434529
  Conv. limit for RMS grad.  =         0.0003000000
  Conv. for gradients        =                   NO
 ---------------------------------------------------

 --------------------------
 OPTIMIZATION STEP:     56
 --------------------------

 Number of electrons:                                                        428
 Number of occupied orbitals:                                                217
 Number of molecular orbitals:                                               252

 Number of orbital functions:                                                976
 Number of independent orbital functions:                                    976

 Extrapolation method: PS Nth order


 SCF WAVEFUNCTION OPTIMIZATION

  Step     Update method      Time    Convergence         Total energy    Change
  ------------------------------------------------------------------------------
     1 Broy./Diag. 0.10E+00    7.2     0.06875977     -1284.5228513982 -1.28E+03
     2 Broy./Diag. 0.10E+00   12.9     0.00078944     -1284.8512280630 -3.28E-01
     3 Broy./Diag. 0.10E+00   13.0     0.00688322     -1284.7098405966  1.41E-01
     4 Broy./Diag. 0.10E+00   14.1     0.00047297     -1284.5354648959  1.74E-01
     5 Broy./Diag. 0.10E+00   14.4     0.00251795     -1284.5379583622 -2.49E-03
     6 Broy./Diag. 0.10E+00   15.5     0.00032005     -1284.5416291574 -3.67E-03
     7 Broy./Diag. 0.10E+00   15.0     0.00100184     -1284.5431874218 -1.56E-03
     8 Broy./Diag. 0.10E+00   15.3     0.00010074     -1284.5403493949  2.84E-03
     9 Broy./Diag. 0.10E+00   16.2     0.00033062     -1284.5406967474 -3.47E-04
    10 Broy./Diag. 0.10E+00   16.6     0.00003711     -1284.5378753672  2.82E-03
    11 Broy./Diag. 0.10E+00   16.5     0.00022224     -1284.5369101942  9.65E-04
    12 Broy./Diag. 0.10E+00   17.1     0.00001803     -1284.5346281871  2.28E-03
    13 Broy./Diag. 0.10E+00   17.1     0.00010912     -1284.5350375933 -4.09E-04
    14 Broy./Diag. 0.10E+00   17.1     0.00000929     -1284.5352968510 -2.59E-04
    15 Broy./Diag. 0.10E+00   17.2     0.00005953     -1284.5352965478  3.03E-07
    16 Broy./Diag. 0.10E+00   17.5     0.00000672     -1284.5350668371  2.30E-04
    17 Broy./Diag. 0.10E+00   17.5     0.00003198     -1284.5347856001  2.81E-04
    18 Broy./Diag. 0.10E+00   16.2     0.00000949     -1284.5344611270  3.24E-04
    19 Broy./Diag. 0.10E+00   16.5     0.00002357     -1284.5345728042 -1.12E-04
    20 Broy./Diag. 0.10E+00   17.3     0.00000790     -1284.5347199936 -1.47E-04
    21 Broy./Diag. 0.10E+00   21.3     0.00001026     -1284.5347554528 -3.55E-05
    22 Broy./Diag. 0.10E+00   17.1     0.00000539     -1284.5347747520 -1.93E-05
    23 Broy./Diag. 0.10E+00   16.7     0.00000431     -1284.5347423661  3.24E-05
    24 Broy./Diag. 0.10E+00   17.3     0.00000192     -1284.5347026271  3.97E-05
    25 Broy./Diag. 0.10E+00   17.1     0.00000197     -1284.5346691170  3.35E-05
    26 Broy./Diag. 0.10E+00   16.3     0.00000144     -1284.5346561388  1.30E-05
    27 Broy./Diag. 0.10E+00   17.5     0.00000134     -1284.5346747630 -1.86E-05
    28 Broy./Diag. 0.10E+00   16.9     0.00000063     -1284.5346903221 -1.56E-05
    29 Broy./Diag. 0.10E+00   16.6     0.00000111     -1284.5346951280 -4.81E-06
    30 Broy./Diag. 0.10E+00   17.4     0.00000079     -1284.5346941225  1.01E-06
    31 Broy./Diag. 0.10E+00   17.6     0.00000121     -1284.5346833604  1.08E-05
    32 Broy./Diag. 0.10E+00   17.9     0.00000064     -1284.5346747260  8.63E-06
    33 Broy./Diag. 0.10E+00   18.2     0.00000088     -1284.5346768881 -2.16E-06
    34 Broy./Diag. 0.10E+00   17.1     0.00000036     -1284.5346782656 -1.38E-06
    35 Broy./Diag. 0.10E+00   17.2     0.00000038     -1284.5346771209  1.14E-06
    36 Broy./Diag. 0.10E+00   17.5     0.00000011     -1284.5346756705  1.45E-06
    37 Broy./Diag. 0.10E+00   17.6     0.00000027     -1284.5346756286  4.19E-08
    38 Broy./Diag. 0.10E+00   17.4     0.00000003     -1284.5346748842  7.44E-07

  *** SCF run converged in    38 steps ***


  Electronic density on regular grids:       -427.9999999930        0.0000000070
  Core density on regular grids:              427.9999993679       -0.0000006321
  Total charge density on r-space grids:       -0.0000006250
  Total charge density g-space grids:          -0.0000006250

  Overlap energy of the core charge distribution:               0.00000310858678
  Self energy of the core charge distribution:              -2253.28808377914038
  Core Hamiltonian energy:                                    717.37428165611709
  Hartree energy:                                             454.98626846773493
  Exchange-correlation energy:                               -203.27487940082162
  Dispersion energy:                                           -0.33225888842512
  Electronic entropic energy:                                  -0.00000604825811
  Fermi energy:                                                -0.16871566214165

  Total energy:                                             -1284.53467488420483

 ENERGY| Total FORCE_EVAL ( QS ) energy (a.u.):            -1284.534674535503882


 --------  Informations at step =    56 ------------
  Optimization Method        =                 BFGS
  Total Energy               =     -1284.5346745355
  Real energy change         =        -0.0005853354
  Predicted change in energy =        -0.0013052205
  Scaling factor             =         0.0000000000
  Step size                  =         0.3370950612
  Trust radius               =         0.4724315332
  Decrease in energy         =                  YES
  Used time                  =              645.722

  Convergence check :
  Max. step size             =         0.3370950612
  Conv. limit for step size  =         0.0030000000
  Convergence in step size   =                   NO
  RMS step size              =         0.0560681971
  Conv. limit for RMS step   =         0.0015000000
  Convergence in RMS step    =                   NO
  Max. gradient              =         0.0055474870
  Conv. limit for gradients  =         0.0004500000
  Conv. for gradients        =                   NO
  RMS gradient               =         0.0010224427
  Conv. limit for RMS grad.  =         0.0003000000
  Conv. for gradients        =                   NO
 ---------------------------------------------------

 --------------------------
 OPTIMIZATION STEP:     57
 --------------------------

 Number of electrons:                                                        428
 Number of occupied orbitals:                                                217
 Number of molecular orbitals:                                               252

 Number of orbital functions:                                                976
 Number of independent orbital functions:                                    976

 Extrapolation method: PS Nth order


 SCF WAVEFUNCTION OPTIMIZATION

  Step     Update method      Time    Convergence         Total energy    Change
  ------------------------------------------------------------------------------
     1 Broy./Diag. 0.10E+00    6.9     0.13561241     -1284.5017744375 -1.28E+03
     2 Broy./Diag. 0.10E+00   12.8     0.00086913     -1284.6205531676 -1.19E-01
     3 Broy./Diag. 0.10E+00   13.9     0.00780904     -1284.5797252883  4.08E-02
     4 Broy./Diag. 0.10E+00   13.3     0.00014934     -1284.5299200108  4.98E-02
     5 Broy./Diag. 0.10E+00   14.1     0.00124779     -1284.5348804452 -4.96E-03
     6 Broy./Diag. 0.10E+00   14.3     0.00011393     -1284.5369908571 -2.11E-03
     7 Broy./Diag. 0.10E+00   14.9     0.00069088     -1284.5381504749 -1.16E-03
     8 Broy./Diag. 0.10E+00   15.7     0.00011993     -1284.5367813000  1.37E-03
     9 Broy./Diag. 0.10E+00   16.8     0.00036120     -1284.5377740188 -9.93E-04
    10 Broy./Diag. 0.10E+00   17.0     0.00004776     -1284.5379418378 -1.68E-04
    11 Broy./Diag. 0.10E+00   16.3     0.00012102     -1284.5368918096  1.05E-03
    12 Broy./Diag. 0.10E+00   16.7     0.00001609     -1284.5353524334  1.54E-03
    13 Broy./Diag. 0.10E+00   17.1     0.00006867     -1284.5356269953 -2.75E-04
    14 Broy./Diag. 0.10E+00   16.4     0.00000831     -1284.5354476877  1.79E-04
    15 Broy./Diag. 0.10E+00   16.9     0.00005504     -1284.5356657594 -2.18E-04
    16 Broy./Diag. 0.10E+00   17.3     0.00000682     -1284.5355567261  1.09E-04
    17 Broy./Diag. 0.10E+00   17.7     0.00003771     -1284.5352504137  3.06E-04
    18 Broy./Diag. 0.10E+00   17.8     0.00000318     -1284.5348251954  4.25E-04
    19 Broy./Diag. 0.10E+00   16.7     0.00001283     -1284.5348879655 -6.28E-05
    20 Broy./Diag. 0.10E+00   16.7     0.00000445     -1284.5349633549 -7.54E-05
    21 Broy./Diag. 0.10E+00   17.1     0.00000965     -1284.5349542727  9.08E-06
    22 Broy./Diag. 0.10E+00   16.9     0.00000326     -1284.5349388896  1.54E-05
    23 Broy./Diag. 0.10E+00   17.1     0.00000536     -1284.5349366453  2.24E-06
    24 Broy./Diag. 0.10E+00   17.8     0.00000120     -1284.5349256040  1.10E-05
    25 Broy./Diag. 0.10E+00   17.3     0.00000210     -1284.5348881877  3.74E-05
    26 Broy./Diag. 0.10E+00   16.9     0.00000043     -1284.5348624167  2.58E-05
    27 Broy./Diag. 0.10E+00   17.6     0.00000105     -1284.5348781767 -1.58E-05
    28 Broy./Diag. 0.10E+00   16.1     0.00000025     -1284.5348945876 -1.64E-05
    29 Broy./Diag. 0.10E+00   17.5     0.00000080     -1284.5349077828 -1.32E-05
    30 Broy./Diag. 0.10E+00   17.9     0.00000020     -1284.5349152820 -7.50E-06
    31 Broy./Diag. 0.10E+00   17.4     0.00000066     -1284.5349032766  1.20E-05
    32 Broy./Diag. 0.10E+00   17.4     0.00000019     -1284.5348894614  1.38E-05
    33 Broy./Diag. 0.10E+00   17.4     0.00000048     -1284.5348902407 -7.79E-07
    34 Broy./Diag. 0.10E+00   17.1     0.00000019     -1284.5348918414 -1.60E-06
    35 Broy./Diag. 0.10E+00   17.5     0.00000035     -1284.5348932344 -1.39E-06
    36 Broy./Diag. 0.10E+00   17.7     0.00000006     -1284.5348940902 -8.56E-07

  *** SCF run converged in    36 steps ***


  Electronic density on regular grids:       -427.9999999940        0.0000000060
  Core density on regular grids:              427.9999993684       -0.0000006316
  Total charge density on r-space grids:       -0.0000006256
  Total charge density g-space grids:          -0.0000006256

  Overlap energy of the core charge distribution:               0.00000324324239
  Self energy of the core charge distribution:              -2253.28808377914038
  Core Hamiltonian energy:                                    717.41140320497448
  Hartree energy:                                             454.96542368040230
  Exchange-correlation energy:                               -203.29234139383396
  Dispersion energy:                                           -0.33129499718399
  Electronic entropic energy:                                  -0.00000404866659
  Fermi energy:                                                -0.16874385540162

  Total energy:                                             -1284.53489409020744

 ENERGY| Total FORCE_EVAL ( QS ) energy (a.u.):            -1284.534892791046559


 --------  Informations at step =    57 ------------
  Optimization Method        =                 BFGS
  Total Energy               =     -1284.5348927910
  Real energy change         =        -0.0002182555
  Predicted change in energy =        -0.0011594192
  Scaling factor             =         0.0000000000
  Step size                  =         0.2824502518
  Trust radius               =         0.4724315332
  Decrease in energy         =                  YES
  Used time                  =              606.697

  Convergence check :
  Max. step size             =         0.2824502518
  Conv. limit for step size  =         0.0030000000
  Convergence in step size   =                   NO
  RMS step size              =         0.0559056630
  Conv. limit for RMS step   =         0.0015000000
  Convergence in RMS step    =                   NO
  Max. gradient              =         0.0038877137
  Conv. limit for gradients  =         0.0004500000
  Conv. for gradients        =                   NO
  RMS gradient               =         0.0010499820
  Conv. limit for RMS grad.  =         0.0003000000
  Conv. for gradients        =                   NO
 ---------------------------------------------------

 --------------------------
 OPTIMIZATION STEP:     58
 --------------------------

 Number of electrons:                                                        428
 Number of occupied orbitals:                                                217
 Number of molecular orbitals:                                               252

 Number of orbital functions:                                                976
 Number of independent orbital functions:                                    976

 Extrapolation method: PS Nth order


 SCF WAVEFUNCTION OPTIMIZATION

  Step     Update method      Time    Convergence         Total energy    Change
  ------------------------------------------------------------------------------
     1 Broy./Diag. 0.10E+00    7.7     0.14837224     -1284.4691248467 -1.28E+03
     2 Broy./Diag. 0.10E+00   12.6     0.00106941     -1284.5771812918 -1.08E-01
     3 Broy./Diag. 0.10E+00   14.3     0.00947227     -1284.5535650034  2.36E-02
     4 Broy./Diag. 0.10E+00   13.7     0.00037752     -1284.5198846554  3.37E-02
     5 Broy./Diag. 0.10E+00   14.1     0.00248430     -1284.5295880495 -9.70E-03
     6 Broy./Diag. 0.10E+00   14.0     0.00035172     -1284.5438580749 -1.43E-02
     7 Broy./Diag. 0.10E+00   14.8     0.00117031     -1284.5394857969  4.37E-03
     8 Broy./Diag. 0.10E+00   15.3     0.00017462     -1284.5341141698  5.37E-03
     9 Broy./Diag. 0.10E+00   17.0     0.00050356     -1284.5332574884  8.57E-04
    10 Broy./Diag. 0.10E+00   17.7     0.00003306     -1284.5327828792  4.75E-04
    11 Broy./Diag. 0.10E+00   17.6     0.00018080     -1284.5332504900 -4.68E-04
    12 Broy./Diag. 0.10E+00   16.9     0.00002489     -1284.5342028181 -9.52E-04
    13 Broy./Diag. 0.10E+00   16.7     0.00012127     -1284.5342295925 -2.68E-05
    14 Broy./Diag. 0.10E+00   16.8     0.00001312     -1284.5346551901 -4.26E-04
    15 Broy./Diag. 0.10E+00   17.3     0.00007162     -1284.5342590433  3.96E-04
    16 Broy./Diag. 0.10E+00   16.8     0.00000766     -1284.5342384087  2.06E-05
    17 Broy./Diag. 0.10E+00   17.0     0.00004498     -1284.5343701872 -1.32E-04
    18 Broy./Diag. 0.10E+00   16.5     0.00000774     -1284.5347891293 -4.19E-04
    19 Broy./Diag. 0.10E+00   17.0     0.00003689     -1284.5347651508  2.40E-05
    20 Broy./Diag. 0.10E+00   16.9     0.00000764     -1284.5347819738 -1.68E-05
    21 Broy./Diag. 0.10E+00   17.0     0.00001530     -1284.5346879017  9.41E-05
    22 Broy./Diag. 0.10E+00   16.9     0.00000586     -1284.5346268858  6.10E-05
    23 Broy./Diag. 0.10E+00   16.9     0.00000850     -1284.5346619989 -3.51E-05
    24 Broy./Diag. 0.10E+00   16.6     0.00000161     -1284.5346994628 -3.75E-05
    25 Broy./Diag. 0.10E+00   17.4     0.00000388     -1284.5347062499 -6.79E-06
    26 Broy./Diag. 0.10E+00   16.8     0.00000064     -1284.5347068000 -5.50E-07
    27 Broy./Diag. 0.10E+00   17.6     0.00000206     -1284.5346965612  1.02E-05
    28 Broy./Diag. 0.10E+00   17.8     0.00000033     -1284.5346859266  1.06E-05
    29 Broy./Diag. 0.10E+00   17.4     0.00000115     -1284.5346757320  1.02E-05
    30 Broy./Diag. 0.10E+00   17.3     0.00000021     -1284.5346718904  3.84E-06
    31 Broy./Diag. 0.10E+00   18.4     0.00000077     -1284.5346759754 -4.08E-06
    32 Broy./Diag. 0.10E+00   18.0     0.00000045     -1284.5346837857 -7.81E-06
    33 Broy./Diag. 0.10E+00   17.7     0.00000102     -1284.5346875723 -3.79E-06
    34 Broy./Diag. 0.10E+00   17.6     0.00000017     -1284.5346901870 -2.61E-06
    35 Broy./Diag. 0.10E+00   18.1     0.00000036     -1284.5346864718  3.72E-06
    36 Broy./Diag. 0.10E+00   17.8     0.00000006     -1284.5346837356  2.74E-06

  *** SCF run converged in    36 steps ***


  Electronic density on regular grids:       -427.9999999972        0.0000000028
  Core density on regular grids:              427.9999993679       -0.0000006321
  Total charge density on r-space grids:       -0.0000006293
  Total charge density g-space grids:          -0.0000006293

  Overlap energy of the core charge distribution:               0.00000291216367
  Self energy of the core charge distribution:              -2253.28808377914038
  Core Hamiltonian energy:                                    717.34786489969042
  Hartree energy:                                             455.00046927813707
  Exchange-correlation energy:                               -203.26357739927533
  Dispersion energy:                                           -0.33135430656589
  Electronic entropic energy:                                  -0.00000534064166
  Fermi energy:                                                -0.16880269449086

  Total energy:                                             -1284.53468373562873

 ENERGY| Total FORCE_EVAL ( QS ) energy (a.u.):            -1284.534686158013983


 --------  Informations at step =    58 ------------
  Optimization Method        =                 BFGS
  Total Energy               =     -1284.5346861580
  Real energy change         =         0.0002066330
  Predicted change in energy =        -0.0011449311
  Scaling factor             =         0.0000000000
  Step size                  =         0.1642167078
  Trust radius               =         0.4724315332
  Decrease in energy         =                   NO
  Used time                  =              611.011

  Convergence check :
  Max. step size             =         0.1642167078
  Conv. limit for step size  =         0.0030000000
  Convergence in step size   =                   NO
  RMS step size              =         0.0602266344
  Conv. limit for RMS step   =         0.0015000000
  Convergence in RMS step    =                   NO
  Max. gradient              =         0.0064781586
  Conv. limit for gradients  =         0.0004500000
  Conv. for gradients        =                   NO
  RMS gradient               =         0.0015374798
  Conv. limit for RMS grad.  =         0.0003000000
  Conv. for gradients        =                   NO
 ---------------------------------------------------

 --------------------------
 OPTIMIZATION STEP:     59
 --------------------------

 Number of electrons:                                                        428
 Number of occupied orbitals:                                                217
 Number of molecular orbitals:                                               252

 Number of orbital functions:                                                976
 Number of independent orbital functions:                                    976

 Extrapolation method: PS Nth order


 SCF WAVEFUNCTION OPTIMIZATION

  Step     Update method      Time    Convergence         Total energy    Change
  ------------------------------------------------------------------------------
     1 Broy./Diag. 0.10E+00    8.4     0.08119721     -1284.4804158461 -1.28E+03
     2 Broy./Diag. 0.10E+00   12.8     0.00098336     -1284.3841845472  9.62E-02
     3 Broy./Diag. 0.10E+00   13.9     0.00804660     -1284.4457728432 -6.16E-02
     4 Broy./Diag. 0.10E+00   13.3     0.00099983     -1284.5464463561 -1.01E-01
     5 Broy./Diag. 0.10E+00   13.5     0.00409384     -1284.5320332378  1.44E-02
     6 Broy./Diag. 0.10E+00   13.9     0.00054418     -1284.5216405025  1.04E-02
     7 Broy./Diag. 0.10E+00   15.1     0.00137295     -1284.5194524027  2.19E-03
     8 Broy./Diag. 0.10E+00   16.2     0.00018438     -1284.5254020556 -5.95E-03
     9 Broy./Diag. 0.10E+00   16.3     0.00087951     -1284.5271999770 -1.80E-03
    10 Broy./Diag. 0.10E+00   17.8     0.00003118     -1284.5332212215 -6.02E-03
    11 Broy./Diag. 0.10E+00   17.8     0.00027634     -1284.5335533027 -3.32E-04
    12 Broy./Diag. 0.10E+00   17.5     0.00001850     -1284.5350506099 -1.50E-03
    13 Broy./Diag. 0.10E+00   17.6     0.00012252     -1284.5347584051  2.92E-04
    14 Broy./Diag. 0.10E+00   18.1     0.00001255     -1284.5353168484 -5.58E-04
    15 Broy./Diag. 0.10E+00   17.4     0.00007135     -1284.5353251295 -8.28E-06
    16 Broy./Diag. 0.10E+00   16.9     0.00000475     -1284.5358111678 -4.86E-04
    17 Broy./Diag. 0.10E+00   17.9     0.00002396     -1284.5359298755 -1.19E-04
    18 Broy./Diag. 0.10E+00   17.8     0.00001645     -1284.5360935302 -1.64E-04
    19 Broy./Diag. 0.10E+00   17.8     0.00003087     -1284.5359874419  1.06E-04
    20 Broy./Diag. 0.10E+00   17.9     0.00000548     -1284.5358659922  1.21E-04
    21 Broy./Diag. 0.10E+00   17.6     0.00000593     -1284.5358262990  3.97E-05
    22 Broy./Diag. 0.10E+00   17.5     0.00000499     -1284.5358151409  1.12E-05
    23 Broy./Diag. 0.10E+00   17.1     0.00000667     -1284.5358492697 -3.41E-05
    24 Broy./Diag. 0.10E+00   16.6     0.00000411     -1284.5358817147 -3.24E-05
    25 Broy./Diag. 0.10E+00   16.9     0.00000434     -1284.5358896707 -7.96E-06
    26 Broy./Diag. 0.10E+00   17.1     0.00000200     -1284.5358864423  3.23E-06
    27 Broy./Diag. 0.10E+00   17.0     0.00000318     -1284.5358752726  1.12E-05
    28 Broy./Diag. 0.10E+00   17.0     0.00000099     -1284.5358713359  3.94E-06
    29 Broy./Diag. 0.10E+00   17.1     0.00000195     -1284.5358678735  3.46E-06
    30 Broy./Diag. 0.10E+00   17.1     0.00000084     -1284.5358743822 -6.51E-06
    31 Broy./Diag. 0.10E+00   18.1     0.00000142     -1284.5358848321 -1.04E-05
    32 Broy./Diag. 0.10E+00   18.0     0.00000077     -1284.5358939825 -9.15E-06
    33 Broy./Diag. 0.10E+00   17.5     0.00000105     -1284.5358912481  2.73E-06
    34 Broy./Diag. 0.10E+00   16.9     0.00000018     -1284.5358884024  2.85E-06
    35 Broy./Diag. 0.10E+00   17.4     0.00000037     -1284.5358861074  2.29E-06
    36 Broy./Diag. 0.10E+00   17.0     0.00000005     -1284.5358850000  1.11E-06

  *** SCF run converged in    36 steps ***


  Electronic density on regular grids:       -427.9999999936        0.0000000064
  Core density on regular grids:              427.9999993677       -0.0000006323
  Total charge density on r-space grids:       -0.0000006258
  Total charge density g-space grids:          -0.0000006258

  Overlap energy of the core charge distribution:               0.00000316160969
  Self energy of the core charge distribution:              -2253.28808377914038
  Core Hamiltonian energy:                                    717.37400020849509
  Hartree energy:                                             454.98464323800960
  Exchange-correlation energy:                               -203.27500763822573
  Dispersion energy:                                           -0.33143527377131
  Electronic entropic energy:                                  -0.00000491693851
  Fermi energy:                                                -0.16881583930036

  Total energy:                                             -1284.53588499996317

 ENERGY| Total FORCE_EVAL ( QS ) energy (a.u.):            -1284.535885287579504


 --------  Informations at step =    59 ------------
  Optimization Method        =                 BFGS
  Total Energy               =     -1284.5358852876
  Real energy change         =        -0.0011991296
  Predicted change in energy =        -0.0012061974
  Scaling factor             =         0.0000000000
  Step size                  =         0.1118215433
  Trust radius               =         0.4724315332
  Decrease in energy         =                  YES
  Used time                  =              614.819

  Convergence check :
  Max. step size             =         0.1118215433
  Conv. limit for step size  =         0.0030000000
  Convergence in step size   =                   NO
  RMS step size              =         0.0277710772
  Conv. limit for RMS step   =         0.0015000000
  Convergence in RMS step    =                   NO
  Max. gradient              =         0.0018152106
  Conv. limit for gradients  =         0.0004500000
  Conv. for gradients        =                   NO
  RMS gradient               =         0.0004626156
  Conv. limit for RMS grad.  =         0.0003000000
  Conv. for gradients        =                   NO
 ---------------------------------------------------

 --------------------------
 OPTIMIZATION STEP:     60
 --------------------------

 Number of electrons:                                                        428
 Number of occupied orbitals:                                                217
 Number of molecular orbitals:                                               252

 Number of orbital functions:                                                976
 Number of independent orbital functions:                                    976

 Extrapolation method: PS Nth order


 SCF WAVEFUNCTION OPTIMIZATION

  Step     Update method      Time    Convergence         Total energy    Change
  ------------------------------------------------------------------------------
     1 Broy./Diag. 0.10E+00    6.9     0.05763933     -1284.5111325598 -1.28E+03
     2 Broy./Diag. 0.10E+00   12.7     0.00146905     -1284.6137786528 -1.03E-01
     3 Broy./Diag. 0.10E+00   13.2     0.01018267     -1284.5719887612  4.18E-02
     4 Broy./Diag. 0.10E+00   13.1     0.00117895     -1284.5274486123  4.45E-02
     5 Broy./Diag. 0.10E+00   14.3     0.00367843     -1284.5359394201 -8.49E-03
     6 Broy./Diag. 0.10E+00   14.7     0.00073043     -1284.5449172808 -8.98E-03
     7 Broy./Diag. 0.10E+00   15.2     0.00233681     -1284.5435906325  1.33E-03
     8 Broy./Diag. 0.10E+00   14.6     0.00020219     -1284.5374846813  6.11E-03
     9 Broy./Diag. 0.10E+00   16.1     0.00116267     -1284.5387233248 -1.24E-03
    10 Broy./Diag. 0.10E+00   17.1     0.00002486     -1284.5382275053  4.96E-04
    11 Broy./Diag. 0.10E+00   17.6     0.00020048     -1284.5374698218  7.58E-04
    12 Broy./Diag. 0.10E+00   17.5     0.00001539     -1284.5362295904  1.24E-03
    13 Broy./Diag. 0.10E+00   17.7     0.00009382     -1284.5362765234 -4.69E-05
    14 Broy./Diag. 0.10E+00   17.1     0.00001188     -1284.5362513682  2.52E-05
    15 Broy./Diag. 0.10E+00   18.0     0.00007147     -1284.5363285799 -7.72E-05
    16 Broy./Diag. 0.10E+00   17.5     0.00000539     -1284.5362475574  8.10E-05
    17 Broy./Diag. 0.10E+00   18.1     0.00003055     -1284.5361552471  9.23E-05
    18 Broy./Diag. 0.10E+00   17.4     0.00000287     -1284.5360616573  9.36E-05
    19 Broy./Diag. 0.10E+00   17.1     0.00001484     -1284.5360956921 -3.40E-05
    20 Broy./Diag. 0.10E+00   17.0     0.00000244     -1284.5361652885 -6.96E-05
    21 Broy./Diag. 0.10E+00   16.5     0.00000945     -1284.5361384157  2.69E-05
    22 Broy./Diag. 0.10E+00   17.3     0.00000374     -1284.5361048161  3.36E-05
    23 Broy./Diag. 0.10E+00   17.3     0.00000891     -1284.5361074693 -2.65E-06
    24 Broy./Diag. 0.10E+00   17.2     0.00000103     -1284.5361088900 -1.42E-06
    25 Broy./Diag. 0.10E+00   16.5     0.00000197     -1284.5360887974  2.01E-05
    26 Broy./Diag. 0.10E+00   16.8     0.00000037     -1284.5360749061  1.39E-05
    27 Broy./Diag. 0.10E+00   16.0     0.00000165     -1284.5360884265 -1.35E-05
    28 Broy./Diag. 0.10E+00   17.5     0.00000014     -1284.5361016067 -1.32E-05
    29 Broy./Diag. 0.10E+00   17.6     0.00000102     -1284.5360953332  6.27E-06
    30 Broy./Diag. 0.10E+00   17.5     0.00000007     -1284.5360876865  7.65E-06

  *** SCF run converged in    30 steps ***


  Electronic density on regular grids:       -427.9999999941        0.0000000059
  Core density on regular grids:              427.9999993677       -0.0000006323
  Total charge density on r-space grids:       -0.0000006264
  Total charge density g-space grids:          -0.0000006264

  Overlap energy of the core charge distribution:               0.00000311943586
  Self energy of the core charge distribution:              -2253.28808377914038
  Core Hamiltonian energy:                                    717.38127593178024
  Hartree energy:                                             454.98372958923858
  Exchange-correlation energy:                               -203.28107038593387
  Dispersion energy:                                           -0.33193699466409
  Electronic entropic energy:                                  -0.00000516723454
  Fermi energy:                                                -0.16872208733916

  Total energy:                                             -1284.53608768651770

 ENERGY| Total FORCE_EVAL ( QS ) energy (a.u.):            -1284.536089946758466


 --------  Informations at step =    60 ------------
  Optimization Method        =                 BFGS
  Total Energy               =     -1284.5360899468
  Real energy change         =        -0.0002046592
  Predicted change in energy =        -0.0001591616
  Scaling factor             =         0.0000000000
  Step size                  =         0.0753560085
  Trust radius               =         0.4724315332
  Decrease in energy         =                  YES
  Used time                  =              508.117

  Convergence check :
  Max. step size             =         0.0753560085
  Conv. limit for step size  =         0.0030000000
  Convergence in step size   =                   NO
  RMS step size              =         0.0125008447
  Conv. limit for RMS step   =         0.0015000000
  Convergence in RMS step    =                   NO
  Max. gradient              =         0.0007884862
  Conv. limit for gradients  =         0.0004500000
  Conv. for gradients        =                   NO
  RMS gradient               =         0.0003330147
  Conv. limit for RMS grad.  =         0.0003000000
  Conv. for gradients        =                   NO
 ---------------------------------------------------

 --------------------------
 OPTIMIZATION STEP:     61
 --------------------------

 Number of electrons:                                                        428
 Number of occupied orbitals:                                                217
 Number of molecular orbitals:                                               252

 Number of orbital functions:                                                976
 Number of independent orbital functions:                                    976

 Extrapolation method: PS Nth order


 SCF WAVEFUNCTION OPTIMIZATION

  Step     Update method      Time    Convergence         Total energy    Change
  ------------------------------------------------------------------------------
     1 Broy./Diag. 0.10E+00    7.1     0.02281694     -1284.5337060855 -1.28E+03
     2 Broy./Diag. 0.10E+00   12.9     0.00060134     -1284.5149690788  1.87E-02
     3 Broy./Diag. 0.10E+00   13.5     0.00388604     -1284.5312437295 -1.63E-02
     4 Broy./Diag. 0.10E+00   13.3     0.00042069     -1284.5352567021 -4.01E-03
     5 Broy./Diag. 0.10E+00   14.1     0.00142716     -1284.5354067934 -1.50E-04
     6 Broy./Diag. 0.10E+00   14.7     0.00019814     -1284.5322267356  3.18E-03
     7 Broy./Diag. 0.10E+00   15.9     0.00068308     -1284.5363639378 -4.14E-03
     8 Broy./Diag. 0.10E+00   15.7     0.00007919     -1284.5395600711 -3.20E-03
     9 Broy./Diag. 0.10E+00   16.2     0.00039403     -1284.5383788649  1.18E-03
    10 Broy./Diag. 0.10E+00   16.9     0.00001548     -1284.5367360946  1.64E-03
    11 Broy./Diag. 0.10E+00   17.3     0.00009281     -1284.5365342487  2.02E-04
    12 Broy./Diag. 0.10E+00   16.7     0.00000791     -1284.5361652799  3.69E-04
    13 Broy./Diag. 0.10E+00   17.3     0.00004255     -1284.5364616035 -2.96E-04
    14 Broy./Diag. 0.10E+00   17.5     0.00000458     -1284.5366105978 -1.49E-04
    15 Broy./Diag. 0.10E+00   16.9     0.00002880     -1284.5365299628  8.06E-05
    16 Broy./Diag. 0.10E+00   16.9     0.00000196     -1284.5363629264  1.67E-04
    17 Broy./Diag. 0.10E+00   17.3     0.00001090     -1284.5363502590  1.27E-05
    18 Broy./Diag. 0.10E+00   17.2     0.00000325     -1284.5363549961 -4.74E-06
    19 Broy./Diag. 0.10E+00   17.6     0.00001056     -1284.5363198430  3.52E-05
    20 Broy./Diag. 0.10E+00   16.9     0.00000199     -1284.5362943887  2.55E-05
    21 Broy./Diag. 0.10E+00   18.0     0.00000346     -1284.5363133342 -1.89E-05
    22 Broy./Diag. 0.10E+00   18.3     0.00000113     -1284.5363270871 -1.38E-05
    23 Broy./Diag. 0.10E+00   17.4     0.00000223     -1284.5363122289  1.49E-05
    24 Broy./Diag. 0.10E+00   17.7     0.00000036     -1284.5363017910  1.04E-05
    25 Broy./Diag. 0.10E+00   16.9     0.00000119     -1284.5363062450 -4.45E-06
    26 Broy./Diag. 0.10E+00   17.7     0.00000023     -1284.5363148968 -8.65E-06
    27 Broy./Diag. 0.10E+00   16.7     0.00000083     -1284.5363200947 -5.20E-06
    28 Broy./Diag. 0.10E+00   16.9     0.00000018     -1284.5363253121 -5.22E-06
    29 Broy./Diag. 0.10E+00   16.8     0.00000051     -1284.5363216050  3.71E-06
    30 Broy./Diag. 0.10E+00   17.7     0.00000014     -1284.5363180265  3.58E-06
    31 Broy./Diag. 0.10E+00   17.4     0.00000042     -1284.5363186280 -6.02E-07
    32 Broy./Diag. 0.10E+00   17.6     0.00000013     -1284.5363191118 -4.84E-07
    33 Broy./Diag. 0.10E+00   18.4     0.00000026     -1284.5363184019  7.10E-07
    34 Broy./Diag. 0.10E+00   18.1     0.00000006     -1284.5363176433  7.59E-07

  *** SCF run converged in    34 steps ***


  Electronic density on regular grids:       -427.9999999952        0.0000000048
  Core density on regular grids:              427.9999993676       -0.0000006324
  Total charge density on r-space grids:       -0.0000006275
  Total charge density g-space grids:          -0.0000006275

  Overlap energy of the core charge distribution:               0.00000311423983
  Self energy of the core charge distribution:              -2253.28808377914038
  Core Hamiltonian energy:                                    717.38315826859559
  Hartree energy:                                             454.98367427917401
  Exchange-correlation energy:                               -203.28287989051699
  Dispersion energy:                                           -0.33218442146195
  Electronic entropic energy:                                  -0.00000521415953
  Fermi energy:                                                -0.16871315804626

  Total energy:                                             -1284.53631764326747

 ENERGY| Total FORCE_EVAL ( QS ) energy (a.u.):            -1284.536318215129995


 --------  Informations at step =    61 ------------
  Optimization Method        =                 BFGS
  Total Energy               =     -1284.5363182151
  Real energy change         =        -0.0002282684
  Predicted change in energy =        -0.0001451427
  Scaling factor             =         0.0000000000
  Step size                  =         0.0556932322
  Trust radius               =         0.4724315332
  Decrease in energy         =                  YES
  Used time                  =              580.306

  Convergence check :
  Max. step size             =         0.0556932322
  Conv. limit for step size  =         0.0030000000
  Convergence in step size   =                   NO
  RMS step size              =         0.0127245241
  Conv. limit for RMS step   =         0.0015000000
  Convergence in RMS step    =                   NO
  Max. gradient              =         0.0008890264
  Conv. limit for gradients  =         0.0004500000
  Conv. for gradients        =                   NO
  RMS gradient               =         0.0002873144
  Conv. limit for RMS grad.  =         0.0003000000
  Conv. in RMS gradients     =                  YES
 ---------------------------------------------------

 --------------------------
 OPTIMIZATION STEP:     62
 --------------------------

 Number of electrons:                                                        428
 Number of occupied orbitals:                                                217
 Number of molecular orbitals:                                               252

 Number of orbital functions:                                                976
 Number of independent orbital functions:                                    976

 Extrapolation method: PS Nth order


 SCF WAVEFUNCTION OPTIMIZATION

  Step     Update method      Time    Convergence         Total energy    Change
  ------------------------------------------------------------------------------
     1 Broy./Diag. 0.10E+00    7.4     0.00699666     -1284.5356224977 -1.28E+03
     2 Broy./Diag. 0.10E+00   13.7     0.00025887     -1284.5703844706 -3.48E-02
     3 Broy./Diag. 0.10E+00   13.7     0.00222899     -1284.5560789535  1.43E-02
     4 Broy./Diag. 0.10E+00   14.0     0.00006743     -1284.5419442008  1.41E-02
     5 Broy./Diag. 0.10E+00   14.5     0.00037947     -1284.5396290173  2.32E-03
     6 Broy./Diag. 0.10E+00   14.5     0.00006822     -1284.5365212653  3.11E-03
     7 Broy./Diag. 0.10E+00   15.3     0.00029469     -1284.5376843193 -1.16E-03
     8 Broy./Diag. 0.10E+00   15.4     0.00003826     -1284.5384219084 -7.38E-04
     9 Broy./Diag. 0.10E+00   16.7     0.00010429     -1284.5381366589  2.85E-04
    10 Broy./Diag. 0.10E+00   17.4     0.00001631     -1284.5374076606  7.29E-04
    11 Broy./Diag. 0.10E+00   16.9     0.00007260     -1284.5372806080  1.27E-04
    12 Broy./Diag. 0.10E+00   16.9     0.00000555     -1284.5368582710  4.22E-04
    13 Broy./Diag. 0.10E+00   17.3     0.00002757     -1284.5368798277 -2.16E-05
    14 Broy./Diag. 0.10E+00   18.0     0.00000234     -1284.5367196807  1.60E-04
    15 Broy./Diag. 0.10E+00   17.5     0.00001554     -1284.5367394383 -1.98E-05
    16 Broy./Diag. 0.10E+00   16.5     0.00000145     -1284.5366836984  5.57E-05
    17 Broy./Diag. 0.10E+00   16.6     0.00000796     -1284.5366494553  3.42E-05
    18 Broy./Diag. 0.10E+00   17.2     0.00000093     -1284.5366125954  3.69E-05
    19 Broy./Diag. 0.10E+00   17.5     0.00000436     -1284.5365908848  2.17E-05
    20 Broy./Diag. 0.10E+00   17.2     0.00000153     -1284.5365806077  1.03E-05
    21 Broy./Diag. 0.10E+00   16.8     0.00000451     -1284.5365910869 -1.05E-05
    22 Broy./Diag. 0.10E+00   16.7     0.00000118     -1284.5366017255 -1.06E-05
    23 Broy./Diag. 0.10E+00   17.6     0.00000201     -1284.5365916134  1.01E-05
    24 Broy./Diag. 0.10E+00   17.9     0.00000027     -1284.5365820587  9.55E-06
    25 Broy./Diag. 0.10E+00   17.3     0.00000069     -1284.5365823816 -3.23E-07
    26 Broy./Diag. 0.10E+00   16.8     0.00000012     -1284.5365813115  1.07E-06
    27 Broy./Diag. 0.10E+00   17.0     0.00000048     -1284.5365818314 -5.20E-07
    28 Broy./Diag. 0.10E+00   17.1     0.00000007     -1284.5365803402  1.49E-06

  *** SCF run converged in    28 steps ***


  Electronic density on regular grids:       -427.9999999973        0.0000000027
  Core density on regular grids:              427.9999993683       -0.0000006317
  Total charge density on r-space grids:       -0.0000006290
  Total charge density g-space grids:          -0.0000006290

  Overlap energy of the core charge distribution:               0.00000310636144
  Self energy of the core charge distribution:              -2253.28808377914038
  Core Hamiltonian energy:                                    717.38324495314362
  Hartree energy:                                             454.98466150471603
  Exchange-correlation energy:                               -203.28396088896213
  Dispersion energy:                                           -0.33244013757122
  Electronic entropic energy:                                  -0.00000509875905
  Fermi energy:                                                -0.16877799828066

  Total energy:                                             -1284.53658034020668

 ENERGY| Total FORCE_EVAL ( QS ) energy (a.u.):            -1284.536579163275292


 --------  Informations at step =    62 ------------
  Optimization Method        =                 BFGS
  Total Energy               =     -1284.5365791633
  Real energy change         =        -0.0002609481
  Predicted change in energy =        -0.0002314271
  Scaling factor             =         0.0000000000
  Step size                  =         0.0953201120
  Trust radius               =         0.4724315332
  Decrease in energy         =                  YES
  Used time                  =              472.135

  Convergence check :
  Max. step size             =         0.0953201120
  Conv. limit for step size  =         0.0030000000
  Convergence in step size   =                   NO
  RMS step size              =         0.0217482346
  Conv. limit for RMS step   =         0.0015000000
  Convergence in RMS step    =                   NO
  Max. gradient              =         0.0006080640
  Conv. limit for gradients  =         0.0004500000
  Conv. for gradients        =                   NO
  RMS gradient               =         0.0002410382
  Conv. limit for RMS grad.  =         0.0003000000
  Conv. in RMS gradients     =                  YES
 ---------------------------------------------------

 --------------------------
 OPTIMIZATION STEP:     63
 --------------------------

 Number of electrons:                                                        428
 Number of occupied orbitals:                                                217
 Number of molecular orbitals:                                               252

 Number of orbital functions:                                                976
 Number of independent orbital functions:                                    976

 Extrapolation method: PS Nth order


 SCF WAVEFUNCTION OPTIMIZATION

  Step     Update method      Time    Convergence         Total energy    Change
  ------------------------------------------------------------------------------
     1 Broy./Diag. 0.10E+00    7.9     0.00775181     -1284.5354232035 -1.28E+03
     2 Broy./Diag. 0.10E+00   13.1     0.00024482     -1284.5160704233  1.94E-02
     3 Broy./Diag. 0.10E+00   14.0     0.00207158     -1284.5262972427 -1.02E-02
     4 Broy./Diag. 0.10E+00   13.6     0.00004740     -1284.5368918678 -1.06E-02
     5 Broy./Diag. 0.10E+00   13.9     0.00034623     -1284.5369204714 -2.86E-05
     6 Broy./Diag. 0.10E+00   14.7     0.00005890     -1284.5364616591  4.59E-04
     7 Broy./Diag. 0.10E+00   15.4     0.00021504     -1284.5370306219 -5.69E-04
     8 Broy./Diag. 0.10E+00   16.3     0.00003084     -1284.5376335708 -6.03E-04
     9 Broy./Diag. 0.10E+00   16.6     0.00008380     -1284.5372524881  3.81E-04
    10 Broy./Diag. 0.10E+00   16.3     0.00000885     -1284.5368379595  4.15E-04
    11 Broy./Diag. 0.10E+00   17.3     0.00004122     -1284.5368658618 -2.79E-05
    12 Broy./Diag. 0.10E+00   17.1     0.00000346     -1284.5368093471  5.65E-05
    13 Broy./Diag. 0.10E+00   17.5     0.00001842     -1284.5368287292 -1.94E-05
    14 Broy./Diag. 0.10E+00   17.0     0.00000239     -1284.5367338332  9.49E-05
    15 Broy./Diag. 0.10E+00   16.9     0.00001530     -1284.5367361354 -2.30E-06
    16 Broy./Diag. 0.10E+00   17.0     0.00000100     -1284.5366894440  4.67E-05
    17 Broy./Diag. 0.10E+00   16.8     0.00000547     -1284.5366759402  1.35E-05
    18 Broy./Diag. 0.10E+00   17.5     0.00000100     -1284.5366624380  1.35E-05
    19 Broy./Diag. 0.10E+00   17.8     0.00000490     -1284.5366553974  7.04E-06
    20 Broy./Diag. 0.10E+00   17.0     0.00000097     -1284.5366513587  4.04E-06
    21 Broy./Diag. 0.10E+00   17.2     0.00000243     -1284.5366595061 -8.15E-06
    22 Broy./Diag. 0.10E+00   17.0     0.00000080     -1284.5366651149 -5.61E-06
    23 Broy./Diag. 0.10E+00   17.4     0.00000146     -1284.5366564782  8.64E-06
    24 Broy./Diag. 0.10E+00   16.7     0.00000021     -1284.5366489578  7.52E-06
    25 Broy./Diag. 0.10E+00   17.0     0.00000054     -1284.5366507878 -1.83E-06
    26 Broy./Diag. 0.10E+00   17.3     0.00000009     -1284.5366520680 -1.28E-06

  *** SCF run converged in    26 steps ***


  Electronic density on regular grids:       -427.9999999976        0.0000000024
  Core density on regular grids:              427.9999993679       -0.0000006321
  Total charge density on r-space grids:       -0.0000006297
  Total charge density g-space grids:          -0.0000006297

  Overlap energy of the core charge distribution:               0.00000312564327
  Self energy of the core charge distribution:              -2253.28808377914038
  Core Hamiltonian energy:                                    717.37612795195537
  Hartree energy:                                             454.98751198087160
  Exchange-correlation energy:                               -203.27968640032776
  Dispersion energy:                                           -0.33251980226455
  Electronic entropic energy:                                  -0.00000514472513
  Fermi energy:                                                -0.16883303343181

  Total energy:                                             -1284.53665206799064

 ENERGY| Total FORCE_EVAL ( QS ) energy (a.u.):            -1284.536648519485652


 --------  Informations at step =    63 ------------
  Optimization Method        =                 BFGS
  Total Energy               =     -1284.5366485195
  Real energy change         =        -0.0000693562
  Predicted change in energy =        -0.0000485852
  Scaling factor             =         0.0000000000
  Step size                  =         0.0223268720
  Trust radius               =         0.4724315332
  Decrease in energy         =                  YES
  Used time                  =              439.028

  Convergence check :
  Max. step size             =         0.0223268720
  Conv. limit for step size  =         0.0030000000
  Convergence in step size   =                   NO
  RMS step size              =         0.0064277790
  Conv. limit for RMS step   =         0.0015000000
  Convergence in RMS step    =                   NO
  Max. gradient              =         0.0007674652
  Conv. limit for gradients  =         0.0004500000
  Conv. for gradients        =                   NO
  RMS gradient               =         0.0002111558
  Conv. limit for RMS grad.  =         0.0003000000
  Conv. in RMS gradients     =                  YES
 ---------------------------------------------------

 --------------------------
 OPTIMIZATION STEP:     64
 --------------------------

 Number of electrons:                                                        428
 Number of occupied orbitals:                                                217
 Number of molecular orbitals:                                               252

 Number of orbital functions:                                                976
 Number of independent orbital functions:                                    976

 Extrapolation method: PS Nth order


 SCF WAVEFUNCTION OPTIMIZATION

  Step     Update method      Time    Convergence         Total energy    Change
  ------------------------------------------------------------------------------
     1 Broy./Diag. 0.10E+00    7.2     0.00625891     -1284.5361356945 -1.28E+03
     2 Broy./Diag. 0.10E+00   12.3     0.00008510     -1284.5349886844  1.15E-03
     3 Broy./Diag. 0.10E+00   13.9     0.00075383     -1284.5332806559  1.71E-03
     4 Broy./Diag. 0.10E+00   13.7     0.00005157     -1284.5364594762 -3.18E-03
     5 Broy./Diag. 0.10E+00   14.5     0.00033080     -1284.5363378733  1.22E-04
     6 Broy./Diag. 0.10E+00   15.1     0.00005782     -1284.5366083080 -2.70E-04
     7 Broy./Diag. 0.10E+00   14.7     0.00018096     -1284.5358841543  7.24E-04
     8 Broy./Diag. 0.10E+00   15.8     0.00001421     -1284.5353718892  5.12E-04
     9 Broy./Diag. 0.10E+00   16.7     0.00004410     -1284.5357764051 -4.05E-04
    10 Broy./Diag. 0.10E+00   16.5     0.00000356     -1284.5365003603 -7.24E-04
    11 Broy./Diag. 0.10E+00   17.4     0.00002504     -1284.5364234024  7.70E-05
    12 Broy./Diag. 0.10E+00   17.1     0.00000208     -1284.5365475908 -1.24E-04
    13 Broy./Diag. 0.10E+00   17.6     0.00001215     -1284.5365218895  2.57E-05
    14 Broy./Diag. 0.10E+00   17.5     0.00000124     -1284.5366131189 -9.12E-05
    15 Broy./Diag. 0.10E+00   17.5     0.00000734     -1284.5366445037 -3.14E-05
    16 Broy./Diag. 0.10E+00   17.6     0.00000059     -1284.5367171371 -7.26E-05
    17 Broy./Diag. 0.10E+00   18.3     0.00000393     -1284.5367138046  3.33E-06
    18 Broy./Diag. 0.10E+00   17.9     0.00000043     -1284.5367155804 -1.78E-06
    19 Broy./Diag. 0.10E+00   17.8     0.00000214     -1284.5367231918 -7.61E-06
    20 Broy./Diag. 0.10E+00   17.2     0.00000092     -1284.5367306355 -7.44E-06
    21 Broy./Diag. 0.10E+00   17.7     0.00000200     -1284.5367241955  6.44E-06
    22 Broy./Diag. 0.10E+00   17.4     0.00000041     -1284.5367188085  5.39E-06
    23 Broy./Diag. 0.10E+00   17.1     0.00000087     -1284.5367235094 -4.70E-06
    24 Broy./Diag. 0.10E+00   16.9     0.00000016     -1284.5367276447 -4.14E-06
    25 Broy./Diag. 0.10E+00   17.8     0.00000044     -1284.5367257526  1.89E-06
    26 Broy./Diag. 0.10E+00   16.9     0.00000007     -1284.5367250627  6.90E-07

  *** SCF run converged in    26 steps ***


  Electronic density on regular grids:       -427.9999999980        0.0000000020
  Core density on regular grids:              427.9999993678       -0.0000006322
  Total charge density on r-space grids:       -0.0000006302
  Total charge density g-space grids:          -0.0000006302

  Overlap energy of the core charge distribution:               0.00000311805221
  Self energy of the core charge distribution:              -2253.28808377914038
  Core Hamiltonian energy:                                    717.36813564536533
  Hartree energy:                                             454.99172473780129
  Exchange-correlation energy:                               -203.27587392675611
  Dispersion energy:                                           -0.33262581062541
  Electronic entropic energy:                                  -0.00000504737831
  Fermi energy:                                                -0.16889606284731

  Total energy:                                             -1284.53672506268481

 ENERGY| Total FORCE_EVAL ( QS ) energy (a.u.):            -1284.536725462035292


 --------  Informations at step =    64 ------------
  Optimization Method        =                 BFGS
  Total Energy               =     -1284.5367254620
  Real energy change         =        -0.0000769425
  Predicted change in energy =        -0.0000579472
  Scaling factor             =         0.0000000000
  Step size                  =         0.0270581632
  Trust radius               =         0.4724315332
  Decrease in energy         =                  YES
  Used time                  =              441.591

  Convergence check :
  Max. step size             =         0.0270581632
  Conv. limit for step size  =         0.0030000000
  Convergence in step size   =                   NO
  RMS step size              =         0.0079698590
  Conv. limit for RMS step   =         0.0015000000
  Convergence in RMS step    =                   NO
  Max. gradient              =         0.0005238067
  Conv. limit for gradients  =         0.0004500000
  Conv. for gradients        =                   NO
  RMS gradient               =         0.0001732988
  Conv. limit for RMS grad.  =         0.0003000000
  Conv. in RMS gradients     =                  YES
 ---------------------------------------------------

 --------------------------
 OPTIMIZATION STEP:     65
 --------------------------

 Number of electrons:                                                        428
 Number of occupied orbitals:                                                217
 Number of molecular orbitals:                                               252

 Number of orbital functions:                                                976
 Number of independent orbital functions:                                    976

 Extrapolation method: PS Nth order


 SCF WAVEFUNCTION OPTIMIZATION

  Step     Update method      Time    Convergence         Total energy    Change
  ------------------------------------------------------------------------------
     1 Broy./Diag. 0.10E+00    7.7     0.00396808     -1284.5366004904 -1.28E+03
     2 Broy./Diag. 0.10E+00   12.8     0.00010857     -1284.5363724129  2.28E-04
     3 Broy./Diag. 0.10E+00   13.7     0.00075895     -1284.5366705870 -2.98E-04
     4 Broy./Diag. 0.10E+00   14.7     0.00009995     -1284.5399754079 -3.30E-03
     5 Broy./Diag. 0.10E+00   14.1     0.00034395     -1284.5381789694  1.80E-03
     6 Broy./Diag. 0.10E+00   14.6     0.00002540     -1284.5366043973  1.57E-03
     7 Broy./Diag. 0.10E+00   15.3     0.00007988     -1284.5363760046  2.28E-04
     8 Broy./Diag. 0.10E+00   17.0     0.00000949     -1284.5364475745 -7.16E-05
     9 Broy./Diag. 0.10E+00   16.2     0.00004394     -1284.5365678819 -1.20E-04
    10 Broy./Diag. 0.10E+00   17.6     0.00000340     -1284.5367102992 -1.42E-04
    11 Broy./Diag. 0.10E+00   17.9     0.00002344     -1284.5367726894 -6.24E-05
    12 Broy./Diag. 0.10E+00   17.8     0.00000170     -1284.5368382218 -6.55E-05
    13 Broy./Diag. 0.10E+00   17.5     0.00001015     -1284.5367913939  4.68E-05
    14 Broy./Diag. 0.10E+00   17.3     0.00000105     -1284.5367439416  4.75E-05
    15 Broy./Diag. 0.10E+00   17.4     0.00000659     -1284.5367583188 -1.44E-05
    16 Broy./Diag. 0.10E+00   17.5     0.00000045     -1284.5367767806 -1.85E-05
    17 Broy./Diag. 0.10E+00   17.9     0.00000245     -1284.5367849485 -8.17E-06
    18 Broy./Diag. 0.10E+00   17.7     0.00000105     -1284.5367898888 -4.94E-06
    19 Broy./Diag. 0.10E+00   17.7     0.00000338     -1284.5367806493  9.24E-06
    20 Broy./Diag. 0.10E+00   17.9     0.00000042     -1284.5367696958  1.10E-05
    21 Broy./Diag. 0.10E+00   17.5     0.00000089     -1284.5367729438 -3.25E-06
    22 Broy./Diag. 0.10E+00   17.0     0.00000029     -1284.5367758862 -2.94E-06
    23 Broy./Diag. 0.10E+00   17.3     0.00000062     -1284.5367753065  5.80E-07
    24 Broy./Diag. 0.10E+00   16.4     0.00000009     -1284.5367745577  7.49E-07

  *** SCF run converged in    24 steps ***


  Electronic density on regular grids:       -427.9999999984        0.0000000016
  Core density on regular grids:              427.9999993680       -0.0000006320
  Total charge density on r-space grids:       -0.0000006304
  Total charge density g-space grids:          -0.0000006304

  Overlap energy of the core charge distribution:               0.00000314235850
  Self energy of the core charge distribution:              -2253.28808377914038
  Core Hamiltonian energy:                                    717.36722414723943
  Hartree energy:                                             454.99249425935221
  Exchange-correlation energy:                               -203.27560022192094
  Dispersion energy:                                           -0.33280711530621
  Electronic entropic energy:                                  -0.00000499026919
  Fermi energy:                                                -0.16891292320156

  Total energy:                                             -1284.53677455768343

 ENERGY| Total FORCE_EVAL ( QS ) energy (a.u.):            -1284.536773019218117


 --------  Informations at step =    65 ------------
  Optimization Method        =                 BFGS
  Total Energy               =     -1284.5367730192
  Real energy change         =        -0.0000475572
  Predicted change in energy =        -0.0000335369
  Scaling factor             =         0.0000000000
  Step size                  =         0.0172235590
  Trust radius               =         0.4724315332
  Decrease in energy         =                  YES
  Used time                  =              410.219

  Convergence check :
  Max. step size             =         0.0172235590
  Conv. limit for step size  =         0.0030000000
  Convergence in step size   =                   NO
  RMS step size              =         0.0057247193
  Conv. limit for RMS step   =         0.0015000000
  Convergence in RMS step    =                   NO
  Max. gradient              =         0.0008493598
  Conv. limit for gradients  =         0.0004500000
  Conv. for gradients        =                   NO
  RMS gradient               =         0.0001944155
  Conv. limit for RMS grad.  =         0.0003000000
  Conv. in RMS gradients     =                  YES
 ---------------------------------------------------

 --------------------------
 OPTIMIZATION STEP:     66
 --------------------------

 Number of electrons:                                                        428
 Number of occupied orbitals:                                                217
 Number of molecular orbitals:                                               252

 Number of orbital functions:                                                976
 Number of independent orbital functions:                                    976

 Extrapolation method: PS Nth order


 SCF WAVEFUNCTION OPTIMIZATION

  Step     Update method      Time    Convergence         Total energy    Change
  ------------------------------------------------------------------------------
     1 Broy./Diag. 0.10E+00    7.5     0.00284415     -1284.5367004790 -1.28E+03
     2 Broy./Diag. 0.10E+00   12.8     0.00009144     -1284.5497672250 -1.31E-02
     3 Broy./Diag. 0.10E+00   14.4     0.00075893     -1284.5437588230  6.01E-03
     4 Broy./Diag. 0.10E+00   13.6     0.00002096     -1284.5379600984  5.80E-03
     5 Broy./Diag. 0.10E+00   13.4     0.00012138     -1284.5377204547  2.40E-04
     6 Broy./Diag. 0.10E+00   15.3     0.00001182     -1284.5372538467  4.67E-04
     7 Broy./Diag. 0.10E+00   14.6     0.00007323     -1284.5373334323 -7.96E-05
     8 Broy./Diag. 0.10E+00   14.9     0.00001712     -1284.5369630931  3.70E-04
     9 Broy./Diag. 0.10E+00   15.6     0.00004780     -1284.5371027817 -1.40E-04
    10 Broy./Diag. 0.10E+00   16.4     0.00000685     -1284.5371353113 -3.25E-05
    11 Broy./Diag. 0.10E+00   16.4     0.00001745     -1284.5370252426  1.10E-04
    12 Broy./Diag. 0.10E+00   16.9     0.00000212     -1284.5368697265  1.56E-04
    13 Broy./Diag. 0.10E+00   16.6     0.00000952     -1284.5368737342 -4.01E-06
    14 Broy./Diag. 0.10E+00   16.5     0.00000116     -1284.5368412956  3.24E-05
    15 Broy./Diag. 0.10E+00   17.0     0.00000645     -1284.5368606848 -1.94E-05
    16 Broy./Diag. 0.10E+00   16.9     0.00000058     -1284.5368478917  1.28E-05
    17 Broy./Diag. 0.10E+00   16.6     0.00000349     -1284.5368342075  1.37E-05
    18 Broy./Diag. 0.10E+00   16.3     0.00000040     -1284.5368170378  1.72E-05
    19 Broy./Diag. 0.10E+00   17.8     0.00000223     -1284.5368166005  4.37E-07
    20 Broy./Diag. 0.10E+00   17.2     0.00000028     -1284.5368207961 -4.20E-06
    21 Broy./Diag. 0.10E+00   18.0     0.00000124     -1284.5368176483  3.15E-06
    22 Broy./Diag. 0.10E+00   17.0     0.00000040     -1284.5368149955  2.65E-06
    23 Broy./Diag. 0.10E+00   17.3     0.00000079     -1284.5368175931 -2.60E-06
    24 Broy./Diag. 0.10E+00   18.1     0.00000012     -1284.5368198005 -2.21E-06
    25 Broy./Diag. 0.10E+00   17.6     0.00000028     -1284.5368182019  1.60E-06
    26 Broy./Diag. 0.10E+00   17.0     0.00000004     -1284.5368169774  1.22E-06

  *** SCF run converged in    26 steps ***


  Electronic density on regular grids:       -427.9999999994        0.0000000006
  Core density on regular grids:              427.9999993681       -0.0000006319
  Total charge density on r-space grids:       -0.0000006312
  Total charge density g-space grids:          -0.0000006312

  Overlap energy of the core charge distribution:               0.00000312064355
  Self energy of the core charge distribution:              -2253.28808377914038
  Core Hamiltonian energy:                                    717.36698654451800
  Hartree energy:                                             454.99396790129856
  Exchange-correlation energy:                               -203.27671919164069
  Dispersion energy:                                           -0.33296675600652
  Electronic entropic energy:                                  -0.00000481704739
  Fermi energy:                                                -0.16890999872730

  Total energy:                                             -1284.53681697737693

 ENERGY| Total FORCE_EVAL ( QS ) energy (a.u.):            -1284.536817812386971


 --------  Informations at step =    66 ------------
  Optimization Method        =                 BFGS
  Total Energy               =     -1284.5368178124
  Real energy change         =        -0.0000447932
  Predicted change in energy =        -0.0000325639
  Scaling factor             =         0.0000000000
  Step size                  =         0.0195163938
  Trust radius               =         0.4724315332
  Decrease in energy         =                  YES
  Used time                  =              434.602

  Convergence check :
  Max. step size             =         0.0195163938
  Conv. limit for step size  =         0.0030000000
  Convergence in step size   =                   NO
  RMS step size              =         0.0064445478
  Conv. limit for RMS step   =         0.0015000000
  Convergence in RMS step    =                   NO
  Max. gradient              =         0.0004682274
  Conv. limit for gradients  =         0.0004500000
  Conv. for gradients        =                   NO
  RMS gradient               =         0.0001481531
  Conv. limit for RMS grad.  =         0.0003000000
  Conv. in RMS gradients     =                  YES
 ---------------------------------------------------

 --------------------------
 OPTIMIZATION STEP:     67
 --------------------------

 Number of electrons:                                                        428
 Number of occupied orbitals:                                                217
 Number of molecular orbitals:                                               252

 Number of orbital functions:                                                976
 Number of independent orbital functions:                                    976

 Extrapolation method: PS Nth order


 SCF WAVEFUNCTION OPTIMIZATION

  Step     Update method      Time    Convergence         Total energy    Change
  ------------------------------------------------------------------------------
     1 Broy./Diag. 0.10E+00    7.9     0.00412573     -1284.5367587424 -1.28E+03
     2 Broy./Diag. 0.10E+00   12.8     0.00021374     -1284.5421775365 -5.42E-03
     3 Broy./Diag. 0.10E+00   13.4     0.00123116     -1284.5419780798  1.99E-04
     4 Broy./Diag. 0.10E+00   14.3     0.00010969     -1284.5415481501  4.30E-04
     5 Broy./Diag. 0.10E+00   14.1     0.00034923     -1284.5392536625  2.29E-03
     6 Broy./Diag. 0.10E+00   15.1     0.00001926     -1284.5368676234  2.39E-03
     7 Broy./Diag. 0.10E+00   15.2     0.00007305     -1284.5371282169 -2.61E-04
     8 Broy./Diag. 0.10E+00   15.7     0.00001180     -1284.5373193683 -1.91E-04
     9 Broy./Diag. 0.10E+00   15.8     0.00006452     -1284.5374026859 -8.33E-05
    10 Broy./Diag. 0.10E+00   17.7     0.00000273     -1284.5371832633  2.19E-04
    11 Broy./Diag. 0.10E+00   17.0     0.00002055     -1284.5371732602  1.00E-05
    12 Broy./Diag. 0.10E+00   17.0     0.00000160     -1284.5369645298  2.09E-04
    13 Broy./Diag. 0.10E+00   16.7     0.00000923     -1284.5369809316 -1.64E-05
    14 Broy./Diag. 0.10E+00   17.3     0.00000079     -1284.5369049891  7.59E-05
    15 Broy./Diag. 0.10E+00   17.9     0.00000485     -1284.5369123491 -7.36E-06
    16 Broy./Diag. 0.10E+00   17.5     0.00000043     -1284.5368872429  2.51E-05
    17 Broy./Diag. 0.10E+00   18.8     0.00000270     -1284.5368823146  4.93E-06
    18 Broy./Diag. 0.10E+00   18.1     0.00000088     -1284.5368707841  1.15E-05
    19 Broy./Diag. 0.10E+00   17.9     0.00000282     -1284.5368607345  1.00E-05
    20 Broy./Diag. 0.10E+00   17.7     0.00000039     -1284.5368515190  9.22E-06
    21 Broy./Diag. 0.10E+00   17.8     0.00000079     -1284.5368564224 -4.90E-06
    22 Broy./Diag. 0.10E+00   17.4     0.00000018     -1284.5368611262 -4.70E-06
    23 Broy./Diag. 0.10E+00   17.6     0.00000051     -1284.5368602213  9.05E-07
    24 Broy./Diag. 0.10E+00   16.7     0.00000008     -1284.5368586381  1.58E-06

  *** SCF run converged in    24 steps ***


  Electronic density on regular grids:       -428.0000000003       -0.0000000003
  Core density on regular grids:              427.9999993683       -0.0000006317
  Total charge density on r-space grids:       -0.0000006320
  Total charge density g-space grids:          -0.0000006320

  Overlap energy of the core charge distribution:               0.00000314163679
  Self energy of the core charge distribution:              -2253.28808377914038
  Core Hamiltonian energy:                                    717.37164916642814
  Hartree energy:                                             454.99217506247578
  Exchange-correlation energy:                               -203.27949382524454
  Dispersion energy:                                           -0.33310374341001
  Electronic entropic energy:                                  -0.00000466088004
  Fermi energy:                                                -0.16888231225708

  Total energy:                                             -1284.53685863813416

 ENERGY| Total FORCE_EVAL ( QS ) energy (a.u.):            -1284.536854441694913


 --------  Informations at step =    67 ------------
  Optimization Method        =                 BFGS
  Total Energy               =     -1284.5368544417
  Real energy change         =        -0.0000366293
  Predicted change in energy =        -0.0000268182
  Scaling factor             =         0.0000000000
  Step size                  =         0.0195793745
  Trust radius               =         0.4724315332
  Decrease in energy         =                  YES
  Used time                  =              409.206

  Convergence check :
  Max. step size             =         0.0195793745
  Conv. limit for step size  =         0.0030000000
  Convergence in step size   =                   NO
  RMS step size              =         0.0061016281
  Conv. limit for RMS step   =         0.0015000000
  Convergence in RMS step    =                   NO
  Max. gradient              =         0.0003560045
  Conv. limit for gradients  =         0.0004500000
  Conv. in gradients         =                  YES
  RMS gradient               =         0.0001340084
  Conv. limit for RMS grad.  =         0.0003000000
  Conv. in RMS gradients     =                  YES
 ---------------------------------------------------

 --------------------------
 OPTIMIZATION STEP:     68
 --------------------------

 Number of electrons:                                                        428
 Number of occupied orbitals:                                                217
 Number of molecular orbitals:                                               252

 Number of orbital functions:                                                976
 Number of independent orbital functions:                                    976

 Extrapolation method: PS Nth order


 SCF WAVEFUNCTION OPTIMIZATION

  Step     Update method      Time    Convergence         Total energy    Change
  ------------------------------------------------------------------------------
     1 Broy./Diag. 0.10E+00    7.5     0.00289806     -1284.5368233263 -1.28E+03
     2 Broy./Diag. 0.10E+00   12.8     0.00007492     -1284.5437508683 -6.93E-03
     3 Broy./Diag. 0.10E+00   13.5     0.00052650     -1284.5400194239  3.73E-03
     4 Broy./Diag. 0.10E+00   13.4     0.00006632     -1284.5373074285  2.71E-03
     5 Broy./Diag. 0.10E+00   14.3     0.00024709     -1284.5374559038 -1.48E-04
     6 Broy./Diag. 0.10E+00   15.4     0.00001806     -1284.5377759662 -3.20E-04
     7 Broy./Diag. 0.10E+00   14.9     0.00007889     -1284.5374456318  3.30E-04
     8 Broy./Diag. 0.10E+00   16.2     0.00000645     -1284.5369021846  5.43E-04
     9 Broy./Diag. 0.10E+00   16.7     0.00002954     -1284.5370507185 -1.49E-04
    10 Broy./Diag. 0.10E+00   17.7     0.00000228     -1284.5370691092 -1.84E-05
    11 Broy./Diag. 0.10E+00   18.0     0.00001748     -1284.5370563355  1.28E-05
    12 Broy./Diag. 0.10E+00   16.8     0.00000122     -1284.5369842328  7.21E-05
    13 Broy./Diag. 0.10E+00   16.6     0.00000710     -1284.5369613740  2.29E-05
    14 Broy./Diag. 0.10E+00   16.9     0.00000068     -1284.5368918906  6.95E-05
    15 Broy./Diag. 0.10E+00   17.3     0.00000420     -1284.5369201604 -2.83E-05
    16 Broy./Diag. 0.10E+00   16.7     0.00000043     -1284.5369216975 -1.54E-06
    17 Broy./Diag. 0.10E+00   16.8     0.00000249     -1284.5369106148  1.11E-05
    18 Broy./Diag. 0.10E+00   17.2     0.00000032     -1284.5368877896  2.28E-05
    19 Broy./Diag. 0.10E+00   16.7     0.00000141     -1284.5368879565 -1.67E-07
    20 Broy./Diag. 0.10E+00   17.2     0.00000043     -1284.5368875047  4.52E-07
    21 Broy./Diag. 0.10E+00   16.7     0.00000103     -1284.5368849267  2.58E-06
    22 Broy./Diag. 0.10E+00   17.3     0.00000022     -1284.5368827000  2.23E-06
    23 Broy./Diag. 0.10E+00   17.2     0.00000046     -1284.5368850641 -2.36E-06
    24 Broy./Diag. 0.10E+00   17.3     0.00000006     -1284.5368864466 -1.38E-06

  *** SCF run converged in    24 steps ***


  Electronic density on regular grids:       -428.0000000010       -0.0000000010
  Core density on regular grids:              427.9999993685       -0.0000006315
  Total charge density on r-space grids:       -0.0000006325
  Total charge density g-space grids:          -0.0000006325

  Overlap energy of the core charge distribution:               0.00000313388585
  Self energy of the core charge distribution:              -2253.28808377914038
  Core Hamiltonian energy:                                    717.37362781750471
  Hartree energy:                                             454.99148252696745
  Exchange-correlation energy:                               -203.28076529508729
  Dispersion energy:                                           -0.33314635884238
  Electronic entropic energy:                                  -0.00000449189638
  Fermi energy:                                                -0.16885460808493

  Total energy:                                             -1284.53688644660724

 ENERGY| Total FORCE_EVAL ( QS ) energy (a.u.):            -1284.536882728202045


 --------  Informations at step =    68 ------------
  Optimization Method        =                 BFGS
  Total Energy               =     -1284.5368827282
  Real energy change         =        -0.0000282865
  Predicted change in energy =        -0.0000203409
  Scaling factor             =         0.0000000000
  Step size                  =         0.0143712456
  Trust radius               =         0.4724315332
  Decrease in energy         =                  YES
  Used time                  =              402.011

  Convergence check :
  Max. step size             =         0.0143712456
  Conv. limit for step size  =         0.0030000000
  Convergence in step size   =                   NO
  RMS step size              =         0.0047518622
  Conv. limit for RMS step   =         0.0015000000
  Convergence in RMS step    =                   NO
  Max. gradient              =         0.0004559260
  Conv. limit for gradients  =         0.0004500000
  Conv. for gradients        =                   NO
  RMS gradient               =         0.0001188829
  Conv. limit for RMS grad.  =         0.0003000000
  Conv. in RMS gradients     =                  YES
 ---------------------------------------------------

 --------------------------
 OPTIMIZATION STEP:     69
 --------------------------

 Number of electrons:                                                        428
 Number of occupied orbitals:                                                217
 Number of molecular orbitals:                                               252

 Number of orbital functions:                                                976
 Number of independent orbital functions:                                    976

 Extrapolation method: PS Nth order


 SCF WAVEFUNCTION OPTIMIZATION

  Step     Update method      Time    Convergence         Total energy    Change
  ------------------------------------------------------------------------------
     1 Broy./Diag. 0.10E+00    7.0     0.00273975     -1284.5368618420 -1.28E+03
     2 Broy./Diag. 0.10E+00   12.7     0.00006092     -1284.5271455976  9.72E-03
     3 Broy./Diag. 0.10E+00   12.8     0.00049310     -1284.5316020854 -4.46E-03
     4 Broy./Diag. 0.10E+00   13.9     0.00005685     -1284.5373234201 -5.72E-03
     5 Broy./Diag. 0.10E+00   14.6     0.00020196     -1284.5369644792  3.59E-04
     6 Broy./Diag. 0.10E+00   15.5     0.00001982     -1284.5365686052  3.96E-04
     7 Broy./Diag. 0.10E+00   15.0     0.00006008     -1284.5364349880  1.34E-04
     8 Broy./Diag. 0.10E+00   15.6     0.00000706     -1284.5365858491 -1.51E-04
     9 Broy./Diag. 0.10E+00   16.9     0.00003330     -1284.5366241287 -3.83E-05
    10 Broy./Diag. 0.10E+00   17.3     0.00000250     -1284.5368186244 -1.94E-04
    11 Broy./Diag. 0.10E+00   17.5     0.00001468     -1284.5368453380 -2.67E-05
    12 Broy./Diag. 0.10E+00   17.0     0.00000117     -1284.5369020452 -5.67E-05
    13 Broy./Diag. 0.10E+00   16.4     0.00000600     -1284.5368850203  1.70E-05
    14 Broy./Diag. 0.10E+00   17.5     0.00000052     -1284.5368799030  5.12E-06
    15 Broy./Diag. 0.10E+00   17.4     0.00000330     -1284.5368869322 -7.03E-06
    16 Broy./Diag. 0.10E+00   17.7     0.00000028     -1284.5369039284 -1.70E-05
    17 Broy./Diag. 0.10E+00   17.6     0.00000190     -1284.5369100901 -6.16E-06
    18 Broy./Diag. 0.10E+00   16.4     0.00000041     -1284.5369116807 -1.59E-06
    19 Broy./Diag. 0.10E+00   16.7     0.00000174     -1284.5369076751  4.01E-06
    20 Broy./Diag. 0.10E+00   16.9     0.00000038     -1284.5369017106  5.96E-06
    21 Broy./Diag. 0.10E+00   16.7     0.00000072     -1284.5369046102 -2.90E-06
    22 Broy./Diag. 0.10E+00   16.5     0.00000011     -1284.5369070968 -2.49E-06
    23 Broy./Diag. 0.10E+00   17.7     0.00000026     -1284.5369070849  1.19E-08
    24 Broy./Diag. 0.10E+00   17.6     0.00000006     -1284.5369070982 -1.33E-08

  *** SCF run converged in    24 steps ***


  Electronic density on regular grids:       -428.0000000011       -0.0000000011
  Core density on regular grids:              427.9999993688       -0.0000006312
  Total charge density on r-space grids:       -0.0000006322
  Total charge density g-space grids:          -0.0000006322

  Overlap energy of the core charge distribution:               0.00000314955805
  Self energy of the core charge distribution:              -2253.28808377914038
  Core Hamiltonian energy:                                    717.37553598981378
  Hartree energy:                                             454.99003775394488
  Exchange-correlation energy:                               -203.28123689882108
  Dispersion energy:                                           -0.33315891694518
  Electronic entropic energy:                                  -0.00000439659765
  Fermi energy:                                                -0.16882819086401

  Total energy:                                             -1284.53690709818989

 ENERGY| Total FORCE_EVAL ( QS ) energy (a.u.):            -1284.536905683227587


 --------  Informations at step =    69 ------------
  Optimization Method        =                 BFGS
  Total Energy               =     -1284.5369056832
  Real energy change         =        -0.0000229550
  Predicted change in energy =        -0.0000162976
  Scaling factor             =         0.0000000000
  Step size                  =         0.0134873880
  Trust radius               =         0.4724315332
  Decrease in energy         =                  YES
  Used time                  =              402.801

  Convergence check :
  Max. step size             =         0.0134873880
  Conv. limit for step size  =         0.0030000000
  Convergence in step size   =                   NO
  RMS step size              =         0.0044805252
  Conv. limit for RMS step   =         0.0015000000
  Convergence in RMS step    =                   NO
  Max. gradient              =         0.0003366398
  Conv. limit for gradients  =         0.0004500000
  Conv. in gradients         =                  YES
  RMS gradient               =         0.0001043814
  Conv. limit for RMS grad.  =         0.0003000000
  Conv. in RMS gradients     =                  YES
 ---------------------------------------------------

 --------------------------
 OPTIMIZATION STEP:     70
 --------------------------

 Number of electrons:                                                        428
 Number of occupied orbitals:                                                217
 Number of molecular orbitals:                                               252

 Number of orbital functions:                                                976
 Number of independent orbital functions:                                    976

 Extrapolation method: PS Nth order


 SCF WAVEFUNCTION OPTIMIZATION

  Step     Update method      Time    Convergence         Total energy    Change
  ------------------------------------------------------------------------------
     1 Broy./Diag. 0.10E+00    7.6     0.00163934     -1284.5368810315 -1.28E+03
     2 Broy./Diag. 0.10E+00   12.7     0.00010099     -1284.5239484491  1.29E-02
     3 Broy./Diag. 0.10E+00   13.1     0.00064099     -1284.5276075609 -3.66E-03
     4 Broy./Diag. 0.10E+00   13.9     0.00006669     -1284.5337331918 -6.13E-03
     5 Broy./Diag. 0.10E+00   14.3     0.00021449     -1284.5353914192 -1.66E-03
     6 Broy./Diag. 0.10E+00   14.0     0.00001550     -1284.5372941172 -1.90E-03
     7 Broy./Diag. 0.10E+00   14.4     0.00006172     -1284.5366924266  6.02E-04
     8 Broy./Diag. 0.10E+00   15.4     0.00000611     -1284.5362814197  4.11E-04
     9 Broy./Diag. 0.10E+00   16.7     0.00002926     -1284.5363509023 -6.95E-05
    10 Broy./Diag. 0.10E+00   18.1     0.00000266     -1284.5366964405 -3.46E-04
    11 Broy./Diag. 0.10E+00   17.6     0.00001597     -1284.5367618711 -6.54E-05
    12 Broy./Diag. 0.10E+00   17.8     0.00000128     -1284.5369443975 -1.83E-04
    13 Broy./Diag. 0.10E+00   17.7     0.00000766     -1284.5368950539  4.93E-05
    14 Broy./Diag. 0.10E+00   17.9     0.00000078     -1284.5368737040  2.13E-05
    15 Broy./Diag. 0.10E+00   17.8     0.00000445     -1284.5368901338 -1.64E-05
    16 Broy./Diag. 0.10E+00   17.6     0.00000034     -1284.5369199769 -2.98E-05
    17 Broy./Diag. 0.10E+00   17.0     0.00000179     -1284.5369230053 -3.03E-06
    18 Broy./Diag. 0.10E+00   17.4     0.00000040     -1284.5369231654 -1.60E-07
    19 Broy./Diag. 0.10E+00   16.0     0.00000150     -1284.5369273273 -4.16E-06
    20 Broy./Diag. 0.10E+00   17.6     0.00000043     -1284.5369295780 -2.25E-06
    21 Broy./Diag. 0.10E+00   19.6     0.00000079     -1284.5369250333  4.54E-06
    22 Broy./Diag. 0.10E+00   17.3     0.00000012     -1284.5369210219  4.01E-06
    23 Broy./Diag. 0.10E+00   16.4     0.00000030     -1284.5369227293 -1.71E-06
    24 Broy./Diag. 0.10E+00   16.5     0.00000005     -1284.5369246434 -1.91E-06

  *** SCF run converged in    24 steps ***


  Electronic density on regular grids:       -428.0000000011       -0.0000000011
  Core density on regular grids:              427.9999993687       -0.0000006313
  Total charge density on r-space grids:       -0.0000006324
  Total charge density g-space grids:          -0.0000006324

  Overlap energy of the core charge distribution:               0.00000314056569
  Self energy of the core charge distribution:              -2253.28808377914038
  Core Hamiltonian energy:                                    717.37321248305670
  Hartree energy:                                             454.99067527012664
  Exchange-correlation energy:                               -203.27958092651153
  Dispersion energy:                                           -0.33314650769710
  Electronic entropic energy:                                  -0.00000432379045
  Fermi energy:                                                -0.16881580275945

  Total energy:                                             -1284.53692464339269

 ENERGY| Total FORCE_EVAL ( QS ) energy (a.u.):            -1284.536924146477077


 --------  Informations at step =    70 ------------
  Optimization Method        =                 BFGS
  Total Energy               =     -1284.5369241465
  Real energy change         =        -0.0000184632
  Predicted change in energy =        -0.0000132047
  Scaling factor             =         0.0000000000
  Step size                  =         0.0140724577
  Trust radius               =         0.4724315332
  Decrease in energy         =                  YES
  Used time                  =              405.131

  Convergence check :
  Max. step size             =         0.0140724577
  Conv. limit for step size  =         0.0030000000
  Convergence in step size   =                   NO
  RMS step size              =         0.0044959334
  Conv. limit for RMS step   =         0.0015000000
  Convergence in RMS step    =                   NO
  Max. gradient              =         0.0003031708
  Conv. limit for gradients  =         0.0004500000
  Conv. in gradients         =                  YES
  RMS gradient               =         0.0000875121
  Conv. limit for RMS grad.  =         0.0003000000
  Conv. in RMS gradients     =                  YES
 ---------------------------------------------------

 --------------------------
 OPTIMIZATION STEP:     71
 --------------------------

 Number of electrons:                                                        428
 Number of occupied orbitals:                                                217
 Number of molecular orbitals:                                               252

 Number of orbital functions:                                                976
 Number of independent orbital functions:                                    976

 Extrapolation method: PS Nth order


 SCF WAVEFUNCTION OPTIMIZATION

  Step     Update method      Time    Convergence         Total energy    Change
  ------------------------------------------------------------------------------
     1 Broy./Diag. 0.10E+00    7.1     0.00199591     -1284.5368870506 -1.28E+03
     2 Broy./Diag. 0.10E+00   13.0     0.00005048     -1284.5196784292  1.72E-02
     3 Broy./Diag. 0.10E+00   13.5     0.00041918     -1284.5266372457 -6.96E-03
     4 Broy./Diag. 0.10E+00   13.9     0.00001878     -1284.5365168026 -9.88E-03
     5 Broy./Diag. 0.10E+00   14.1     0.00010399     -1284.5360008458  5.16E-04
     6 Broy./Diag. 0.10E+00   14.3     0.00000752     -1284.5361005261 -9.97E-05
     7 Broy./Diag. 0.10E+00   15.9     0.00004640     -1284.5358868041  2.14E-04
     8 Broy./Diag. 0.10E+00   15.7     0.00001386     -1284.5362567216 -3.70E-04
     9 Broy./Diag. 0.10E+00   16.6     0.00003567     -1284.5362537377  2.98E-06
    10 Broy./Diag. 0.10E+00   22.4     0.00000499     -1284.5364521489 -1.98E-04
    11 Broy./Diag. 0.10E+00   16.5     0.00001361     -1284.5366216982 -1.70E-04
    12 Broy./Diag. 0.10E+00   16.2     0.00000141     -1284.5369113188 -2.90E-04
    13 Broy./Diag. 0.10E+00   16.5     0.00000692     -1284.5368515774  5.97E-05
    14 Broy./Diag. 0.10E+00   16.3     0.00000069     -1284.5368587157 -7.14E-06
    15 Broy./Diag. 0.10E+00   17.6     0.00000380     -1284.5368610897 -2.37E-06
    16 Broy./Diag. 0.10E+00   17.4     0.00000041     -1284.5368995507 -3.85E-05
    17 Broy./Diag. 0.10E+00   20.4     0.00000244     -1284.5369241033 -2.46E-05
    18 Broy./Diag. 0.10E+00   16.8     0.00000023     -1284.5369483967 -2.43E-05
    19 Broy./Diag. 0.10E+00   18.6     0.00000119     -1284.5369426574  5.74E-06
    20 Broy./Diag. 0.10E+00   17.9     0.00000015     -1284.5369303494  1.23E-05
    21 Broy./Diag. 0.10E+00   17.4     0.00000071     -1284.5369335450 -3.20E-06
    22 Broy./Diag. 0.10E+00   17.7     0.00000030     -1284.5369380512 -4.51E-06
    23 Broy./Diag. 0.10E+00   18.2     0.00000059     -1284.5369378256  2.26E-07
    24 Broy./Diag. 0.10E+00   18.1     0.00000008     -1284.5369380979 -2.72E-07

  *** SCF run converged in    24 steps ***


  Electronic density on regular grids:       -428.0000000011       -0.0000000011
  Core density on regular grids:              427.9999993687       -0.0000006313
  Total charge density on r-space grids:       -0.0000006324
  Total charge density g-space grids:          -0.0000006324

  Overlap energy of the core charge distribution:               0.00000315489590
  Self energy of the core charge distribution:              -2253.28808377914038
  Core Hamiltonian energy:                                    717.37191926441665
  Hartree energy:                                             454.99074726869742
  Exchange-correlation energy:                               -203.27834325650622
  Dispersion energy:                                           -0.33317645720183
  Electronic entropic energy:                                  -0.00000429309172
  Fermi energy:                                                -0.16880011685367

  Total energy:                                             -1284.53693809793140

 ENERGY| Total FORCE_EVAL ( QS ) energy (a.u.):            -1284.536938594112371


 --------  Informations at step =    71 ------------
  Optimization Method        =                 BFGS
  Total Energy               =     -1284.5369385941
  Real energy change         =        -0.0000144476
  Predicted change in energy =        -0.0000106594
  Scaling factor             =         0.0000000000
  Step size                  =         0.0139643309
  Trust radius               =         0.4724315332
  Decrease in energy         =                  YES
  Used time                  =              413.919

  Convergence check :
  Max. step size             =         0.0139643309
  Conv. limit for step size  =         0.0030000000
  Convergence in step size   =                   NO
  RMS step size              =         0.0050516867
  Conv. limit for RMS step   =         0.0015000000
  Convergence in RMS step    =                   NO
  Max. gradient              =         0.0004671561
  Conv. limit for gradients  =         0.0004500000
  Conv. for gradients        =                   NO
  RMS gradient               =         0.0001148486
  Conv. limit for RMS grad.  =         0.0003000000
  Conv. in RMS gradients     =                  YES
 ---------------------------------------------------

 --------------------------
 OPTIMIZATION STEP:     72
 --------------------------

 Number of electrons:                                                        428
 Number of occupied orbitals:                                                217
 Number of molecular orbitals:                                               252

 Number of orbital functions:                                                976
 Number of independent orbital functions:                                    976

 Extrapolation method: PS Nth order


 SCF WAVEFUNCTION OPTIMIZATION

  Step     Update method      Time    Convergence         Total energy    Change
  ------------------------------------------------------------------------------
     1 Broy./Diag. 0.10E+00    7.0     0.00171949     -1284.5369015121 -1.28E+03
     2 Broy./Diag. 0.10E+00   22.7     0.00006239     -1284.5281920169  8.71E-03
     3 Broy./Diag. 0.10E+00   13.4     0.00046627     -1284.5306214523 -2.43E-03
     4 Broy./Diag. 0.10E+00   14.0     0.00005269     -1284.5358861120 -5.26E-03
     5 Broy./Diag. 0.10E+00   14.0     0.00020810     -1284.5364092189 -5.23E-04
     6 Broy./Diag. 0.10E+00   14.4     0.00001911     -1284.5372790076 -8.70E-04
     7 Broy./Diag. 0.10E+00   14.3     0.00007167     -1284.5367172128  5.62E-04
     8 Broy./Diag. 0.10E+00   14.9     0.00000722     -1284.5363339625  3.83E-04
     9 Broy./Diag. 0.10E+00   16.8     0.00003006     -1284.5364624510 -1.28E-04
    10 Broy./Diag. 0.10E+00   17.1     0.00000168     -1284.5367888647 -3.26E-04
    11 Broy./Diag. 0.10E+00   17.2     0.00001075     -1284.5368393632 -5.05E-05
    12 Broy./Diag. 0.10E+00   17.6     0.00000076     -1284.5369653567 -1.26E-04
    13 Broy./Diag. 0.10E+00   17.2     0.00000473     -1284.5369259358  3.94E-05
    14 Broy./Diag. 0.10E+00   17.9     0.00000059     -1284.5369089051  1.70E-05
    15 Broy./Diag. 0.10E+00   18.0     0.00000342     -1284.5369197492 -1.08E-05
    16 Broy./Diag. 0.10E+00   17.3     0.00000034     -1284.5369439059 -2.42E-05
    17 Broy./Diag. 0.10E+00   17.3     0.00000192     -1284.5369478266 -3.92E-06
    18 Broy./Diag. 0.10E+00   17.1     0.00000027     -1284.5369512542 -3.43E-06
    19 Broy./Diag. 0.10E+00   18.6     0.00000110     -1284.5369530880 -1.83E-06
    20 Broy./Diag. 0.10E+00   17.3     0.00000045     -1284.5369531529 -6.49E-08
    21 Broy./Diag. 0.10E+00   17.9     0.00000086     -1284.5369489050  4.25E-06
    22 Broy./Diag. 0.10E+00   17.5     0.00000014     -1284.5369455516  3.35E-06
    23 Broy./Diag. 0.10E+00   17.4     0.00000029     -1284.5369478149 -2.26E-06
    24 Broy./Diag. 0.10E+00   17.7     0.00000006     -1284.5369500935 -2.28E-06

  *** SCF run converged in    24 steps ***


  Electronic density on regular grids:       -428.0000000011       -0.0000000011
  Core density on regular grids:              427.9999993687       -0.0000006313
  Total charge density on r-space grids:       -0.0000006323
  Total charge density g-space grids:          -0.0000006323

  Overlap energy of the core charge distribution:               0.00000314402056
  Self energy of the core charge distribution:              -2253.28808377914038
  Core Hamiltonian energy:                                    717.36952260023475
  Hartree energy:                                             454.99172706295178
  Exchange-correlation energy:                               -203.27691315148186
  Dispersion energy:                                           -0.33320175115200
  Electronic entropic energy:                                  -0.00000421893666
  Fermi energy:                                                -0.16879137521900

  Total energy:                                             -1284.53695009350599

 ENERGY| Total FORCE_EVAL ( QS ) energy (a.u.):            -1284.536949291028350


 --------  Informations at step =    72 ------------
  Optimization Method        =                 BFGS
  Total Energy               =     -1284.5369492910
  Real energy change         =        -0.0000106969
  Predicted change in energy =        -0.0000081231
  Scaling factor             =         0.0000000000
  Step size                  =         0.0119847168
  Trust radius               =         0.4724315332
  Decrease in energy         =                  YES
  Used time                  =              416.549

  Convergence check :
  Max. step size             =         0.0119847168
  Conv. limit for step size  =         0.0030000000
  Convergence in step size   =                   NO
  RMS step size              =         0.0041063902
  Conv. limit for RMS step   =         0.0015000000
  Convergence in RMS step    =                   NO
  Max. gradient              =         0.0003566765
  Conv. limit for gradients  =         0.0004500000
  Conv. in gradients         =                  YES
  RMS gradient               =         0.0000846226
  Conv. limit for RMS grad.  =         0.0003000000
  Conv. in RMS gradients     =                  YES
 ---------------------------------------------------

 --------------------------
 OPTIMIZATION STEP:     73
 --------------------------

 Number of electrons:                                                        428
 Number of occupied orbitals:                                                217
 Number of molecular orbitals:                                               252

 Number of orbital functions:                                                976
 Number of independent orbital functions:                                    976

 Extrapolation method: PS Nth order


 SCF WAVEFUNCTION OPTIMIZATION

  Step     Update method      Time    Convergence         Total energy    Change
  ------------------------------------------------------------------------------
     1 Broy./Diag. 0.10E+00    8.1     0.00158203     -1284.5369218392 -1.28E+03
     2 Broy./Diag. 0.10E+00   12.6     0.00004335     -1284.5333425341  3.58E-03
     3 Broy./Diag. 0.10E+00   13.8     0.00036412     -1284.5348843320 -1.54E-03
     4 Broy./Diag. 0.10E+00   14.1     0.00002438     -1284.5374232062 -2.54E-03
     5 Broy./Diag. 0.10E+00   14.4     0.00013014     -1284.5367974547  6.26E-04
     6 Broy./Diag. 0.10E+00   14.8     0.00001708     -1284.5363436839  4.54E-04
     7 Broy./Diag. 0.10E+00   14.8     0.00005808     -1284.5364239130 -8.02E-05
     8 Broy./Diag. 0.10E+00   15.3     0.00000732     -1284.5366971463 -2.73E-04
     9 Broy./Diag. 0.10E+00   16.2     0.00002030     -1284.5366999283 -2.78E-06
    10 Broy./Diag. 0.10E+00   17.9     0.00000202     -1284.5368094987 -1.10E-04
    11 Broy./Diag. 0.10E+00   17.5     0.00001241     -1284.5368340944 -2.46E-05
    12 Broy./Diag. 0.10E+00   17.5     0.00000084     -1284.5369136287 -7.95E-05
    13 Broy./Diag. 0.10E+00   16.7     0.00000424     -1284.5369006139  1.30E-05
    14 Broy./Diag. 0.10E+00   17.2     0.00000048     -1284.5369236904 -2.31E-05
    15 Broy./Diag. 0.10E+00   16.6     0.00000290     -1284.5369226022  1.09E-06
    16 Broy./Diag. 0.10E+00   17.2     0.00000030     -1284.5369392256 -1.66E-05
    17 Broy./Diag. 0.10E+00   16.7     0.00000167     -1284.5369484727 -9.25E-06
    18 Broy./Diag. 0.10E+00   17.8     0.00000027     -1284.5369590142 -1.05E-05
    19 Broy./Diag. 0.10E+00   17.3     0.00000124     -1284.5369570921  1.92E-06
    20 Broy./Diag. 0.10E+00   17.5     0.00000022     -1284.5369535830  3.51E-06
    21 Broy./Diag. 0.10E+00   16.9     0.00000066     -1284.5369556667 -2.08E-06
    22 Broy./Diag. 0.10E+00   18.7     0.00000024     -1284.5369578749 -2.21E-06
    23 Broy./Diag. 0.10E+00   18.5     0.00000043     -1284.5369567926  1.08E-06
    24 Broy./Diag. 0.10E+00   17.7     0.00000006     -1284.5369561568  6.36E-07

  *** SCF run converged in    24 steps ***


  Electronic density on regular grids:       -428.0000000011       -0.0000000011
  Core density on regular grids:              427.9999993684       -0.0000006316
  Total charge density on r-space grids:       -0.0000006328
  Total charge density g-space grids:          -0.0000006328

  Overlap energy of the core charge distribution:               0.00000315412584
  Self energy of the core charge distribution:              -2253.28808377914038
  Core Hamiltonian energy:                                    717.37020699080904
  Hartree energy:                                             454.99147942130645
  Exchange-correlation energy:                               -203.27728675459053
  Dispersion energy:                                           -0.33327102291098
  Electronic entropic energy:                                  -0.00000416644134
  Fermi energy:                                                -0.16877694577849

  Total energy:                                             -1284.53695615684251

 ENERGY| Total FORCE_EVAL ( QS ) energy (a.u.):            -1284.536956955616688


 --------  Informations at step =    73 ------------
  Optimization Method        =                 BFGS
  Total Energy               =     -1284.5369569556
  Real energy change         =        -0.0000076646
  Predicted change in energy =        -0.0000057255
  Scaling factor             =         0.0000000000
  Step size                  =         0.0097800532
  Trust radius               =         0.4724315332
  Decrease in energy         =                  YES
  Used time                  =              407.375

  Convergence check :
  Max. step size             =         0.0097800532
  Conv. limit for step size  =         0.0030000000
  Convergence in step size   =                   NO
  RMS step size              =         0.0033517430
  Conv. limit for RMS step   =         0.0015000000
  Convergence in RMS step    =                   NO
  Max. gradient              =         0.0005047212
  Conv. limit for gradients  =         0.0004500000
  Conv. for gradients        =                   NO
  RMS gradient               =         0.0000912374
  Conv. limit for RMS grad.  =         0.0003000000
  Conv. in RMS gradients     =                  YES
 ---------------------------------------------------

 --------------------------
 OPTIMIZATION STEP:     74
 --------------------------

 Number of electrons:                                                        428
 Number of occupied orbitals:                                                217
 Number of molecular orbitals:                                               252

 Number of orbital functions:                                                976
 Number of independent orbital functions:                                    976

 Extrapolation method: PS Nth order


 SCF WAVEFUNCTION OPTIMIZATION

  Step     Update method      Time    Convergence         Total energy    Change
  ------------------------------------------------------------------------------
     1 Broy./Diag. 0.10E+00    7.4     0.00124202     -1284.5369431886 -1.28E+03
     2 Broy./Diag. 0.10E+00   13.6     0.00002558     -1284.5441391860 -7.20E-03
     3 Broy./Diag. 0.10E+00   13.5     0.00022290     -1284.5408301369  3.31E-03
     4 Broy./Diag. 0.10E+00   14.0     0.00001135     -1284.5374212095  3.41E-03
     5 Broy./Diag. 0.10E+00   14.2     0.00007445     -1284.5374465913 -2.54E-05
     6 Broy./Diag. 0.10E+00   14.2     0.00001150     -1284.5373216334  1.25E-04
     7 Broy./Diag. 0.10E+00   15.9     0.00004346     -1284.5372971399  2.45E-05
     8 Broy./Diag. 0.10E+00   15.1     0.00000663     -1284.5371200917  1.77E-04
     9 Broy./Diag. 0.10E+00   16.6     0.00001455     -1284.5372024686 -8.24E-05
    10 Broy./Diag. 0.10E+00   17.5     0.00000153     -1284.5371729858  2.95E-05
    11 Broy./Diag. 0.10E+00   17.4     0.00000801     -1284.5371305203  4.25E-05
    12 Broy./Diag. 0.10E+00   17.2     0.00000054     -1284.5370148982  1.16E-04
    13 Broy./Diag. 0.10E+00   18.2     0.00000301     -1284.5370259786 -1.11E-05
    14 Broy./Diag. 0.10E+00   17.8     0.00000032     -1284.5369979160  2.81E-05
    15 Broy./Diag. 0.10E+00   17.4     0.00000216     -1284.5370030584 -5.14E-06
    16 Broy./Diag. 0.10E+00   17.6     0.00000018     -1284.5369824170  2.06E-05
    17 Broy./Diag. 0.10E+00   17.2     0.00000134     -1284.5369733005  9.12E-06
    18 Broy./Diag. 0.10E+00   17.0     0.00000013     -1284.5369584751  1.48E-05
    19 Broy./Diag. 0.10E+00   16.5     0.00000060     -1284.5369615720 -3.10E-06
    20 Broy./Diag. 0.10E+00   17.6     0.00000020     -1284.5369662859 -4.71E-06
    21 Broy./Diag. 0.10E+00   16.4     0.00000052     -1284.5369646945  1.59E-06
    22 Broy./Diag. 0.10E+00   16.8     0.00000012     -1284.5369632408  1.45E-06
    23 Broy./Diag. 0.10E+00   16.4     0.00000024     -1284.5369631662  7.46E-08
    24 Broy./Diag. 0.10E+00   16.0     0.00000004     -1284.5369631733 -7.11E-09

  *** SCF run converged in    24 steps ***


  Electronic density on regular grids:       -428.0000000011       -0.0000000011
  Core density on regular grids:              427.9999993684       -0.0000006316
  Total charge density on r-space grids:       -0.0000006327
  Total charge density g-space grids:          -0.0000006327

  Overlap energy of the core charge distribution:               0.00000315275387
  Self energy of the core charge distribution:              -2253.28808377914038
  Core Hamiltonian energy:                                    717.37152741791704
  Hartree energy:                                             454.99105312695622
  Exchange-correlation energy:                               -203.27814360390695
  Dispersion energy:                                           -0.33331540868243
  Electronic entropic energy:                                  -0.00000407924204
  Fermi energy:                                                -0.16876616096987

  Total energy:                                             -1284.53696317334425

 ENERGY| Total FORCE_EVAL ( QS ) energy (a.u.):            -1284.536962746475865


 --------  Informations at step =    74 ------------
  Optimization Method        =                 BFGS
  Total Energy               =     -1284.5369627465
  Real energy change         =        -0.0000057909
  Predicted change in energy =        -0.0000041308
  Scaling factor             =         0.0000000000
  Step size                  =         0.0073878790
  Trust radius               =         0.4724315332
  Decrease in energy         =                  YES
  Used time                  =              405.017

  Convergence check :
  Max. step size             =         0.0073878790
  Conv. limit for step size  =         0.0030000000
  Convergence in step size   =                   NO
  RMS step size              =         0.0022817493
  Conv. limit for RMS step   =         0.0015000000
  Convergence in RMS step    =                   NO
  Max. gradient              =         0.0004106666
  Conv. limit for gradients  =         0.0004500000
  Conv. in gradients         =                  YES
  RMS gradient               =         0.0000740099
  Conv. limit for RMS grad.  =         0.0003000000
  Conv. in RMS gradients     =                  YES
 ---------------------------------------------------

 --------------------------
 OPTIMIZATION STEP:     75
 --------------------------

 Number of electrons:                                                        428
 Number of occupied orbitals:                                                217
 Number of molecular orbitals:                                               252

 Number of orbital functions:                                                976
 Number of independent orbital functions:                                    976

 Extrapolation method: PS Nth order


 SCF WAVEFUNCTION OPTIMIZATION

  Step     Update method      Time    Convergence         Total energy    Change
  ------------------------------------------------------------------------------
     1 Broy./Diag. 0.10E+00    6.8     0.00125573     -1284.5369553479 -1.28E+03
     2 Broy./Diag. 0.10E+00   12.0     0.00002141     -1284.5406627636 -3.71E-03
     3 Broy./Diag. 0.10E+00   13.9     0.00017958     -1284.5393779331  1.28E-03
     4 Broy./Diag. 0.10E+00   13.7     0.00001498     -1284.5376273992  1.75E-03
     5 Broy./Diag. 0.10E+00   14.1     0.00007961     -1284.5373367953  2.91E-04
     6 Broy./Diag. 0.10E+00   15.8     0.00001236     -1284.5369004217  4.36E-04
     7 Broy./Diag. 0.10E+00   14.7     0.00003851     -1284.5370904344 -1.90E-04
     8 Broy./Diag. 0.10E+00   15.6     0.00000392     -1284.5372139747 -1.24E-04
     9 Broy./Diag. 0.10E+00   17.3     0.00001167     -1284.5372228936 -8.92E-06
    10 Broy./Diag. 0.10E+00   17.7     0.00000148     -1284.5371169574  1.06E-04
    11 Broy./Diag. 0.10E+00   17.0     0.00000952     -1284.5370850017  3.20E-05
    12 Broy./Diag. 0.10E+00   17.3     0.00000063     -1284.5369836284  1.01E-04
    13 Broy./Diag. 0.10E+00   17.9     0.00000286     -1284.5369962229 -1.26E-05
    14 Broy./Diag. 0.10E+00   17.4     0.00000029     -1284.5369823595  1.39E-05
    15 Broy./Diag. 0.10E+00   16.3     0.00000192     -1284.5369830536 -6.94E-07
    16 Broy./Diag. 0.10E+00   16.1     0.00000013     -1284.5369727781  1.03E-05
    17 Broy./Diag. 0.10E+00   17.0     0.00000088     -1284.5369691323  3.65E-06
    18 Broy./Diag. 0.10E+00   17.0     0.00000016     -1284.5369665459  2.59E-06
    19 Broy./Diag. 0.10E+00   17.1     0.00000079     -1284.5369654147  1.13E-06
    20 Broy./Diag. 0.10E+00   16.3     0.00000022     -1284.5369658166 -4.02E-07
    21 Broy./Diag. 0.10E+00   16.4     0.00000042     -1284.5369682813 -2.46E-06
    22 Broy./Diag. 0.10E+00   17.4     0.00000007     -1284.5369704646 -2.18E-06

  *** SCF run converged in    22 steps ***


  Electronic density on regular grids:       -428.0000000011       -0.0000000011
  Core density on regular grids:              427.9999993687       -0.0000006313
  Total charge density on r-space grids:       -0.0000006324
  Total charge density g-space grids:          -0.0000006324

  Overlap energy of the core charge distribution:               0.00000315216174
  Self energy of the core charge distribution:              -2253.28808377914038
  Core Hamiltonian energy:                                    717.37280814888140
  Hartree energy:                                             454.99066639640102
  Exchange-correlation energy:                               -203.27900538934844
  Dispersion energy:                                           -0.33335498034548
  Electronic entropic energy:                                  -0.00000401325219
  Fermi energy:                                                -0.16875891588147

  Total energy:                                             -1284.53697046464390

 ENERGY| Total FORCE_EVAL ( QS ) energy (a.u.):            -1284.536967562774407


 --------  Informations at step =    75 ------------
  Optimization Method        =                 BFGS
  Total Energy               =     -1284.5369675628
  Real energy change         =        -0.0000048163
  Predicted change in energy =        -0.0000033909
  Scaling factor             =         0.0000000000
  Step size                  =         0.0068779708
  Trust radius               =         0.4724315332
  Decrease in energy         =                  YES
  Used time                  =              367.354

  Convergence check :
  Max. step size             =         0.0068779708
  Conv. limit for step size  =         0.0030000000
  Convergence in step size   =                   NO
  RMS step size              =         0.0021503491
  Conv. limit for RMS step   =         0.0015000000
  Convergence in RMS step    =                   NO
  Max. gradient              =         0.0003050576
  Conv. limit for gradients  =         0.0004500000
  Conv. in gradients         =                  YES
  RMS gradient               =         0.0000626666
  Conv. limit for RMS grad.  =         0.0003000000
  Conv. in RMS gradients     =                  YES
 ---------------------------------------------------

 --------------------------
 OPTIMIZATION STEP:     76
 --------------------------

 Number of electrons:                                                        428
 Number of occupied orbitals:                                                217
 Number of molecular orbitals:                                               252

 Number of orbital functions:                                                976
 Number of independent orbital functions:                                    976

 Extrapolation method: PS Nth order


 SCF WAVEFUNCTION OPTIMIZATION

  Step     Update method      Time    Convergence         Total energy    Change
  ------------------------------------------------------------------------------
     1 Broy./Diag. 0.10E+00    7.6     0.00107602     -1284.5369589899 -1.28E+03
     2 Broy./Diag. 0.10E+00   12.3     0.00002920     -1284.5393930219 -2.43E-03
     3 Broy./Diag. 0.10E+00   13.4     0.00025945     -1284.5383329575  1.06E-03
     4 Broy./Diag. 0.10E+00   13.5     0.00000757     -1284.5373614637  9.71E-04
     5 Broy./Diag. 0.10E+00   14.1     0.00004715     -1284.5371427112  2.19E-04
     6 Broy./Diag. 0.10E+00   14.1     0.00000762     -1284.5368413462  3.01E-04
     7 Broy./Diag. 0.10E+00   15.1     0.00003292     -1284.5369909494 -1.50E-04
     8 Broy./Diag. 0.10E+00   15.0     0.00000593     -1284.5371180580 -1.27E-04
     9 Broy./Diag. 0.10E+00   15.8     0.00001307     -1284.5371027518  1.53E-05
    10 Broy./Diag. 0.10E+00   16.9     0.00000179     -1284.5370424320  6.03E-05
    11 Broy./Diag. 0.10E+00   16.6     0.00000787     -1284.5370254155  1.70E-05
    12 Broy./Diag. 0.10E+00   16.8     0.00000077     -1284.5369866916  3.87E-05
    13 Broy./Diag. 0.10E+00   16.6     0.00000376     -1284.5369885725 -1.88E-06
    14 Broy./Diag. 0.10E+00   16.5     0.00000037     -1284.5369780879  1.05E-05
    15 Broy./Diag. 0.10E+00   17.3     0.00000223     -1284.5369823813 -4.29E-06
    16 Broy./Diag. 0.10E+00   17.0     0.00000024     -1284.5369784409  3.94E-06
    17 Broy./Diag. 0.10E+00   17.6     0.00000147     -1284.5369761825  2.26E-06
    18 Broy./Diag. 0.10E+00   17.6     0.00000012     -1284.5369716785  4.50E-06
    19 Broy./Diag. 0.10E+00   16.6     0.00000060     -1284.5369704659  1.21E-06
    20 Broy./Diag. 0.10E+00   17.9     0.00000015     -1284.5369697501  7.16E-07
    21 Broy./Diag. 0.10E+00   17.5     0.00000048     -1284.5369718190 -2.07E-06
    22 Broy./Diag. 0.10E+00   17.4     0.00000014     -1284.5369742261 -2.41E-06
    23 Broy./Diag. 0.10E+00   17.5     0.00000025     -1284.5369731608  1.07E-06
    24 Broy./Diag. 0.10E+00   17.9     0.00000003     -1284.5369721319  1.03E-06

  *** SCF run converged in    24 steps ***


  Electronic density on regular grids:       -428.0000000010       -0.0000000010
  Core density on regular grids:              427.9999993685       -0.0000006315
  Total charge density on r-space grids:       -0.0000006325
  Total charge density g-space grids:          -0.0000006325

  Overlap energy of the core charge distribution:               0.00000315141324
  Self energy of the core charge distribution:              -2253.28808377914038
  Core Hamiltonian energy:                                    717.37382657469789
  Hartree energy:                                             454.99022161183217
  Exchange-correlation energy:                               -203.27956625588192
  Dispersion energy:                                           -0.33336948182399
  Electronic entropic energy:                                  -0.00000395303990
  Fermi energy:                                                -0.16875466511659

  Total energy:                                             -1284.53697213194437

 ENERGY| Total FORCE_EVAL ( QS ) energy (a.u.):            -1284.536972020393478


 --------  Informations at step =    76 ------------
  Optimization Method        =                 BFGS
  Total Energy               =     -1284.5369720204
  Real energy change         =        -0.0000044576
  Predicted change in energy =        -0.0000031334
  Scaling factor             =         0.0000000000
  Step size                  =         0.0058601917
  Trust radius               =         0.4724315332
  Decrease in energy         =                  YES
  Used time                  =              399.438

  Convergence check :
  Max. step size             =         0.0058601917
  Conv. limit for step size  =         0.0030000000
  Convergence in step size   =                   NO
  RMS step size              =         0.0023475945
  Conv. limit for RMS step   =         0.0015000000
  Convergence in RMS step    =                   NO
  Max. gradient              =         0.0002216322
  Conv. limit for gradients  =         0.0004500000
  Conv. in gradients         =                  YES
  RMS gradient               =         0.0000558796
  Conv. limit for RMS grad.  =         0.0003000000
  Conv. in RMS gradients     =                  YES
 ---------------------------------------------------

 --------------------------
 OPTIMIZATION STEP:     77
 --------------------------

 Number of electrons:                                                        428
 Number of occupied orbitals:                                                217
 Number of molecular orbitals:                                               252

 Number of orbital functions:                                                976
 Number of independent orbital functions:                                    976

 Extrapolation method: PS Nth order


 SCF WAVEFUNCTION OPTIMIZATION

  Step     Update method      Time    Convergence         Total energy    Change
  ------------------------------------------------------------------------------
     1 Broy./Diag. 0.10E+00    7.6     0.00119907     -1284.5369619345 -1.28E+03
     2 Broy./Diag. 0.10E+00   12.6     0.00002745     -1284.5336318209  3.33E-03
     3 Broy./Diag. 0.10E+00   13.6     0.00024515     -1284.5349716782 -1.34E-03
     4 Broy./Diag. 0.10E+00   14.2     0.00000989     -1284.5373390670 -2.37E-03
     5 Broy./Diag. 0.10E+00   14.3     0.00006389     -1284.5370605602  2.79E-04
     6 Broy./Diag. 0.10E+00   14.3     0.00000577     -1284.5368569852  2.04E-04
     7 Broy./Diag. 0.10E+00   15.1     0.00003995     -1284.5368383666  1.86E-05
     8 Broy./Diag. 0.10E+00   15.1     0.00000318     -1284.5368848269 -4.65E-05
     9 Broy./Diag. 0.10E+00   16.5     0.00001343     -1284.5369605659 -7.57E-05
    10 Broy./Diag. 0.10E+00   17.1     0.00000297     -1284.5370468550 -8.63E-05
    11 Broy./Diag. 0.10E+00   16.4     0.00000755     -1284.5370213575  2.55E-05
    12 Broy./Diag. 0.10E+00   16.7     0.00000146     -1284.5369858832  3.55E-05
    13 Broy./Diag. 0.10E+00   17.5     0.00000328     -1284.5369727904  1.31E-05
    14 Broy./Diag. 0.10E+00   18.0     0.00000061     -1284.5369610197  1.18E-05
    15 Broy./Diag. 0.10E+00   17.4     0.00000249     -1284.5369677888 -6.77E-06
    16 Broy./Diag. 0.10E+00   17.1     0.00000027     -1284.5369740758 -6.29E-06
    17 Broy./Diag. 0.10E+00   17.3     0.00000149     -1284.5369753241 -1.25E-06
    18 Broy./Diag. 0.10E+00   17.7     0.00000014     -1284.5369776173 -2.29E-06
    19 Broy./Diag. 0.10E+00   17.3     0.00000070     -1284.5369758312  1.79E-06
    20 Broy./Diag. 0.10E+00   17.8     0.00000011     -1284.5369746926  1.14E-06
    21 Broy./Diag. 0.10E+00   17.0     0.00000043     -1284.5369750352 -3.43E-07
    22 Broy./Diag. 0.10E+00   17.2     0.00000012     -1284.5369761816 -1.15E-06
    23 Broy./Diag. 0.10E+00   16.1     0.00000034     -1284.5369773740 -1.19E-06
    24 Broy./Diag. 0.10E+00   16.8     0.00000007     -1284.5369783663 -9.92E-07

  *** SCF run converged in    24 steps ***


  Electronic density on regular grids:       -428.0000000010       -0.0000000010
  Core density on regular grids:              427.9999993685       -0.0000006315
  Total charge density on r-space grids:       -0.0000006325
  Total charge density g-space grids:          -0.0000006325

  Overlap energy of the core charge distribution:               0.00000314760758
  Self energy of the core charge distribution:              -2253.28808377914038
  Core Hamiltonian energy:                                    717.37341231274081
  Hartree energy:                                             454.99037115092256
  Exchange-correlation energy:                               -203.27930812349840
  Dispersion energy:                                           -0.33336912849168
  Electronic entropic energy:                                  -0.00000394643579
  Fermi energy:                                                -0.16875632355964

  Total energy:                                             -1284.53697836629681

 ENERGY| Total FORCE_EVAL ( QS ) energy (a.u.):            -1284.536976121749831


 --------  Informations at step =    77 ------------
  Optimization Method        =                 BFGS
  Total Energy               =     -1284.5369761217
  Real energy change         =        -0.0000041014
  Predicted change in energy =        -0.0000029260
  Scaling factor             =         0.0000000000
  Step size                  =         0.0065848959
  Trust radius               =         0.4724315332
  Decrease in energy         =                  YES
  Used time                  =              402.449

  Convergence check :
  Max. step size             =         0.0065848959
  Conv. limit for step size  =         0.0030000000
  Convergence in step size   =                   NO
  RMS step size              =         0.0025149834
  Conv. limit for RMS step   =         0.0015000000
  Convergence in RMS step    =                   NO
  Max. gradient              =         0.0001674954
  Conv. limit for gradients  =         0.0004500000
  Conv. in gradients         =                  YES
  RMS gradient               =         0.0000465955
  Conv. limit for RMS grad.  =         0.0003000000
  Conv. in RMS gradients     =                  YES
 ---------------------------------------------------

 --------------------------
 OPTIMIZATION STEP:     78
 --------------------------

 Number of electrons:                                                        428
 Number of occupied orbitals:                                                217
 Number of molecular orbitals:                                               252

 Number of orbital functions:                                                976
 Number of independent orbital functions:                                    976

 Extrapolation method: PS Nth order


 SCF WAVEFUNCTION OPTIMIZATION

  Step     Update method      Time    Convergence         Total energy    Change
  ------------------------------------------------------------------------------
     1 Broy./Diag. 0.10E+00    7.3     0.00129333     -1284.5369657109 -1.28E+03
     2 Broy./Diag. 0.10E+00   12.7     0.00002357     -1284.5301713139  6.79E-03
     3 Broy./Diag. 0.10E+00   14.0     0.00020439     -1284.5328398921 -2.67E-03
     4 Broy./Diag. 0.10E+00   13.2     0.00000803     -1284.5371966149 -4.36E-03
     5 Broy./Diag. 0.10E+00   14.0     0.00005042     -1284.5367219482  4.75E-04
     6 Broy./Diag. 0.10E+00   14.7     0.00000487     -1284.5365386670  1.83E-04
     7 Broy./Diag. 0.10E+00   15.6     0.00003478     -1284.5364297955  1.09E-04
     8 Broy./Diag. 0.10E+00   15.8     0.00000219     -1284.5366310292 -2.01E-04
     9 Broy./Diag. 0.10E+00   15.8     0.00001271     -1284.5367303932 -9.94E-05
    10 Broy./Diag. 0.10E+00   17.0     0.00000231     -1284.5369520685 -2.22E-04
    11 Broy./Diag. 0.10E+00   17.2     0.00000884     -1284.5369281024  2.40E-05
    12 Broy./Diag. 0.10E+00   16.9     0.00000135     -1284.5369304802 -2.38E-06
    13 Broy./Diag. 0.10E+00   16.9     0.00000271     -1284.5369306538 -1.74E-07
    14 Broy./Diag. 0.10E+00   17.1     0.00000080     -1284.5369473459 -1.67E-05
    15 Broy./Diag. 0.10E+00   16.6     0.00000229     -1284.5369531949 -5.85E-06
    16 Broy./Diag. 0.10E+00   16.7     0.00000028     -1284.5369682611 -1.51E-05
    17 Broy./Diag. 0.10E+00   17.5     0.00000138     -1284.5369765609 -8.30E-06
    18 Broy./Diag. 0.10E+00   17.2     0.00000016     -1284.5369835541 -6.99E-06
    19 Broy./Diag. 0.10E+00   17.0     0.00000077     -1284.5369812434  2.31E-06
    20 Broy./Diag. 0.10E+00   16.3     0.00000009     -1284.5369767150  4.53E-06

  *** SCF run converged in    20 steps ***


  Electronic density on regular grids:       -428.0000000010       -0.0000000010
  Core density on regular grids:              427.9999993686       -0.0000006314
  Total charge density on r-space grids:       -0.0000006324
  Total charge density g-space grids:          -0.0000006324

  Overlap energy of the core charge distribution:               0.00000314778989
  Self energy of the core charge distribution:              -2253.28808377914038
  Core Hamiltonian energy:                                    717.37274268815429
  Hartree energy:                                             454.99046476483608
  Exchange-correlation energy:                               -203.27874594835995
  Dispersion energy:                                           -0.33335362024488
  Electronic entropic energy:                                  -0.00000396805783
  Fermi energy:                                                -0.16875921546604

  Total energy:                                             -1284.53697671502277

 ENERGY| Total FORCE_EVAL ( QS ) energy (a.u.):            -1284.536979532120085


 --------  Informations at step =    78 ------------
  Optimization Method        =                 BFGS
  Total Energy               =     -1284.5369795321
  Real energy change         =        -0.0000034104
  Predicted change in energy =        -0.0000024346
  Scaling factor             =         0.0000000000
  Step size                  =         0.0070081964
  Trust radius               =         0.4724315332
  Decrease in energy         =                  YES
  Used time                  =              331.163

  Convergence check :
  Max. step size             =         0.0070081964
  Conv. limit for step size  =         0.0030000000
  Convergence in step size   =                   NO
  RMS step size              =         0.0023611402
  Conv. limit for RMS step   =         0.0015000000
  Convergence in RMS step    =                   NO
  Max. gradient              =         0.0002149331
  Conv. limit for gradients  =         0.0004500000
  Conv. in gradients         =                  YES
  RMS gradient               =         0.0000427408
  Conv. limit for RMS grad.  =         0.0003000000
  Conv. in RMS gradients     =                  YES
 ---------------------------------------------------

 --------------------------
 OPTIMIZATION STEP:     79
 --------------------------

 Number of electrons:                                                        428
 Number of occupied orbitals:                                                217
 Number of molecular orbitals:                                               252

 Number of orbital functions:                                                976
 Number of independent orbital functions:                                    976

 Extrapolation method: PS Nth order


 SCF WAVEFUNCTION OPTIMIZATION

  Step     Update method      Time    Convergence         Total energy    Change
  ------------------------------------------------------------------------------
     1 Broy./Diag. 0.10E+00    7.2     0.00114141     -1284.5369724796 -1.28E+03
     2 Broy./Diag. 0.10E+00   12.8     0.00001980     -1284.5292197488  7.75E-03
     3 Broy./Diag. 0.10E+00   13.3     0.00017130     -1284.5321692875 -2.95E-03
     4 Broy./Diag. 0.10E+00   13.6     0.00000576     -1284.5371367592 -4.97E-03
     5 Broy./Diag. 0.10E+00   13.6     0.00003677     -1284.5367040306  4.33E-04
     6 Broy./Diag. 0.10E+00   14.2     0.00000701     -1284.5366281112  7.59E-05
     7 Broy./Diag. 0.10E+00   15.0     0.00003127     -1284.5364479989  1.80E-04
     8 Broy./Diag. 0.10E+00   14.9     0.00000417     -1284.5364789503 -3.10E-05
     9 Broy./Diag. 0.10E+00   16.8     0.00000912     -1284.5366096010 -1.31E-04
    10 Broy./Diag. 0.10E+00   16.6     0.00000163     -1284.5368321202 -2.23E-04
    11 Broy./Diag. 0.10E+00   17.1     0.00000601     -1284.5368667729 -3.47E-05
    12 Broy./Diag. 0.10E+00   17.6     0.00000086     -1284.5369650711 -9.83E-05
    13 Broy./Diag. 0.10E+00   17.3     0.00000415     -1284.5369370555  2.80E-05
    14 Broy./Diag. 0.10E+00   18.3     0.00000037     -1284.5369417014 -4.65E-06
    15 Broy./Diag. 0.10E+00   17.1     0.00000208     -1284.5369471043 -5.40E-06
    16 Broy./Diag. 0.10E+00   17.0     0.00000016     -1284.5369684662 -2.14E-05
    17 Broy./Diag. 0.10E+00   17.3     0.00000114     -1284.5369753367 -6.87E-06
    18 Broy./Diag. 0.10E+00   18.2     0.00000012     -1284.5369830133 -7.68E-06
    19 Broy./Diag. 0.10E+00   18.0     0.00000060     -1284.5369821456  8.68E-07
    20 Broy./Diag. 0.10E+00   17.2     0.00000012     -1284.5369799857  2.16E-06
    21 Broy./Diag. 0.10E+00   16.3     0.00000039     -1284.5369793132  6.72E-07
    22 Broy./Diag. 0.10E+00   17.6     0.00000013     -1284.5369794450 -1.32E-07
    23 Broy./Diag. 0.10E+00   16.8     0.00000025     -1284.5369815286 -2.08E-06
    24 Broy./Diag. 0.10E+00   16.5     0.00000003     -1284.5369835355 -2.01E-06

  *** SCF run converged in    24 steps ***


  Electronic density on regular grids:       -428.0000000010       -0.0000000010
  Core density on regular grids:              427.9999993685       -0.0000006315
  Total charge density on r-space grids:       -0.0000006325
  Total charge density g-space grids:          -0.0000006325

  Overlap energy of the core charge distribution:               0.00000314602045
  Self energy of the core charge distribution:              -2253.28808377914038
  Core Hamiltonian energy:                                    717.37183921082169
  Hartree energy:                                             454.99072027621492
  Exchange-correlation energy:                               -203.27811887368995
  Dispersion energy:                                           -0.33333949234105
  Electronic entropic energy:                                  -0.00000402342492
  Fermi energy:                                                -0.16876090654012

  Total energy:                                             -1284.53698353554000

 ENERGY| Total FORCE_EVAL ( QS ) energy (a.u.):            -1284.536982378068615


 --------  Informations at step =    79 ------------
  Optimization Method        =                 BFGS
  Total Energy               =     -1284.5369823781
  Real energy change         =        -0.0000028459
  Predicted change in energy =        -0.0000019904
  Scaling factor             =         0.0000000000
  Step size                  =         0.0059947488
  Trust radius               =         0.4724315332
  Decrease in energy         =                  YES
  Used time                  =              401.756

  Convergence check :
  Max. step size             =         0.0059947488
  Conv. limit for step size  =         0.0030000000
  Convergence in step size   =                   NO
  RMS step size              =         0.0020395485
  Conv. limit for RMS step   =         0.0015000000
  Convergence in RMS step    =                   NO
  Max. gradient              =         0.0002273123
  Conv. limit for gradients  =         0.0004500000
  Conv. in gradients         =                  YES
  RMS gradient               =         0.0000404103
  Conv. limit for RMS grad.  =         0.0003000000
  Conv. in RMS gradients     =                  YES
 ---------------------------------------------------

 --------------------------
 OPTIMIZATION STEP:     80
 --------------------------

 Number of electrons:                                                        428
 Number of occupied orbitals:                                                217
 Number of molecular orbitals:                                               252

 Number of orbital functions:                                                976
 Number of independent orbital functions:                                    976

 Extrapolation method: PS Nth order


 SCF WAVEFUNCTION OPTIMIZATION

  Step     Update method      Time    Convergence         Total energy    Change
  ------------------------------------------------------------------------------
     1 Broy./Diag. 0.10E+00    7.6     0.00122358     -1284.5369756607 -1.28E+03
     2 Broy./Diag. 0.10E+00   12.9     0.00001875     -1284.5302965916  6.68E-03
     3 Broy./Diag. 0.10E+00   13.1     0.00016844     -1284.5329194711 -2.62E-03
     4 Broy./Diag. 0.10E+00   13.4     0.00000456     -1284.5372689350 -4.35E-03
     5 Broy./Diag. 0.10E+00   14.2     0.00003528     -1284.5366769350  5.92E-04
     6 Broy./Diag. 0.10E+00   14.9     0.00000434     -1284.5363854227  2.92E-04
     7 Broy./Diag. 0.10E+00   14.4     0.00002163     -1284.5363682243  1.72E-05
     8 Broy./Diag. 0.10E+00   15.8     0.00000526     -1284.5366066591 -2.38E-04
     9 Broy./Diag. 0.10E+00   16.4     0.00001349     -1284.5366533500 -4.67E-05
    10 Broy./Diag. 0.10E+00   17.9     0.00000094     -1284.5367933067 -1.40E-04
    11 Broy./Diag. 0.10E+00   17.5     0.00000364     -1284.5368372366 -4.39E-05
    12 Broy./Diag. 0.10E+00   17.4     0.00000058     -1284.5369592860 -1.22E-04
    13 Broy./Diag. 0.10E+00   17.3     0.00000276     -1284.5369329618  2.63E-05
    14 Broy./Diag. 0.10E+00   17.0     0.00000024     -1284.5369428794 -9.92E-06
    15 Broy./Diag. 0.10E+00   18.1     0.00000138     -1284.5369489143 -6.03E-06
    16 Broy./Diag. 0.10E+00   18.4     0.00000014     -1284.5369712736 -2.24E-05
    17 Broy./Diag. 0.10E+00   17.3     0.00000098     -1284.5369785599 -7.29E-06
    18 Broy./Diag. 0.10E+00   17.5     0.00000009     -1284.5369861616 -7.60E-06

  *** SCF run converged in    18 steps ***


  Electronic density on regular grids:       -428.0000000010       -0.0000000010
  Core density on regular grids:              427.9999993684       -0.0000006316
  Total charge density on r-space grids:       -0.0000006326
  Total charge density g-space grids:          -0.0000006326

  Overlap energy of the core charge distribution:               0.00000314838478
  Self energy of the core charge distribution:              -2253.28808377914038
  Core Hamiltonian energy:                                    717.37184314724243
  Hartree energy:                                             454.99052954995227
  Exchange-correlation energy:                               -203.27794118122981
  Dispersion energy:                                           -0.33333297796330
  Electronic entropic energy:                                  -0.00000406881419
  Fermi energy:                                                -0.16875879182768

  Total energy:                                             -1284.53698616156771

 ENERGY| Total FORCE_EVAL ( QS ) energy (a.u.):            -1284.536984957694358


 --------  Informations at step =    80 ------------
  Optimization Method        =                 BFGS
  Total Energy               =     -1284.5369849577
  Real energy change         =        -0.0000025796
  Predicted change in energy =        -0.0000017871
  Scaling factor             =         0.0000000000
  Step size                  =         0.0055920466
  Trust radius               =         0.4724315332
  Decrease in energy         =                  YES
  Used time                  =              302.979

  Convergence check :
  Max. step size             =         0.0055920466
  Conv. limit for step size  =         0.0030000000
  Convergence in step size   =                   NO
  RMS step size              =         0.0019425770
  Conv. limit for RMS step   =         0.0015000000
  Convergence in RMS step    =                   NO
  Max. gradient              =         0.0002283458
  Conv. limit for gradients  =         0.0004500000
  Conv. in gradients         =                  YES
  RMS gradient               =         0.0000470317
  Conv. limit for RMS grad.  =         0.0003000000
  Conv. in RMS gradients     =                  YES
 ---------------------------------------------------

 --------------------------
 OPTIMIZATION STEP:     81
 --------------------------

 Number of electrons:                                                        428
 Number of occupied orbitals:                                                217
 Number of molecular orbitals:                                               252

 Number of orbital functions:                                                976
 Number of independent orbital functions:                                    976

 Extrapolation method: PS Nth order


 SCF WAVEFUNCTION OPTIMIZATION

  Step     Update method      Time    Convergence         Total energy    Change
  ------------------------------------------------------------------------------
     1 Broy./Diag. 0.10E+00    7.5     0.00122712     -1284.5369770813 -1.28E+03
     2 Broy./Diag. 0.10E+00   13.0     0.00002069     -1284.5335949745  3.38E-03
     3 Broy./Diag. 0.10E+00   13.5     0.00018918     -1284.5347832397 -1.19E-03
     4 Broy./Diag. 0.10E+00   14.1     0.00000436     -1284.5372630356 -2.48E-03
     5 Broy./Diag. 0.10E+00   14.4     0.00003043     -1284.5368400883  4.23E-04
     6 Broy./Diag. 0.10E+00   14.2     0.00000446     -1284.5365801504  2.60E-04
     7 Broy./Diag. 0.10E+00   15.3     0.00002382     -1284.5365798213  3.29E-07
     8 Broy./Diag. 0.10E+00   15.0     0.00000457     -1284.5367507484 -1.71E-04
     9 Broy./Diag. 0.10E+00   17.0     0.00001205     -1284.5367604146 -9.67E-06
    10 Broy./Diag. 0.10E+00   17.5     0.00000146     -1284.5368394268 -7.90E-05
    11 Broy./Diag. 0.10E+00   17.1     0.00000480     -1284.5368752155 -3.58E-05
    12 Broy./Diag. 0.10E+00   17.1     0.00000055     -1284.5369659961 -9.08E-05
    13 Broy./Diag. 0.10E+00   17.6     0.00000260     -1284.5369473477  1.86E-05
    14 Broy./Diag. 0.10E+00   17.8     0.00000026     -1284.5369551327 -7.78E-06
    15 Broy./Diag. 0.10E+00   17.1     0.00000135     -1284.5369582926 -3.16E-06
    16 Broy./Diag. 0.10E+00   17.4     0.00000013     -1284.5369734385 -1.51E-05
    17 Broy./Diag. 0.10E+00   17.4     0.00000092     -1284.5369789631 -5.52E-06
    18 Broy./Diag. 0.10E+00   16.9     0.00000007     -1284.5369862079 -7.24E-06

  *** SCF run converged in    18 steps ***


  Electronic density on regular grids:       -428.0000000011       -0.0000000011
  Core density on regular grids:              427.9999993685       -0.0000006315
  Total charge density on r-space grids:       -0.0000006326
  Total charge density g-space grids:          -0.0000006326

  Overlap energy of the core charge distribution:               0.00000314787607
  Self energy of the core charge distribution:              -2253.28808377914038
  Core Hamiltonian energy:                                    717.37252702940202
  Hartree energy:                                             454.99016777446792
  Exchange-correlation energy:                               -203.27825719065876
  Dispersion energy:                                           -0.33333908568729
  Electronic entropic energy:                                  -0.00000410411806
  Fermi energy:                                                -0.16875197771820

  Total energy:                                             -1284.53698620785804

 ENERGY| Total FORCE_EVAL ( QS ) energy (a.u.):            -1284.536987318728052


 --------  Informations at step =    81 ------------
  Optimization Method        =                 BFGS
  Total Energy               =     -1284.5369873187
  Real energy change         =        -0.0000023610
  Predicted change in energy =        -0.0000016587
  Scaling factor             =         0.0000000000
  Step size                  =         0.0057534192
  Trust radius               =         0.4724315332
  Decrease in energy         =                  YES
  Used time                  =              302.333

  Convergence check :
  Max. step size             =         0.0057534192
  Conv. limit for step size  =         0.0030000000
  Convergence in step size   =                   NO
  RMS step size              =         0.0019169790
  Conv. limit for RMS step   =         0.0015000000
  Convergence in RMS step    =                   NO
  Max. gradient              =         0.0001876054
  Conv. limit for gradients  =         0.0004500000
  Conv. in gradients         =                  YES
  RMS gradient               =         0.0000453996
  Conv. limit for RMS grad.  =         0.0003000000
  Conv. in RMS gradients     =                  YES
 ---------------------------------------------------

 --------------------------
 OPTIMIZATION STEP:     82
 --------------------------

 Number of electrons:                                                        428
 Number of occupied orbitals:                                                217
 Number of molecular orbitals:                                               252

 Number of orbital functions:                                                976
 Number of independent orbital functions:                                    976

 Extrapolation method: PS Nth order


 SCF WAVEFUNCTION OPTIMIZATION

  Step     Update method      Time    Convergence         Total energy    Change
  ------------------------------------------------------------------------------
     1 Broy./Diag. 0.10E+00    7.9     0.00168293     -1284.5369782010 -1.28E+03
     2 Broy./Diag. 0.10E+00   13.1     0.00001805     -1284.5359203495  1.06E-03
     3 Broy./Diag. 0.10E+00   13.7     0.00015059     -1284.5363634295 -4.43E-04
     4 Broy./Diag. 0.10E+00   13.5     0.00001546     -1284.5372312663 -8.68E-04
     5 Broy./Diag. 0.10E+00   14.5     0.00008233     -1284.5369739071  2.57E-04
     6 Broy./Diag. 0.10E+00   15.3     0.00000684     -1284.5367137150  2.60E-04
     7 Broy./Diag. 0.10E+00   15.6     0.00002792     -1284.5367680843 -5.44E-05
     8 Broy./Diag. 0.10E+00   15.8     0.00000315     -1284.5368954746 -1.27E-04
     9 Broy./Diag. 0.10E+00   16.7     0.00001207     -1284.5368785239  1.70E-05
    10 Broy./Diag. 0.10E+00   17.5     0.00000133     -1284.5369085881 -3.01E-05
    11 Broy./Diag. 0.10E+00   17.8     0.00000678     -1284.5369177966 -9.21E-06
    12 Broy./Diag. 0.10E+00   16.9     0.00000051     -1284.5369642532 -4.65E-05
    13 Broy./Diag. 0.10E+00   17.5     0.00000286     -1284.5369588365  5.42E-06
    14 Broy./Diag. 0.10E+00   17.0     0.00000027     -1284.5369721321 -1.33E-05
    15 Broy./Diag. 0.10E+00   17.9     0.00000149     -1284.5369712634  8.69E-07
    16 Broy./Diag. 0.10E+00   16.8     0.00000014     -1284.5369789778 -7.71E-06
    17 Broy./Diag. 0.10E+00   17.7     0.00000092     -1284.5369827929 -3.82E-06
    18 Broy./Diag. 0.10E+00   16.8     0.00000018     -1284.5369885749 -5.78E-06
    19 Broy./Diag. 0.10E+00   17.6     0.00000069     -1284.5369870303  1.54E-06
    20 Broy./Diag. 0.10E+00   17.3     0.00000022     -1284.5369855800  1.45E-06
    21 Broy./Diag. 0.10E+00   17.2     0.00000040     -1284.5369871358 -1.56E-06
    22 Broy./Diag. 0.10E+00   17.1     0.00000009     -1284.5369886326 -1.50E-06

  *** SCF run converged in    22 steps ***


  Electronic density on regular grids:       -428.0000000011       -0.0000000011
  Core density on regular grids:              427.9999993684       -0.0000006316
  Total charge density on r-space grids:       -0.0000006327
  Total charge density g-space grids:          -0.0000006327

  Overlap energy of the core charge distribution:               0.00000315005876
  Self energy of the core charge distribution:              -2253.28808377914038
  Core Hamiltonian energy:                                    717.37392262001288
  Hartree energy:                                             454.98948027180859
  Exchange-correlation energy:                               -203.27895267055806
  Dispersion energy:                                           -0.33335411781037
  Electronic entropic energy:                                  -0.00000410699816
  Fermi energy:                                                -0.16874441734047

  Total energy:                                             -1284.53698863262821

 ENERGY| Total FORCE_EVAL ( QS ) energy (a.u.):            -1284.536989296758520


 --------  Informations at step =    82 ------------
  Optimization Method        =                 BFGS
  Total Energy               =     -1284.5369892968
  Real energy change         =        -0.0000019780
  Predicted change in energy =        -0.0000013999
  Scaling factor             =         0.0000000000
  Step size                  =         0.0061769237
  Trust radius               =         0.4724315332
  Decrease in energy         =                  YES
  Used time                  =              372.854

  Convergence check :
  Max. step size             =         0.0061769237
  Conv. limit for step size  =         0.0030000000
  Convergence in step size   =                   NO
  RMS step size              =         0.0017404314
  Conv. limit for RMS step   =         0.0015000000
  Convergence in RMS step    =                   NO
  Max. gradient              =         0.0002774240
  Conv. limit for gradients  =         0.0004500000
  Conv. in gradients         =                  YES
  RMS gradient               =         0.0000505636
  Conv. limit for RMS grad.  =         0.0003000000
  Conv. in RMS gradients     =                  YES
 ---------------------------------------------------

 --------------------------
 OPTIMIZATION STEP:     83
 --------------------------

 Number of electrons:                                                        428
 Number of occupied orbitals:                                                217
 Number of molecular orbitals:                                               252

 Number of orbital functions:                                                976
 Number of independent orbital functions:                                    976

 Extrapolation method: PS Nth order


 SCF WAVEFUNCTION OPTIMIZATION

  Step     Update method      Time    Convergence         Total energy    Change
  ------------------------------------------------------------------------------
     1 Broy./Diag. 0.10E+00    8.0     0.00143646     -1284.5369820895 -1.28E+03
     2 Broy./Diag. 0.10E+00   13.3     0.00001299     -1284.5388863518 -1.90E-03
     3 Broy./Diag. 0.10E+00   13.2     0.00012371     -1284.5379618245  9.25E-04
     4 Broy./Diag. 0.10E+00   13.6     0.00000550     -1284.5368534654  1.11E-03
     5 Broy./Diag. 0.10E+00   14.1     0.00004412     -1284.5369217472 -6.83E-05
     6 Broy./Diag. 0.10E+00   14.3     0.00000696     -1284.5369304187 -8.67E-06
     7 Broy./Diag. 0.10E+00   15.3     0.00002721     -1284.5370377876 -1.07E-04
     8 Broy./Diag. 0.10E+00   15.7     0.00000294     -1284.5371093524 -7.16E-05
     9 Broy./Diag. 0.10E+00   16.6     0.00000775     -1284.5370488073  6.05E-05
    10 Broy./Diag. 0.10E+00   17.1     0.00000107     -1284.5369657440  8.31E-05
    11 Broy./Diag. 0.10E+00   17.8     0.00000495     -1284.5369707892 -5.05E-06
    12 Broy./Diag. 0.10E+00   17.7     0.00000054     -1284.5369851178 -1.43E-05
    13 Broy./Diag. 0.10E+00   18.1     0.00000283     -1284.5369855402 -4.22E-07
    14 Broy./Diag. 0.10E+00   18.1     0.00000032     -1284.5369894301 -3.89E-06
    15 Broy./Diag. 0.10E+00   16.1     0.00000145     -1284.5369862556  3.17E-06
    16 Broy./Diag. 0.10E+00   18.9     0.00000015     -1284.5369853161  9.40E-07
    17 Broy./Diag. 0.10E+00   18.1     0.00000095     -1284.5369871282 -1.81E-06
    18 Broy./Diag. 0.10E+00   17.8     0.00000008     -1284.5369906721 -3.54E-06

  *** SCF run converged in    18 steps ***


  Electronic density on regular grids:       -428.0000000011       -0.0000000011
  Core density on regular grids:              427.9999993685       -0.0000006315
  Total charge density on r-space grids:       -0.0000006326
  Total charge density g-space grids:          -0.0000006326

  Overlap energy of the core charge distribution:               0.00000314786575
  Self energy of the core charge distribution:              -2253.28808377914038
  Core Hamiltonian energy:                                    717.37503953293242
  Hartree energy:                                             454.98904035055341
  Exchange-correlation energy:                               -203.27961291153119
  Dispersion energy:                                           -0.33337291321360
  Electronic entropic energy:                                  -0.00000409958556
  Fermi energy:                                                -0.16873965405870

  Total energy:                                             -1284.53699067211869

 ENERGY| Total FORCE_EVAL ( QS ) energy (a.u.):            -1284.536990904345657


 --------  Informations at step =    83 ------------
  Optimization Method        =                 BFGS
  Total Energy               =     -1284.5369909043
  Real energy change         =        -0.0000016076
  Predicted change in energy =        -0.0000011321
  Scaling factor             =         0.0000000000
  Step size                  =         0.0057398413
  Trust radius               =         0.4724315332
  Decrease in energy         =                  YES
  Used time                  =              305.003

  Convergence check :
  Max. step size             =         0.0057398413
  Conv. limit for step size  =         0.0030000000
  Convergence in step size   =                   NO
  RMS step size              =         0.0015044875
  Conv. limit for RMS step   =         0.0015000000
  Convergence in RMS step    =                   NO
  Max. gradient              =         0.0002376951
  Conv. limit for gradients  =         0.0004500000
  Conv. in gradients         =                  YES
  RMS gradient               =         0.0000412372
  Conv. limit for RMS grad.  =         0.0003000000
  Conv. in RMS gradients     =                  YES
 ---------------------------------------------------

 --------------------------
 OPTIMIZATION STEP:     84
 --------------------------

 Number of electrons:                                                        428
 Number of occupied orbitals:                                                217
 Number of molecular orbitals:                                               252

 Number of orbital functions:                                                976
 Number of independent orbital functions:                                    976

 Extrapolation method: PS Nth order


 SCF WAVEFUNCTION OPTIMIZATION

  Step     Update method      Time    Convergence         Total energy    Change
  ------------------------------------------------------------------------------
     1 Broy./Diag. 0.10E+00    7.6     0.00149981     -1284.5369848583 -1.28E+03
     2 Broy./Diag. 0.10E+00   12.8     0.00001911     -1284.5383348264 -1.35E-03
     3 Broy./Diag. 0.10E+00   13.7     0.00015901     -1284.5379298940  4.05E-04
     4 Broy./Diag. 0.10E+00   14.1     0.00001725     -1284.5371517255  7.78E-04
     5 Broy./Diag. 0.10E+00   13.8     0.00007731     -1284.5370466677  1.05E-04
     6 Broy./Diag. 0.10E+00   14.3     0.00000333     -1284.5368685187  1.78E-04
     7 Broy./Diag. 0.10E+00   15.6     0.00001991     -1284.5370502631 -1.82E-04
     8 Broy./Diag. 0.10E+00   16.6     0.00000143     -1284.5371639633 -1.14E-04
     9 Broy./Diag. 0.10E+00   16.8     0.00000811     -1284.5371231766  4.08E-05
    10 Broy./Diag. 0.10E+00   17.3     0.00000048     -1284.5370070213  1.16E-04
    11 Broy./Diag. 0.10E+00   17.1     0.00000336     -1284.5370118007 -4.78E-06
    12 Broy./Diag. 0.10E+00   17.2     0.00000027     -1284.5370008768  1.09E-05
    13 Broy./Diag. 0.10E+00   16.6     0.00000215     -1284.5370031698 -2.29E-06
    14 Broy./Diag. 0.10E+00   17.4     0.00000016     -1284.5369966838  6.49E-06
    15 Broy./Diag. 0.10E+00   17.1     0.00000108     -1284.5369939189  2.76E-06
    16 Broy./Diag. 0.10E+00   17.5     0.00000013     -1284.5369907848  3.13E-06
    17 Broy./Diag. 0.10E+00   17.1     0.00000066     -1284.5369922853 -1.50E-06
    18 Broy./Diag. 0.10E+00   17.1     0.00000021     -1284.5369937736 -1.49E-06
    19 Broy./Diag. 0.10E+00   17.7     0.00000053     -1284.5369922806  1.49E-06
    20 Broy./Diag. 0.10E+00   17.6     0.00000014     -1284.5369913341  9.47E-07
    21 Broy./Diag. 0.10E+00   17.4     0.00000021     -1284.5369929272 -1.59E-06
    22 Broy./Diag. 0.10E+00   17.5     0.00000008     -1284.5369939021 -9.75E-07

  *** SCF run converged in    22 steps ***


  Electronic density on regular grids:       -428.0000000011       -0.0000000011
  Core density on regular grids:              427.9999993685       -0.0000006315
  Total charge density on r-space grids:       -0.0000006326
  Total charge density g-space grids:          -0.0000006326

  Overlap energy of the core charge distribution:               0.00000314826928
  Self energy of the core charge distribution:              -2253.28808377914038
  Core Hamiltonian energy:                                    717.37583037520608
  Hartree energy:                                             454.98866549344797
  Exchange-correlation energy:                               -203.28001741155782
  Dispersion energy:                                           -0.33338764070651
  Electronic entropic energy:                                  -0.00000408759866
  Fermi energy:                                                -0.16874068738827

  Total energy:                                             -1284.53699390208112

 ENERGY| Total FORCE_EVAL ( QS ) energy (a.u.):            -1284.536992331328065


 --------  Informations at step =    84 ------------
  Optimization Method        =                 BFGS
  Total Energy               =     -1284.5369923313
  Real energy change         =        -0.0000014270
  Predicted change in energy =        -0.0000010036
  Scaling factor             =         0.0000000000
  Step size                  =         0.0047731742
  Trust radius               =         0.4724315332
  Decrease in energy         =                  YES
  Used time                  =              371.473

  Convergence check :
  Max. step size             =         0.0047731742
  Conv. limit for step size  =         0.0030000000
  Convergence in step size   =                   NO
  RMS step size              =         0.0014671245
  Conv. limit for RMS step   =         0.0015000000
  Convergence in RMS step    =                  YES
  Max. gradient              =         0.0002607307
  Conv. limit for gradients  =         0.0004500000
  Conv. in gradients         =                  YES
  RMS gradient               =         0.0000426792
  Conv. limit for RMS grad.  =         0.0003000000
  Conv. in RMS gradients     =                  YES
 ---------------------------------------------------

 --------------------------
 OPTIMIZATION STEP:     85
 --------------------------

 Number of electrons:                                                        428
 Number of occupied orbitals:                                                217
 Number of molecular orbitals:                                               252

 Number of orbital functions:                                                976
 Number of independent orbital functions:                                    976

 Extrapolation method: PS Nth order


 SCF WAVEFUNCTION OPTIMIZATION

  Step     Update method      Time    Convergence         Total energy    Change
  ------------------------------------------------------------------------------
     1 Broy./Diag. 0.10E+00    7.7     0.00102481     -1284.5369875596 -1.28E+03
     2 Broy./Diag. 0.10E+00   12.3     0.00001797     -1284.5381150972 -1.13E-03
     3 Broy./Diag. 0.10E+00   14.0     0.00016796     -1284.5375439446  5.71E-04
     4 Broy./Diag. 0.10E+00   14.0     0.00000265     -1284.5368379554  7.06E-04
     5 Broy./Diag. 0.10E+00   13.9     0.00002495     -1284.5370013186 -1.63E-04
     6 Broy./Diag. 0.10E+00   13.9     0.00000215     -1284.5370748987 -7.36E-05
     7 Broy./Diag. 0.10E+00   15.0     0.00001516     -1284.5370806876 -5.79E-06
     8 Broy./Diag. 0.10E+00   16.0     0.00000297     -1284.5370127614  6.79E-05
     9 Broy./Diag. 0.10E+00   16.8     0.00000874     -1284.5370311840 -1.84E-05
    10 Broy./Diag. 0.10E+00   17.3     0.00000128     -1284.5370357694 -4.59E-06
    11 Broy./Diag. 0.10E+00   17.3     0.00000320     -1284.5370134375  2.23E-05
    12 Broy./Diag. 0.10E+00   17.1     0.00000049     -1284.5369881432  2.53E-05
    13 Broy./Diag. 0.10E+00   16.4     0.00000165     -1284.5369932744 -5.13E-06
    14 Broy./Diag. 0.10E+00   17.1     0.00000023     -1284.5369976199 -4.35E-06
    15 Broy./Diag. 0.10E+00   16.1     0.00000108     -1284.5369977476 -1.28E-07
    16 Broy./Diag. 0.10E+00   16.9     0.00000011     -1284.5369954226  2.32E-06
    17 Broy./Diag. 0.10E+00   16.5     0.00000078     -1284.5369939219  1.50E-06
    18 Broy./Diag. 0.10E+00   17.3     0.00000006     -1284.5369923030  1.62E-06

  *** SCF run converged in    18 steps ***


  Electronic density on regular grids:       -428.0000000011       -0.0000000011
  Core density on regular grids:              427.9999993682       -0.0000006318
  Total charge density on r-space grids:       -0.0000006329
  Total charge density g-space grids:          -0.0000006329

  Overlap energy of the core charge distribution:               0.00000314458231
  Self energy of the core charge distribution:              -2253.28808377914038
  Core Hamiltonian energy:                                    717.37573234945853
  Hartree energy:                                             454.98875875295073
  Exchange-correlation energy:                               -203.27999985327014
  Dispersion energy:                                           -0.33339882405758
  Electronic entropic energy:                                  -0.00000409352975
  Fermi energy:                                                -0.16874782216217

  Total energy:                                             -1284.53699230300685

 ENERGY| Total FORCE_EVAL ( QS ) energy (a.u.):            -1284.536993710296656


 --------  Informations at step =    85 ------------
  Optimization Method        =                 BFGS
  Total Energy               =     -1284.5369937103
  Real energy change         =        -0.0000013790
  Predicted change in energy =        -0.0000009661
  Scaling factor             =         0.0000000000
  Step size                  =         0.0044579385
  Trust radius               =         0.4724315332
  Decrease in energy         =                  YES
  Used time                  =              297.412

  Convergence check :
  Max. step size             =         0.0044579385
  Conv. limit for step size  =         0.0030000000
  Convergence in step size   =                   NO
  RMS step size              =         0.0015204368
  Conv. limit for RMS step   =         0.0015000000
  Convergence in RMS step    =                   NO
  Max. gradient              =         0.0001675710
  Conv. limit for gradients  =         0.0004500000
  Conv. in gradients         =                  YES
  RMS gradient               =         0.0000306985
  Conv. limit for RMS grad.  =         0.0003000000
  Conv. in RMS gradients     =                  YES
 ---------------------------------------------------

 --------------------------
 OPTIMIZATION STEP:     86
 --------------------------

 Number of electrons:                                                        428
 Number of occupied orbitals:                                                217
 Number of molecular orbitals:                                               252

 Number of orbital functions:                                                976
 Number of independent orbital functions:                                    976

 Extrapolation method: PS Nth order


 SCF WAVEFUNCTION OPTIMIZATION

  Step     Update method      Time    Convergence         Total energy    Change
  ------------------------------------------------------------------------------
     1 Broy./Diag. 0.10E+00    7.8     0.00101708     -1284.5369891839 -1.28E+03
     2 Broy./Diag. 0.10E+00   12.2     0.00001657     -1284.5354805782  1.51E-03
     3 Broy./Diag. 0.10E+00   13.5     0.00014883     -1284.5362710181 -7.90E-04
     4 Broy./Diag. 0.10E+00   13.5     0.00001260     -1284.5372295362 -9.59E-04
     5 Broy./Diag. 0.10E+00   15.0     0.00006267     -1284.5370728949  1.57E-04
     6 Broy./Diag. 0.10E+00   14.5     0.00000497     -1284.5368504719  2.22E-04
     7 Broy./Diag. 0.10E+00   15.4     0.00001968     -1284.5369158441 -6.54E-05
     8 Broy./Diag. 0.10E+00   15.9     0.00000230     -1284.5369898832 -7.40E-05
     9 Broy./Diag. 0.10E+00   16.7     0.00000913     -1284.5370031931 -1.33E-05
    10 Broy./Diag. 0.10E+00   17.4     0.00000061     -1284.5370079470 -4.75E-06
    11 Broy./Diag. 0.10E+00   17.3     0.00000353     -1284.5370029706  4.98E-06
    12 Broy./Diag. 0.10E+00   16.5     0.00000032     -1284.5369958883  7.08E-06
    13 Broy./Diag. 0.10E+00   16.8     0.00000151     -1284.5369945595  1.33E-06
    14 Broy./Diag. 0.10E+00   16.8     0.00000019     -1284.5369916984  2.86E-06
    15 Broy./Diag. 0.10E+00   17.1     0.00000105     -1284.5369940706 -2.37E-06
    16 Broy./Diag. 0.10E+00   16.4     0.00000009     -1284.5369958482 -1.78E-06

  *** SCF run converged in    16 steps ***


  Electronic density on regular grids:       -428.0000000011       -0.0000000011
  Core density on regular grids:              427.9999993684       -0.0000006316
  Total charge density on r-space grids:       -0.0000006327
  Total charge density g-space grids:          -0.0000006327

  Overlap energy of the core charge distribution:               0.00000314387790
  Self energy of the core charge distribution:              -2253.28808377914038
  Core Hamiltonian energy:                                    717.37525105721329
  Hartree energy:                                             454.98891093985173
  Exchange-correlation energy:                               -203.27967159557480
  Dispersion energy:                                           -0.33340149785365
  Electronic entropic energy:                                  -0.00000411653668
  Fermi energy:                                                -0.16875917554747

  Total energy:                                             -1284.53699584816309

 ENERGY| Total FORCE_EVAL ( QS ) energy (a.u.):            -1284.536994880624206


 --------  Informations at step =    86 ------------
  Optimization Method        =                 BFGS
  Total Energy               =     -1284.5369948806
  Real energy change         =        -0.0000011703
  Predicted change in energy =        -0.0000008441
  Scaling factor             =         0.0000000000
  Step size                  =         0.0037357734
  Trust radius               =         0.4724315332
  Decrease in energy         =                  YES
  Used time                  =              264.163

  Convergence check :
  Max. step size             =         0.0037357734
  Conv. limit for step size  =         0.0030000000
  Convergence in step size   =                   NO
  RMS step size              =         0.0014744470
  Conv. limit for RMS step   =         0.0015000000
  Convergence in RMS step    =                  YES
  Max. gradient              =         0.0001557581
  Conv. limit for gradients  =         0.0004500000
  Conv. in gradients         =                  YES
  RMS gradient               =         0.0000273632
  Conv. limit for RMS grad.  =         0.0003000000
  Conv. in RMS gradients     =                  YES
 ---------------------------------------------------

 --------------------------
 OPTIMIZATION STEP:     87
 --------------------------

 Number of electrons:                                                        428
 Number of occupied orbitals:                                                217
 Number of molecular orbitals:                                               252

 Number of orbital functions:                                                976
 Number of independent orbital functions:                                    976

 Extrapolation method: PS Nth order


 SCF WAVEFUNCTION OPTIMIZATION

  Step     Update method      Time    Convergence         Total energy    Change
  ------------------------------------------------------------------------------
     1 Broy./Diag. 0.10E+00    7.2     0.00113423     -1284.5369922238 -1.28E+03
     2 Broy./Diag. 0.10E+00   12.2     0.00001416     -1284.5354653038  1.53E-03
     3 Broy./Diag. 0.10E+00   13.4     0.00012624     -1284.5359082603 -4.43E-04
     4 Broy./Diag. 0.10E+00   13.8     0.00000758     -1284.5369970261 -1.09E-03
     5 Broy./Diag. 0.10E+00   14.6     0.00004333     -1284.5369676507  2.94E-05
     6 Broy./Diag. 0.10E+00   13.9     0.00000545     -1284.5369937649 -2.61E-05
     7 Broy./Diag. 0.10E+00   14.8     0.00001934     -1284.5368875374  1.06E-04
     8 Broy./Diag. 0.10E+00   16.4     0.00000245     -1284.5368220051  6.55E-05
     9 Broy./Diag. 0.10E+00   16.6     0.00000778     -1284.5368689585 -4.70E-05
    10 Broy./Diag. 0.10E+00   16.2     0.00000052     -1284.5369610548 -9.21E-05
    11 Broy./Diag. 0.10E+00   17.1     0.00000275     -1284.5369625112 -1.46E-06
    12 Broy./Diag. 0.10E+00   17.3     0.00000025     -1284.5369861352 -2.36E-05
    13 Broy./Diag. 0.10E+00   16.9     0.00000143     -1284.5369785816  7.55E-06
    14 Broy./Diag. 0.10E+00   16.2     0.00000015     -1284.5369822187 -3.64E-06
    15 Broy./Diag. 0.10E+00   16.9     0.00000087     -1284.5369853799 -3.16E-06
    16 Broy./Diag. 0.10E+00   16.9     0.00000006     -1284.5369939905 -8.61E-06

  *** SCF run converged in    16 steps ***


  Electronic density on regular grids:       -428.0000000011       -0.0000000011
  Core density on regular grids:              427.9999993684       -0.0000006316
  Total charge density on r-space grids:       -0.0000006327
  Total charge density g-space grids:          -0.0000006327

  Overlap energy of the core charge distribution:               0.00000314081819
  Self energy of the core charge distribution:              -2253.28808377914038
  Core Hamiltonian energy:                                    717.37447293440573
  Hartree energy:                                             454.98925720500165
  Exchange-correlation energy:                               -203.27923722052262
  Dispersion energy:                                           -0.33340211959360
  Electronic entropic energy:                                  -0.00000415144527
  Fermi energy:                                                -0.16876974159711

  Total energy:                                             -1284.53699399047537

 ENERGY| Total FORCE_EVAL ( QS ) energy (a.u.):            -1284.536995728421061


 --------  Informations at step =    87 ------------
  Optimization Method        =                 BFGS
  Total Energy               =     -1284.5369957284
  Real energy change         =        -0.0000008478
  Predicted change in energy =        -0.0000006115
  Scaling factor             =         0.0000000000
  Step size                  =         0.0033052572
  Trust radius               =         0.4724315332
  Decrease in energy         =                  YES
  Used time                  =              262.458

  Convergence check :
  Max. step size             =         0.0033052572
  Conv. limit for step size  =         0.0030000000
  Convergence in step size   =                   NO
  RMS step size              =         0.0011162341
  Conv. limit for RMS step   =         0.0015000000
  Convergence in RMS step    =                  YES
  Max. gradient              =         0.0000564358
  Conv. limit for gradients  =         0.0004500000
  Conv. in gradients         =                  YES
  RMS gradient               =         0.0000189641
  Conv. limit for RMS grad.  =         0.0003000000
  Conv. in RMS gradients     =                  YES
 ---------------------------------------------------

 --------------------------
 OPTIMIZATION STEP:     88
 --------------------------

 Number of electrons:                                                        428
 Number of occupied orbitals:                                                217
 Number of molecular orbitals:                                               252

 Number of orbital functions:                                                976
 Number of independent orbital functions:                                    976

 Extrapolation method: PS Nth order


 SCF WAVEFUNCTION OPTIMIZATION

  Step     Update method      Time    Convergence         Total energy    Change
  ------------------------------------------------------------------------------
     1 Broy./Diag. 0.10E+00    6.8     0.00065791     -1284.5369941734 -1.28E+03
     2 Broy./Diag. 0.10E+00   13.2     0.00001017     -1284.5344824004  2.51E-03
     3 Broy./Diag. 0.10E+00   13.8     0.00007880     -1284.5355554732 -1.07E-03
     4 Broy./Diag. 0.10E+00   14.4     0.00001030     -1284.5372010337 -1.65E-03
     5 Broy./Diag. 0.10E+00   14.5     0.00004407     -1284.5370265225  1.75E-04
     6 Broy./Diag. 0.10E+00   15.2     0.00000300     -1284.5368701866  1.56E-04
     7 Broy./Diag. 0.10E+00   16.4     0.00001147     -1284.5368243885  4.58E-05
     8 Broy./Diag. 0.10E+00   16.0     0.00000172     -1284.5368614007 -3.70E-05
     9 Broy./Diag. 0.10E+00   16.4     0.00000760     -1284.5368767092 -1.53E-05
    10 Broy./Diag. 0.10E+00   17.0     0.00000039     -1284.5369494138 -7.27E-05
    11 Broy./Diag. 0.10E+00   16.7     0.00000311     -1284.5369568964 -7.48E-06
    12 Broy./Diag. 0.10E+00   16.9     0.00000020     -1284.5369880511 -3.12E-05
    13 Broy./Diag. 0.10E+00   18.0     0.00000102     -1284.5369803882  7.66E-06
    14 Broy./Diag. 0.10E+00   16.5     0.00000013     -1284.5369828148 -2.43E-06
    15 Broy./Diag. 0.10E+00   17.3     0.00000082     -1284.5369857748 -2.96E-06
    16 Broy./Diag. 0.10E+00   17.3     0.00000005     -1284.5369945158 -8.74E-06

  *** SCF run converged in    16 steps ***


  Electronic density on regular grids:       -428.0000000011       -0.0000000011
  Core density on regular grids:              427.9999993686       -0.0000006314
  Total charge density on r-space grids:       -0.0000006325
  Total charge density g-space grids:          -0.0000006325

  Overlap energy of the core charge distribution:               0.00000314072870
  Self energy of the core charge distribution:              -2253.28808377914038
  Core Hamiltonian energy:                                    717.37421250320290
  Hartree energy:                                             454.98930884223319
  Exchange-correlation energy:                               -203.27902882387781
  Dispersion energy:                                           -0.33340221717411
  Electronic entropic energy:                                  -0.00000418176397
  Fermi energy:                                                -0.16877532877463

  Total energy:                                             -1284.53699451579268

 ENERGY| Total FORCE_EVAL ( QS ) energy (a.u.):            -1284.536996361845922


 --------  Informations at step =    88 ------------
  Optimization Method        =                 BFGS
  Total Energy               =     -1284.5369963618
  Real energy change         =        -0.0000006334
  Predicted change in energy =        -0.0000004460
  Scaling factor             =         0.0000000000
  Step size                  =         0.0028259334
  Trust radius               =         0.4724315332
  Decrease in energy         =                  YES
  Used time                  =              267.940

  Convergence check :
  Max. step size             =         0.0028259334
  Conv. limit for step size  =         0.0030000000
  Convergence in step size   =                  YES
  RMS step size              =         0.0008820930
  Conv. limit for RMS step   =         0.0015000000
  Convergence in RMS step    =                  YES
  Max. gradient              =         0.0000602402
  Conv. limit for gradients  =         0.0004500000
  Conv. in gradients         =                  YES
  RMS gradient               =         0.0000176606
  Conv. limit for RMS grad.  =         0.0003000000
  Conv. in RMS gradients     =                  YES
 ---------------------------------------------------

 *******************************************************************************
 ***                    GEOMETRY OPTIMIZATION COMPLETED                      ***
 *******************************************************************************

                    Reevaluating energy at the minimum

 Number of electrons:                                                        428
 Number of occupied orbitals:                                                217
 Number of molecular orbitals:                                               252

 Number of orbital functions:                                                976
 Number of independent orbital functions:                                    976

 Extrapolation method: PS Nth order


 SCF WAVEFUNCTION OPTIMIZATION

  Step     Update method      Time    Convergence         Total energy    Change
  ------------------------------------------------------------------------------
     1 Broy./Diag. 0.10E+00    7.2     0.00032837     -1284.5369954067 -1.28E+03
     2 Broy./Diag. 0.10E+00   11.8     0.00000672     -1284.5361822717  8.13E-04
     3 Broy./Diag. 0.10E+00   13.1     0.00004645     -1284.5363866793 -2.04E-04
     4 Broy./Diag. 0.10E+00   12.9     0.00000542     -1284.5367887624 -4.02E-04
     5 Broy./Diag. 0.10E+00   15.1     0.00001986     -1284.5368718251 -8.31E-05
     6 Broy./Diag. 0.10E+00   14.9     0.00000219     -1284.5369874907 -1.16E-04
     7 Broy./Diag. 0.10E+00   15.4     0.00000676     -1284.5369402965  4.72E-05
     8 Broy./Diag. 0.10E+00   15.7     0.00000073     -1284.5369199062  2.04E-05
     9 Broy./Diag. 0.10E+00   17.5     0.00000355     -1284.5369257035 -5.80E-06
    10 Broy./Diag. 0.10E+00   18.0     0.00000013     -1284.5369644622 -3.88E-05
    11 Broy./Diag. 0.10E+00   17.7     0.00000099     -1284.5369643775  8.48E-08
    12 Broy./Diag. 0.10E+00   17.5     0.00000010     -1284.5369827664 -1.84E-05
    13 Broy./Diag. 0.10E+00   18.1     0.00000056     -1284.5369797523  3.01E-06
    14 Broy./Diag. 0.10E+00   17.3     0.00000005     -1284.5369874801 -7.73E-06

  *** SCF run converged in    14 steps ***


  Electronic density on regular grids:       -428.0000000011       -0.0000000011
  Core density on regular grids:              427.9999993686       -0.0000006314
  Total charge density on r-space grids:       -0.0000006325
  Total charge density g-space grids:          -0.0000006325

  Overlap energy of the core charge distribution:               0.00000314072870
  Self energy of the core charge distribution:              -2253.28808377914038
  Core Hamiltonian energy:                                    717.37421933675273
  Hartree energy:                                             454.98930755840769
  Exchange-correlation energy:                               -203.27902733793843
  Dispersion energy:                                           -0.33340221717411
  Electronic entropic energy:                                  -0.00000418174786
  Fermi energy:                                                -0.16877539789728

  Total energy:                                             -1284.53698748011061

 ENERGY| Total FORCE_EVAL ( QS ) energy (a.u.):            -1284.536987480110611


 -------------------------------------------------------------------------------
 -                                                                             -
 -                                DBCSR STATISTICS                             -
 -                                                                             -
 -------------------------------------------------------------------------------
 COUNTER                                    TOTAL       BLAS       SMM       ACC
 flops    13 x    28 x    13              9993984       0.0%    100.0%      0.0%
 flops    13 x    32 x    13             79951872       0.0%    100.0%      0.0%
 flops    13 x    13 x    60            183858480       0.0%    100.0%      0.0%
 flops    13 x    28 x    25            360414600       0.0%    100.0%      0.0%
 flops    25 x    28 x    13            360414600       0.0%    100.0%      0.0%
 flops    13 x    13 x    64            588347136       0.0%    100.0%      0.0%
 flops    25 x    32 x    13           2883316800       0.0%    100.0%      0.0%
 flops    13 x    32 x    25           2883316800       0.0%    100.0%      0.0%
 flops    25 x    13 x    60           4362657000       0.0%    100.0%      0.0%
 flops    13 x    25 x    60           4478604000       0.0%    100.0%      0.0%
 flops    25 x    28 x    25          13342560000       0.0%    100.0%      0.0%
 flops    25 x    13 x    64          13960502400       0.0%    100.0%      0.0%
 flops    13 x    25 x    64          14331532800       0.0%    100.0%      0.0%
 flops    25 x    32 x    25         106740480000       0.0%    100.0%      0.0%
 flops    25 x    25 x    60         167947650000       0.0%    100.0%      0.0%
 flops    25 x    25 x    64         537432480000       0.0%    100.0%      0.0%
 flops inhomo. stacks                           0       0.0%      0.0%      0.0%
 flops total                       869.946080E+09       0.0%    100.0%      0.0%
 flops max/rank                    121.202796E+09       0.0%    100.0%      0.0%
 matmuls inhomo. stacks                         0       0.0%      0.0%      0.0%
 matmuls total                           13275292       0.0%    100.0%      0.0%
 number of processed stacks                241344       0.0%    100.0%      0.0%
 average stack size                                     0.0      55.0       0.0
 marketing flops                     1.376531E+12
 -------------------------------------------------------------------------------
 # multiplications                           3286
 max memory usage/rank               5.347508E+09
 # max total images/rank                        2
 # max 3D layers                                1
 # MPI messages exchanged                  236592
 MPI messages size (bytes):
  total size                        43.266736E+09
  min size                         114.240000E+03
  max size                           1.000000E+06
  average size                     182.874891E+03
 MPI breakdown and total messages size (bytes):
             size <=      128                   0                        0
       128 < size <=     8192                   0                        0
      8192 < size <=    32768                   0                        0
     32768 < size <=   131072              157728              19396758528
    131072 < size <=  4194304               78864              23869856592
   4194304 < size <= 16777216                   0                        0
  16777216 < size                               0                        0
 -------------------------------------------------------------------------------

 *** WARNING in dbcsr/mm/dbcsr_mm.F:268 :: Using a non-square number of ***
 *** MPI ranks might lead to poor performance.                          ***
 *** Used ranks: 8                                                      ***
 *** Suggested: 9 16                                                    ***

 -------------------------------------------------------------------------------
 
 MEMORY| Estimated peak process memory [MiB]                                5144

 -------------------------------------------------------------------------------
 -                                                                             -
 -                         MESSAGE PASSING PERFORMANCE                         -
 -                                                                             -
 -------------------------------------------------------------------------------

 ROUTINE             CALLS      AVE VOLUME [Bytes]
 MP_Group             3204
 MP_Bcast             3329                 183311.
 MP_Allreduce        57725                    107.
 MP_Sync                94
 MP_Alltoall        134636               50421933.
 MP_SendRecv         49420                1068361.
 MP_ISendRecv       123207                 823483.
 MP_Wait            459630
 MP_comm_split          89
 MP_ISend           221820                3834167.
 MP_IRecv           221820                3833834.
 MP_Recv              1531                 211738.
 MP_Memory          386540
 -------------------------------------------------------------------------------


 -------------------------------------------------------------------------------
 -                                                                             -
 -                           R E F E R E N C E S                               -
 -                                                                             -
 -------------------------------------------------------------------------------
 
 CP2K version 6.1, the CP2K developers group (2018).
 CP2K is freely available from https://www.cp2k.org/ .

 Schuett, Ole; Messmer, Peter; Hutter, Juerg; VandeVondele, Joost. 
 Electronic Structure Calculations on Graphics Processing Units, John Wiley & Sons, Ltd, 173-190 (2016). 
 GPU-Accelerated Sparse Matrix-Matrix Multiplication for Linear Scaling Density Functional Theory.
 http://dx.doi.org/10.1002/9781118670712.ch8


 Borstnik, U; VandeVondele, J; Weber, V; Hutter, J. 
 PARALLEL COMPUTING, 40 (5-6), 47-58 (2014). 
 Sparse matrix multiplication: The distributed block-compressed sparse
 row library.
 http://dx.doi.org/10.1016/j.parco.2014.03.012


 Hutter, J; Iannuzzi, M; Schiffmann, F; VandeVondele, J. 
 WILEY INTERDISCIPLINARY REVIEWS-COMPUTATIONAL MOLECULAR SCIENCE, 4 (1), 15-25 (2014). 
 CP2K: atomistic simulations of condensed matter systems.
 http://dx.doi.org/10.1002/wcms.1159


 Grimme, S; Ehrlich, S; Goerigk, L. 
 JOURNAL OF COMPUTATIONAL CHEMISTRY, 32, 1456 (2011). 
 Effect of the damping function in dispersion corrected density functional theory.
 http://dx.doi.org/10.1002/jcc.21759


 Grimme, S; Antony, J; Ehrlich, S; Krieg, H. 
 JOURNAL OF CHEMICAL PHYSICS, 132 (15), 154104 (2010). 
 A consistent and accurate ab initio parametrization of density
 functional dispersion correction (DFT-D) for the 94 elements H-Pu.
 http://dx.doi.org/10.1063/1.3382344


 VandeVondele, J; Hutter, J. 
 JOURNAL OF CHEMICAL PHYSICS, 127 (11), 114105 (2007). 
 Gaussian basis sets for accurate calculations on molecular systems in
 gas and condensed phases.
 http://dx.doi.org/10.1063/1.2770708


 Krack, M. 
 THEORETICAL CHEMISTRY ACCOUNTS, 114 (1-3), 145-152 (2005). 
 Pseudopotentials for H to Kr optimized for gradient-corrected
 exchange-correlation functionals.
 http://dx.doi.org/10.1007/s00214-005-0655-y


 VandeVondele, J; Krack, M; Mohamed, F; Parrinello, M; Chassaing, T;
 Hutter, J. COMPUTER PHYSICS COMMUNICATIONS, 167 (2), 103-128 (2005). 
 QUICKSTEP: Fast and accurate density functional calculations using a
 mixed Gaussian and plane waves approach.
 http://dx.doi.org/10.1016/j.cpc.2004.12.014


 Frigo, M; Johnson, SG. 
 PROCEEDINGS OF THE IEEE, 93 (2), 216-231 (2005). 
 The design and implementation of FFTW3.
 http://dx.doi.org/10.1109/JPROC.2004.840301


 Hartwigsen, C; Goedecker, S; Hutter, J. 
 PHYSICAL REVIEW B, 58 (7), 3641-3662 (1998). 
 Relativistic separable dual-space Gaussian pseudopotentials from H to Rn.
 http://dx.doi.org/10.1103/PhysRevB.58.3641


 Lippert, G; Hutter, J; Parrinello, M. 
 MOLECULAR PHYSICS, 92 (3), 477-487 (1997). 
 A hybrid Gaussian and plane wave density functional scheme.
 http://dx.doi.org/10.1080/002689797170220


 Perdew, JP; Burke, K; Ernzerhof, M. 
 PHYSICAL REVIEW LETTERS, 77 (18), 3865-3868 (1996). 
 Generalized gradient approximation made simple.
 http://dx.doi.org/10.1103/PhysRevLett.77.3865


 Goedecker, S; Teter, M; Hutter, J. 
 PHYSICAL REVIEW B, 54 (3), 1703-1710 (1996). 
 Separable dual-space Gaussian pseudopotentials.
 http://dx.doi.org/10.1103/PhysRevB.54.1703


 -------------------------------------------------------------------------------
 -                                                                             -
 -                                T I M I N G                                  -
 -                                                                             -
 -------------------------------------------------------------------------------
 SUBROUTINE                       CALLS  ASD         SELF TIME        TOTAL TIME
                                MAXIMUM       AVERAGE  MAXIMUM  AVERAGE  MAXIMUM
 CP2K                                 1  1.0     0.37     0.56 80645.91 80646.69
 cp_geo_opt                           1  2.0     0.03     0.03 80642.57 80643.36
 geoopt_bfgs                          1  3.0     1.58     1.63 80642.54 80643.33
 cp_eval_at                          90  4.0     1.80     1.88 80463.83 80464.61
 qs_forces                           89  5.0     2.01     2.07 80236.78 80237.57
 qs_energies                         90  6.0     1.57     1.59 79365.57 79366.33
 scf_env_do_scf                      90  7.0     1.56     1.84 78321.55 78323.42
 scf_env_do_scf_inner_loop         2844  8.0    25.11    35.17 78319.72 78321.30
 qs_scf_new_mos                    2844  9.0    10.45    10.58 29974.67 29975.21
 eigensolver                       2844 10.0    23.84    24.47 28958.07 28959.66
 cp_fm_syevd                       3022 10.8     5.81     6.06 28605.35 28607.06
 cp_fm_syevd_base                  3022 12.0 28515.44 28582.03 28515.44 28582.03
 rebuild_ks_matrix                 2933  9.9     3.49     3.58 22618.40 22618.75
 qs_ks_build_kohn_sham_matrix      2933 10.9    89.00    92.91 22614.91 22615.17
 qs_ks_update_qs_env               2844  9.0     8.13     8.37 21742.00 21743.52
 pw_transfer                      43912 13.0   219.97   222.91 19117.70 19131.17
 fft_wrap_pw1pw2                  38046 14.0    68.08    70.37 18364.09 18376.16
 fft_wrap_pw1pw2_200              14578 14.2  1846.68  1904.07 16167.88 16188.64
 gspace_mixing                     2754  9.0    86.64    88.57 14362.27 14362.45
 fft3d_ps                         38046 16.0  7709.30  7800.45 13114.54 13206.32
 qs_rho_update_rho                 2934  9.0     3.57     3.65 12527.15 12527.47
 calculate_rho_elec                2934 10.0  1204.14  1255.18 12523.58 12523.91
 broyden_mixing                    2754 10.0 10985.63 11050.29 11275.46 11322.72
 density_rs2pw                     2934 11.0    19.67    21.29 10953.06 10981.54
 sum_up_and_integrate              2933 11.9   289.96   291.06  8764.79  8765.87
 integrate_v_rspace                2933 12.9  1489.22  1549.20  8474.17  8477.60
 qs_vxc_create                     2933 11.9    11.88    13.22  8106.22  8141.81
 xc_vxc_pw_create                  2933 12.9  1647.87  1696.99  8094.35  8128.59
 potential_pw2rs                   2933 13.9    52.50    52.77  6807.28  6810.54
 xc_rho_set_and_dset_create        2933 13.9   242.06   245.44  4920.06  5406.41
 rs_pw_transfer                   29514 13.4    36.93    39.85  4961.74  4988.19
 xc_functional_eval                2933 14.9     9.03     9.84  3203.89  3692.75
 pbe_lda_eval                      2933 15.9  3194.86  3683.78  3194.86  3683.78
 x_to_yz                          20353 17.4  2258.06  2268.48  3211.34  3225.60
 pw_nn_compose_r                  23464 14.4  1390.16  1414.14  2249.17  2651.43
 yz_to_x                          17693 16.5  1239.52  1247.22  1982.12  1995.98
 pw_scatter_p                     20353 16.4  1817.26  1825.38  1817.26  1825.38
 mp_alltoall_z22v                 38046 18.0  1695.88  1737.37  1695.88  1737.37
 rs_pw_transfer_RS2PW_200          3024 13.0   882.98   903.22  1703.92  1721.46
 pw_poisson_solve                  2933 11.9   960.99   962.46  1680.74  1680.79
 -------------------------------------------------------------------------------

 The number of warnings for this run is : 2
 
 -------------------------------------------------------------------------------
  **** **** ******  **  PROGRAM ENDED AT                 2020-10-09 16:01:24.733
 ***** ** ***  *** **   PROGRAM RAN ON                                 irene6265
 **    ****   ******    PROGRAM RAN BY                                  marticar
 ***** **    ** ** **   PROGRAM PROCESS ID                                240160
  **** **  *******  **  PROGRAM STOPPED IN /ccc/scratch/cont003/gen0609/marticar
                                           /687724
