      40
 i =        1, E =     -1284.4997811799
 Au        15.0774065836       14.8601358385       16.4518812643
 Au        17.2675770861       11.3898334315       14.3530532504
 Au        14.4289758665       12.0759594706       17.3810945469
 Au        18.0366391296       15.3050048324       17.1262376082
 Au        12.4402087124       14.0086265168       17.3149661528
 Au        11.2555549847       14.8399643476       14.9965312159
 Au        12.9643951602       18.0784125505       13.3657566145
 Au        15.3167463194       18.8397347690       14.5347147891
 Au        14.8905768148       15.9889349516       13.9281328440
 Au        14.2507353918       13.8698303832       19.4094575473
 Au        14.8918690920       12.3214209275       13.1645155992
 Au        12.8414524072       14.1578249051       12.8011806967
 Au        15.1779324545       14.2885118816       11.2898625243
 Au        16.8255446106       14.2057355862       14.4314372152
 Au        12.8419331438       12.5276487158       15.0124587964
 Au        14.7142623559       10.4577081188       15.2088170758
 Au        17.6815759468       16.8728158698       14.9083419247
 Au        19.6098213231       14.7401222039       14.7863540201
 Au        15.9815091190       17.5598542565       17.0348058016
 Au        18.9826928223       16.2199530873       12.5714530325
 Au        13.2917064496       17.9333296520       16.1885862264
 Au        16.8599041490       10.6882259202       17.0531054241
 Au        10.9636127787       16.2594427993       12.5782093634
 Au        15.2942140567       18.0910471416       11.8300753640
 Au        11.2178600158       16.4423791892       17.3848264621
 Au        10.7336158477       17.6723107394       14.9742119304
 Au        16.8639768657       13.1206507880       18.4339088867
 Au        15.5435714305       16.4430797199        9.5369683604
 Au        18.7199561799       12.6788789831       16.3385234771
 Au        16.4839885236       15.8706888572       19.2984051320
 Au        17.7688171249       14.9520638986       10.4444242956
 Au        14.4562200294       15.8953604815       21.2120769738
 Au        13.7513477815       16.6411191501       18.5650027191
 Au        13.2321517950       16.3249180433       11.0493130216
 Au        17.5248443255       12.8352514247       12.0597019125
 Au        17.8005814833       17.7742953061       10.5030429316
 Au        17.7516329158       18.8741720983       12.9996528465
 Au        17.6477701156       19.5393414769       15.7941644266
  C        18.0504796888       16.7136721132       20.8149859720
  O        18.8241896320       17.1292905115       21.5440947882
      40
 i =        2, E =     -1284.5101404386
 Au        15.0506410013       14.8560302038       16.4518283002
 Au        17.2951863330       11.3518854406       14.3633278526
 Au        14.4342322394       12.0590168184       17.3782636677
 Au        18.0560185090       15.3094653878       17.1473326254
 Au        12.4214415677       14.0075048644       17.3420981738
 Au        11.2395552195       14.8565620522       15.0012790179
 Au        12.9437461648       18.0889702998       13.3490235241
 Au        15.3231198470       18.8848829104       14.5413063700
 Au        14.8515560481       15.9967496044       13.9073530910
 Au        14.2675803355       13.8662357722       19.4556011930
 Au        14.9000447347       12.2991649548       13.1618112639
 Au        12.8256770494       14.1614182904       12.7855864945
 Au        15.1917380781       14.3004383373       11.2708834451
 Au        16.8324852694       14.1676790750       14.4283901669
 Au        12.8149352286       12.4983874618       15.0167776748
 Au        14.7116029522       10.4010660423       15.1926947562
 Au        17.6765687374       16.8784107686       14.8872634687
 Au        19.6419908710       14.7227250002       14.7719022115
 Au        15.9796221752       17.5529878689       17.0495727284
 Au        18.9895598392       16.2241330121       12.5496389798
 Au        13.2605393033       17.9486453202       16.2014836247
 Au        16.8660611534       10.6459621323       17.0629896732
 Au        10.9185801289       16.2580168548       12.5648885161
 Au        15.3103910284       18.0843633513       11.8179570404
 Au        11.1795552855       16.4553368224       17.4086276329
 Au        10.7105519659       17.6960047827       14.9699649557
 Au        16.8672799257       13.1317855407       18.4418902518
 Au        15.5538828373       16.4586662169        9.4914758092
 Au        18.7422893550       12.6594827746       16.3475366613
 Au        16.6157096698       15.9517747052       19.4449579554
 Au        17.7821148051       14.9525188556       10.4111117060
 Au        14.4247656968       15.9076329576       21.2405438178
 Au        13.7795903696       16.6433816407       18.5992625751
 Au        13.2062650135       16.3352511649       11.0051151515
 Au        17.5647746557       12.8186044295       12.0568389676
 Au        17.8146300513       17.7947206692       10.4723989448
 Au        17.7778373025       18.9101263207       12.9947972863
 Au        17.6651608438       19.5597172721       15.8202097708
  C        17.9853986889       16.6895214671       20.7806752465
  O        18.7864891306       17.1061443746       21.4907882019
      40
 i =        3, E =     -1284.5103349534
 Au        15.0506410013       14.8560302038       16.4518283002
 Au        17.2951863330       11.3518854406       14.3633278526
 Au        14.4342322394       12.0590168184       17.3782636677
 Au        18.0560185090       15.3094653878       17.1473326254
 Au        12.4214415677       14.0075048644       17.3420981738
 Au        11.2395552195       14.8565620522       15.0012790179
 Au        12.9437461648       18.0889702998       13.3490235241
 Au        15.3231198470       18.8848829104       14.5413063700
 Au        14.8515560481       15.9967496044       13.9073530910
 Au        14.2675803355       13.8662357722       19.4556011930
 Au        14.9000447347       12.2991649548       13.1618112639
 Au        12.8256770494       14.1614182904       12.7855864945
 Au        15.1917380781       14.3004383373       11.2708834451
 Au        16.8324852694       14.1676790750       14.4283901669
 Au        12.8149352286       12.4983874618       15.0167776748
 Au        14.7116029522       10.4010660423       15.1926947562
 Au        17.6765687374       16.8784107686       14.8872634687
 Au        19.6419908710       14.7227250002       14.7719022115
 Au        15.9796221752       17.5529878689       17.0495727284
 Au        18.9895598392       16.2241330121       12.5496389798
 Au        13.2605393033       17.9486453202       16.2014836247
 Au        16.8660611534       10.6459621323       17.0629896732
 Au        10.9185801289       16.2580168548       12.5648885161
 Au        15.3103910284       18.0843633513       11.8179570404
 Au        11.1795552855       16.4553368224       17.4086276329
 Au        10.7105519659       17.6960047827       14.9699649557
 Au        16.8672799257       13.1317855407       18.4418902518
 Au        15.5538828373       16.4586662169        9.4914758092
 Au        18.7422893550       12.6594827746       16.3475366613
 Au        16.6157096698       15.9517747052       19.4449579554
 Au        17.7821148051       14.9525188556       10.4111117060
 Au        14.4247656968       15.9076329576       21.2405438178
 Au        13.7795903696       16.6433816407       18.5992625751
 Au        13.2062650135       16.3352511649       11.0051151515
 Au        17.5647746557       12.8186044295       12.0568389676
 Au        17.8146300513       17.7947206692       10.4723989448
 Au        17.7778373025       18.9101263207       12.9947972863
 Au        17.6651608438       19.5597172721       15.8202097708
  C        17.9853986889       16.6895214671       20.7806752465
  O        18.7864891306       17.1061443746       21.4907882019
