      40
 i =        1, E =     -1284.4974165252
 Au        15.0498473920       14.8523501766       16.4512491855
 Au        17.2667580969       11.3874968006       14.3518079015
 Au        14.4372828032       12.0753490073       17.3807744583
 Au        18.0335344885       15.3078716881       17.1377924661
 Au        12.3985028764       13.9768506540       17.3487873345
 Au        11.2627266508       14.8447535103       14.9881559405
 Au        12.9626031317       18.0774941757       13.3645189842
 Au        15.3176728481       18.8389774404       14.5386560091
 Au        14.8927715709       15.9898897985       13.9253036121
 Au        14.2500645999       13.8686160710       19.4169898244
 Au        14.8942184844       12.3228747377       13.1580532646
 Au        12.8420408321       14.1580586772       12.8004949512
 Au        15.1746229317       14.2861345129       11.2925063821
 Au        16.8296135971       14.2090537863       14.4308181629
 Au        12.8430511787       12.5293210976       15.0059002958
 Au        14.7148155728       10.4602539600       15.2111719854
 Au        17.6788515298       16.8718970256       14.9089323595
 Au        19.6089016236       14.7400803600       14.7851942024
 Au        15.9833198353       17.5626515896       17.0402357611
 Au        18.9837626887       16.2188913195       12.5696073116
 Au        13.2953117882       17.9294812257       16.1866283317
 Au        16.8599909355       10.6904691002       17.0540337963
 Au        10.9620688276       16.2615469865       12.5745862645
 Au        15.2929107497       18.0907131172       11.8254068012
 Au        11.2170882278       16.4613449332       17.3813036585
 Au        10.7319866671       17.6715360344       14.9735609555
 Au        16.8649848856       13.1224975864       18.4395052955
 Au        15.5426033006       16.4434152113        9.5387046177
 Au        18.7212992780       12.6797565815       16.3397527014
 Au        16.4376105043       15.8384223079       19.2451043764
 Au        17.7692840494       14.9562813773       10.4452794229
 Au        14.4676378731       15.8946839954       21.2041262032
 Au        13.7443291297       16.6421385984       18.5676209825
 Au        13.2334132203       16.3284067216       11.0490822756
 Au        17.5286763400       12.8341487213       12.0605976809
 Au        17.8042928264       17.7737550960       10.5038702470
 Au        17.7515761654       18.8754261259       12.9987941873
 Au        17.6490049652       19.5380524302       15.7904852750
  C        10.4178801916       13.0398627956       18.2922629541
  O         9.4516155613       12.5992382798       18.7111716304
      40
 i =        2, E =     -1284.5073214521
 Au        14.9682458727       14.8330916257       16.4408926448
 Au        17.2920888955       11.3502580097       14.3615272334
 Au        14.4470937950       12.0698068308       17.3777955308
 Au        18.0641495677       15.3131042716       17.1580564836
 Au        12.2798899028       13.9111934073       17.4283889158
 Au        11.2674080815       14.8675299303       14.9991732105
 Au        12.9431063215       18.0869030613       13.3479921377
 Au        15.3238495674       18.8784142744       14.5457204217
 Au        14.8602554410       15.9994463831       13.9030137764
 Au        14.2521346390       13.8485075463       19.4663546783
 Au        14.9068639586       12.2997014649       13.1490284074
 Au        12.8271307169       14.1635368184       12.7795610622
 Au        15.1876797001       14.2976161345       11.2728766768
 Au        16.8369260327       14.1780878036       14.4358561498
 Au        12.8211132762       12.5109179313       15.0125502174
 Au        14.7126872331       10.4118540069       15.1974162527
 Au        17.6689117901       16.8755702644       14.8897239991
 Au        19.6361283442       14.7240783586       14.7725342736
 Au        15.9833071993       17.5671153778       17.0537544864
 Au        18.9917714665       16.2223129103       12.5493565811
 Au        13.2721707549       17.9370404835       16.1925071111
 Au        16.8699484719       10.6538357283       17.0648697336
 Au        10.9165617316       16.2648973091       12.5549794580
 Au        15.3084755107       18.0864392579       11.8111463169
 Au        11.1861180417       16.4900532519       17.3983930215
 Au        10.7061394017       17.6938364799       14.9616379618
 Au        16.8772379780       13.1215642729       18.4546369959
 Au        15.5536269810       16.4577071065        9.4985022370
 Au        18.7412203679       12.6653020417       16.3507347573
 Au        16.4584103608       15.8520900542       19.2879042710
 Au        17.7791126356       14.9608989812       10.4159484922
 Au        14.4592294130       15.9101529414       21.2268232959
 Au        13.7443347882       16.6485694488       18.6004173134
 Au        13.2082265627       16.3438375392       11.0060944767
 Au        17.5739185090       12.8194824761       12.0579290933
 Au        17.8232086318       17.7929251911       10.4745358640
 Au        17.7745001593       18.9101770083       12.9938756949
 Au        17.6698249612       19.5548534246       15.8089021853
  C        10.4916075990       13.0531341193       18.3157874562
  O         9.4852007542       12.6240339040       18.6706882962
      40
 i =        3, E =     -1284.5073900765
 Au        14.9682458727       14.8330916257       16.4408926448
 Au        17.2920888955       11.3502580097       14.3615272334
 Au        14.4470937950       12.0698068308       17.3777955308
 Au        18.0641495677       15.3131042716       17.1580564836
 Au        12.2798899028       13.9111934073       17.4283889158
 Au        11.2674080815       14.8675299303       14.9991732105
 Au        12.9431063215       18.0869030613       13.3479921377
 Au        15.3238495674       18.8784142744       14.5457204217
 Au        14.8602554410       15.9994463831       13.9030137764
 Au        14.2521346390       13.8485075463       19.4663546783
 Au        14.9068639586       12.2997014649       13.1490284074
 Au        12.8271307169       14.1635368184       12.7795610622
 Au        15.1876797001       14.2976161345       11.2728766768
 Au        16.8369260327       14.1780878036       14.4358561498
 Au        12.8211132762       12.5109179313       15.0125502174
 Au        14.7126872331       10.4118540069       15.1974162527
 Au        17.6689117901       16.8755702644       14.8897239991
 Au        19.6361283442       14.7240783586       14.7725342736
 Au        15.9833071993       17.5671153778       17.0537544864
 Au        18.9917714665       16.2223129103       12.5493565811
 Au        13.2721707549       17.9370404835       16.1925071111
 Au        16.8699484719       10.6538357283       17.0648697336
 Au        10.9165617316       16.2648973091       12.5549794580
 Au        15.3084755107       18.0864392579       11.8111463169
 Au        11.1861180417       16.4900532519       17.3983930215
 Au        10.7061394017       17.6938364799       14.9616379618
 Au        16.8772379780       13.1215642729       18.4546369959
 Au        15.5536269810       16.4577071065        9.4985022370
 Au        18.7412203679       12.6653020417       16.3507347573
 Au        16.4584103608       15.8520900542       19.2879042710
 Au        17.7791126356       14.9608989812       10.4159484922
 Au        14.4592294130       15.9101529414       21.2268232959
 Au        13.7443347882       16.6485694488       18.6004173134
 Au        13.2082265627       16.3438375392       11.0060944767
 Au        17.5739185090       12.8194824761       12.0579290933
 Au        17.8232086318       17.7929251911       10.4745358640
 Au        17.7745001593       18.9101770083       12.9938756949
 Au        17.6698249612       19.5548534246       15.8089021853
  C        10.4916075990       13.0531341193       18.3157874562
  O         9.4852007542       12.6240339040       18.6706882962
