40
Properties=species:S:1:pos:R:3 energy=-34953.57414820431 pbc="F F F"
Au      15.03250677      14.85014212      16.41822421
Au      17.28869865      11.34426305      14.36290612
Au      14.44104217      12.07709213      17.37976583
Au      18.06792012      15.31968048      17.16457173
Au      12.44105437      14.08262435      17.33726577
Au      11.28515310      14.91943734      15.04515661
Au      12.95312057      18.07223340      13.34793453
Au      15.30302978      18.86849595      14.55700669
Au      14.86740149      15.99421161      13.90028001
Au      14.24545458      13.84912604      19.45708569
Au      14.90555612      12.31835473      13.16245371
Au      12.82232787      14.15696647      12.78312152
Au      15.19789677      14.30871928      11.27644467
Au      16.82546222      14.18281641      14.43869737
Au      12.81525142      12.51113613      15.01792831
Au      14.72099524      10.42142627      15.20591872
Au      17.66644566      16.87315758      14.88415436
Au      19.61394261      14.72665754      14.77750176
Au      15.97431461      17.56006881      17.04261147
Au      18.97695425      16.21715606      12.54956730
Au      13.22511995      17.85046141      16.20648144
Au      16.87013207      10.65349817      17.06220656
Au      10.92848450      16.25074478      12.55720464
Au      15.31894879      18.06858721      11.83261081
Au      10.99996527      16.50039600      17.52482230
Au      10.71474513      17.68145399      14.97796162
Au      16.86557995      13.12433765      18.43840150
Au      15.55667174      16.45951213       9.50497959
Au      18.73647979      12.66676195      16.35697446
Au      16.46555587      15.84838286      19.28612059
Au      17.79203716      14.96286836      10.40458005
Au      14.46211934      15.91302666      21.21656082
Au      13.73508894      16.62971332      18.58743859
Au      13.20538143      16.33387743      10.99510838
Au      17.55978034      12.83225090      12.06530590
Au      17.81114492      17.79017965      10.47808162
Au      17.79094407      18.91222767      12.99313311
Au      17.65758318      19.53680164      15.80742646
C        9.46663380      16.87736904      18.84170334
O        8.54349909      17.08048633      19.49642361
