30
Lattice="7.668573041968109 0.0 0.0 3.8342865209840546 6.641179065120891 0.0 0.0 0.0 34.174242446240996" Properties=species:S:1:pos:R:3:tags:I:1:forces:R:3 energy=-116.19749450683594 free_energy=-116.19749450683594 stress="0.00030244787922129035 -3.1101060926630453e-07 3.121462839317246e-07 -3.1101060926630453e-07 0.00030288309790194035 5.678423349309014e-07 3.121462839317246e-07 5.678423349309014e-07 7.098122296156362e-06" pbc="T T F"
Cu       1.27809551       0.73790879      15.00000000        3       0.00068238      -0.00043346      -0.00871078
Cu       3.83428652       0.73790879      15.00000000        3      -0.00080113      -0.00037410      -0.00916780
Cu       6.39047753       0.73790879      15.00000000        3       0.00010635       0.00006714      -0.01154418
Cu       2.55619101       2.95163514      15.00000000        3      -0.00000361      -0.00006379      -0.01078542
Cu       5.11238203       2.95163514      15.00000000        3       0.00000581      -0.00006311      -0.01168218
Cu       7.66857304       2.95163514      15.00000000        3       0.00000083      -0.00018640      -0.01158886
Cu       3.83428652       5.16536150      15.00000000        3       0.00006486       0.00008822      -0.01085600
Cu       6.39047753       5.16536150      15.00000000        3      -0.00010892       0.00094411      -0.00930807
Cu       8.94666855       5.16536150      15.00000000        3       0.00005032       0.00002140      -0.01122054
Cu      -0.00000000       1.47581757      17.08712122        2       0.00011462      -0.00147813       0.01812035
Cu       2.55619101       1.47581757      17.08712122        2      -0.00113909      -0.01949956       0.04272974
Cu       5.11238203       1.47581757      17.08712122        2       0.00004160      -0.00013868       0.01466397
Cu       1.27809551       3.68954393      17.08712122        2      -0.00076613       0.00025373       0.01829604
Cu       3.83428652       3.68954393      17.08712122        2       0.00155991       0.00152529       0.01788303
Cu       6.39047753       3.68954393      17.08712122        2      -0.00110497       0.00059153       0.01910072
Cu       2.55619101       5.90327028      17.08712122        2       0.00172119       0.00000525       0.01677626
Cu       5.11238203       5.90327028      17.08712122        2       0.01689061       0.00999307       0.04436658
Cu       7.66857304       5.90327028      17.08712122        2      -0.01810735       0.00988720       0.04103499
Cu       0.00041063      -0.00020122      19.17954884        1       0.00028560       0.00049462      -0.00793364
Cu       2.55616513       0.00064426      19.20249671        1       0.00009108       0.00086371      -0.03991742
Cu       5.11252024      -0.00049580      19.17699356        1      -0.00163432       0.00107528      -0.00385027
Cu       1.27729225       2.21393670      19.17905420        1       0.00119021      -0.00093251      -0.00726267
Cu       3.83430444       2.21408484      19.17773759        1      -0.00083023      -0.00135046      -0.00514673
Cu       6.39007819       2.21341491      19.17873327        1       0.00018181       0.00110166      -0.00866453
Cu       2.55600942       4.42688069      19.17819790        1       0.00013171       0.00111032      -0.00779428
Cu       5.11282475       4.42861075      19.17957648        1      -0.00044253      -0.00058606      -0.00791199
Cu       7.66774480       4.42838424      19.17824831        1       0.00019481      -0.00030540      -0.00576363
O        2.55085427      -0.01308208      23.15256505        0      -0.01671860       0.00426243      -0.04402080
H        1.66141746       0.27578064      23.41929114        0      -0.00729251      -0.01374786       0.00146141
H        2.80304160       0.61956491      22.45712223        0       0.02563575       0.00687465      -0.00130317
