30
Lattice="7.668573041968109 0.0 0.0 3.8342865209840546 6.641179065120891 0.0 0.0 0.0 34.174242446240996" Properties=species:S:1:pos:R:3:tags:I:1:forces:R:3 energy=-116.1974868774414 free_energy=-116.1974868774414 stress="0.00030240582418628037 2.588808456494007e-07 6.280877755671099e-07 2.588808456494007e-07 0.00030295783653855324 1.788286425608021e-07 6.280877755671099e-07 1.788286425608021e-07 7.121027465473162e-06" pbc="T T F"
Cu       1.27809551       0.73790879      15.00000000        3      -0.00078656      -0.00031087      -0.00888059
Cu       3.83428652       0.73790879      15.00000000        3      -0.00000587       0.00008492      -0.01152396
Cu       6.39047753       0.73790879      15.00000000        3       0.00077321      -0.00038671      -0.00888344
Cu       2.55619101       2.95163514      15.00000000        3      -0.00005497      -0.00013560      -0.01161612
Cu       5.11238203       2.95163514      15.00000000        3       0.00000520      -0.00013830      -0.01174005
Cu       7.66857304       2.95163514      15.00000000        3       0.00005259      -0.00011212      -0.01067064
Cu       3.83428652       5.16536150      15.00000000        3      -0.00005498       0.00094629      -0.00942254
Cu       6.39047753       5.16536150      15.00000000        3       0.00005038       0.00002633      -0.01110630
Cu       8.94666855       5.16536150      15.00000000        3       0.00001906       0.00002724      -0.01099660
Cu      -0.00000000       1.47581757      17.08712122        2      -0.00023156      -0.01931417       0.04401163
Cu       2.55619101       1.47581757      17.08712122        2      -0.00144805       0.00050754       0.01514817
Cu       5.11238203       1.47581757      17.08712122        2       0.00049595      -0.00153932       0.01909447
Cu       1.27809551       3.68954393      17.08712122        2       0.00076573       0.00077568       0.01856600
Cu       3.83428652       3.68954393      17.08712122        2      -0.00177270       0.00036212       0.01648979
Cu       6.39047753       3.68954393      17.08712122        2       0.00083795      -0.00056946       0.01799859
Cu       2.55619101       5.90327028      17.08712122        2       0.01689879       0.01069405       0.04353522
Cu       5.11238203       5.90327028      17.08712122        2      -0.01771205       0.01028265       0.04053269
Cu       7.66857304       5.90327028      17.08712122        2       0.00242664       0.00015348       0.01781876
Cu       0.00043776       0.00048871      19.20250570        1       0.00066505       0.00051419      -0.03994696
Cu       2.55660376      -0.00018400      19.17715567        1      -0.00182908       0.00077127      -0.00416778
Cu       5.11349176       0.00010962      19.17963197        1      -0.00055153       0.00028033      -0.00804520
Cu       1.27778148       2.21445351      19.17896880        1       0.00000789      -0.00152362      -0.00716143
Cu       3.83366637       2.21354478      19.17833201        1       0.00079637       0.00068621      -0.00803509
Cu       6.39022275       2.21356838      19.17947165        1       0.00072115      -0.00045154      -0.00782049
Cu       2.55662599       4.42876736      19.17864609        1      -0.00025918      -0.00064475      -0.00637730
Cu       5.11195682       4.42745313      19.17731468        1      -0.00009078       0.00132553      -0.00436652
Cu       7.66816322       4.42741083      19.17863729        1       0.00100778       0.00064708      -0.00848014
O       -0.01301024      -0.00549186      23.15251350        0      -0.00887361       0.01502001      -0.04401682
H       -0.43773488       0.82765583      23.41927671        0      -0.01492713      -0.00477138       0.00147445
H        0.61264984       0.26363261      22.45710644        0       0.02307432      -0.01320723      -0.00141182
