30
Lattice="7.668573041968109 0.0 0.0 3.8342865209840546 6.641179065120891 0.0 0.0 0.0 34.174242446240996" Properties=species:S:1:pos:R:3:tags:I:1:forces:R:3 energy=-116.19749450683594 free_energy=-116.19749450683594 stress="0.0003024489851668477 -3.1129226840675983e-07 3.117552296316717e-07 -3.1129226840675983e-07 0.0003028826613444835 5.682031769538298e-07 3.117552296316717e-07 5.682031769538298e-07 7.09751111571677e-06" pbc="T T F"
Cu       1.27809551       0.73790879      15.00000000        3      -0.00080178      -0.00037421      -0.00916781
Cu       3.83428652       0.73790879      15.00000000        3       0.00010811       0.00006732      -0.01154401
Cu       6.39047753       0.73790879      15.00000000        3       0.00068145      -0.00043355      -0.00871125
Cu       2.55619101       2.95163514      15.00000000        3       0.00000569      -0.00006342      -0.01168226
Cu       5.11238203       2.95163514      15.00000000        3       0.00000027      -0.00018648      -0.01158869
Cu       7.66857304       2.95163514      15.00000000        3      -0.00000298      -0.00006345      -0.01078568
Cu       3.83428652       5.16536150      15.00000000        3      -0.00010724       0.00094413      -0.00930807
Cu       6.39047753       5.16536150      15.00000000        3       0.00004971       0.00002097      -0.01122075
Cu       8.94666855       5.16536150      15.00000000        3       0.00006370       0.00008845      -0.01085591
Cu      -0.00000000       1.47581757      17.08712122        2      -0.00113854      -0.01949870       0.04272772
Cu       2.55619101       1.47581757      17.08712122        2       0.00004172      -0.00013897       0.01466365
Cu       5.11238203       1.47581757      17.08712122        2       0.00011413      -0.00147794       0.01811962
Cu       1.27809551       3.68954393      17.08712122        2       0.00155922       0.00152569       0.01788264
Cu       3.83428652       3.68954393      17.08712122        2      -0.00110338       0.00059110       0.01910052
Cu       6.39047753       3.68954393      17.08712122        2      -0.00076738       0.00025387       0.01829632
Cu       2.55619101       5.90327028      17.08712122        2       0.01688934       0.00999294       0.04436464
Cu       5.11238203       5.90327028      17.08712122        2      -0.01810671       0.00988612       0.04103256
Cu       7.66857304       5.90327028      17.08712122        2       0.00172140       0.00000535       0.01677616
Cu      -0.00002587       0.00064429      19.20249503        1       0.00009128       0.00086360      -0.03991069
Cu       2.55632907      -0.00049589      19.17699361        1      -0.00163352       0.00107551      -0.00385035
Cu       5.11279237      -0.00020124      19.17954885        1       0.00028532       0.00049531      -0.00793372
Cu       1.27811360       2.21408488      19.17773742        1      -0.00083059      -0.00135027      -0.00514627
Cu       3.83388729       2.21341484      19.17873352        1       0.00018091       0.00110119      -0.00866427
Cu       6.38967435       2.21393665      19.17905425        1       0.00119058      -0.00093185      -0.00726194
Cu       2.55663380       4.42861081      19.17957635        1      -0.00044026      -0.00058657      -0.00791208
Cu       5.11155383       4.42838433      19.17824830        1       0.00019504      -0.00030526      -0.00576399
Cu       7.66839148       4.42688072      19.17819801        1       0.00013001       0.00110984      -0.00779373
O       -0.00533651      -0.01308165      23.15256548        0      -0.01676205       0.00425428      -0.04398811
H       -0.89477398       0.27578058      23.41929171        0      -0.00724640      -0.01375639       0.00144166
H        0.24685072       0.61956458      22.45712209        0       0.02563300       0.00689139      -0.00131583
