30
Lattice="7.668573041968109 0.0 0.0 3.8342865209840546 6.641179065120891 0.0 0.0 0.0 34.174242446240996" Properties=species:S:1:pos:R:3:tags:I:1:forces:R:3 energy=-116.19752502441406 free_energy=-116.19752502441406 stress="0.0003029639774467796 -3.386061280252761e-07 -1.8479467200904764e-07 -3.386061280252761e-07 0.00030236050952225924 6.209899652276363e-07 -1.8479467200904764e-07 6.209899652276363e-07 7.102952622517478e-06" pbc="T T F"
Cu       1.27809551       0.73790879      15.00000000        3      -0.00079945      -0.00047977      -0.00940033
Cu       3.83428652       0.73790879      15.00000000        3       0.00015885       0.00002968      -0.01161772
Cu       6.39047753       0.73790879      15.00000000        3       0.00065097      -0.00048302      -0.00874150
Cu       2.55619101       2.95163514      15.00000000        3       0.00008116       0.00003461      -0.01180281
Cu       5.11238203       2.95163514      15.00000000        3      -0.00002221      -0.00012928      -0.01148514
Cu       7.66857304       2.95163514      15.00000000        3      -0.00006098       0.00000475      -0.01094250
Cu       3.83428652       5.16536150      15.00000000        3      -0.00009596       0.00090480      -0.00906023
Cu       6.39047753       5.16536150      15.00000000        3       0.00001014       0.00000352      -0.01107994
Cu       8.94666855       5.16536150      15.00000000        3       0.00007527       0.00011279      -0.01072337
Cu      -0.00000000       1.47581757      17.08712122        2      -0.00102157      -0.01995952       0.04143921
Cu       2.55619101       1.47581757      17.08712122        2       0.00096381      -0.00142182       0.01472715
Cu       5.11238203       1.47581757      17.08712122        2       0.00062768      -0.00133928       0.01618843
Cu       1.27809551       3.68954393      17.08712122        2       0.00067522       0.00201264       0.01750728
Cu       3.83428652       3.68954393      17.08712122        2       0.00042911       0.00120310       0.01954867
Cu       6.39047753       3.68954393      17.08712122        2      -0.00154238       0.00096670       0.01909772
Cu       2.55619101       5.90327028      17.08712122        2       0.01686030       0.00977758       0.04420328
Cu       5.11238203       5.90327028      17.08712122        2      -0.01805061       0.00918410       0.04274982
Cu       7.66857304       5.90327028      17.08712122        2      -0.00030560      -0.00018832       0.01764047
Cu      -0.00048823       0.00043871      19.20252263        1      -0.00051872       0.00069058      -0.03999976
Cu       2.55521403      -0.00031292      19.17785619        1      -0.00008053       0.00027674      -0.00519196
Cu       5.11183944      -0.00060668      19.17910520        1       0.00131670       0.00071062      -0.00731445
Cu       1.27868259       2.21384772      19.17683023        1      -0.00191252      -0.00119661      -0.00358795
Cu       3.83454155       2.21333964      19.17836385        1      -0.00062493       0.00081316      -0.00807773
Cu       6.39003058       2.21378930      19.17834699        1       0.00086928      -0.00107637      -0.00616555
Cu       2.55658670       4.42806791      19.17964641        1      -0.00031473       0.00010400      -0.00809733
Cu       5.11152895       4.42849390      19.17939923        1       0.00034212      -0.00079645      -0.00759974
Cu       7.66852786       4.42681240      19.17855274        1      -0.00072358       0.00090318      -0.00838025
O        0.00549553      -0.01302595      23.15252491        0      -0.01486292      -0.00887680      -0.04397786
H       -0.82765655      -0.43773651      23.41928613        0       0.00467326      -0.01492384       0.00147799
H       -0.26360228       0.61270848      22.45716817        0       0.01320292       0.02313844      -0.00133392
