30
Lattice="7.668573041968109 0.0 0.0 3.8342865209840546 6.641179065120891 0.0 0.0 0.0 34.174242446240996" Properties=species:S:1:pos:R:3:tags:I:1:forces:R:3 energy=-116.197509765625 free_energy=-116.197509765625 stress="0.0003029934596270323 3.684807552417624e-07 5.671807343787805e-07 3.684807552417624e-07 0.00030236964812502265 -3.1826084523345344e-07 5.671807343787805e-07 -3.1826084523345344e-07 7.1418412517232355e-06" pbc="T T F"
Cu       1.27809551       0.73790879      15.00000000        3       0.00085330      -0.00036768      -0.00914914
Cu       3.83428652       0.73790879      15.00000000        3      -0.00072689      -0.00033542      -0.00869720
Cu       6.39047753       0.73790879      15.00000000        3      -0.00013785       0.00008858      -0.01148988
Cu       2.55619101       2.95163514      15.00000000        3       0.00005943      -0.00012011      -0.01076236
Cu       5.11238203       2.95163514      15.00000000        3      -0.00003899      -0.00015087      -0.01158714
Cu       7.66857304       2.95163514      15.00000000        3      -0.00002528      -0.00005516      -0.01178866
Cu       3.83428652       5.16536150      15.00000000        3      -0.00000541      -0.00003100      -0.01112670
Cu       6.39047753       5.16536150      15.00000000        3       0.00000809       0.00091793      -0.00934492
Cu       8.94666855       5.16536150      15.00000000        3       0.00001380       0.00005578      -0.01088188
Cu      -0.00000000       1.47581757      17.08712122        2       0.00086312      -0.00043802       0.01967166
Cu       2.55619101       1.47581757      17.08712122        2       0.00012309      -0.01955092       0.04435062
Cu       5.11238203       1.47581757      17.08712122        2      -0.00138082       0.00016030       0.01701854
Cu       1.27809551       3.68954393      17.08712122        2       0.00132241      -0.00196359       0.01733939
Cu       3.83428652       3.68954393      17.08712122        2      -0.00028301      -0.00017835       0.01727282
Cu       6.39047753       3.68954393      17.08712122        2      -0.00144747      -0.00030689       0.01443011
Cu       2.55619101       5.90327028      17.08712122        2       0.00119963       0.00099223       0.01917509
Cu       5.11238203       5.90327028      17.08712122        2       0.01716961       0.01098093       0.04231028
Cu       7.66857304       5.90327028      17.08712122        2      -0.01644625       0.01106844       0.04190359
Cu       0.00138337       0.00024193      19.17909232        1      -0.00086319       0.00004863      -0.00709057
Cu       2.55684302       0.00003750      19.20254173        1       0.00085981      -0.00012241      -0.04005942
Cu       5.11272493       0.00050420      19.17879529        1      -0.00129240      -0.00048056      -0.00690275
Cu       1.27862698       2.21292909      19.17966641        1       0.00006196       0.00042347      -0.00813241
Cu       3.83402063       2.21425850      19.17925826        1       0.00000574      -0.00126824      -0.00751837
Cu       6.39013167       2.21385110      19.17856522        1       0.00101845      -0.00021088      -0.00839878
Cu       2.55566534       4.42789926      19.17839539        1       0.00110907      -0.00010416      -0.00814231
Cu       5.11238140       4.42816911      19.17756352        1       0.00072929       0.00028597      -0.00475766
Cu       7.66850741       4.42686025      19.17685048        1      -0.00019074       0.00224956      -0.00364278
O        2.54310922       0.00530717      23.15245282        0       0.00430274       0.01675670      -0.04408091
H        2.83184099       0.89476276      23.41925778        0      -0.01396884       0.00732161       0.00152393
H        3.17590958      -0.24678001      22.45712079        0       0.00710759      -0.02566608      -0.00144219
