30
Lattice="7.668573041968109 0.0 0.0 3.8342865209840546 6.641179065120891 0.0 0.0 0.0 34.174242446240996" Properties=species:S:1:pos:R:3:tags:I:1:forces:R:3 energy=-116.19752502441406 free_energy=-116.19752502441406 stress="0.00030296322074718773 -3.3888287020999996e-07 -1.8449729566327733e-07 -3.3888287020999996e-07 0.00030236071324907243 6.20166360931762e-07 -1.8449729566327733e-07 6.20166360931762e-07 7.102521976776188e-06" pbc="T T F"
Cu       1.27809551       0.73790879      15.00000000        3       0.00065175      -0.00048259      -0.00874147
Cu       3.83428652       0.73790879      15.00000000        3      -0.00079859      -0.00047983      -0.00940076
Cu       6.39047753       0.73790879      15.00000000        3       0.00015722       0.00002955      -0.01161803
Cu       2.55619101       2.95163514      15.00000000        3      -0.00006192       0.00000435      -0.01094205
Cu       5.11238203       2.95163514      15.00000000        3       0.00008147       0.00003493      -0.01180293
Cu       7.66857304       2.95163514      15.00000000        3      -0.00002153      -0.00012944      -0.01148541
Cu       3.83428652       5.16536150      15.00000000        3       0.00007650       0.00011246      -0.01072356
Cu       6.39047753       5.16536150      15.00000000        3      -0.00009766       0.00090470      -0.00906038
Cu       8.94666855       5.16536150      15.00000000        3       0.00001056       0.00000388      -0.01108012
Cu      -0.00000000       1.47581757      17.08712122        2       0.00062791      -0.00133768       0.01618690
Cu       2.55619101       1.47581757      17.08712122        2      -0.00102194      -0.01995767       0.04143653
Cu       5.11238203       1.47581757      17.08712122        2       0.00096391      -0.00142035       0.01472524
Cu       1.27809551       3.68954393      17.08712122        2      -0.00154080       0.00096681       0.01909751
Cu       3.83428652       3.68954393      17.08712122        2       0.00067573       0.00201210       0.01750634
Cu       6.39047753       3.68954393      17.08712122        2       0.00042684       0.00120370       0.01954893
Cu       2.55619101       5.90327028      17.08712122        2      -0.00030587      -0.00018999       0.01763578
Cu       5.11238203       5.90327028      17.08712122        2       0.01686078       0.00977568       0.04419946
Cu       7.66857304       5.90327028      17.08712122        2      -0.01804999       0.00918300       0.04274628
Cu      -0.00054257      -0.00060665      19.17910460        1       0.00131831       0.00071156      -0.00730714
Cu       2.55570284       0.00043864      19.20251944        1      -0.00052038       0.00068999      -0.03999384
Cu       5.11140530      -0.00031277      19.17785547        1      -0.00008306       0.00027699      -0.00518538
Cu       1.27764890       2.21378923      19.17834696        1       0.00086706      -0.00107540      -0.00616521
Cu       3.83487334       2.21384765      19.17682995        1      -0.00191085      -0.00119671      -0.00358761
Cu       6.39073244       2.21333955      19.17836358        1      -0.00062355       0.00081470      -0.00807825
Cu       2.55614631       4.42681245      19.17855219        1      -0.00072599       0.00090081      -0.00838039
Cu       5.11277745       4.42806792      19.17964528        1      -0.00031156       0.00010344      -0.00809808
Cu       7.66771991       4.42849379      19.17939864        1       0.00034233      -0.00079691      -0.00759906
O        2.56168571      -0.01302404      23.15252901        0      -0.01487043      -0.00883551      -0.04402032
H        1.72853423      -0.43773671      23.41928821        0       0.00466852      -0.01492088       0.00147393
H        2.29258937       0.61270681      22.45716744        0       0.01321523       0.02309420      -0.00128679
