30
Lattice="7.668573041968109 0.0 0.0 3.8342865209840546 6.641179065120891 0.0 0.0 0.0 34.174242446240996" Properties=species:S:1:pos:R:3:tags:I:1:forces:R:3 energy=-116.1974868774414 free_energy=-116.1974868774414 stress="0.00030240602791309357 2.6011787213064963e-07 6.277579700508795e-07 2.6011787213064963e-07 0.0003029558283742517 1.779112182020981e-07 6.277579700508795e-07 1.779112182020981e-07 7.121880571503425e-06" pbc="T T F"
Cu       1.27809551       0.73790879      15.00000000        3       0.00077427      -0.00038670      -0.00888312
Cu       3.83428652       0.73790879      15.00000000        3      -0.00078582      -0.00031087      -0.00888064
Cu       6.39047753       0.73790879      15.00000000        3      -0.00000767       0.00008487      -0.01152414
Cu       2.55619101       2.95163514      15.00000000        3       0.00005181      -0.00011223      -0.01067033
Cu       5.11238203       2.95163514      15.00000000        3      -0.00005478      -0.00013521      -0.01161611
Cu       7.66857304       2.95163514      15.00000000        3       0.00000576      -0.00013831      -0.01174014
Cu       3.83428652       5.16536150      15.00000000        3       0.00002013       0.00002674      -0.01099624
Cu       6.39047753       5.16536150      15.00000000        3      -0.00005684       0.00094625      -0.00942274
Cu       8.94666855       5.16536150      15.00000000        3       0.00005113       0.00002657      -0.01110610
Cu      -0.00000000       1.47581757      17.08712122        2       0.00049619      -0.00153986       0.01909503
Cu       2.55619101       1.47581757      17.08712122        2      -0.00023192      -0.01931380       0.04401129
Cu       5.11238203       1.47581757      17.08712122        2      -0.00144797       0.00050762       0.01514835
Cu       1.27809551       3.68954393      17.08712122        2       0.00084091      -0.00056884       0.01800002
Cu       3.83428652       3.68954393      17.08712122        2       0.00076483       0.00077598       0.01856776
Cu       6.39047753       3.68954393      17.08712122        2      -0.00177404       0.00036260       0.01649063
Cu       2.55619101       5.90327028      17.08712122        2       0.00242628       0.00015192       0.01782167
Cu       5.11238203       5.90327028      17.08712122        2       0.01689875       0.01069359       0.04353472
Cu       7.66857304       5.90327028      17.08712122        2      -0.01771170       0.01028323       0.04053224
Cu       0.00110999       0.00010958      19.17963172        1      -0.00055425       0.00028022      -0.00804543
Cu       2.55662872       0.00048854      19.20250578        1       0.00066579       0.00051489      -0.03994682
Cu       5.11279452      -0.00018393      19.17715576        1      -0.00182653       0.00077149      -0.00416749
Cu       1.27784074       2.21356836      19.17947208        1       0.00072069      -0.00045113      -0.00782036
Cu       3.83397253       2.21445349      19.17896795        1       0.00000714      -0.00152327      -0.00716129
Cu       6.38985734       2.21354487      19.17833192        1       0.00079702       0.00068713      -0.00803555
Cu       2.55578133       4.42741078      19.17863760        1       0.00100864       0.00064787      -0.00848815
Cu       5.11281690       4.42876740      19.17864557        1      -0.00025776      -0.00064460      -0.00637669
Cu       7.66814780       4.42745333      19.17731435        1      -0.00009375       0.00132235      -0.00436619
O        2.54318076      -0.00549053      23.15251507        0      -0.00879553       0.01493168      -0.04407832
H        2.11845610       0.82765500      23.41927744        0      -0.01497209      -0.00467485       0.00150071
H        3.16884095       0.26363219      22.45710564        0       0.02304143      -0.01321532      -0.00137651
