30
Lattice="7.668573041968109 0.0 0.0 3.8342865209840546 6.641179065120891 0.0 0.0 0.0 34.174242446240996" Properties=species:S:1:pos:R:3:tags:I:1:forces:R:3 energy=-116.19751739501953 free_energy=-116.19751739501953 stress="0.0003029938379768282 3.683033469314978e-07 5.676745900018432e-07 3.683033469314978e-07 0.00030236877501010895 -3.192210442648502e-07 5.676745900018432e-07 -3.192210442648502e-07 7.143286438804353e-06" pbc="T T F"
Cu       1.27809551       0.73790879      15.00000000        3      -0.00072771      -0.00033533      -0.00869653
Cu       3.83428652       0.73790879      15.00000000        3      -0.00013621       0.00008884      -0.01148967
Cu       6.39047753       0.73790879      15.00000000        3       0.00085245      -0.00036785      -0.00914896
Cu       2.55619101       2.95163514      15.00000000        3      -0.00003917      -0.00015141      -0.01158709
Cu       5.11238203       2.95163514      15.00000000        3      -0.00002580      -0.00005509      -0.01178826
Cu       7.66857304       2.95163514      15.00000000        3       0.00006014      -0.00011985      -0.01076257
Cu       3.83428652       5.16536150      15.00000000        3       0.00000992       0.00091807      -0.00934424
Cu       6.39047753       5.16536150      15.00000000        3       0.00001321       0.00005532      -0.01088158
Cu       8.94666855       5.16536150      15.00000000        3      -0.00000649      -0.00003066      -0.01112672
Cu      -0.00000000       1.47581757      17.08712122        2       0.00012373      -0.01955592       0.04435693
Cu       2.55619101       1.47581757      17.08712122        2      -0.00138106       0.00015856       0.01702029
Cu       5.11238203       1.47581757      17.08712122        2       0.00086299      -0.00043771       0.01967191
Cu       1.27809551       3.68954393      17.08712122        2      -0.00028204      -0.00017723       0.01727589
Cu       3.83428652       3.68954393      17.08712122        2      -0.00144714      -0.00030645       0.01443228
Cu       6.39047753       3.68954393      17.08712122        2       0.00132088      -0.00196334       0.01734084
Cu       2.55619101       5.90327028      17.08712122        2       0.01717311       0.01098177       0.04231878
Cu       5.11238203       5.90327028      17.08712122        2      -0.01644824       0.01107111       0.04191209
Cu       7.66857304       5.90327028      17.08712122        2       0.00119875       0.00099344       0.01917846
Cu       0.00065217       0.00003735      19.20254662        1       0.00086040      -0.00012156      -0.04007911
Cu       2.55653419       0.00050426      19.17879627        1      -0.00129604      -0.00048300      -0.00691067
Cu       5.11376530       0.00024203      19.17909285        1      -0.00086096       0.00004670      -0.00709078
Cu       1.27782963       2.21425846      19.17925901        1       0.00000646      -0.00126941      -0.00751792
Cu       3.83394059       2.21385095      19.17856524        1       0.00101923      -0.00020860      -0.00839853
Cu       6.39100910       2.21292906      19.17966728        1       0.00006037       0.00042278      -0.00813258
Cu       2.55619052       4.42816942      19.17756419        1       0.00072908       0.00028681      -0.00476540
Cu       5.11231645       4.42686025      19.17685055        1      -0.00018943       0.00225002      -0.00364321
Cu       7.66804719       4.42789938      19.17839660        1       0.00110812      -0.00010207      -0.00814261
O       -0.01308455       0.00530918      23.15244637        0       0.00425206       0.01670031      -0.04407109
H        0.27564954       0.89476145      23.41925406        0      -0.01394998       0.00739951       0.00155277
H        0.61972124      -0.24678111      22.45712221        0       0.00713941      -0.02568785      -0.00148264
