12
Properties=species:S:1:pos:R:3:momenta:R:3:forces:R:3:charge:R:1 energy=-432.08612035548555 free_energy=-432.08612035548555 dipole="-3.0040426054478404e-05 2.4753917561307413e-05 7.2517484377762394e-06" pbc="F F F"
C       -1.21310000      -0.68840000       0.00000000       0.34502149       0.07429822      -0.26626810       0.30587593       0.17203332       0.00030076      -0.02880608
C       -1.20280000       0.70640000       0.00010000      -0.93359650      -0.48251097      -0.38789669       0.30535580      -0.17743340      -0.00100833      -0.02881528
C       -0.01030000      -1.39480000       0.00000000       0.00821137      -1.10618186       1.09046087       0.00112613       0.35052768       0.00004181      -0.02880508
C        0.01040000       1.39480000      -0.00010000      -1.43046231       0.30925555      -0.47803944      -0.00656536      -0.35167422       0.00159026      -0.02881318
C        1.20280000      -0.70630000       0.00000000       0.48762304       0.55610849       0.43579921      -0.30128661       0.17152629      -0.00001083      -0.02878804
C        1.21310000       0.68840000       0.00000000      -0.01817672       0.74849256       0.73368605      -0.30217500      -0.16828738      -0.00039007      -0.02878690
H       -2.15770000      -1.22440000       0.00000000       0.15534022       0.11113223       0.41427063       0.18148698       0.10244100      -0.00006279       0.02880314
H       -2.13930000       1.25640000       0.00010000      -0.18614655      -0.25801735       0.21278680       0.17958170      -0.10534897      -0.00012695       0.02881211
H       -0.01840000      -2.48090000      -0.00010000      -0.15975039      -0.10734353       0.07347346       0.00175519       0.21025708       0.00019271       0.02880089
H        0.01840000       2.48080000       0.00000000      -0.07061734      -0.29185475       0.03293697      -0.00107235      -0.20691318      -0.00038834       0.02881227
H        2.13940000      -1.25630000       0.00010000       0.13930213      -0.04805464      -0.22801926      -0.18169734       0.10643716      -0.00017475       0.02879261
H        2.15770000       1.22450000       0.00000000       0.04832945       0.07687703      -0.06367241      -0.18238507      -0.10356539       0.00003653       0.02879354
