12
Properties=species:S:1:pos:R:3:momenta:R:3:forces:R:3:charge:R:1 energy=-431.73935712577384 free_energy=-431.73935712577384 dipole="-0.012538863968718984 0.0029494299683720986 -0.01569689917248659" pbc="F F F"
C       -1.14851904      -1.03894082       0.51714732       0.56087519      -0.22353292       0.87161096       0.53229847       1.19367116      -1.09500709      -0.03372218
C       -1.52032459       0.23259462       0.08662776      -0.32778092      -0.60951395       0.06021846      -1.09417650      -0.52502428      -0.18368857      -0.02784994
C        0.19305618      -1.31518086       0.55774017       0.42400030      -0.02622035       1.20970987       1.42258669      -0.10188120       0.35846065      -0.02594387
C       -0.62105596       1.23644974      -0.23316233      -0.77064920      -0.32702376      -0.29189086       1.77458786      -3.01328206       1.12870071      -0.03437554
C        1.18278491      -0.36402196       0.30255224      -0.56822112       0.48103592      -0.45585651      -0.69893376       2.02978448       0.03464453      -0.03256305
C        0.75053559       0.96429206      -0.09384492      -0.59923005       0.17338645      -0.13662769       0.06790652      -1.85088317       0.51118487      -0.03136407
H       -1.84387025      -1.82925155       0.61791057      -0.05474019      -0.10251869      -0.03496985      -0.62984284      -0.35075519       0.33827491       0.03673635
H       -2.59362755       0.37170722      -0.08719436       0.02663642       0.05816506      -0.20311413       0.37158170       0.30621666       0.20164240       0.02176993
H        0.50231566      -2.31119310       0.83559765       0.08521972       0.14874304       0.14818810       0.12628317      -0.13244032       0.05893269       0.02541231
H       -0.98727148       2.11999971      -0.56944179      -0.12665242      -0.05063265      -0.03694965      -0.67019281       2.40009057      -0.83594447       0.04470700
H        2.25735012      -0.57087939       0.52520193      -0.07130518       0.05679185       0.10206709      -1.12155816       0.18278895      -0.55218170       0.02806482
H        1.48664246       1.72998541      -0.30591581      -0.04198765       0.04260894       0.19029314      -0.08054034      -0.13828560       0.03498107       0.02912826
