     161
 i =        1, E =     -8104.4948582042
 Fe         5.0938794100       11.8196869300        0.3885799900
 Fe         7.6575796300        7.3792284900        0.3885799900
 Fe        10.2212798400        2.9387700600        0.3885799900
 Fe        -0.0335205200       11.8196869300        0.3885799900
 Fe         2.5301797000        7.3792284900        0.3885799900
 Fe         5.0938799200        2.9387700600        0.3885799900
 Fe        -5.1609204400       11.8196869300        0.3885799900
 Fe        -2.5972202200        7.3792284900        0.3885799900
 Fe        -0.0335200000        2.9387700600        0.3885799900
  O         8.4519195100        8.9577468800        1.1642700400
  O        11.0156197300        4.5172884400        1.1642700400
  O        13.5793199500        0.0768300000        1.1642700400
  O         3.3245195900        8.9577468800        1.1642700400
  O         5.8882198100        4.5172884400        1.1642700400
  O         8.4519200300        0.0768300000        1.1642700400
  O        -1.8028803300        8.9577468800        1.1642700400
  O         0.7608198900        4.5172884400        1.1642700400
  O         3.3245201100        0.0768300000        1.1642700400
  O         8.4568493000       11.7183869300        1.1650400200
  O        11.0205495200        7.2779284900        1.1650400200
  O        13.5842497300        2.8374700500        1.1650400200
  O         3.3294493700       11.7183869300        1.1650400200
  O         5.8931495900        7.2779284900        1.1650400200
  O         8.4568498100        2.8374700500        1.1650400200
  O        -1.7979505500       11.7183869300        1.1650400200
  O         0.7657496700        7.2779284900        1.1650400200
  O         3.3294498900        2.8374700500        1.1650400200
  O         6.0627194200       10.3425368500        1.1660399400
  O         8.6264196400        5.9020784100        1.1660399400
  O        11.1901198600        1.4616199700        1.1660399400
  O         0.9353195000       10.3425368500        1.1660399400
  O         3.4990197200        5.9020784100        1.1660399400
  O         6.0627199400        1.4616199700        1.1660399400
  O        -4.1920804200       10.3425368500        1.1660399400
  O        -1.6283802000        5.9020784100        1.1660399400
  O         0.9353200200        1.4616199700        1.1660399400
 Fe         7.6576695000       13.2997167500        1.9292099500
 Fe        10.2213697200        8.8592583200        1.9292099500
 Fe        12.7850699400        4.4187998800        1.9292099500
 Fe         2.5302695800       13.2997167500        1.9292099500
 Fe         5.0939698000        8.8592583200        1.9292099500
 Fe         7.6576700200        4.4187998800        1.9292099500
 Fe        -2.5971303400       13.2997167500        1.9292099500
 Fe        -0.0334301200        8.8592583200        1.9292099500
 Fe         2.5302701000        4.4187998800        1.9292099500
 Fe         7.6573893600       10.3392168700        2.7128999200
 Fe        10.2210895800        5.8987584300        2.7128999200
 Fe        12.7847898000        1.4582999900        2.7128999200
 Fe         2.5299894400       10.3392168700        2.7128999200
 Fe         5.0936896600        5.8987584300        2.7128999200
 Fe         7.6573898800        1.4582999900        2.7128999200
 Fe        -2.5974104800       10.3392168700        2.7128999200
 Fe        -0.0337102600        5.8987584300        2.7128999200
 Fe         2.5299899600        1.4582999900        2.7128999200
  O         4.1329548748       13.3037030919        3.4992367768
  O         6.6953551845        8.8646246935        3.4981270642
  O         9.2604539946        4.4231147432        3.4992268700
  O        -0.9949809705       13.3041494085        3.4992848264
  O         1.5687805336        8.8633550541        3.4986219314
  O         4.1336741081        4.4234753493        3.5012564417
  O        -6.1218001428       13.3040912343        3.4999269901
  O        -3.5594257946        8.8633113743        3.4992271802
  O        -0.9946368418        4.4231979618        3.4993416248
  O         6.8607256884       11.9097396033        3.5008265223
  O         9.4300025416        7.4709130595        3.4980144516
  O        11.9888744141        3.0289345094        3.4997657209
  O         1.7335170320       11.9098674228        3.5007717145
  O         4.2970719644        7.4685636262        3.5025365885
  O         6.8600238029        3.0294780525        3.5011768715
  O        -3.3937817473       11.9113463044        3.5007107718
  O        -0.8297041677        7.4694810750        3.5004934830
  O         1.7332690885        3.0269629529        3.5009431769
  O         9.4153752114       10.2438495249        3.5018599752
  O        11.9790465269        5.8042628312        3.5013940461
  O        14.5432672316        1.3641814028        3.5009716263
  O         4.2864498447       10.2472465399        3.4997275626
  O         6.8483771084        5.8025957938        3.5060454744
  O         9.4161092192        1.3642707354        3.5004320045
  O        -0.8392420449       10.2450285126        3.5012364447
  O         1.7255564552        5.8050938193        3.5010967105
  O         4.2871813583        1.3617178731        3.5004117244
 Fe         5.0942957016       11.8191669267        4.4863806289
 Fe         7.6655801153        7.3821057757        4.4727948043
 Fe        10.2255429041        2.9385853068        4.4853922412
 Fe        -0.0330615601       11.8191570378        4.4863254477
 Fe         2.5295030504        7.3805325333        4.4859055968
 Fe         5.0921413828        2.9336695654        4.4811130303
 Fe        -5.1602870863       11.8187776381        4.4861919709
 Fe        -2.5956719466        7.3788246234        4.4854800434
 Fe        -0.0333081911        2.9385070704        4.4861738529
 Fe         7.6581376495       13.2992405123        4.8225565291
 Fe        10.2214128162        8.8578499305        4.8249182502
 Fe        12.7856446098        4.4174995128        4.8228883839
 Fe         2.5316903981       13.2991978232        4.8227367813
 Fe         5.0911277193        8.8671901168        4.8171941100
 Fe         7.6601456741        4.4177234408        4.8194672006
 Fe        -2.5946540456       13.3008557321        4.8239691634
 Fe        -0.0323239319        8.8585903551        4.8226547880
 Fe         2.5285973767        4.4134021985        4.8186782804
  O         5.8668109761       10.3888740247        5.7286830888
  O         8.4271342235        5.9537819627        5.7138192657
  O        10.9944845529        1.5071391581        5.7250620455
  O         0.7388761296       10.3883150145        5.7261362304
  O         3.2911420094        5.9430556112        5.7258945183
  O         5.8671643605        1.5118403302        5.7292485843
  O        -4.3886537424       10.3883142664        5.7250999841
  O        -1.8251358157        5.9475873198        5.7257197733
  O         0.7392374113        1.5076677769        5.7265542093
  O         5.9472327269       13.2036380004        5.7263473583
  O         8.5078228776        8.7613578144        5.7264836044
  O        11.0739265837        4.3284646594        5.7257569433
  O         0.8208697915       13.2021813173        5.7258064654
  O         3.3843768277        8.7626061320        5.7271191260
  O         5.9348091735        4.3363605520        5.7103028259
  O        -4.3064844069       13.2042336668        5.7274951292
  O        -1.7429680805        8.7632595848        5.7270502907
  O         0.8212428371        4.3228547300        5.7280051686
  O         3.4695888701       11.8647274117        5.7288911045
  O         6.0528978922        7.4515569738        5.7166306702
  O         8.5925674362        2.9737286310        5.7003184166
  O        -1.6587173090       11.8654167239        5.7288853714
  O         0.9059314783        7.4242811726        5.7288498725
  O         3.4730427623        2.9877757094        5.7354524225
  O        -6.7849705846       11.8663029507        5.7293817676
  O        -4.2192131948        7.4242091920        5.7249403012
  O        -1.6573072664        2.9837894290        5.7276838079
 Fe         7.6588166728       10.3396784800        5.9808900203
 Fe        10.2192561015        5.9037250806        5.9805548377
 Fe        12.7849871883        1.4585370115        5.9849176554
 Fe         2.5301848404       10.3387566170        5.9825699318
 Fe         5.0907647522        5.9330496972        5.8899595289
 Fe         7.6594378467        1.4551595886        5.9868507504
 Fe        -2.5975961660       10.3388070399        5.9825253274
 Fe        -0.0341917865        5.8986277067        5.9829631899
 Fe         2.5308021965        1.4593168362        5.9794256484
  C         7.0452054692        4.4313565671        8.4811650949
  C         6.5732340669        5.8896624255        8.4748855000
  H         6.4960059448        3.9049406895        7.6797507264
  O         8.4560283787        4.3248149177        8.2464452469
  H         6.8093288597        3.9762141996        9.4544836402
  C         6.8704768022        6.7532099446        9.7157310647
  C         8.3593343054        7.1970519153        9.9174460676
  O         6.3859498701        6.0775065934       10.9013935988
  H         6.2759156611        7.6729129172        9.5727086585
  C         9.0329918994        6.7455522721       11.2398598755
  H         8.3353531183        8.2979044636        9.9702442433
  O         9.2151975448        6.8645429548        8.7861782206
  C         9.3181819735        5.2396895262       11.3609844477
  O         8.3373384158        7.2395777061       12.3828942186
  H        10.0155010906        7.2526456971       11.2496731411
  H         8.3798453764        4.6669822275       11.3349752921
  O        10.2246903814        4.7886605340       10.3307627206
  H         9.7967152825        5.0715142348       12.3386887580
  H         8.7442388503        5.2620796269        8.1017601325
  H         5.4355738504        5.9213037425       10.7398678801
  H         9.9816815925        6.3891062763        9.1847207363
  H         7.4276614294        6.8815089692       12.3052361194
  H         9.6768855516        4.3195886483        9.6563120673
  O         5.1165572984        5.9319432368        8.4362879903
  H         6.9382189415        6.4280982291        7.5798428687
  H         4.7303349164        5.2586485081        7.8053931315
     161
 i =        2, E =     -8104.4987361052
 Fe         5.0938794100       11.8196869300        0.3885799900
 Fe         7.6575796300        7.3792284900        0.3885799900
 Fe        10.2212798400        2.9387700600        0.3885799900
 Fe        -0.0335205200       11.8196869300        0.3885799900
 Fe         2.5301797000        7.3792284900        0.3885799900
 Fe         5.0938799200        2.9387700600        0.3885799900
 Fe        -5.1609204400       11.8196869300        0.3885799900
 Fe        -2.5972202200        7.3792284900        0.3885799900
 Fe        -0.0335200000        2.9387700600        0.3885799900
  O         8.4519195100        8.9577468800        1.1642700400
  O        11.0156197300        4.5172884400        1.1642700400
  O        13.5793199500        0.0768300000        1.1642700400
  O         3.3245195900        8.9577468800        1.1642700400
  O         5.8882198100        4.5172884400        1.1642700400
  O         8.4519200300        0.0768300000        1.1642700400
  O        -1.8028803300        8.9577468800        1.1642700400
  O         0.7608198900        4.5172884400        1.1642700400
  O         3.3245201100        0.0768300000        1.1642700400
  O         8.4568493000       11.7183869300        1.1650400200
  O        11.0205495200        7.2779284900        1.1650400200
  O        13.5842497300        2.8374700500        1.1650400200
  O         3.3294493700       11.7183869300        1.1650400200
  O         5.8931495900        7.2779284900        1.1650400200
  O         8.4568498100        2.8374700500        1.1650400200
  O        -1.7979505500       11.7183869300        1.1650400200
  O         0.7657496700        7.2779284900        1.1650400200
  O         3.3294498900        2.8374700500        1.1650400200
  O         6.0627194200       10.3425368500        1.1660399400
  O         8.6264196400        5.9020784100        1.1660399400
  O        11.1901198600        1.4616199700        1.1660399400
  O         0.9353195000       10.3425368500        1.1660399400
  O         3.4990197200        5.9020784100        1.1660399400
  O         6.0627199400        1.4616199700        1.1660399400
  O        -4.1920804200       10.3425368500        1.1660399400
  O        -1.6283802000        5.9020784100        1.1660399400
  O         0.9353200200        1.4616199700        1.1660399400
 Fe         7.6576695000       13.2997167500        1.9292099500
 Fe        10.2213697200        8.8592583200        1.9292099500
 Fe        12.7850699400        4.4187998800        1.9292099500
 Fe         2.5302695800       13.2997167500        1.9292099500
 Fe         5.0939698000        8.8592583200        1.9292099500
 Fe         7.6576700200        4.4187998800        1.9292099500
 Fe        -2.5971303400       13.2997167500        1.9292099500
 Fe        -0.0334301200        8.8592583200        1.9292099500
 Fe         2.5302701000        4.4187998800        1.9292099500
 Fe         7.6573893600       10.3392168700        2.7128999200
 Fe        10.2210895800        5.8987584300        2.7128999200
 Fe        12.7847898000        1.4582999900        2.7128999200
 Fe         2.5299894400       10.3392168700        2.7128999200
 Fe         5.0936896600        5.8987584300        2.7128999200
 Fe         7.6573898800        1.4582999900        2.7128999200
 Fe        -2.5974104800       10.3392168700        2.7128999200
 Fe        -0.0337102600        5.8987584300        2.7128999200
 Fe         2.5299899600        1.4582999900        2.7128999200
  O         4.1337824765       13.3013505658        3.4972952742
  O         6.6961353242        8.8615948966        3.4877186398
  O         9.2607647886        4.4223174238        3.4951107758
  O        -0.9947757199       13.3030632438        3.5002942469
  O         1.5695427060        8.8613137783        3.4969708922
  O         4.1355077711        4.4218120229        3.5027914686
  O        -6.1206047500       13.3020213471        3.4992434395
  O        -3.5571153201        8.8623963697        3.4997614931
  O        -0.9936128707        4.4205688590        3.4986393210
  O         6.8593335246       11.9106562955        3.5001790743
  O         9.4282281091        7.4737062154        3.4952834764
  O        11.9877819893        3.0304785929        3.4989925855
  O         1.7321593479       11.9106890941        3.4998491247
  O         4.2959638293        7.4615524422        3.5158503223
  O         6.8524418422        3.0316082851        3.4925591903
  O        -3.3949355094       11.9134437101        3.5005070990
  O        -0.8309762431        7.4706365784        3.4992843391
  O         1.7326052477        3.0261660967        3.5019000404
  O         9.4165605831       10.2447027254        3.5030047768
  O        11.9821550646        5.8051166206        3.4982416026
  O        14.5466505171        1.3646689446        3.4982427450
  O         4.2875928855       10.2509816715        3.4979620506
  O         6.8475554334        5.8100358825        3.5080862587
  O         9.4216069518        1.3629729382        3.4930306399
  O        -0.8371861555       10.2462964641        3.4997193662
  O         1.7293801997        5.8048539004        3.4953388467
  O         4.2896923235        1.3657929216        3.5018516328
 Fe         5.0942302445       11.8223038417        4.4919677727
 Fe         7.6720131010        7.3914927290        4.4751688482
 Fe        10.2267614743        2.9378279963        4.4877784904
 Fe        -0.0328649809       11.8183274841        4.4915137504
 Fe         2.5199942291        7.3808326935        4.4928955851
 Fe         5.0931949689        2.9324637675        4.4885228466
 Fe        -5.1598143397       11.8189519861        4.4922155527
 Fe        -2.5948268763        7.3781948920        4.4902037795
 Fe        -0.0352816350        2.9373750554        4.4917599898
 Fe         7.6586810434       13.2994141723        4.8198110012
 Fe        10.2249828956        8.8592302709        4.8254557342
 Fe        12.7846951039        4.4188982276        4.8216867996
 Fe         2.5328046437       13.3002710135        4.8195639987
 Fe         5.0928810719        8.8810382158        4.8078502564
 Fe         7.6601449207        4.4152314809        4.8064612161
 Fe        -2.5922789743       13.3019908310        4.8243751379
 Fe        -0.0325632321        8.8599448789        4.8194873897
 Fe         2.5244533156        4.4094812226        4.8119828426
  O         5.8680051170       10.3932373585        5.7329923784
  O         8.4265925346        5.9527567535        5.6997188731
  O        10.9964695667        1.5062372607        5.7262472894
  O         0.7404402463       10.3862658958        5.7291380199
  O         3.2799078456        5.9368813305        5.7234449899
  O         5.8689013691        1.5141192177        5.7381440492
  O        -4.3870912017       10.3889169904        5.7289733469
  O        -1.8228852348        5.9462692073        5.7279893270
  O         0.7404225168        1.5059493657        5.7297307764
  O         5.9492002568       13.2059387565        5.7288655799
  O         8.5124553529        8.7669788981        5.7280522668
  O        11.0708309671        4.3361328618        5.7251862211
  O         0.8231408902       13.2006719447        5.7275977643
  O         3.3873092000        8.7639865174        5.7234191327
  O         5.9221174785        4.3613249744        5.6942906578
  O        -4.3043917313       13.2073860521        5.7307832113
  O        -1.7413093240        8.7644665159        5.7291294008
  O         0.8216545628        4.3225944858        5.7303658593
  O         3.4670521865       11.8648042982        5.7321210887
  O         6.0681221435        7.4799326254        5.7037622959
  O         8.5853809746        2.9646022111        5.6721442506
  O        -1.6601484557       11.8664439678        5.7339844240
  O         0.8997779695        7.4266950176        5.7340978358
  O         3.4728140669        2.9919288751        5.7472453904
  O        -6.7872094426       11.8670552137        5.7331212393
  O        -4.2182031322        7.4244896571        5.7234989216
  O        -1.6598533134        2.9850185272        5.7300862513
 Fe         7.6588770045       10.3400653608        5.9939105494
 Fe        10.2180651430        5.9105719651        5.9968466745
 Fe        12.7855909132        1.4591204815        5.9982890559
 Fe         2.5308921032       10.3376410088        5.9959667752
 Fe         5.0834663246        5.9755443375        5.8302468142
 Fe         7.6625668360        1.4515898786        5.9985519054
 Fe        -2.5968358501       10.3384192041        5.9939802738
 Fe        -0.0334129912        5.8978953066        5.9951610949
 Fe         2.5305498847        1.4601231187        5.9919675586
  C         7.0447534602        4.4419859700        8.5168711842
  C         6.5492625831        5.8904665991        8.4608564782
  H         6.5218442163        3.9147526296        7.6968095617
  O         8.4615384873        4.3146310173        8.3173251725
  H         6.7999270491        3.9652217886        9.4748101283
  C         6.8873000016        6.7318029638        9.6987324418
  C         8.3636438871        7.2064363979        9.9250262317
  O         6.3864709460        6.0919595975       10.9002293619
  H         6.2848372553        7.6517416936        9.5734625723
  C         9.0386355715        6.7422470043       11.2424297295
  H         8.3392453527        8.3066668229        9.9633778105
  O         9.2279247560        6.8655651922        8.7993376376
  C         9.3187019064        5.2348194788       11.3555873397
  O         8.3326317360        7.2422416682       12.3780249392
  H        10.0176042579        7.2548302599       11.2482950623
  H         8.3766493759        4.6674924714       11.3346565881
  O        10.2302138670        4.7866771837       10.3308522639
  H         9.7953895313        5.0732280726       12.3357727903
  H         8.7177655498        5.2520834187        8.1045046198
  H         5.4375357397        5.9223538611       10.7420320045
  H         9.9861838858        6.3819276047        9.2037280505
  H         7.4243424497        6.8802031378       12.2999053859
  H         9.6690664457        4.3266724655        9.6564778761
  O         5.0796382639        5.9665426415        8.4073504278
  H         6.9983014325        6.4154708371        7.5957667338
  H         4.7074972311        5.1216300981        7.9140786644
     161
 i =        3, E =     -8104.5031030547
 Fe         5.0938794100       11.8196869300        0.3885799900
 Fe         7.6575796300        7.3792284900        0.3885799900
 Fe        10.2212798400        2.9387700600        0.3885799900
 Fe        -0.0335205200       11.8196869300        0.3885799900
 Fe         2.5301797000        7.3792284900        0.3885799900
 Fe         5.0938799200        2.9387700600        0.3885799900
 Fe        -5.1609204400       11.8196869300        0.3885799900
 Fe        -2.5972202200        7.3792284900        0.3885799900
 Fe        -0.0335200000        2.9387700600        0.3885799900
  O         8.4519195100        8.9577468800        1.1642700400
  O        11.0156197300        4.5172884400        1.1642700400
  O        13.5793199500        0.0768300000        1.1642700400
  O         3.3245195900        8.9577468800        1.1642700400
  O         5.8882198100        4.5172884400        1.1642700400
  O         8.4519200300        0.0768300000        1.1642700400
  O        -1.8028803300        8.9577468800        1.1642700400
  O         0.7608198900        4.5172884400        1.1642700400
  O         3.3245201100        0.0768300000        1.1642700400
  O         8.4568493000       11.7183869300        1.1650400200
  O        11.0205495200        7.2779284900        1.1650400200
  O        13.5842497300        2.8374700500        1.1650400200
  O         3.3294493700       11.7183869300        1.1650400200
  O         5.8931495900        7.2779284900        1.1650400200
  O         8.4568498100        2.8374700500        1.1650400200
  O        -1.7979505500       11.7183869300        1.1650400200
  O         0.7657496700        7.2779284900        1.1650400200
  O         3.3294498900        2.8374700500        1.1650400200
  O         6.0627194200       10.3425368500        1.1660399400
  O         8.6264196400        5.9020784100        1.1660399400
  O        11.1901198600        1.4616199700        1.1660399400
  O         0.9353195000       10.3425368500        1.1660399400
  O         3.4990197200        5.9020784100        1.1660399400
  O         6.0627199400        1.4616199700        1.1660399400
  O        -4.1920804200       10.3425368500        1.1660399400
  O        -1.6283802000        5.9020784100        1.1660399400
  O         0.9353200200        1.4616199700        1.1660399400
 Fe         7.6576695000       13.2997167500        1.9292099500
 Fe        10.2213697200        8.8592583200        1.9292099500
 Fe        12.7850699400        4.4187998800        1.9292099500
 Fe         2.5302695800       13.2997167500        1.9292099500
 Fe         5.0939698000        8.8592583200        1.9292099500
 Fe         7.6576700200        4.4187998800        1.9292099500
 Fe        -2.5971303400       13.2997167500        1.9292099500
 Fe        -0.0334301200        8.8592583200        1.9292099500
 Fe         2.5302701000        4.4187998800        1.9292099500
 Fe         7.6573893600       10.3392168700        2.7128999200
 Fe        10.2210895800        5.8987584300        2.7128999200
 Fe        12.7847898000        1.4582999900        2.7128999200
 Fe         2.5299894400       10.3392168700        2.7128999200
 Fe         5.0936896600        5.8987584300        2.7128999200
 Fe         7.6573898800        1.4582999900        2.7128999200
 Fe        -2.5974104800       10.3392168700        2.7128999200
 Fe        -0.0337102600        5.8987584300        2.7128999200
 Fe         2.5299899600        1.4582999900        2.7128999200
  O         4.1346624203       13.3028692677        3.4990401105
  O         6.6949896254        8.8626616947        3.4822846760
  O         9.2594723855        4.4234033089        3.4926463818
  O        -0.9957185508       13.3047548509        3.5023127392
  O         1.5689950876        8.8622353898        3.4973714974
  O         4.1340892521        4.4231673197        3.5020760433
  O        -6.1207085799       13.3028158249        3.4995270533
  O        -3.5562177479        8.8639840111        3.5006241531
  O        -0.9938708010        4.4212432241        3.4995363493
  O         6.8605382735       11.9108185925        3.5007455148
  O         9.4268314691        7.4751554031        3.4957860925
  O        11.9885032404        3.0309113965        3.5002049924
  O         1.7331154530       11.9092234907        3.5017642485
  O         4.2981952020        7.4561463801        3.5243788620
  O         6.8500752833        3.0318467149        3.4886891646
  O        -3.3931919844       11.9143423724        3.5008996240
  O        -0.8296193874        7.4706841478        3.4998288459
  O         1.7343428006        3.0261374306        3.5038619706
  O         9.4164106540       10.2444349897        3.5037103608
  O        11.9827063975        5.8043502687        3.4974326582
  O        14.5466055961        1.3633192889        3.4984043852
  O         4.2891395919       10.2501036279        3.4973845133
  O         6.8465629416        5.8155060646        3.5066249078
  O         9.4222299203        1.3607705250        3.4917939692
  O        -0.8375499391       10.2459265932        3.5002299389
  O         1.7281018381        5.8024596454        3.4940387362
  O         4.2903794668        1.3682370135        3.5047615092
 Fe         5.0945185358       11.8249457455        4.4894537246
 Fe         7.6718559709        7.3961315139        4.4780400127
 Fe        10.2252301409        2.9379276252        4.4845314542
 Fe        -0.0327359873       11.8181132706        4.4890339437
 Fe         2.5147362665        7.3805129064        4.4905962687
 Fe         5.0942014253        2.9365252196        4.4895982970
 Fe        -5.1592938508       11.8195117621        4.4894198949
 Fe        -2.5944550237        7.3780609280        4.4872750276
 Fe        -0.0368187836        2.9367715802        4.4893408165
 Fe         7.6594924428       13.2992849821        4.8178745524
 Fe        10.2282667302        8.8615175722        4.8247838599
 Fe        12.7839466288        4.4202020908        4.8209325990
 Fe         2.5332404552       13.3003849110        4.8174192381
 Fe         5.0955689366        8.8852496586        4.8048162735
 Fe         7.6577018650        4.4161821965        4.7986256861
 Fe        -2.5916032390       13.3022875624        4.8247846192
 Fe        -0.0334513036        8.8608829347        4.8173648368
 Fe         2.5237247827        4.4093297884        4.8101702156
  O         5.8676955687       10.3979071580        5.7318158716
  O         8.4259544677        5.9511589963        5.6994046749
  O        10.9951543794        1.5075975815        5.7259388798
  O         0.7399516417       10.3865661732        5.7293356343
  O         3.2748155291        5.9385389356        5.7196832356
  O         5.8680412737        1.5170809805        5.7407612940
  O        -4.3870384437       10.3919005364        5.7309841145
  O        -1.8230225256        5.9474132603        5.7283180239
  O         0.7395729363        1.5065279855        5.7299819923
  O         5.9499700281       13.2064615219        5.7293820880
  O         8.5169711434        8.7697731899        5.7280618005
  O        11.0685010806        4.3360731799        5.7246383923
  O         0.8236618340       13.1991495333        5.7281869525
  O         3.3876369326        8.7637184601        5.7202912103
  O         5.9188323252        4.3703092315        5.6913458505
  O        -4.3042364164       13.2068854303        5.7315247309
  O        -1.7416444388        8.7635647452        5.7293348281
  O         0.8202577548        4.3207976758        5.7294348312
  O         3.4677926563       11.8653111082        5.7324234711
  O         6.0711457128        7.4855315694        5.7018620320
  O         8.5829715531        2.9655241304        5.6668779408
  O        -1.6583346497       11.8672923267        5.7358589553
  O         0.8979285022        7.4282676088        5.7347955577
  O         3.4731650952        2.9927367957        5.7510633843
  O        -6.7861300683       11.8675285772        5.7338361226
  O        -4.2163679698        7.4254772157        5.7226621794
  O        -1.6602808455        2.9860037990        5.7308042868
 Fe         7.6587899995       10.3405166668        5.9900669592
 Fe        10.2187425696        5.9125501772        5.9936049788
 Fe        12.7849384956        1.4594854841        5.9936248179
 Fe         2.5310722873       10.3375515882        5.9916861933
 Fe         5.0778784825        5.9878951113        5.8226170211
 Fe         7.6631272652        1.4509957289        5.9929581434
 Fe        -2.5960339523       10.3386735367        5.9896159709
 Fe        -0.0330669073        5.8974199757        5.9911903373
 Fe         2.5302461127        1.4600491984        5.9876281334
  C         7.0253444355        4.4317723680        8.5254745102
  C         6.5673653418        5.8926697590        8.4803623739
  H         6.5248401412        3.9015717734        7.6935490786
  O         8.4467244106        4.3274168173        8.3397522089
  H         6.7830734920        3.9654364917        9.4897769792
  C         6.8774108867        6.7464125904        9.7142397323
  C         8.3641782039        7.1991325424        9.9158508029
  O         6.3903289809        6.0810742071       10.9081870393
  H         6.2817839723        7.6636447077        9.5639018206
  C         9.0339642938        6.7492251167       11.2397205994
  H         8.3384100299        8.2996718587        9.9629954789
  O         9.2410140041        6.8672758802        8.7958285941
  C         9.3193351250        5.2425220278       11.3574677716
  O         8.3332275779        7.2402022398       12.3823973913
  H        10.0175243198        7.2527113642       11.2511019247
  H         8.3805413887        4.6691683113       11.3322760557
  O        10.2285570084        4.7850738345       10.3359157260
  H         9.7947999428        5.0711712982       12.3362673998
  H         8.7291721977        5.2485546958        8.1066146401
  H         5.4405986343        5.9273140700       10.7385107174
  H         9.9888402029        6.3753167982        9.2124267774
  H         7.4245794995        6.8802608310       12.2949099168
  H         9.6660460486        4.3318255749        9.6557623805
  O         5.0935039082        5.9175622158        8.4068892933
  H         7.0057100916        6.3973036928        7.5978840974
  H         4.7162467425        5.1104555907        7.9278040198
     161
 i =        4, E =     -8104.5054641052
 Fe         5.0938794100       11.8196869300        0.3885799900
 Fe         7.6575796300        7.3792284900        0.3885799900
 Fe        10.2212798400        2.9387700600        0.3885799900
 Fe        -0.0335205200       11.8196869300        0.3885799900
 Fe         2.5301797000        7.3792284900        0.3885799900
 Fe         5.0938799200        2.9387700600        0.3885799900
 Fe        -5.1609204400       11.8196869300        0.3885799900
 Fe        -2.5972202200        7.3792284900        0.3885799900
 Fe        -0.0335200000        2.9387700600        0.3885799900
  O         8.4519195100        8.9577468800        1.1642700400
  O        11.0156197300        4.5172884400        1.1642700400
  O        13.5793199500        0.0768300000        1.1642700400
  O         3.3245195900        8.9577468800        1.1642700400
  O         5.8882198100        4.5172884400        1.1642700400
  O         8.4519200300        0.0768300000        1.1642700400
  O        -1.8028803300        8.9577468800        1.1642700400
  O         0.7608198900        4.5172884400        1.1642700400
  O         3.3245201100        0.0768300000        1.1642700400
  O         8.4568493000       11.7183869300        1.1650400200
  O        11.0205495200        7.2779284900        1.1650400200
  O        13.5842497300        2.8374700500        1.1650400200
  O         3.3294493700       11.7183869300        1.1650400200
  O         5.8931495900        7.2779284900        1.1650400200
  O         8.4568498100        2.8374700500        1.1650400200
  O        -1.7979505500       11.7183869300        1.1650400200
  O         0.7657496700        7.2779284900        1.1650400200
  O         3.3294498900        2.8374700500        1.1650400200
  O         6.0627194200       10.3425368500        1.1660399400
  O         8.6264196400        5.9020784100        1.1660399400
  O        11.1901198600        1.4616199700        1.1660399400
  O         0.9353195000       10.3425368500        1.1660399400
  O         3.4990197200        5.9020784100        1.1660399400
  O         6.0627199400        1.4616199700        1.1660399400
  O        -4.1920804200       10.3425368500        1.1660399400
  O        -1.6283802000        5.9020784100        1.1660399400
  O         0.9353200200        1.4616199700        1.1660399400
 Fe         7.6576695000       13.2997167500        1.9292099500
 Fe        10.2213697200        8.8592583200        1.9292099500
 Fe        12.7850699400        4.4187998800        1.9292099500
 Fe         2.5302695800       13.2997167500        1.9292099500
 Fe         5.0939698000        8.8592583200        1.9292099500
 Fe         7.6576700200        4.4187998800        1.9292099500
 Fe        -2.5971303400       13.2997167500        1.9292099500
 Fe        -0.0334301200        8.8592583200        1.9292099500
 Fe         2.5302701000        4.4187998800        1.9292099500
 Fe         7.6573893600       10.3392168700        2.7128999200
 Fe        10.2210895800        5.8987584300        2.7128999200
 Fe        12.7847898000        1.4582999900        2.7128999200
 Fe         2.5299894400       10.3392168700        2.7128999200
 Fe         5.0936896600        5.8987584300        2.7128999200
 Fe         7.6573898800        1.4582999900        2.7128999200
 Fe        -2.5974104800       10.3392168700        2.7128999200
 Fe        -0.0337102600        5.8987584300        2.7128999200
 Fe         2.5299899600        1.4582999900        2.7128999200
  O         4.1373957184       13.3051231247        3.5030510061
  O         6.6924159611        8.8676259759        3.4796740574
  O         9.2594266936        4.4250071814        3.4938167527
  O        -0.9963683739       13.3068999650        3.5052928064
  O         1.5685547787        8.8632003331        3.4984086372
  O         4.1313711590        4.4259253253        3.5006943361
  O        -6.1195916952       13.3038074036        3.5010792264
  O        -3.5550077929        8.8656879017        3.5015293447
  O        -0.9936534346        4.4224487180        3.5014247811
  O         6.8620162277       11.9103501834        3.5023694113
  O         9.4279927564        7.4775030442        3.4968090974
  O        11.9885807137        3.0304392884        3.5023811288
  O         1.7339997571       11.9057032141        3.5055433891
  O         4.3011380844        7.4490087571        3.5327291178
  O         6.8492750846        3.0298081492        3.4923671132
  O        -3.3902438833       11.9160404566        3.5015637670
  O        -0.8280038917        7.4700439913        3.5012161661
  O         1.7355288038        3.0246893422        3.5077969118
  O         9.4170688648       10.2455270631        3.5036194102
  O        11.9826499493        5.8043843986        3.4980944979
  O        14.5453436099        1.3628802960        3.5002031425
  O         4.2928034403       10.2490157874        3.4952250253
  O         6.8429154440        5.8223754364        3.5074811248
  O         9.4215267754        1.3590368428        3.4929982583
  O        -0.8385957415       10.2468509998        3.5022302315
  O         1.7230815382        5.8009758852        3.4966679975
  O         4.2900413627        1.3694162900        3.5081773129
 Fe         5.0954425215       11.8286695797        4.4876755837
 Fe         7.6714430298        7.4010617384        4.4803925911
 Fe        10.2231755314        2.9381297214        4.4840513367
 Fe        -0.0321745053       11.8183453351        4.4877504408
 Fe         2.5107296064        7.3807071600        4.4881432364
 Fe         5.0923830162        2.9427662807        4.4891935636
 Fe        -5.1577878274       11.8204650051        4.4868399237
 Fe        -2.5933825673        7.3782849414        4.4850189148
 Fe        -0.0390183905        2.9366242743        4.4881079362
 Fe         7.6607271335       13.2994776819        4.8148409150
 Fe        10.2322431469        8.8657390082        4.8236239046
 Fe        12.7828564960        4.4214536954        4.8194190493
 Fe         2.5337007823       13.2999623561        4.8141810604
 Fe         5.0975948886        8.8875671847        4.8025002414
 Fe         7.6535181114        4.4217638145        4.7951718726
 Fe        -2.5908022939       13.3044571545        4.8261651066
 Fe        -0.0353162800        8.8620202231        4.8145171003
 Fe         2.5238445817        4.4097501572        4.8090434930
  O         5.8688463700       10.4023855838        5.7276795845
  O         8.4252695032        5.9527761042        5.7047080881
  O        10.9928224800        1.5084647520        5.7249579502
  O         0.7394253809       10.3863573167        5.7282297686
  O         3.2679193343        5.9420922979        5.7166148100
  O         5.8667246513        1.5237582949        5.7428019079
  O        -4.3857362869       10.3956531449        5.7322538118
  O        -1.8236562831        5.9480699842        5.7277956644
  O         0.7391911824        1.5069304680        5.7289178350
  O         5.9509107075       13.2087715001        5.7287138822
  O         8.5213720562        8.7729161661        5.7268056782
  O        11.0659304597        4.3362364961        5.7234463630
  O         0.8246598691       13.1987377228        5.7281271218
  O         3.3870437450        8.7646173175        5.7178918552
  O         5.9129379688        4.3797928299        5.6877666675
  O        -4.3041892013       13.2067223768        5.7314869118
  O        -1.7426487186        8.7637335779        5.7287518947
  O         0.8181539977        4.3199452390        5.7270821724
  O         3.4688347470       11.8660994811        5.7313452522
  O         6.0754995568        7.4890054472        5.7055319483
  O         8.5786367089        2.9682770220        5.6644160951
  O        -1.6564119716       11.8689858511        5.7367133543
  O         0.8962311440        7.4293048720        5.7324607548
  O         3.4733254601        2.9937693045        5.7547796271
  O        -6.7842314014       11.8692117240        5.7337800773
  O        -4.2146185377        7.4270875851        5.7201956811
  O        -1.6618127972        2.9870557765        5.7309331904
 Fe         7.6600274111       10.3423890000        5.9853115522
 Fe        10.2195288309        5.9148236436        5.9865450440
 Fe        12.7831193542        1.4603835989        5.9879136337
 Fe         2.5309343112       10.3384241330        5.9858151072
 Fe         5.0688588074        5.9991669251        5.8293849956
 Fe         7.6625495621        1.4504540616        5.9875824521
 Fe        -2.5945106299       10.3400550941        5.9856800512
 Fe        -0.0332868084        5.8971610679        5.9870353021
 Fe         2.5307128326        1.4607683615        5.9812035891
  C         7.0350752984        4.4090846023        8.5358335041
  C         6.5725732026        5.8619404128        8.4959624574
  H         6.5236680692        3.8954070019        7.7034174343
  O         8.4601050938        4.3208917427        8.3686498009
  H         6.7503829743        3.9687954628        9.5032061443
  C         6.8722891014        6.7496470136        9.7060706863
  C         8.3629595659        7.1979928974        9.9167272195
  O         6.3912671607        6.0863460949       10.9041113882
  H         6.2812226287        7.6699327206        9.5657675212
  C         9.0359829035        6.7481583236       11.2389771766
  H         8.3384910567        8.2989118877        9.9583600200
  O         9.2511687369        6.8685854945        8.8034434266
  C         9.3213200807        5.2410006829       11.3611908886
  O         8.3321667643        7.2395334419       12.3793035070
  H        10.0174189002        7.2564321315       11.2535770093
  H         8.3801916315        4.6714173888       11.3296653013
  O        10.2294189476        4.7884366171       10.3372338966
  H         9.7940858159        5.0734976464       12.3410694812
  H         8.7277025406        5.2385176607        8.1126900894
  H         5.4408005753        5.9303111341       10.7410139631
  H         9.9916636290        6.3638094552        9.2208615500
  H         7.4226728256        6.8810847269       12.2916040135
  H         9.6598214288        4.3401385321        9.6581691702
  O         5.0962554597        5.8971542382        8.3941361091
  H         6.9956922066        6.3718200474        7.6084860883
  H         4.7554525061        5.0875302170        7.9551917430
     161
 i =        5, E =     -8104.5054565644
 Fe         5.0938794100       11.8196869300        0.3885799900
 Fe         7.6575796300        7.3792284900        0.3885799900
 Fe        10.2212798400        2.9387700600        0.3885799900
 Fe        -0.0335205200       11.8196869300        0.3885799900
 Fe         2.5301797000        7.3792284900        0.3885799900
 Fe         5.0938799200        2.9387700600        0.3885799900
 Fe        -5.1609204400       11.8196869300        0.3885799900
 Fe        -2.5972202200        7.3792284900        0.3885799900
 Fe        -0.0335200000        2.9387700600        0.3885799900
  O         8.4519195100        8.9577468800        1.1642700400
  O        11.0156197300        4.5172884400        1.1642700400
  O        13.5793199500        0.0768300000        1.1642700400
  O         3.3245195900        8.9577468800        1.1642700400
  O         5.8882198100        4.5172884400        1.1642700400
  O         8.4519200300        0.0768300000        1.1642700400
  O        -1.8028803300        8.9577468800        1.1642700400
  O         0.7608198900        4.5172884400        1.1642700400
  O         3.3245201100        0.0768300000        1.1642700400
  O         8.4568493000       11.7183869300        1.1650400200
  O        11.0205495200        7.2779284900        1.1650400200
  O        13.5842497300        2.8374700500        1.1650400200
  O         3.3294493700       11.7183869300        1.1650400200
  O         5.8931495900        7.2779284900        1.1650400200
  O         8.4568498100        2.8374700500        1.1650400200
  O        -1.7979505500       11.7183869300        1.1650400200
  O         0.7657496700        7.2779284900        1.1650400200
  O         3.3294498900        2.8374700500        1.1650400200
  O         6.0627194200       10.3425368500        1.1660399400
  O         8.6264196400        5.9020784100        1.1660399400
  O        11.1901198600        1.4616199700        1.1660399400
  O         0.9353195000       10.3425368500        1.1660399400
  O         3.4990197200        5.9020784100        1.1660399400
  O         6.0627199400        1.4616199700        1.1660399400
  O        -4.1920804200       10.3425368500        1.1660399400
  O        -1.6283802000        5.9020784100        1.1660399400
  O         0.9353200200        1.4616199700        1.1660399400
 Fe         7.6576695000       13.2997167500        1.9292099500
 Fe        10.2213697200        8.8592583200        1.9292099500
 Fe        12.7850699400        4.4187998800        1.9292099500
 Fe         2.5302695800       13.2997167500        1.9292099500
 Fe         5.0939698000        8.8592583200        1.9292099500
 Fe         7.6576700200        4.4187998800        1.9292099500
 Fe        -2.5971303400       13.2997167500        1.9292099500
 Fe        -0.0334301200        8.8592583200        1.9292099500
 Fe         2.5302701000        4.4187998800        1.9292099500
 Fe         7.6573893600       10.3392168700        2.7128999200
 Fe        10.2210895800        5.8987584300        2.7128999200
 Fe        12.7847898000        1.4582999900        2.7128999200
 Fe         2.5299894400       10.3392168700        2.7128999200
 Fe         5.0936896600        5.8987584300        2.7128999200
 Fe         7.6573898800        1.4582999900        2.7128999200
 Fe        -2.5974104800       10.3392168700        2.7128999200
 Fe        -0.0337102600        5.8987584300        2.7128999200
 Fe         2.5299899600        1.4582999900        2.7128999200
  O         4.1373957184       13.3051231247        3.5030510061
  O         6.6924159611        8.8676259759        3.4796740574
  O         9.2594266936        4.4250071814        3.4938167527
  O        -0.9963683739       13.3068999650        3.5052928064
  O         1.5685547787        8.8632003331        3.4984086372
  O         4.1313711590        4.4259253253        3.5006943361
  O        -6.1195916952       13.3038074036        3.5010792264
  O        -3.5550077929        8.8656879017        3.5015293447
  O        -0.9936534346        4.4224487180        3.5014247811
  O         6.8620162277       11.9103501834        3.5023694113
  O         9.4279927564        7.4775030442        3.4968090974
  O        11.9885807137        3.0304392884        3.5023811288
  O         1.7339997571       11.9057032141        3.5055433891
  O         4.3011380844        7.4490087571        3.5327291178
  O         6.8492750846        3.0298081492        3.4923671132
  O        -3.3902438833       11.9160404566        3.5015637670
  O        -0.8280038917        7.4700439913        3.5012161661
  O         1.7355288038        3.0246893422        3.5077969118
  O         9.4170688648       10.2455270631        3.5036194102
  O        11.9826499493        5.8043843986        3.4980944979
  O        14.5453436099        1.3628802960        3.5002031425
  O         4.2928034403       10.2490157874        3.4952250253
  O         6.8429154440        5.8223754364        3.5074811248
  O         9.4215267754        1.3590368428        3.4929982583
  O        -0.8385957415       10.2468509998        3.5022302315
  O         1.7230815382        5.8009758852        3.4966679975
  O         4.2900413627        1.3694162900        3.5081773129
 Fe         5.0954425215       11.8286695797        4.4876755837
 Fe         7.6714430298        7.4010617384        4.4803925911
 Fe        10.2231755314        2.9381297214        4.4840513367
 Fe        -0.0321745053       11.8183453351        4.4877504408
 Fe         2.5107296064        7.3807071600        4.4881432364
 Fe         5.0923830162        2.9427662807        4.4891935636
 Fe        -5.1577878274       11.8204650051        4.4868399237
 Fe        -2.5933825673        7.3782849414        4.4850189148
 Fe        -0.0390183905        2.9366242743        4.4881079362
 Fe         7.6607271335       13.2994776819        4.8148409150
 Fe        10.2322431469        8.8657390082        4.8236239046
 Fe        12.7828564960        4.4214536954        4.8194190493
 Fe         2.5337007823       13.2999623561        4.8141810604
 Fe         5.0975948886        8.8875671847        4.8025002414
 Fe         7.6535181114        4.4217638145        4.7951718726
 Fe        -2.5908022939       13.3044571545        4.8261651066
 Fe        -0.0353162800        8.8620202231        4.8145171003
 Fe         2.5238445817        4.4097501572        4.8090434930
  O         5.8688463700       10.4023855838        5.7276795845
  O         8.4252695032        5.9527761042        5.7047080881
  O        10.9928224800        1.5084647520        5.7249579502
  O         0.7394253809       10.3863573167        5.7282297686
  O         3.2679193343        5.9420922979        5.7166148100
  O         5.8667246513        1.5237582949        5.7428019079
  O        -4.3857362869       10.3956531449        5.7322538118
  O        -1.8236562831        5.9480699842        5.7277956644
  O         0.7391911824        1.5069304680        5.7289178350
  O         5.9509107075       13.2087715001        5.7287138822
  O         8.5213720562        8.7729161661        5.7268056782
  O        11.0659304597        4.3362364961        5.7234463630
  O         0.8246598691       13.1987377228        5.7281271218
  O         3.3870437450        8.7646173175        5.7178918552
  O         5.9129379688        4.3797928299        5.6877666675
  O        -4.3041892013       13.2067223768        5.7314869118
  O        -1.7426487186        8.7637335779        5.7287518947
  O         0.8181539977        4.3199452390        5.7270821724
  O         3.4688347470       11.8660994811        5.7313452522
  O         6.0754995568        7.4890054472        5.7055319483
  O         8.5786367089        2.9682770220        5.6644160951
  O        -1.6564119716       11.8689858511        5.7367133543
  O         0.8962311440        7.4293048720        5.7324607548
  O         3.4733254601        2.9937693045        5.7547796271
  O        -6.7842314014       11.8692117240        5.7337800773
  O        -4.2146185377        7.4270875851        5.7201956811
  O        -1.6618127972        2.9870557765        5.7309331904
 Fe         7.6600274111       10.3423890000        5.9853115522
 Fe        10.2195288309        5.9148236436        5.9865450440
 Fe        12.7831193542        1.4603835989        5.9879136337
 Fe         2.5309343112       10.3384241330        5.9858151072
 Fe         5.0688588074        5.9991669251        5.8293849956
 Fe         7.6625495621        1.4504540616        5.9875824521
 Fe        -2.5945106299       10.3400550941        5.9856800512
 Fe        -0.0332868084        5.8971610679        5.9870353021
 Fe         2.5307128326        1.4607683615        5.9812035891
  C         7.0350752984        4.4090846023        8.5358335041
  C         6.5725732026        5.8619404128        8.4959624574
  H         6.5236680692        3.8954070019        7.7034174343
  O         8.4601050938        4.3208917427        8.3686498009
  H         6.7503829743        3.9687954628        9.5032061443
  C         6.8722891014        6.7496470136        9.7060706863
  C         8.3629595659        7.1979928974        9.9167272195
  O         6.3912671607        6.0863460949       10.9041113882
  H         6.2812226287        7.6699327206        9.5657675212
  C         9.0359829035        6.7481583236       11.2389771766
  H         8.3384910567        8.2989118877        9.9583600200
  O         9.2511687369        6.8685854945        8.8034434266
  C         9.3213200807        5.2410006829       11.3611908886
  O         8.3321667643        7.2395334419       12.3793035070
  H        10.0174189002        7.2564321315       11.2535770093
  H         8.3801916315        4.6714173888       11.3296653013
  O        10.2294189476        4.7884366171       10.3372338966
  H         9.7940858159        5.0734976464       12.3410694812
  H         8.7277025406        5.2385176607        8.1126900894
  H         5.4408005753        5.9303111341       10.7410139631
  H         9.9916636290        6.3638094552        9.2208615500
  H         7.4226728256        6.8810847269       12.2916040135
  H         9.6598214288        4.3401385321        9.6581691702
  O         5.0962554597        5.8971542382        8.3941361091
  H         6.9956922066        6.3718200474        7.6084860883
  H         4.7554525061        5.0875302170        7.9551917430
