      40
 i =        1, E =     -1284.5253055914
 Au        14.2904583387       15.2807677076       16.4839215840
 Au        17.5053797747       11.4689636664       14.3437071099
 Au        14.5289756017       12.1090957372       17.3001646168
 Au        18.1178165093       15.4549215378       17.1887468851
 Au        12.1322372564       13.5106681613       17.3378547773
 Au        11.3642364322       14.7371966346       14.9714342493
 Au        13.0843299299       18.0263399797       13.4533528070
 Au        15.4558153729       18.8744075426       14.6059623216
 Au        14.7827031015       15.6749118807       13.7649479033
 Au        14.0758563953       14.0660645018       19.2327373366
 Au        15.0835193119       12.2911800869       13.0281278591
 Au        12.7811002138       13.9840976930       12.6130923875
 Au        15.1933868991       14.2868730361       11.1516385121
 Au        16.2957633286       13.8796865604       15.2578651990
 Au        12.9289998919       12.3843341596       14.8677940142
 Au        14.9819822600       10.4674082781       15.1511658655
 Au        17.2646627276       16.5204895624       14.6883457297
 Au        19.3125153937       14.5700180887       14.6413322452
 Au        16.0386355198       17.4929979638       17.0892478420
 Au        18.8547206515       16.1270799890       12.4070037734
 Au        13.3658725556       18.1318142891       16.3044269902
 Au        16.8772338405       10.5900594651       17.3247542962
 Au        11.0451963863       16.2503699854       12.6323835102
 Au        15.4344373708       17.8621577770       11.9412843009
 Au        11.5205748493       16.2346327458       17.3953716609
 Au        10.8750577840       17.5922102582       15.0740982440
 Au        16.7640893212       13.2614790187       18.4528831599
 Au        15.5213728525       16.5322939677        9.4113839958
 Au        18.7053733133       12.7064658344       16.5448410936
 Au        16.5321422698       15.9016199482       19.3657812971
 Au        17.7137955223       14.9863387160       10.1451784712
 Au        14.5234382924       15.8323908165       21.2767898273
 Au        13.8394347041       16.9933794660       18.8382579758
 Au        13.2290410048       16.3428764064       10.9851219530
 Au        17.6333219365       13.5534326562       12.5093264535
 Au        17.8084440063       17.8582954872       10.3844145947
 Au        17.9244868469       18.7606988035       12.9940565299
 Au        18.0068473270       19.0109622626       15.7928778894
  C        17.6740074640        8.8837976991       18.0647601578
  O        17.7984303370        7.9718895393       18.7550561295
      40
 i =        2, E =     -1284.5253081874
 Au        14.2904583387       15.2807677076       16.4839215840
 Au        17.5053797747       11.4689636664       14.3437071099
 Au        14.5289756017       12.1090957372       17.3001646168
 Au        18.1178165093       15.4549215378       17.1887468851
 Au        12.1322372564       13.5106681613       17.3378547773
 Au        11.3642364322       14.7371966346       14.9714342493
 Au        13.0843299299       18.0263399797       13.4533528070
 Au        15.4558153729       18.8744075426       14.6059623216
 Au        14.7827031015       15.6749118807       13.7649479033
 Au        14.0758563953       14.0660645018       19.2327373366
 Au        15.0835193119       12.2911800869       13.0281278591
 Au        12.7811002138       13.9840976930       12.6130923875
 Au        15.1933868991       14.2868730361       11.1516385121
 Au        16.2957633286       13.8796865604       15.2578651990
 Au        12.9289998919       12.3843341596       14.8677940142
 Au        14.9819822600       10.4674082781       15.1511658655
 Au        17.2646627276       16.5204895624       14.6883457297
 Au        19.3125153937       14.5700180887       14.6413322452
 Au        16.0386355198       17.4929979638       17.0892478420
 Au        18.8547206515       16.1270799890       12.4070037734
 Au        13.3658725556       18.1318142891       16.3044269902
 Au        16.8772338405       10.5900594651       17.3247542962
 Au        11.0451963863       16.2503699854       12.6323835102
 Au        15.4344373708       17.8621577770       11.9412843009
 Au        11.5205748493       16.2346327458       17.3953716609
 Au        10.8750577840       17.5922102582       15.0740982440
 Au        16.7640893212       13.2614790187       18.4528831599
 Au        15.5213728525       16.5322939677        9.4113839958
 Au        18.7053733133       12.7064658344       16.5448410936
 Au        16.5321422698       15.9016199482       19.3657812971
 Au        17.7137955223       14.9863387160       10.1451784712
 Au        14.5234382924       15.8323908165       21.2767898273
 Au        13.8394347041       16.9933794660       18.8382579758
 Au        13.2290410048       16.3428764064       10.9851219530
 Au        17.6333219365       13.5534326562       12.5093264535
 Au        17.8084440063       17.8582954872       10.3844145947
 Au        17.9244868469       18.7606988035       12.9940565299
 Au        18.0068473270       19.0109622626       15.7928778894
  C        17.6740074640        8.8837976991       18.0647601578
  O        17.7984303370        7.9718895393       18.7550561295
