      40
 i =        1, E =     -1284.4930082593
 Au        15.0731701107       14.8567742366       16.4463788160
 Au        17.2680698709       11.3860178302       14.3524153045
 Au        14.4322744241       12.0764909284       17.3839831229
 Au        18.0338331904       15.3087617179       17.1376173732
 Au        12.4411173184       14.0115901823       17.3163478980
 Au        11.2577807520       14.8449731011       15.0046022598
 Au        12.9623007752       18.0770316686       13.3638493175
 Au        15.3197568718       18.8363081603       14.5351388199
 Au        14.8733515080       15.9784813709       13.9197174068
 Au        14.2451087219       13.8688547159       19.4132924283
 Au        14.9024754137       12.3243387225       13.1679219638
 Au        12.8150797108       14.1306873491       12.7707367276
 Au        15.1831506639       14.2917218624       11.2926294507
 Au        16.8291102632       14.2082949759       14.4332386683
 Au        12.8458846604       12.5265016715       15.0239548586
 Au        14.7165175937       10.4589462495       15.2110087870
 Au        17.6751482043       16.8708811459       14.9072282545
 Au        19.6101557754       14.7407094142       14.7872369956
 Au        15.9837875110       17.5597064754       17.0393136720
 Au        18.9846740121       16.2200941540       12.5696841200
 Au        13.2947974349       17.9296438363       16.1880659091
 Au        16.8593670900       10.6901093553       17.0535631321
 Au        10.9627276743       16.2704723874       12.5794596562
 Au        15.2953275777       18.0916515916       11.8296017987
 Au        11.2158989979       16.4430879714       17.3867960463
 Au        10.7302878858       17.6705293530       14.9745060169
 Au        16.8660672766       13.1222806830       18.4374308268
 Au        15.5442046393       16.4428749821        9.5366880839
 Au        18.7223709911       12.6787567101       16.3424853921
 Au        16.4384208479       15.8389969948       19.2454405461
 Au        17.7696283353       14.9554307293       10.4441982099
 Au        14.4684972701       15.8954648902       21.2031747708
 Au        13.7469296465       16.6435841025       18.5682874846
 Au        13.2330703226       16.3328698186       11.0478332271
 Au        17.5254504157       12.8333816547       12.0605788649
 Au        17.8004821674       17.7734174200       10.5043846855
 Au        17.7527997847       18.8749889664       13.0001396302
 Au        17.6507129367       19.5410613411       15.7935381702
  C        11.2632598706       12.6568534156       11.6306478483
  O        10.5397601654       11.9531025586       11.0993636643
      40
 i =        2, E =     -1284.4900709024
 Au        15.0731701107       14.8567742366       16.4463788160
 Au        17.2680698709       11.3860178302       14.3524153045
 Au        14.4322744241       12.0764909284       17.3839831229
 Au        18.0338331904       15.3087617179       17.1376173732
 Au        12.4411173184       14.0115901823       17.3163478980
 Au        11.2577807520       14.8449731011       15.0046022598
 Au        12.9623007752       18.0770316686       13.3638493175
 Au        15.3197568718       18.8363081603       14.5351388199
 Au        14.8733515080       15.9784813709       13.9197174068
 Au        14.2451087219       13.8688547159       19.4132924283
 Au        14.9024754137       12.3243387225       13.1679219638
 Au        12.8150797108       14.1306873491       12.7707367276
 Au        15.1831506639       14.2917218624       11.2926294507
 Au        16.8291102632       14.2082949759       14.4332386683
 Au        12.8458846604       12.5265016715       15.0239548586
 Au        14.7165175937       10.4589462495       15.2110087870
 Au        17.6751482043       16.8708811459       14.9072282545
 Au        19.6101557754       14.7407094142       14.7872369956
 Au        15.9837875110       17.5597064754       17.0393136720
 Au        18.9846740121       16.2200941540       12.5696841200
 Au        13.2947974349       17.9296438363       16.1880659091
 Au        16.8593670900       10.6901093553       17.0535631321
 Au        10.9627276743       16.2704723874       12.5794596562
 Au        15.2953275777       18.0916515916       11.8296017987
 Au        11.2158989979       16.4430879714       17.3867960463
 Au        10.7302878858       17.6705293530       14.9745060169
 Au        16.8660672766       13.1222806830       18.4374308268
 Au        15.5442046393       16.4428749821        9.5366880839
 Au        18.7223709911       12.6787567101       16.3424853921
 Au        16.4384208479       15.8389969948       19.2454405461
 Au        17.7696283353       14.9554307293       10.4441982099
 Au        14.4684972701       15.8954648902       21.2031747708
 Au        13.7469296465       16.6435841025       18.5682874846
 Au        13.2330703226       16.3328698186       11.0478332271
 Au        17.5254504157       12.8333816547       12.0605788649
 Au        17.8004821674       17.7734174200       10.5043846855
 Au        17.7527997847       18.8749889664       13.0001396302
 Au        17.6507129367       19.5410613411       15.7935381702
  C        11.2632598706       12.6568534156       11.6306478483
  O        10.5397601654       11.9531025586       11.0993636643
