 DBCSR| Multiplication driver                                               XSMM
 DBCSR| Multrec recursion limit                                              512
 DBCSR| Multiplication stack size                                           1000
 DBCSR| Maximum elements for images                                    UNLIMITED
 DBCSR| Multiplicative factor virtual images                                   1
 DBCSR| Multiplication size stacks                                             3
 DBCSR| Number of 3D layers                                               SINGLE
 DBCSR| Use MPI memory allocation                                              T
 DBCSR| Use RMA algorithm                                                      F
 DBCSR| Use Communication thread                                               T
 DBCSR| Communication thread load                                             87


  **** **** ******  **  PROGRAM STARTED AT               2020-10-07 12:23:57.158
 ***** ** ***  *** **   PROGRAM STARTED ON                             irene6280
 **    ****   ******    PROGRAM STARTED BY                              marticar
 ***** **    ** ** **   PROGRAM PROCESS ID                                 60127
  **** **  *******  **  PROGRAM STARTED IN /ccc/scratch/cont003/gen0609/marticar
                                           /684141

 CP2K| version string:                                          CP2K version 6.1
 CP2K| source code revision number:                                    svn:18464
 CP2K| cp2kflags: libint fftw3 parallel mpi3 scalapack xsmm mkl                 
 CP2K| is freely available from                            https://www.cp2k.org/
 CP2K| Program compiled at                          Thu Dec 12 15:40:57 CET 2019
 CP2K| Program compiled on                                             cobalt175
 CP2K| Program compiled for                                   Linux-x86-64-iomkl
 CP2K| Data directory path          /tmp/cp2k/6.1/iomkl-195281.401/cp2k-6.1/data
 CP2K| Input file name                                             screening.inp
 
 GLOBAL| Force Environment number                                              1
 GLOBAL| Basis set file name            /ccc/work/cont003/gen0609/marticar/data/
 GLOBAL| Potential file name            /ccc/work/cont003/gen0609/marticar/data/
 GLOBAL| MM Potential file name                                     MM_POTENTIAL
 GLOBAL| Coordinate file name                                          coord.xyz
 GLOBAL| Method name                                                        CP2K
 GLOBAL| Project name                                                    PROJECT
 GLOBAL| Preferred FFT library                                             FFTW3
 GLOBAL| Preferred diagonalization lib.                                       SL
 GLOBAL| Run type                                                        GEO_OPT
 GLOBAL| All-to-all communication in single precision                          F
 GLOBAL| FFTs using library dependent lengths                                  F
 GLOBAL| Global print level                                                  LOW
 GLOBAL| Total number of message passing processes                            16
 GLOBAL| Number of threads for this process                                    1
 GLOBAL| This output is from process                                           0
 GLOBAL| CPU model name :  AMD EPYC 7H12 64-Core Processor

 MEMORY| system memory details [Kb]
 MEMORY|                        rank 0           min           max       average
 MEMORY| MemTotal            263246936     263246936     263246936     263246936
 MEMORY| MemFree             248171680     248171680     248404868     248390293
 MEMORY| Buffers                     0             0             0             0
 MEMORY| Cached                1690032       1690032       1690032       1690032
 MEMORY| Slab                  1965180       1965180       1965180       1965180
 MEMORY| SReclaimable           297424        297424        297424        297424
 MEMORY| MemLikelyFree       250159136     250159136     250392324     250377749

 
 GENERATE|  Preliminary Number of Bonds generated:                             0
 GENERATE|  Achieved consistency in connectivity generation.

 *******************************************************************************
 *******************************************************************************
 **                                                                           **
 **     #####                         ##              ##                      **
 **    ##   ##            ##          ##              ##                      **
 **   ##     ##                       ##            ######                    **
 **   ##     ##  ##   ##  ##   #####  ##  ##   ####   ##    #####    #####    **
 **   ##     ##  ##   ##  ##  ##      ## ##   ##      ##   ##   ##  ##   ##   **
 **   ##  ## ##  ##   ##  ##  ##      ####     ###    ##   ######   ######    **
 **    ##  ###   ##   ##  ##  ##      ## ##      ##   ##   ##       ##        **
 **     #######   #####   ##   #####  ##  ##  ####    ##    #####   ##        **
 **           ##                                                    ##        **
 **                                                                           **
 **                                                ... make the atoms dance   **
 **                                                                           **
 **            Copyright (C) by CP2K developers group (2000 - 2018)           **
 **                                                                           **
 *******************************************************************************


 TOTAL NUMBERS AND MAXIMUM NUMBERS

  Total number of            - Atomic kinds:                                   7
                             - Atoms:                                        168
                             - Shell sets:                                   168
                             - Shells:                                       960
                             - Primitive Cartesian functions:               1122
                             - Cartesian basis functions:                   3081
                             - Spherical basis functions:                   2718

  Maximum angular momentum of- Orbital basis functions:                        3
                             - Local part of the GTH pseudopotential:          2
                             - Non-local part of the GTH pseudopotential:      3


 SCF PARAMETERS         Density guess:                                   RESTART
                        --------------------------------------------------------
                        max_scf:                                             500
                        max_scf_history:                                       0
                        max_diis:                                              4
                        --------------------------------------------------------
                        eps_scf:                                        1.00E-05
                        eps_scf_history:                                0.00E+00
                        eps_diis:                                       1.00E-01
                        eps_eigval:                                     1.00E-05
                        --------------------------------------------------------
                        level_shift [a.u.]:                                 0.00
                        --------------------------------------------------------
                        Outer loop SCF in use 
                        No variables optimised in outer loop
                        eps_scf                                         1.00E-05
                        max_scf                                               10
                        No outer loop optimization
                        step_size                                       5.00E-01

 BFGS| Use rational function optimization for step estimation:                NO
 BFGS| Use model Hessian for initial guess:                                  YES
 BFGS| Restart Hessian:                                                       NO
 BFGS| Trust radius:                                                       0.472

 *******************************************************************************
 ***                     STARTING GEOMETRY OPTIMIZATION                      ***
 ***                                   BFGS                                  ***
 *******************************************************************************

 Spin 1

 Number of electrons:                                                        719
 Number of occupied orbitals:                                                719
 Number of molecular orbitals:                                               719

 Spin 2

 Number of electrons:                                                        719
 Number of occupied orbitals:                                                719
 Number of molecular orbitals:                                               719

 Number of orbital functions:                                               2718
 Number of independent orbital functions:                                   2718

 Extrapolation method: initial_guess

 *** WARNING in qs_initial_guess.F:263 :: User requested to restart the    ***
 *** wavefunction from the file named: PROJECT-RESTART.wfn. This file does ***
 *** not exist. Please check the existence of the file or change properly  ***
 *** the value of the keyword WFN_RESTART_FILE_NAME. Calculation continues ***
 *** using ATOMIC GUESS.                                                   ***



 SCF WAVEFUNCTION OPTIMIZATION

  ----------------------------------- OT ---------------------------------------
  Minimizer      : CG                  : conjugate gradient
  Preconditioner : FULL_ALL            : diagonalization, state selective
  Precond_solver : DEFAULT
  Line search    : 3PNT                : 3 energies
  stepsize       :    0.15000000                  energy_gap     :    0.08000000
  eps_taylor     :   0.10000E-15                  max_taylor     :             4
  ----------------------------------- OT ---------------------------------------

  Step     Update method      Time    Convergence         Total energy    Change
  ------------------------------------------------------------------------------
     1 OT CG       0.12E+00   12.4     0.01760073     -8055.9165248844 -8.06E+03
     2 OT LS       0.17E+00    7.9                    -8119.2474597674
     3 OT LS       0.13E+00    7.7                    -8113.1168419453
     4 OT CG       0.10E+00   14.7     0.00563810     -8118.9502372774 -6.30E+01
     5 OT LS       0.14E+00    7.8                    -8127.5680126761
     6 OT LS       0.18E+00    7.7                    -8129.1623891676
     7 OT CG       0.15E+00   14.6     0.00473162     -8129.6898985470 -1.07E+01
     8 OT LS       0.21E+00    7.7                    -8137.1016631856
     9 OT LS       0.18E+00    7.7                    -8137.2849825312
    10 OT CG       0.15E+00   14.6     0.00261459     -8137.3843025886 -7.69E+00
    11 OT LS       0.21E+00    7.8                    -8139.9184468914
    12 OT LS       0.21E+00    7.7                    -8140.1495648314
    13 OT CG       0.17E+00   14.6     0.00251297     -8140.1496373354 -2.77E+00
    14 OT LS       0.23E+00    7.8                    -8140.8616071191
    15 OT LS       0.10E+00    7.6                    -8139.2989513484
    16 OT CG       0.80E-01   14.6     0.00174523     -8141.3768789724 -1.23E+00
    17 OT LS       0.11E+00    7.7                    -8142.0670601980
    18 OT LS       0.15E+00    7.7                    -8142.1959507797
    19 OT CG       0.12E+00   14.6     0.00147523     -8142.2402541745 -8.63E-01
    20 OT LS       0.16E+00    7.7                    -8142.7327944879
    21 OT LS       0.12E+00    7.6                    -8142.6476988610
    22 OT CG       0.92E-01   14.7     0.00108545     -8142.7328333836 -4.93E-01
    23 OT LS       0.13E+00    7.7                    -8143.0306968783
    24 OT LS       0.15E+00    7.7                    -8143.0775196497
    25 OT CG       0.12E+00   14.7     0.00098553     -8143.0854865721 -3.53E-01
    26 OT LS       0.17E+00    7.7                    -8143.3059517102
    27 OT LS       0.12E+00    7.7                    -8143.2578209829
    28 OT CG       0.93E-01   14.7     0.00079711     -8143.3064482701 -2.21E-01
    29 OT LS       0.13E+00    7.6                    -8143.4719849313
    30 OT LS       0.16E+00    7.7                    -8143.5011804306
    31 OT CG       0.13E+00   14.7     0.00076706     -8143.5092122481 -2.03E-01
    32 OT LS       0.18E+00    7.6                    -8143.6529598834
    33 OT LS       0.12E+00    7.8                    -8143.6224431568
    34 OT CG       0.10E+00   14.7     0.00063551     -8143.6532111559 -1.44E-01
    35 OT LS       0.14E+00    7.6                    -8143.7592356699
    36 OT LS       0.15E+00    7.7                    -8143.7722328921
    37 OT CG       0.12E+00   14.6     0.00059686     -8143.7728158507 -1.20E-01
    38 OT LS       0.17E+00    7.6                    -8143.8627404662
    39 OT LS       0.13E+00    7.7                    -8143.8547884362
    40 OT CG       0.10E+00   14.6     0.00049811     -8143.8631857789 -9.04E-02
    41 OT LS       0.14E+00    7.7                    -8143.9303808320
    42 OT LS       0.16E+00    7.7                    -8143.9385592075
    43 OT CG       0.12E+00   14.6     0.00047026     -8143.9389246352 -7.57E-02
    44 OT LS       0.17E+00    7.7                    -8143.9965549394
    45 OT LS       0.13E+00    7.7                    -8143.9915145488
    46 OT CG       0.11E+00   14.7     0.00039464     -8143.9968383112 -5.79E-02
    47 OT LS       0.15E+00    7.7                    -8144.0390437361
    48 OT LS       0.15E+00    7.6                    -8144.0429602823
    49 OT CG       0.12E+00   14.7     0.00037530     -8144.0429625939 -4.61E-02
    50 OT LS       0.17E+00    7.7                    -8144.0806894747
    51 OT LS       0.14E+00    7.7                    -8144.0794887588
    52 OT CG       0.11E+00   14.7     0.00032791     -8144.0813408476 -3.84E-02
    53 OT LS       0.16E+00    7.7                    -8144.1106135294
    54 OT LS       0.15E+00    7.7                    -8144.1124970090
    55 OT CG       0.12E+00   14.7     0.00030579     -8144.1125754673 -3.12E-02
    56 OT LS       0.17E+00    7.6                    -8144.1380235181
    57 OT LS       0.14E+00    7.7                    -8144.1381821640
    58 OT CG       0.11E+00   14.7     0.00027089     -8144.1388223390 -2.62E-02
    59 OT LS       0.16E+00    7.6                    -8144.1586207951
    60 OT LS       0.14E+00    7.7                    -8144.1591760653
    61 OT CG       0.12E+00   14.7     0.00024740     -8144.1594612353 -2.06E-02
    62 OT LS       0.16E+00    7.7                    -8144.1755839469
    63 OT LS       0.14E+00    7.7                    -8144.1756230334
    64 OT CG       0.11E+00   14.7     0.00021767     -8144.1760625424 -1.66E-02
    65 OT LS       0.16E+00    7.6                    -8144.1889473409
    66 OT LS       0.15E+00    7.7                    -8144.1897995676
    67 OT CG       0.12E+00   14.7     0.00020024     -8144.1898289805 -1.38E-02
    68 OT LS       0.17E+00    7.6                    -8144.2008280671
    69 OT LS       0.15E+00    7.7                    -8144.2009560092
    70 OT CG       0.12E+00   14.8     0.00018046     -8144.2012011191 -1.14E-02
    71 OT LS       0.16E+00    7.6                    -8144.2100803696
    72 OT LS       0.15E+00    7.7                    -8144.2103334669
    73 OT CG       0.12E+00   14.8     0.00016579     -8144.2104595677 -9.26E-03
    74 OT LS       0.16E+00    7.6                    -8144.2180579693
    75 OT LS       0.15E+00    7.7                    -8144.2183509090
    76 OT CG       0.12E+00   14.7     0.00015156     -8144.2184279783 -7.97E-03
    77 OT LS       0.17E+00    7.6                    -8144.2248977169
    78 OT LS       0.15E+00    7.7                    -8144.2251382064
    79 OT CG       0.12E+00   14.7     0.00014199     -8144.2252074186 -6.78E-03
    80 OT LS       0.17E+00    7.6                    -8144.2309113163
    81 OT LS       0.15E+00    7.7                    -8144.2310525152
    82 OT CG       0.12E+00   14.7     0.00013291     -8144.2311434061 -5.94E-03
    83 OT LS       0.17E+00    7.6                    -8144.2361566146
    84 OT LS       0.15E+00    7.7                    -8144.2363083754
    85 OT CG       0.12E+00   14.8     0.00012795     -8144.2363762543 -5.23E-03
    86 OT LS       0.17E+00    7.7                    -8144.2410641416
    87 OT LS       0.15E+00    7.6                    -8144.2412184309
    88 OT CG       0.12E+00   14.8     0.00012344     -8144.2412768974 -4.90E-03
    89 OT LS       0.17E+00    7.7                    -8144.2457014579
    90 OT LS       0.16E+00    7.7                    -8144.2458594802
    91 OT CG       0.12E+00   14.7     0.00012211     -8144.2459099186 -4.63E-03
    92 OT LS       0.17E+00    7.6                    -8144.2503477912
    93 OT LS       0.16E+00    7.7                    -8144.2505400414
    94 OT CG       0.13E+00   14.7     0.00012209     -8144.2505786054 -4.67E-03
    95 OT LS       0.18E+00    7.7                    -8144.2551062590
    96 OT LS       0.16E+00    7.6                    -8144.2552609042
    97 OT CG       0.13E+00   14.7     0.00012437     -8144.2553167235 -4.74E-03
    98 OT LS       0.18E+00    7.7                    -8144.2600767980
    99 OT LS       0.16E+00    7.8                    -8144.2602269526
   100 OT CG       0.13E+00   14.7     0.00012838     -8144.2602919146 -4.98E-03
   101 OT LS       0.18E+00    7.7                    -8144.2653291794
   102 OT LS       0.16E+00    7.8                    -8144.2654014534
   103 OT CG       0.13E+00   14.6     0.00013221     -8144.2655117413 -5.22E-03
   104 OT LS       0.18E+00    7.7                    -8144.2708077872
   105 OT LS       0.16E+00    7.7                    -8144.2709318255
   106 OT CG       0.13E+00   14.6     0.00013540     -8144.2710246540 -5.51E-03
   107 OT LS       0.18E+00    7.7                    -8144.2765441087
   108 OT LS       0.16E+00    7.7                    -8144.2766769965
   109 OT CG       0.13E+00   14.7     0.00013840     -8144.2767716688 -5.75E-03
   110 OT LS       0.18E+00    7.7                    -8144.2824226190
   111 OT LS       0.15E+00    7.7                    -8144.2824831143
   112 OT CG       0.12E+00   14.8     0.00013811     -8144.2826165447 -5.84E-03
   113 OT LS       0.17E+00    7.6                    -8144.2881512793
   114 OT LS       0.15E+00    7.7                    -8144.2882693926
   115 OT CG       0.12E+00   14.8     0.00013624     -8144.2883693184 -5.75E-03
   116 OT LS       0.17E+00    7.6                    -8144.2937275501
   117 OT LS       0.15E+00    7.7                    -8144.2938730748
   118 OT CG       0.12E+00   14.8     0.00013279     -8144.2939546558 -5.59E-03
   119 OT LS       0.17E+00    7.6                    -8144.2989706798
   120 OT LS       0.15E+00    7.7                    -8144.2990417507
   121 OT CG       0.12E+00   14.7     0.00012695     -8144.2991484407 -5.19E-03
   122 OT LS       0.17E+00    7.7                    -8144.3037385752
   123 OT LS       0.15E+00    7.7                    -8144.3038991303
   124 OT CG       0.12E+00   14.8     0.00012071     -8144.3039528488 -4.80E-03
   125 OT LS       0.17E+00    7.6                    -8144.3080832112
   126 OT LS       0.15E+00    7.6                    -8144.3081630404
   127 OT CG       0.12E+00   14.8     0.00011333     -8144.3082394312 -4.29E-03
   128 OT LS       0.17E+00    7.6                    -8144.3118557076
   129 OT LS       0.15E+00    7.6                    -8144.3119443375
   130 OT CG       0.12E+00   14.7     0.00010592     -8144.3120021939 -3.76E-03
   131 OT LS       0.17E+00    7.6                    -8144.3151480277
   132 OT LS       0.15E+00    7.7                    -8144.3152238873
   133 OT CG       0.12E+00   14.7     0.00009812     -8144.3152747025 -3.27E-03
   134 OT LS       0.17E+00    7.7                    -8144.3179575366
   135 OT LS       0.15E+00    7.6                    -8144.3180164770
   136 OT CG       0.12E+00   14.8     0.00009058     -8144.3180624761 -2.79E-03
   137 OT LS       0.17E+00    7.7                    -8144.3203557462
   138 OT LS       0.15E+00    7.7                    -8144.3204288140
   139 OT CG       0.12E+00   14.8     0.00008369     -8144.3204581374 -2.40E-03
   140 OT LS       0.17E+00    7.7                    -8144.3224230979
   141 OT LS       0.15E+00    7.6                    -8144.3224775451
   142 OT CG       0.12E+00   14.7     0.00007706     -8144.3225061112 -2.05E-03
   143 OT LS       0.17E+00    7.7                    -8144.3241610627
   144 OT LS       0.15E+00    7.6                    -8144.3241939632
   145 OT CG       0.12E+00   14.7     0.00007098     -8144.3242239250 -1.72E-03
   146 OT LS       0.17E+00    7.7                    -8144.3256233909
   147 OT LS       0.15E+00    7.6                    -8144.3256610049
   148 OT CG       0.12E+00   14.8     0.00006532     -8144.3256818483 -1.46E-03
   149 OT LS       0.17E+00    7.7                    -8144.3268704419
   150 OT LS       0.15E+00    7.6                    -8144.3269051256
   151 OT CG       0.12E+00   14.7     0.00006001     -8144.3269216518 -1.24E-03
   152 OT LS       0.17E+00    7.7                    -8144.3279282077
   153 OT LS       0.15E+00    7.6                    -8144.3279568298
   154 OT CG       0.12E+00   14.6     0.00005568     -8144.3279711555 -1.05E-03
   155 OT LS       0.17E+00    7.7                    -8144.3288383082
   156 OT LS       0.15E+00    7.8                    -8144.3288611815
   157 OT CG       0.12E+00   14.7     0.00005161     -8144.3288743065 -9.03E-04
   158 OT LS       0.17E+00    7.7                    -8144.3296212862
   159 OT LS       0.15E+00    7.7                    -8144.3296431860
   160 OT CG       0.12E+00   14.6     0.00004804     -8144.3296535350 -7.79E-04
   161 OT LS       0.17E+00    7.7                    -8144.3303066278
   162 OT LS       0.15E+00    7.8                    -8144.3303284253
   163 OT CG       0.12E+00   14.6     0.00004498     -8144.3303363710 -6.83E-04
   164 OT LS       0.17E+00    7.7                    -8144.3309087467
   165 OT LS       0.15E+00    7.7                    -8144.3309219091
   166 OT CG       0.12E+00   14.7     0.00004216     -8144.3309314519 -5.95E-04
   167 OT LS       0.17E+00    7.7                    -8144.3314358331
   168 OT LS       0.15E+00    7.7                    -8144.3314514937
   169 OT CG       0.12E+00   14.7     0.00003959     -8144.3314581179 -5.27E-04
   170 OT LS       0.17E+00    7.7                    -8144.3319040568
   171 OT LS       0.15E+00    7.7                    -8144.3319160361
   172 OT CG       0.12E+00   14.6     0.00003724     -8144.3319226950 -4.65E-04
   173 OT LS       0.17E+00    7.7                    -8144.3323168703
   174 OT LS       0.15E+00    7.7                    -8144.3323270383
   175 OT CG       0.12E+00   14.8     0.00003509     -8144.3323331100 -4.10E-04
   176 OT LS       0.17E+00    7.8                    -8144.3326823346
   177 OT LS       0.15E+00    7.7                    -8144.3326911462
   178 OT CG       0.12E+00   14.7     0.00003288     -8144.3326966129 -3.64E-04
   179 OT LS       0.17E+00    7.7                    -8144.3330026277
   180 OT LS       0.15E+00    7.7                    -8144.3330103875
   181 OT CG       0.12E+00   14.6     0.00003085     -8144.3330151603 -3.19E-04
   182 OT LS       0.17E+00    7.7                    -8144.3332845220
   183 OT LS       0.15E+00    7.7                    -8144.3332919395
   184 OT CG       0.12E+00   14.6     0.00002887     -8144.3332958803 -2.81E-04
   185 OT LS       0.17E+00    7.7                    -8144.3335304032
   186 OT LS       0.15E+00    7.7                    -8144.3335352567
   187 OT CG       0.12E+00   14.6     0.00002684     -8144.3335394180 -2.44E-04
   188 OT LS       0.17E+00    7.8                    -8144.3337420662
   189 OT LS       0.15E+00    7.7                    -8144.3337480346
   190 OT CG       0.12E+00   14.6     0.00002501     -8144.3337508303 -2.11E-04
   191 OT LS       0.17E+00    7.7                    -8144.3339267045
   192 OT LS       0.15E+00    7.7                    -8144.3339310667
   193 OT CG       0.12E+00   14.7     0.00002318     -8144.3339338520 -1.83E-04
   194 OT LS       0.17E+00    7.7                    -8144.3340840185
   195 OT LS       0.15E+00    7.6                    -8144.3340873610
   196 OT CG       0.12E+00   14.8     0.00002145     -8144.3340899142 -1.56E-04
   197 OT LS       0.17E+00    7.7                    -8144.3342189354
   198 OT LS       0.15E+00    7.7                    -8144.3342229731
   199 OT CG       0.12E+00   14.7     0.00001992     -8144.3342246523 -1.35E-04
   200 OT LS       0.17E+00    7.7                    -8144.3343358866
   201 OT LS       0.15E+00    7.7                    -8144.3343385894
   202 OT CG       0.12E+00   14.7     0.00001843     -8144.3343403761 -1.16E-04
   203 OT LS       0.17E+00    7.6                    -8144.3344357655
   204 OT LS       0.15E+00    7.7                    -8144.3344386047
   205 OT CG       0.12E+00   14.7     0.00001718     -8144.3344399073 -9.95E-05
   206 OT LS       0.17E+00    7.6                    -8144.3345231356
   207 OT LS       0.15E+00    7.8                    -8144.3345255223
   208 OT CG       0.12E+00   14.6     0.00001599     -8144.3345266975 -8.68E-05
   209 OT LS       0.17E+00    7.7                    -8144.3345988493
   210 OT LS       0.15E+00    7.7                    -8144.3346007583
   211 OT CG       0.12E+00   14.7     0.00001497     -8144.3346018471 -7.51E-05
   212 OT LS       0.17E+00    7.6                    -8144.3346655229
   213 OT LS       0.15E+00    7.7                    -8144.3346676167
   214 OT CG       0.12E+00   14.8     0.00001411     -8144.3346684036 -6.66E-05
   215 OT LS       0.17E+00    7.6                    -8144.3347249043
   216 OT LS       0.15E+00    7.7                    -8144.3347261511
   217 OT CG       0.12E+00   14.7     0.00001327     -8144.3347271167 -5.87E-05
   218 OT LS       0.17E+00    7.6                    -8144.3347774507
   219 OT LS       0.15E+00    7.8                    -8144.3347792411
   220 OT CG       0.12E+00   14.7     0.00001261     -8144.3347798090 -5.27E-05
   221 OT LS       0.17E+00    7.6                    -8144.3348252499
   222 OT LS       0.15E+00    7.7                    -8144.3348262745
   223 OT CG       0.12E+00   14.7     0.00001190     -8144.3348270409 -4.72E-05
   224 OT LS       0.17E+00    7.7                    -8144.3348674206
   225 OT LS       0.15E+00    7.6                    -8144.3348684877
   226 OT CG       0.12E+00   14.8     0.00001125     -8144.3348690977 -4.21E-05
   227 OT LS       0.17E+00    7.7                    -8144.3349053884
   228 OT LS       0.15E+00    7.6                    -8144.3349065379
   229 OT CG       0.12E+00   14.8     0.00001067     -8144.3349070045 -3.79E-05
   230 OT LS       0.17E+00    7.7                    -8144.3349395500
   231 OT LS       0.15E+00    7.6                    -8144.3349402715
   232 OT CG       0.12E+00   14.8     0.00001005     -8144.3349408262 -3.38E-05
   233 OT LS       0.17E+00    7.7                    -8144.3349696150
   234 OT LS       0.15E+00    7.6                    -8144.3349703357
   235 OT CG       0.12E+00   14.8     0.00000947     -8144.3349707886 -3.00E-05

  *** SCF run converged in   235 steps ***


  Electronic density on regular grids:      -1437.9999923217        0.0000076783
  Core density on regular grids:             1437.9999996446       -0.0000003554
  Total charge density on r-space grids:        0.0000073229
  Total charge density g-space grids:           0.0000073229

  Overlap energy of the core charge distribution:               0.00000638850603
  Self energy of the core charge distribution:             -14650.93922905635191
  Core Hamiltonian energy:                                   4107.56608641996900
  Hartree energy:                                            3440.65144524309926
  Exchange-correlation energy:                              -1042.49458818689413
  Dispersion energy:                                           -0.57773643859438

  DFT+U energy:                                                 1.45904484170839

  Total energy:                                             -8144.33497078855817

  outer SCF iter =    1 RMS gradient =   0.95E-05 energy =      -8144.3349707886
  outer SCF loop converged in   1 iterations or  235 steps


  Integrated absolute spin density  :                             235.0626334755
  Ideal and single determinant S**2 :                    0.000000     127.893743

 ENERGY| Total FORCE_EVAL ( QS ) energy (a.u.):            -8144.334996306535686


 --------  Informations at step =     0 ------------
  Optimization Method        =                 BFGS
  Total Energy               =     -8144.3349963065
  Used time                  =             2395.103
 ---------------------------------------------------

 --------------------------
 OPTIMIZATION STEP:      1
 --------------------------

 Spin 1

 Number of electrons:                                                        719
 Number of occupied orbitals:                                                719
 Number of molecular orbitals:                                               719

 Spin 2

 Number of electrons:                                                        719
 Number of occupied orbitals:                                                719
 Number of molecular orbitals:                                               719

 Number of orbital functions:                                               2718
 Number of independent orbital functions:                                   2718

 Extrapolation method: PS Nth order


 SCF WAVEFUNCTION OPTIMIZATION

  ----------------------------------- OT ---------------------------------------
  Minimizer      : CG                  : conjugate gradient
  Preconditioner : FULL_ALL            : diagonalization, state selective
  Precond_solver : DEFAULT
  Line search    : 3PNT                : 3 energies
  stepsize       :    0.15000000                  energy_gap     :    0.08000000
  eps_taylor     :   0.10000E-15                  max_taylor     :             4
  ----------------------------------- OT ---------------------------------------

  Step     Update method      Time    Convergence         Total energy    Change
  ------------------------------------------------------------------------------
     1 OT CG       0.12E+00   12.3     0.00013038     -8144.3375302118 -8.14E+03
     2 OT LS       0.17E+00    7.7                    -8144.3444557798
     3 OT LS       0.46E+00    7.5                    -8144.3466393171
     4 OT CG       0.37E+00   14.8     0.00006261     -8144.3526913869 -1.52E-02
     5 OT LS       0.18E+00    7.6                    -8144.3488294092
     6 OT LS       0.11E+00    7.4                    -8144.3531220775
     7 OT CG       0.86E-01   14.9     0.00002010     -8144.3535172527 -8.26E-04
     8 OT LS       0.12E+00    7.6                    -8144.3536047160
     9 OT LS       0.12E+00    7.4                    -8144.3536122919
    10 OT CG       0.96E-01   14.9     0.00001069     -8144.3536122939 -9.50E-05
    11 OT LS       0.13E+00    7.6                    -8144.3536390793
    12 OT LS       0.13E+00    7.5                    -8144.3536406799
    13 OT CG       0.10E+00   14.8     0.00000566     -8144.3536407767 -2.85E-05

  *** SCF run converged in    13 steps ***


  Electronic density on regular grids:      -1437.9999923028        0.0000076972
  Core density on regular grids:             1437.9999996448       -0.0000003552
  Total charge density on r-space grids:        0.0000073421
  Total charge density g-space grids:           0.0000073421

  Overlap energy of the core charge distribution:               0.00000564206422
  Self energy of the core charge distribution:             -14650.93922905635191
  Core Hamiltonian energy:                                   4107.52777966352096
  Hartree energy:                                            3440.66416812391435
  Exchange-correlation energy:                              -1042.48552372137442
  Dispersion energy:                                           -0.57772696558479

  DFT+U energy:                                                 1.45688553706747

  Total energy:                                             -8144.35364077674421

  outer SCF iter =    1 RMS gradient =   0.57E-05 energy =      -8144.3536407767
  outer SCF loop converged in   1 iterations or   13 steps


  Integrated absolute spin density  :                             235.0758704838
  Ideal and single determinant S**2 :                    0.000000     127.895755

 ENERGY| Total FORCE_EVAL ( QS ) energy (a.u.):            -8144.353647902936245


 --------  Informations at step =     1 ------------
  Optimization Method        =                 BFGS
  Total Energy               =     -8144.3536479029
  Real energy change         =        -0.0186515964
  Predicted change in energy =        -0.0149348510
  Scaling factor             =         0.0000000000
  Step size                  =         0.2583324109
  Trust radius               =         0.4724315332
  Decrease in energy         =                  YES
  Used time                  =              168.158

  Convergence check :
  Max. step size             =         0.2583324109
  Conv. limit for step size  =         1.0000000000
  Convergence in step size   =                  YES
  RMS step size              =         0.0206411128
  Conv. limit for RMS step   =         1.0000000000
  Convergence in RMS step    =                  YES
  Max. gradient              =         0.0227305825
  Conv. limit for gradients  =         0.0100000000
  Conv. for gradients        =                   NO
  RMS gradient               =         0.0020475098
  Conv. limit for RMS grad.  =         1.0000000000
  Conv. in RMS gradients     =                  YES
 ---------------------------------------------------

 --------------------------
 OPTIMIZATION STEP:      2
 --------------------------

 Spin 1

 Number of electrons:                                                        719
 Number of occupied orbitals:                                                719
 Number of molecular orbitals:                                               719

 Spin 2

 Number of electrons:                                                        719
 Number of occupied orbitals:                                                719
 Number of molecular orbitals:                                               719

 Number of orbital functions:                                               2718
 Number of independent orbital functions:                                   2718

 Extrapolation method: PS Nth order


 SCF WAVEFUNCTION OPTIMIZATION

  ----------------------------------- OT ---------------------------------------
  Minimizer      : CG                  : conjugate gradient
  Preconditioner : FULL_ALL            : diagonalization, state selective
  Precond_solver : DEFAULT
  Line search    : 3PNT                : 3 energies
  stepsize       :    0.15000000                  energy_gap     :    0.08000000
  eps_taylor     :   0.10000E-15                  max_taylor     :             4
  ----------------------------------- OT ---------------------------------------

  Step     Update method      Time    Convergence         Total energy    Change
  ------------------------------------------------------------------------------
     1 OT CG       0.12E+00   12.5     0.00011689     -8144.3461459368 -8.14E+03
     2 OT LS       0.17E+00    7.5                    -8144.3514616254
     3 OT LS       0.35E+00    7.4                    -8144.3529776853
     4 OT CG       0.28E+00   14.9     0.00009830     -8144.3555803679 -9.43E-03
     5 OT LS       0.14E+00    7.5                    -8144.3546246064
     6 OT LS       0.13E+00    7.4                    -8144.3580395370
     7 OT CG       0.10E+00   14.9     0.00002460     -8144.3580573305 -2.48E-03
     8 OT LS       0.15E+00    7.5                    -8144.3581872897
     9 OT LS       0.11E+00    7.4                    -8144.3581742068
    10 OT CG       0.88E-01   14.9     0.00001117     -8144.3581876971 -1.30E-04
    11 OT LS       0.12E+00    7.4                    -8144.3582140205
    12 OT LS       0.11E+00    7.5                    -8144.3582153119
    13 OT CG       0.91E-01   14.9     0.00000629     -8144.3582154838 -2.78E-05

  *** SCF run converged in    13 steps ***


  Electronic density on regular grids:      -1437.9999923039        0.0000076961
  Core density on regular grids:             1437.9999996452       -0.0000003548
  Total charge density on r-space grids:        0.0000073413
  Total charge density g-space grids:           0.0000073413

  Overlap energy of the core charge distribution:               0.00000719441915
  Self energy of the core charge distribution:             -14650.93922905635191
  Core Hamiltonian energy:                                   4107.58730841471879
  Hartree energy:                                            3440.61791924510499
  Exchange-correlation energy:                              -1042.50192893568646
  Dispersion energy:                                           -0.57698234358756

  DFT+U energy:                                                 1.45468999757328

  Total energy:                                             -8144.35821548380864

  outer SCF iter =    1 RMS gradient =   0.63E-05 energy =      -8144.3582154838
  outer SCF loop converged in   1 iterations or   13 steps


  Integrated absolute spin density  :                             235.0764602551
  Ideal and single determinant S**2 :                    0.000000     127.895787

 ENERGY| Total FORCE_EVAL ( QS ) energy (a.u.):            -8144.358224719361715


 --------  Informations at step =     2 ------------
  Optimization Method        =                 BFGS
  Total Energy               =     -8144.3582247194
  Real energy change         =        -0.0045768164
  Predicted change in energy =        -0.0043815942
  Scaling factor             =         0.0000000000
  Step size                  =         0.1456045434
  Trust radius               =         0.4724315332
  Decrease in energy         =                  YES
  Used time                  =              168.086

  Convergence check :
  Max. step size             =         0.1456045434
  Conv. limit for step size  =         1.0000000000
  Convergence in step size   =                  YES
  RMS step size              =         0.0148804850
  Conv. limit for RMS step   =         1.0000000000
  Convergence in RMS step    =                  YES
  Max. gradient              =         0.0179099397
  Conv. limit for gradients  =         0.0100000000
  Conv. for gradients        =                   NO
  RMS gradient               =         0.0029138757
  Conv. limit for RMS grad.  =         1.0000000000
  Conv. in RMS gradients     =                  YES
 ---------------------------------------------------

 --------------------------
 OPTIMIZATION STEP:      3
 --------------------------

  Step is scaled; Scaling factor =  0.96488

 Spin 1

 Number of electrons:                                                        719
 Number of occupied orbitals:                                                719
 Number of molecular orbitals:                                               719

 Spin 2

 Number of electrons:                                                        719
 Number of occupied orbitals:                                                719
 Number of molecular orbitals:                                               719

 Number of orbital functions:                                               2718
 Number of independent orbital functions:                                   2718

 Extrapolation method: PS Nth order


 SCF WAVEFUNCTION OPTIMIZATION

  ----------------------------------- OT ---------------------------------------
  Minimizer      : CG                  : conjugate gradient
  Preconditioner : FULL_ALL            : diagonalization, state selective
  Precond_solver : DEFAULT
  Line search    : 3PNT                : 3 energies
  stepsize       :    0.15000000                  energy_gap     :    0.08000000
  eps_taylor     :   0.10000E-15                  max_taylor     :             4
  ----------------------------------- OT ---------------------------------------

  Step     Update method      Time    Convergence         Total energy    Change
  ------------------------------------------------------------------------------
     1 OT CG       0.12E+00   12.5     0.00021071     -8144.3054147009 -8.14E+03
     2 OT LS       0.17E+00    7.5                    -8144.3225810398
     3 OT LS       0.34E+00    7.5                    -8144.3273941148
     4 OT CG       0.27E+00   15.0     0.00018593     -8144.3349550272 -2.95E-02
     5 OT LS       0.14E+00    7.5                    -8144.3334119041
     6 OT LS       0.13E+00    7.5                    -8144.3436458321
     7 OT CG       0.10E+00   14.8     0.00004549     -8144.3436656742 -8.71E-03
     8 OT LS       0.15E+00    7.5                    -8144.3440981194
     9 OT LS       0.11E+00    7.5                    -8144.3440416828
    10 OT CG       0.86E-01   14.8     0.00001929     -8144.3440984391 -4.33E-04
    11 OT LS       0.12E+00    7.5                    -8144.3441825302
    12 OT LS       0.13E+00    7.5                    -8144.3441931430
    13 OT CG       0.10E+00   14.9     0.00001185     -8144.3441937616 -9.53E-05
    14 OT LS       0.15E+00    7.4                    -8144.3442274604
    15 OT LS       0.13E+00    7.5                    -8144.3442275816
    16 OT CG       0.10E+00   14.9     0.00000430     -8144.3442284761 -3.47E-05

  *** SCF run converged in    16 steps ***


  Electronic density on regular grids:      -1437.9999923039        0.0000076961
  Core density on regular grids:             1437.9999996447       -0.0000003553
  Total charge density on r-space grids:        0.0000073409
  Total charge density g-space grids:           0.0000073409

  Overlap energy of the core charge distribution:               0.00001155714384
  Self energy of the core charge distribution:             -14650.93922905635191
  Core Hamiltonian energy:                                   4107.74663406135642
  Hartree energy:                                            3440.50184539155589
  Exchange-correlation energy:                              -1042.52526852979963
  Dispersion energy:                                           -0.57762389512200

  DFT+U energy:                                                 1.44940199507286

  Total energy:                                             -8144.34422847614587

  outer SCF iter =    1 RMS gradient =   0.43E-05 energy =      -8144.3442284761
  outer SCF loop converged in   1 iterations or   16 steps


  Integrated absolute spin density  :                             235.0357469925
  Ideal and single determinant S**2 :                    0.000000     127.879797

 ENERGY| Total FORCE_EVAL ( QS ) energy (a.u.):            -8144.344233171542328


 --------  Informations at step =     3 ------------
  Optimization Method        =                 BFGS
  Total Energy               =     -8144.3442331715
  Real energy change         =         0.0139915478
  Predicted change in energy =        -0.0128491282
  Scaling factor             =         0.9648776713
  Step size                  =         0.4724315332
  Trust radius               =         0.4724315332
  Decrease in energy         =                   NO
  Used time                  =              198.695

  Convergence check :
  Max. step size             =         0.4724315332
  Conv. limit for step size  =         1.0000000000
  Convergence in step size   =                  YES
  RMS step size              =         0.0471515669
  Conv. limit for RMS step   =         1.0000000000
  Convergence in RMS step    =                  YES
  Max. gradient              =         0.0851306341
  Conv. limit for gradients  =         0.0100000000
  Conv. for gradients        =                   NO
  RMS gradient               =         0.0068056448
  Conv. limit for RMS grad.  =         1.0000000000
  Conv. in RMS gradients     =                  YES
 ---------------------------------------------------

 --------------------------
 OPTIMIZATION STEP:      4
 --------------------------

 Spin 1

 Number of electrons:                                                        719
 Number of occupied orbitals:                                                719
 Number of molecular orbitals:                                               719

 Spin 2

 Number of electrons:                                                        719
 Number of occupied orbitals:                                                719
 Number of molecular orbitals:                                               719

 Number of orbital functions:                                               2718
 Number of independent orbital functions:                                   2718

 Extrapolation method: PS Nth order


 SCF WAVEFUNCTION OPTIMIZATION

  ----------------------------------- OT ---------------------------------------
  Minimizer      : CG                  : conjugate gradient
  Preconditioner : FULL_ALL            : diagonalization, state selective
  Precond_solver : DEFAULT
  Line search    : 3PNT                : 3 energies
  stepsize       :    0.15000000                  energy_gap     :    0.08000000
  eps_taylor     :   0.10000E-15                  max_taylor     :             4
  ----------------------------------- OT ---------------------------------------

  Step     Update method      Time    Convergence         Total energy    Change
  ------------------------------------------------------------------------------
     1 OT CG       0.12E+00   12.6     0.00040404     -8144.2216655762 -8.14E+03
     2 OT LS       0.17E+00    7.5                    -8144.2840949267
     3 OT LS       0.32E+00    7.4                    -8144.3011326938
     4 OT CG       0.26E+00   15.2     0.00033828     -8144.3250901551 -1.03E-01
     5 OT LS       0.36E+00    7.7                    -8144.3347016181
     6 OT LS       0.14E+00    7.5                    -8144.2787627712
     7 OT CG       0.11E+00   15.0     0.00010254     -8144.3567221218 -3.16E-02
     8 OT LS       0.16E+00    7.5                    -8144.3589469802
     9 OT LS       0.11E+00    7.5                    -8144.3584737327
    10 OT CG       0.87E-01   15.0     0.00004664     -8144.3589514301 -2.23E-03
    11 OT LS       0.12E+00    7.5                    -8144.3594374956
    12 OT LS       0.13E+00    7.4                    -8144.3594916037
    13 OT CG       0.10E+00   15.0     0.00002662     -8144.3594928348 -5.41E-04
    14 OT LS       0.14E+00    7.5                    -8144.3596682923
    15 OT LS       0.13E+00    7.4                    -8144.3596786787
    16 OT CG       0.11E+00   15.0     0.00000978     -8144.3596793357 -1.87E-04

  *** SCF run converged in    16 steps ***


  Electronic density on regular grids:      -1437.9999922943        0.0000077057
  Core density on regular grids:             1437.9999996445       -0.0000003555
  Total charge density on r-space grids:        0.0000073502
  Total charge density g-space grids:           0.0000073502

  Overlap energy of the core charge distribution:               0.00000500909604
  Self energy of the core charge distribution:             -14650.93922905635191
  Core Hamiltonian energy:                                   4107.51827026586034
  Hartree energy:                                            3440.66609411905711
  Exchange-correlation energy:                              -1042.48073808482286
  Dispersion energy:                                           -0.57705363916372

  DFT+U energy:                                                 1.45297205059617

  Total energy:                                             -8144.35967933572920

  outer SCF iter =    1 RMS gradient =   0.98E-05 energy =      -8144.3596793357
  outer SCF loop converged in   1 iterations or   16 steps


  Integrated absolute spin density  :                             235.0549773750
  Ideal and single determinant S**2 :                    0.000000     127.891465

 ENERGY| Total FORCE_EVAL ( QS ) energy (a.u.):            -8144.359705231699991


 --------  Informations at step =     4 ------------
  Optimization Method        =                 BFGS
  Total Energy               =     -8144.3597052317
  Real energy change         =        -0.0154720602
  Predicted change in energy =        -0.0153070547
  Scaling factor             =         0.9648776713
  Step size                  =         0.1805521729
  Trust radius               =         0.4724315332
  Decrease in energy         =                  YES
  Used time                  =              199.335

  Convergence check :
  Max. step size             =         0.1805521729
  Conv. limit for step size  =         1.0000000000
  Convergence in step size   =                  YES
  RMS step size              =         0.0191207480
  Conv. limit for RMS step   =         1.0000000000
  Convergence in RMS step    =                  YES
  Max. gradient              =         0.0317987134
  Conv. limit for gradients  =         0.0100000000
  Conv. for gradients        =                   NO
  RMS gradient               =         0.0031335521
  Conv. limit for RMS grad.  =         1.0000000000
  Conv. in RMS gradients     =                  YES
 ---------------------------------------------------

 --------------------------
 OPTIMIZATION STEP:      5
 --------------------------

 Spin 1

 Number of electrons:                                                        719
 Number of occupied orbitals:                                                719
 Number of molecular orbitals:                                               719

 Spin 2

 Number of electrons:                                                        719
 Number of occupied orbitals:                                                719
 Number of molecular orbitals:                                               719

 Number of orbital functions:                                               2718
 Number of independent orbital functions:                                   2718

 Extrapolation method: PS Nth order


 SCF WAVEFUNCTION OPTIMIZATION

  ----------------------------------- OT ---------------------------------------
  Minimizer      : CG                  : conjugate gradient
  Preconditioner : FULL_ALL            : diagonalization, state selective
  Precond_solver : DEFAULT
  Line search    : 3PNT                : 3 energies
  stepsize       :    0.15000000                  energy_gap     :    0.08000000
  eps_taylor     :   0.10000E-15                  max_taylor     :             4
  ----------------------------------- OT ---------------------------------------

  Step     Update method      Time    Convergence         Total energy    Change
  ------------------------------------------------------------------------------
     1 OT CG       0.12E+00   12.4     0.00034256     -8144.2613835766 -8.14E+03
     2 OT LS       0.17E+00    7.5                    -8144.3049786755
     3 OT LS       0.29E+00    7.4                    -8144.3160259893
     4 OT CG       0.23E+00   14.9     0.00028485     -8144.3277662733 -6.64E-02
     5 OT LS       0.32E+00    7.6                    -8144.3464033044
     6 OT LS       0.15E+00    7.5                    -8144.3229897952
     7 OT CG       0.12E+00   14.9     0.00008602     -8144.3524331396 -2.47E-02
     8 OT LS       0.17E+00    7.5                    -8144.3541688644
     9 OT LS       0.12E+00    7.4                    -8144.3538267093
    10 OT CG       0.96E-01   14.9     0.00004303     -8144.3541706169 -1.74E-03
    11 OT LS       0.13E+00    7.4                    -8144.3546246042
    12 OT LS       0.14E+00    7.5                    -8144.3546713609
    13 OT CG       0.11E+00   15.0     0.00002651     -8144.3546718028 -5.01E-04
    14 OT LS       0.16E+00    7.4                    -8144.3548261985
    15 OT LS       0.11E+00    7.5                    -8144.3548040053
    16 OT CG       0.90E-01   15.1     0.00000798     -8144.3548262322 -1.54E-04

  *** SCF run converged in    16 steps ***


  Electronic density on regular grids:      -1437.9999922986        0.0000077014
  Core density on regular grids:             1437.9999996445       -0.0000003555
  Total charge density on r-space grids:        0.0000073459
  Total charge density g-space grids:           0.0000073459

  Overlap energy of the core charge distribution:               0.00000604134837
  Self energy of the core charge distribution:             -14650.93922905635191
  Core Hamiltonian energy:                                   4107.53351409462175
  Hartree energy:                                            3440.65382977158515
  Exchange-correlation energy:                              -1042.48412289260796
  Dispersion energy:                                           -0.57653439587439

  DFT+U energy:                                                 1.45771020504693

  Total energy:                                             -8144.35482623223197

  outer SCF iter =    1 RMS gradient =   0.80E-05 energy =      -8144.3548262322
  outer SCF loop converged in   1 iterations or   16 steps


  Integrated absolute spin density  :                             235.0608362718
  Ideal and single determinant S**2 :                    0.000000     127.893463

 ENERGY| Total FORCE_EVAL ( QS ) energy (a.u.):            -8144.354841990868408


 --------  Informations at step =     5 ------------
  Optimization Method        =                 BFGS
  Total Energy               =     -8144.3548419909
  Real energy change         =         0.0048632408
  Predicted change in energy =        -0.0090465612
  Scaling factor             =         0.9648776713
  Step size                  =         0.1948956923
  Trust radius               =         0.4724315332
  Decrease in energy         =                   NO
  Used time                  =              198.674

  Convergence check :
  Max. step size             =         0.1948956923
  Conv. limit for step size  =         1.0000000000
  Convergence in step size   =                  YES
  RMS step size              =         0.0265184924
  Conv. limit for RMS step   =         1.0000000000
  Convergence in RMS step    =                  YES
  Max. gradient              =         0.0294679643
  Conv. limit for gradients  =         0.0100000000
  Conv. for gradients        =                   NO
  RMS gradient               =         0.0043960471
  Conv. limit for RMS grad.  =         1.0000000000
  Conv. in RMS gradients     =                  YES
 ---------------------------------------------------

 --------------------------
 OPTIMIZATION STEP:      6
 --------------------------

 Spin 1

 Number of electrons:                                                        719
 Number of occupied orbitals:                                                719
 Number of molecular orbitals:                                               719

 Spin 2

 Number of electrons:                                                        719
 Number of occupied orbitals:                                                719
 Number of molecular orbitals:                                               719

 Number of orbital functions:                                               2718
 Number of independent orbital functions:                                   2718

 Extrapolation method: PS Nth order


 SCF WAVEFUNCTION OPTIMIZATION

  ----------------------------------- OT ---------------------------------------
  Minimizer      : CG                  : conjugate gradient
  Preconditioner : FULL_ALL            : diagonalization, state selective
  Precond_solver : DEFAULT
  Line search    : 3PNT                : 3 energies
  stepsize       :    0.15000000                  energy_gap     :    0.08000000
  eps_taylor     :   0.10000E-15                  max_taylor     :             4
  ----------------------------------- OT ---------------------------------------

  Step     Update method      Time    Convergence         Total energy    Change
  ------------------------------------------------------------------------------
     1 OT CG       0.12E+00   12.4     0.00026891     -8144.2946416584 -8.14E+03
     2 OT LS       0.17E+00    7.5                    -8144.3210721119
     3 OT LS       0.27E+00    7.4                    -8144.3274587460
     4 OT CG       0.22E+00   14.8     0.00023461     -8144.3331152045 -3.85E-02
     5 OT LS       0.30E+00    7.5                    -8144.3484235787
     6 OT LS       0.16E+00    7.5                    -8144.3368155751
     7 OT CG       0.13E+00   14.8     0.00007852     -8144.3505313433 -1.74E-02
     8 OT LS       0.18E+00    7.5                    -8144.3517614197
     9 OT LS       0.11E+00    7.5                    -8144.3511940083
    10 OT CG       0.85E-01   14.8     0.00003306     -8144.3518188811 -1.29E-03
    11 OT LS       0.12E+00    7.5                    -8144.3520563675
    12 OT LS       0.12E+00    7.4                    -8144.3520803027
    13 OT CG       0.98E-01   14.8     0.00001900     -8144.3520804679 -2.62E-04
    14 OT LS       0.14E+00    7.5                    -8144.3521688042
    15 OT LS       0.14E+00    7.4                    -8144.3521761592
    16 OT CG       0.11E+00   14.9     0.00000804     -8144.3521761720 -9.57E-05

  *** SCF run converged in    16 steps ***


  Electronic density on regular grids:      -1437.9999923245        0.0000076755
  Core density on regular grids:             1437.9999996440       -0.0000003560
  Total charge density on r-space grids:        0.0000073195
  Total charge density g-space grids:           0.0000073195

  Overlap energy of the core charge distribution:               0.00000771542784
  Self energy of the core charge distribution:             -14650.93922905635191
  Core Hamiltonian energy:                                   4107.57605978109859
  Hartree energy:                                            3440.61753416810689
  Exchange-correlation energy:                              -1042.48773251727812
  Dispersion energy:                                           -0.57776144816717

  DFT+U energy:                                                 1.45894518513490

  Total energy:                                             -8144.35217617203034

  outer SCF iter =    1 RMS gradient =   0.80E-05 energy =      -8144.3521761720
  outer SCF loop converged in   1 iterations or   16 steps


  Integrated absolute spin density  :                             235.0513773603
  Ideal and single determinant S**2 :                    0.000000     127.886155

 ENERGY| Total FORCE_EVAL ( QS ) energy (a.u.):            -8144.352193182478914


 --------  Informations at step =     6 ------------
  Optimization Method        =                 BFGS
  Total Energy               =     -8144.3521931825
  Real energy change         =         0.0026488084
  Predicted change in energy =        -0.0103384123
  Scaling factor             =         0.9648776713
  Step size                  =         0.1279653806
  Trust radius               =         0.4724315332
  Decrease in energy         =                   NO
  Used time                  =              197.805

  Convergence check :
  Max. step size             =         0.1279653806
  Conv. limit for step size  =         1.0000000000
  Convergence in step size   =                  YES
  RMS step size              =         0.0134841198
  Conv. limit for RMS step   =         1.0000000000
  Convergence in RMS step    =                  YES
  Max. gradient              =         0.0259720706
  Conv. limit for gradients  =         0.0100000000
  Conv. for gradients        =                   NO
  RMS gradient               =         0.0028683600
  Conv. limit for RMS grad.  =         1.0000000000
  Conv. in RMS gradients     =                  YES
 ---------------------------------------------------

 --------------------------
 OPTIMIZATION STEP:      7
 --------------------------

 Spin 1

 Number of electrons:                                                        719
 Number of occupied orbitals:                                                719
 Number of molecular orbitals:                                               719

 Spin 2

 Number of electrons:                                                        719
 Number of occupied orbitals:                                                719
 Number of molecular orbitals:                                               719

 Number of orbital functions:                                               2718
 Number of independent orbital functions:                                   2718

 Extrapolation method: PS Nth order


 SCF WAVEFUNCTION OPTIMIZATION

  ----------------------------------- OT ---------------------------------------
  Minimizer      : CG                  : conjugate gradient
  Preconditioner : FULL_ALL            : diagonalization, state selective
  Precond_solver : DEFAULT
  Line search    : 3PNT                : 3 energies
  stepsize       :    0.15000000                  energy_gap     :    0.08000000
  eps_taylor     :   0.10000E-15                  max_taylor     :             4
  ----------------------------------- OT ---------------------------------------

  Step     Update method      Time    Convergence         Total energy    Change
  ------------------------------------------------------------------------------
     1 OT CG       0.12E+00   12.5     0.00020841     -8144.3266281535 -8.14E+03
     2 OT LS       0.17E+00    7.5                    -8144.3414769055
     3 OT LS       0.22E+00    7.5                    -8144.3443383434
     4 OT CG       0.18E+00   15.0     0.00016719     -8144.3454684231 -1.88E-02
     5 OT LS       0.25E+00    7.4                    -8144.3561997130
     6 OT LS       0.20E+00    7.5                    -8144.3555731656
     7 OT CG       0.16E+00   14.9     0.00007180     -8144.3563090208 -1.08E-02
     8 OT LS       0.22E+00    7.4                    -8144.3569526549
     9 OT LS       0.99E-01    7.7                    -8144.3557824551
    10 OT CG       0.79E-01   14.9     0.00002870     -8144.3573075341 -9.99E-04
    11 OT LS       0.11E+00    7.4                    -8144.3574776214
    12 OT LS       0.12E+00    7.6                    -8144.3574982203
    13 OT CG       0.95E-01   15.0     0.00001570     -8144.3574991401 -1.92E-04
    14 OT LS       0.13E+00    7.4                    -8144.3575635750
    15 OT LS       0.16E+00    7.6                    -8144.3575741025
    16 OT CG       0.13E+00   14.9     0.00000706     -8144.3575762875 -7.71E-05

  *** SCF run converged in    16 steps ***


  Electronic density on regular grids:      -1437.9999922925        0.0000077075
  Core density on regular grids:             1437.9999996444       -0.0000003556
  Total charge density on r-space grids:        0.0000073519
  Total charge density g-space grids:           0.0000073519

  Overlap energy of the core charge distribution:               0.00000781505342
  Self energy of the core charge distribution:             -14650.93922905635191
  Core Hamiltonian energy:                                   4107.43780768212491
  Hartree energy:                                            3440.71429327578153
  Exchange-correlation energy:                              -1042.45575659686665
  Dispersion energy:                                           -0.57469027446445

  DFT+U energy:                                                 1.45999086718461

  Total energy:                                             -8144.35757628753800

  outer SCF iter =    1 RMS gradient =   0.71E-05 energy =      -8144.3575762875
  outer SCF loop converged in   1 iterations or   16 steps


  Integrated absolute spin density  :                             235.0866899781
  Ideal and single determinant S**2 :                    0.000000     127.901018

 ENERGY| Total FORCE_EVAL ( QS ) energy (a.u.):            -8144.357590527835782


 --------  Informations at step =     7 ------------
  Optimization Method        =                 BFGS
  Total Energy               =     -8144.3575905278
  Real energy change         =        -0.0053973454
  Predicted change in energy =        -0.0103250387
  Scaling factor             =         0.9648776713
  Step size                  =         0.2456139629
  Trust radius               =         0.4724315332
  Decrease in energy         =                   NO
  Used time                  =              198.966

  Convergence check :
  Max. step size             =         0.2456139629
  Conv. limit for step size  =         1.0000000000
  Convergence in step size   =                  YES
  RMS step size              =         0.0294330723
  Conv. limit for RMS step   =         1.0000000000
  Convergence in RMS step    =                  YES
  Max. gradient              =         0.0337782951
  Conv. limit for gradients  =         0.0100000000
  Conv. for gradients        =                   NO
  RMS gradient               =         0.0057233978
  Conv. limit for RMS grad.  =         1.0000000000
  Conv. in RMS gradients     =                  YES
 ---------------------------------------------------

 --------------------------
 OPTIMIZATION STEP:      8
 --------------------------

 Spin 1

 Number of electrons:                                                        719
 Number of occupied orbitals:                                                719
 Number of molecular orbitals:                                               719

 Spin 2

 Number of electrons:                                                        719
 Number of occupied orbitals:                                                719
 Number of molecular orbitals:                                               719

 Number of orbital functions:                                               2718
 Number of independent orbital functions:                                   2718

 Extrapolation method: PS Nth order


 SCF WAVEFUNCTION OPTIMIZATION

  ----------------------------------- OT ---------------------------------------
  Minimizer      : CG                  : conjugate gradient
  Preconditioner : FULL_ALL            : diagonalization, state selective
  Precond_solver : DEFAULT
  Line search    : 3PNT                : 3 energies
  stepsize       :    0.15000000                  energy_gap     :    0.08000000
  eps_taylor     :   0.10000E-15                  max_taylor     :             4
  ----------------------------------- OT ---------------------------------------

  Step     Update method      Time    Convergence         Total energy    Change
  ------------------------------------------------------------------------------
     1 OT CG       0.12E+00   12.5     0.00023595     -8144.2963901761 -8.14E+03
     2 OT LS       0.17E+00    7.4                    -8144.3156606218
     3 OT LS       0.23E+00    7.4                    -8144.3195347377
     4 OT CG       0.18E+00   14.8     0.00020265     -8144.3212941896 -2.49E-02
     5 OT LS       0.26E+00    7.5                    -8144.3362063991
     6 OT LS       0.19E+00    7.5                    -8144.3341390943
     7 OT CG       0.15E+00   15.0     0.00007387     -8144.3362113750 -1.49E-02
     8 OT LS       0.21E+00    7.5                    -8144.3369961665
     9 OT LS       0.99E-01    7.4                    -8144.3359605133
    10 OT CG       0.79E-01   15.0     0.00002845     -8144.3372687370 -1.06E-03
    11 OT LS       0.11E+00    7.5                    -8144.3374391844
    12 OT LS       0.12E+00    7.4                    -8144.3374623117
    13 OT CG       0.99E-01   15.0     0.00001689     -8144.3374643593 -1.96E-04
    14 OT LS       0.14E+00    7.4                    -8144.3375375164
    15 OT LS       0.15E+00    7.4                    -8144.3375460651
    16 OT CG       0.12E+00   15.0     0.00000736     -8144.3375463572 -8.20E-05

  *** SCF run converged in    16 steps ***


  Electronic density on regular grids:      -1437.9999923099        0.0000076901
  Core density on regular grids:             1437.9999996444       -0.0000003556
  Total charge density on r-space grids:        0.0000073345
  Total charge density g-space grids:           0.0000073345

  Overlap energy of the core charge distribution:               0.00000498126229
  Self energy of the core charge distribution:             -14650.93922905635191
  Core Hamiltonian energy:                                   4107.26658203325132
  Hartree energy:                                            3440.84750932187671
  Exchange-correlation energy:                              -1042.40164034264353
  Dispersion energy:                                           -0.57185696764937

  DFT+U energy:                                                 1.46108367304619

  Total energy:                                             -8144.33754635720743

  outer SCF iter =    1 RMS gradient =   0.74E-05 energy =      -8144.3375463572
  outer SCF loop converged in   1 iterations or   16 steps


  Integrated absolute spin density  :                             235.0895661607
  Ideal and single determinant S**2 :                    0.000000     127.900911

 ENERGY| Total FORCE_EVAL ( QS ) energy (a.u.):            -8144.337560778127227


 --------  Informations at step =     8 ------------
  Optimization Method        =                 BFGS
  Total Energy               =     -8144.3375607781
  Real energy change         =         0.0200297497
  Predicted change in energy =        -0.0171584942
  Scaling factor             =         0.9648776713
  Step size                  =         0.2478369042
  Trust radius               =         0.4724315332
  Decrease in energy         =                   NO
  Used time                  =              198.428

  Convergence check :
  Max. step size             =         0.2478369042
  Conv. limit for step size  =         1.0000000000
  Convergence in step size   =                  YES
  RMS step size              =         0.0333909758
  Conv. limit for RMS step   =         1.0000000000
  Convergence in RMS step    =                  YES
  Max. gradient              =         0.0650112497
  Conv. limit for gradients  =         0.0100000000
  Conv. for gradients        =                   NO
  RMS gradient               =         0.0060081555
  Conv. limit for RMS grad.  =         1.0000000000
  Conv. in RMS gradients     =                  YES
 ---------------------------------------------------

 --------------------------
 OPTIMIZATION STEP:      9
 --------------------------

 Spin 1

 Number of electrons:                                                        719
 Number of occupied orbitals:                                                719
 Number of molecular orbitals:                                               719

 Spin 2

 Number of electrons:                                                        719
 Number of occupied orbitals:                                                719
 Number of molecular orbitals:                                               719

 Number of orbital functions:                                               2718
 Number of independent orbital functions:                                   2718

 Extrapolation method: PS Nth order


 SCF WAVEFUNCTION OPTIMIZATION

  ----------------------------------- OT ---------------------------------------
  Minimizer      : CG                  : conjugate gradient
  Preconditioner : FULL_ALL            : diagonalization, state selective
  Precond_solver : DEFAULT
  Line search    : 3PNT                : 3 energies
  stepsize       :    0.15000000                  energy_gap     :    0.08000000
  eps_taylor     :   0.10000E-15                  max_taylor     :             4
  ----------------------------------- OT ---------------------------------------

  Step     Update method      Time    Convergence         Total energy    Change
  ------------------------------------------------------------------------------
     1 OT CG       0.12E+00   12.4     0.00039902     -8144.2301952411 -8.14E+03
     2 OT LS       0.17E+00    7.4                    -8144.2877788174
     3 OT LS       0.26E+00    7.5                    -8144.3012621374
     4 OT CG       0.21E+00   14.9     0.00034343     -8144.3119241625 -8.17E-02
     5 OT LS       0.29E+00    7.5                    -8144.3468534137
     6 OT LS       0.16E+00    7.5                    -8144.3262654726
     7 OT CG       0.13E+00   14.9     0.00012613     -8144.3497912608 -3.79E-02
     8 OT LS       0.18E+00    7.5                    -8144.3527480266
     9 OT LS       0.10E+00    7.5                    -8144.3510135627
    10 OT CG       0.83E-01   15.0     0.00005400     -8144.3529917514 -3.20E-03
    11 OT LS       0.12E+00    7.5                    -8144.3536302216
    12 OT LS       0.13E+00    7.5                    -8144.3537164845
    13 OT CG       0.10E+00   15.0     0.00003056     -8144.3537239042 -7.32E-04
    14 OT LS       0.14E+00    7.5                    -8144.3539569277
    15 OT LS       0.14E+00    7.5                    -8144.3539705757
    16 OT CG       0.11E+00   15.0     0.00001243     -8144.3539714809 -2.48E-04
    17 OT LS       0.15E+00    7.4                    -8144.3540134804
    18 OT LS       0.15E+00    7.4                    -8144.3540170609
    19 OT CG       0.12E+00   15.1     0.00000685     -8144.3540170634 -4.56E-05

  *** SCF run converged in    19 steps ***


  Electronic density on regular grids:      -1437.9999923106        0.0000076894
  Core density on regular grids:             1437.9999996444       -0.0000003556
  Total charge density on r-space grids:        0.0000073338
  Total charge density g-space grids:           0.0000073338

  Overlap energy of the core charge distribution:               0.00000646839652
  Self energy of the core charge distribution:             -14650.93922905635191
  Core Hamiltonian energy:                                   4107.42078480027158
  Hartree energy:                                            3440.72374542533862
  Exchange-correlation energy:                              -1042.44744534620577
  Dispersion energy:                                           -0.57405616728534

  DFT+U energy:                                                 1.46217681239115

  Total energy:                                             -8144.35401706344419

  outer SCF iter =    1 RMS gradient =   0.69E-05 energy =      -8144.3540170634
  outer SCF loop converged in   1 iterations or   19 steps


  Integrated absolute spin density  :                             235.0710029821
  Ideal and single determinant S**2 :                    0.000000     127.896229

 ENERGY| Total FORCE_EVAL ( QS ) energy (a.u.):            -8144.354033459700076


 --------  Informations at step =     9 ------------
  Optimization Method        =                 BFGS
  Total Energy               =     -8144.3540334597
  Real energy change         =        -0.0164726816
  Predicted change in energy =        -0.0237227535
  Scaling factor             =         0.9648776713
  Step size                  =         0.2180008090
  Trust radius               =         0.4724315332
  Decrease in energy         =                   NO
  Used time                  =              228.648

  Convergence check :
  Max. step size             =         0.2180008090
  Conv. limit for step size  =         1.0000000000
  Convergence in step size   =                  YES
  RMS step size              =         0.0300651859
  Conv. limit for RMS step   =         1.0000000000
  Convergence in RMS step    =                  YES
  Max. gradient              =         0.0099590898
  Conv. limit for gradients  =         0.0100000000
  Conv. in gradients         =                  YES
  RMS gradient               =         0.0018846261
  Conv. limit for RMS grad.  =         1.0000000000
  Conv. in RMS gradients     =                  YES
 ---------------------------------------------------

 *******************************************************************************
 ***                    GEOMETRY OPTIMIZATION COMPLETED                      ***
 *******************************************************************************

                    Reevaluating energy at the minimum

 Spin 1

 Number of electrons:                                                        719
 Number of occupied orbitals:                                                719
 Number of molecular orbitals:                                               719

 Spin 2

 Number of electrons:                                                        719
 Number of occupied orbitals:                                                719
 Number of molecular orbitals:                                               719

 Number of orbital functions:                                               2718
 Number of independent orbital functions:                                   2718

 Extrapolation method: PS Nth order


 SCF WAVEFUNCTION OPTIMIZATION

  ----------------------------------- OT ---------------------------------------
  Minimizer      : CG                  : conjugate gradient
  Preconditioner : FULL_ALL            : diagonalization, state selective
  Precond_solver : DEFAULT
  Line search    : 3PNT                : 3 energies
  stepsize       :    0.15000000                  energy_gap     :    0.08000000
  eps_taylor     :   0.10000E-15                  max_taylor     :             4
  ----------------------------------- OT ---------------------------------------

  Step     Update method      Time    Convergence         Total energy    Change
  ------------------------------------------------------------------------------
     1 OT CG       0.12E+00   12.5     0.00046601     -8144.1781105585 -8.14E+03
     2 OT LS       0.17E+00    7.5                    -8144.2589457057
     3 OT LS       0.29E+00    7.4                    -8144.2795390362
     4 OT CG       0.23E+00   15.2     0.00039686     -8144.3018429422 -1.24E-01
     5 OT LS       0.33E+00    7.7                    -8144.3363328332
     6 OT LS       0.15E+00    7.6                    -8144.2885986610
     7 OT CG       0.12E+00   15.2     0.00013091     -8144.3492184857 -4.74E-02
     8 OT LS       0.17E+00    7.8                    -8144.3527541935
     9 OT LS       0.11E+00    7.7                    -8144.3515327307
    10 OT CG       0.86E-01   15.1     0.00005963     -8144.3528257915 -3.61E-03
    11 OT LS       0.12E+00    7.7                    -8144.3535999315
    12 OT LS       0.12E+00    7.7                    -8144.3536747979
    13 OT CG       0.98E-01   15.2     0.00003342     -8144.3536750315 -8.49E-04
    14 OT LS       0.14E+00    7.7                    -8144.3539482841
    15 OT LS       0.14E+00    7.6                    -8144.3539716600
    16 OT CG       0.11E+00   15.1     0.00001308     -8144.3539716742 -2.97E-04
    17 OT LS       0.15E+00    7.7                    -8144.3540163655
    18 OT LS       0.14E+00    7.6                    -8144.3540185573
    19 OT CG       0.11E+00   15.1     0.00000754     -8144.3540188497 -4.72E-05

  *** SCF run converged in    19 steps ***


  Electronic density on regular grids:      -1437.9999923107        0.0000076893
  Core density on regular grids:             1437.9999996444       -0.0000003556
  Total charge density on r-space grids:        0.0000073337
  Total charge density g-space grids:           0.0000073337

  Overlap energy of the core charge distribution:               0.00000646839652
  Self energy of the core charge distribution:             -14650.93922905635191
  Core Hamiltonian energy:                                   4107.43082434350436
  Hartree energy:                                            3440.71714281214554
  Exchange-correlation energy:                              -1042.45039614293273
  Dispersion energy:                                           -0.57405616728534

  DFT+U energy:                                                 1.46168889285397

  Total energy:                                             -8144.35401884966905

  outer SCF iter =    1 RMS gradient =   0.75E-05 energy =      -8144.3540188497
  outer SCF loop converged in   1 iterations or   19 steps


  Integrated absolute spin density  :                             235.0721069537
  Ideal and single determinant S**2 :                    0.000000     127.897296

 ENERGY| Total FORCE_EVAL ( QS ) energy (a.u.):            -8144.354018849669046


 -------------------------------------------------------------------------------
 -                                                                             -
 -                                DBCSR STATISTICS                             -
 -                                                                             -
 -------------------------------------------------------------------------------
 COUNTER                                    TOTAL       BLAS       SMM       ACC
 flops     5 x    15 x    15              1039500       0.0%    100.0%      0.0%
 flops    13 x    15 x    15             11969100       0.0%    100.0%      0.0%
 flops    26 x    15 x    15             13899600       0.0%    100.0%      0.0%
 flops     5 x    32 x    32            104079360       0.0%    100.0%      0.0%
 flops     5 x    15 x     5            419721750       0.0%    100.0%      0.0%
 flops    13 x    32 x    32           1198399488       0.0%    100.0%      0.0%
 flops    26 x    32 x    32           1391689728       0.0%    100.0%      0.0%
 flops     5 x     5 x   160           1537536000       0.0%    100.0%      0.0%
 flops     5 x     5 x   175           1681680000       0.0%    100.0%      0.0%
 flops     5 x     5 x   192           3690086400       0.0%    100.0%      0.0%
 flops     5 x    15 x    13           4832796150       0.0%    100.0%      0.0%
 flops    13 x    15 x     5           4832796150       0.0%    100.0%      0.0%
 flops     5 x    15 x    26           5612279400       0.0%    100.0%      0.0%
 flops    26 x    15 x     5           5612279400       0.0%    100.0%      0.0%
 flops    13 x     5 x   160          16890265600       0.0%    100.0%      0.0%
 flops     5 x    13 x   160          16907571200       0.0%    100.0%      0.0%
 flops    13 x     5 x   175          18473728000       0.0%    100.0%      0.0%
 flops     5 x    13 x   175          18492656000       0.0%    100.0%      0.0%
 flops     5 x    26 x   160          19589939200       0.0%    100.0%      0.0%
 flops    26 x     5 x   160          19659161600       0.0%    100.0%      0.0%
 flops     5 x    32 x     5          19698940800       0.0%    100.0%      0.0%
 flops     5 x    26 x   175          21426496000       0.0%    100.0%      0.0%
 flops    26 x     5 x   175          21502208000       0.0%    100.0%      0.0%
 flops   160 x   160 x   160          27172864000     100.0%      0.0%      0.0%
 flops   160 x   160 x   175          29720320000     100.0%      0.0%      0.0%
 flops   160 x   175 x   160          29720320000     100.0%      0.0%      0.0%
 flops   175 x   160 x   160          29720320000     100.0%      0.0%      0.0%
 flops   160 x   175 x   175          32506600000     100.0%      0.0%      0.0%
 flops   175 x   160 x   175          32506600000     100.0%      0.0%      0.0%
 flops   175 x   175 x   160          32506600000     100.0%      0.0%      0.0%
 flops   175 x   175 x   175          35554093750     100.0%      0.0%      0.0%
 flops    13 x     5 x   192          40536637440       0.0%    100.0%      0.0%
 flops     5 x    13 x   192          40578170880       0.0%    100.0%      0.0%
 flops     5 x    26 x   192          47015854080       0.0%    100.0%      0.0%
 flops    26 x     5 x   192          47181987840       0.0%    100.0%      0.0%
 flops    13 x    15 x    13          55646195670       0.0%    100.0%      0.0%
 flops   160 x   160 x   678          57138585600     100.0%      0.0%      0.0%
 flops   160 x   175 x   678          62495328000     100.0%      0.0%      0.0%
 flops   175 x   160 x   678          62495328000     100.0%      0.0%      0.0%
 flops    26 x    15 x    13          64621388520       0.0%    100.0%      0.0%
 flops    13 x    15 x    26          64621388520       0.0%    100.0%      0.0%
 flops   160 x   160 x   192          65214873600     100.0%      0.0%      0.0%
 flops   160 x   192 x   160          65214873600     100.0%      0.0%      0.0%
 flops   192 x   160 x   160          65214873600     100.0%      0.0%      0.0%
 flops   175 x   175 x   678          68354265000     100.0%      0.0%      0.0%
 flops   160 x   175 x   192          71328768000     100.0%      0.0%      0.0%
 flops   160 x   192 x   175          71328768000     100.0%      0.0%      0.0%
 flops   175 x   160 x   192          71328768000     100.0%      0.0%      0.0%
 flops   175 x   192 x   160          71328768000     100.0%      0.0%      0.0%
 flops   192 x   160 x   175          71328768000     100.0%      0.0%      0.0%
 flops   192 x   175 x   160          71328768000     100.0%      0.0%      0.0%
 flops    26 x    15 x    26          75044193120       0.0%    100.0%      0.0%
 flops   175 x   175 x   192          78015840000     100.0%      0.0%      0.0%
 flops   175 x   192 x   175          78015840000     100.0%      0.0%      0.0%
 flops   192 x   175 x   175          78015840000     100.0%      0.0%      0.0%
 flops   678 x   160 x   160          83798630400     100.0%      0.0%      0.0%
 flops   678 x   160 x   678          88259328000     100.0%      0.0%      0.0%
 flops   678 x   160 x   175          91654752000     100.0%      0.0%      0.0%
 flops   678 x   175 x   160          91654752000     100.0%      0.0%      0.0%
 flops   678 x   175 x   678          96533640000     100.0%      0.0%      0.0%
 flops   678 x   175 x   175         100247385000     100.0%      0.0%      0.0%
 flops   160 x   192 x   678         137132605440     100.0%      0.0%      0.0%
 flops   192 x   160 x   678         137132605440     100.0%      0.0%      0.0%
 flops   175 x   192 x   678         149988787200     100.0%      0.0%      0.0%
 flops   192 x   175 x   678         149988787200     100.0%      0.0%      0.0%
 flops   192 x   192 x   160         156515696640     100.0%      0.0%      0.0%
 flops   160 x   192 x   192         156515696640     100.0%      0.0%      0.0%
 flops   192 x   160 x   192         156515696640     100.0%      0.0%      0.0%
 flops   192 x   192 x   175         171189043200     100.0%      0.0%      0.0%
 flops   175 x   192 x   192         171189043200     100.0%      0.0%      0.0%
 flops   192 x   175 x   192         171189043200     100.0%      0.0%      0.0%
 flops   160 x   160 x   680         171921408000     100.0%      0.0%      0.0%
 flops   160 x   175 x   680         188039040000     100.0%      0.0%      0.0%
 flops   175 x   160 x   680         188039040000     100.0%      0.0%      0.0%
 flops    13 x    13 x   160         196671221760       0.0%    100.0%      0.0%
 flops   678 x   160 x   192         201116712960     100.0%      0.0%      0.0%
 flops   678 x   192 x   160         201116712960     100.0%      0.0%      0.0%
 flops   175 x   175 x   680         205667700000     100.0%      0.0%      0.0%
 flops   678 x   192 x   678         211822387200     100.0%      0.0%      0.0%
 flops    13 x    13 x   175         215109148800       0.0%    100.0%      0.0%
 flops   678 x   175 x   192         219971404800     100.0%      0.0%      0.0%
 flops   678 x   192 x   175         219971404800     100.0%      0.0%      0.0%
 flops    26 x    13 x   160         225782702080       0.0%    100.0%      0.0%
 flops    13 x    26 x   160         226142658560       0.0%    100.0%      0.0%
 flops     5 x    32 x    13         226819232640       0.0%    100.0%      0.0%
 flops    13 x    32 x     5         226819232640       0.0%    100.0%      0.0%
 flops    26 x    13 x   175         246949830400       0.0%    100.0%      0.0%
 flops    13 x    26 x   175         247343532800       0.0%    100.0%      0.0%
 flops   680 x   160 x   160         252137472000     100.0%      0.0%      0.0%
 flops     5 x    32 x    26         263402979840       0.0%    100.0%      0.0%
 flops    26 x    32 x     5         263402979840       0.0%    100.0%      0.0%
 flops   678 x   160 x   680         265559040000     100.0%      0.0%      0.0%
 flops   680 x   160 x   678         265559040000     100.0%      0.0%      0.0%
 flops    26 x    26 x   160         267267686400       0.0%    100.0%      0.0%
 flops   680 x   160 x   175         275775360000     100.0%      0.0%      0.0%
 flops   680 x   175 x   160         275775360000     100.0%      0.0%      0.0%
 flops   678 x   175 x   680         290455200000     100.0%      0.0%      0.0%
 flops   680 x   175 x   678         290455200000     100.0%      0.0%      0.0%
 flops    26 x    26 x   175         292324032000       0.0%    100.0%      0.0%
 flops   680 x   175 x   175         301629300000     100.0%      0.0%      0.0%
 flops   192 x   192 x   678         329118253056     100.0%      0.0%      0.0%
 flops   192 x   192 x   192         375637671936     100.0%      0.0%      0.0%
 flops   160 x   192 x   680         412611379200     100.0%      0.0%      0.0%
 flops   192 x   160 x   680         412611379200     100.0%      0.0%      0.0%
 flops   175 x   192 x   680         451293696000     100.0%      0.0%      0.0%
 flops   192 x   175 x   680         451293696000     100.0%      0.0%      0.0%
 flops    13 x    13 x   192         472010932224       0.0%    100.0%      0.0%
 flops   678 x   192 x   192         482680111104     100.0%      0.0%      0.0%
 flops    26 x    13 x   192         541878484992       0.0%    100.0%      0.0%
 flops    13 x    26 x   192         542742380544       0.0%    100.0%      0.0%
 flops   680 x   192 x   160         605129932800     100.0%      0.0%      0.0%
 flops   680 x   160 x   192         605129932800     100.0%      0.0%      0.0%
 flops   680 x   192 x   678         637341696000     100.0%      0.0%      0.0%
 flops   678 x   192 x   680         637341696000     100.0%      0.0%      0.0%
 flops    26 x    26 x   192         641442447360       0.0%    100.0%      0.0%
 flops   680 x   192 x   175         661860864000     100.0%      0.0%      0.0%
 flops   680 x   175 x   192         661860864000     100.0%      0.0%      0.0%
 flops   680 x   160 x   680         799027200000     100.0%      0.0%      0.0%
 flops   680 x   175 x   680         873936000000     100.0%      0.0%      0.0%
 flops   192 x   192 x   680         990267310080     100.0%      0.0%      0.0%
 flops   680 x   192 x   192        1452311838720     100.0%      0.0%      0.0%
 flops   680 x   192 x   680        1917665280000     100.0%      0.0%      0.0%
 flops    13 x    32 x    13        2611661450112       0.0%    100.0%      0.0%
 flops    26 x    32 x    13        3032897167872       0.0%    100.0%      0.0%
 flops    13 x    32 x    26        3032897167872       0.0%    100.0%      0.0%
 flops    26 x    32 x    26        3522074130432       0.0%    100.0%      0.0%
 flops inhomo. stacks                           0       0.0%      0.0%      0.0%
 flops total                        38.183658E+12      53.0%     47.0%      0.0%
 flops max/rank                      2.572373E+12      53.8%     46.2%      0.0%
 matmuls inhomo. stacks                         0       0.0%      0.0%      0.0%
 matmuls total                          871613712       0.1%     99.9%      0.0%
 number of processed stacks               2361600      21.6%     78.4%      0.0%
 average stack size                                     1.0     470.6       0.0
 marketing flops                    42.691908E+12
 -------------------------------------------------------------------------------
 # multiplications                          10122
 max memory usage/rank             992.604160E+06
 # max total images/rank                        1
 # max 3D layers                                1
 # MPI messages exchanged                  971712
 MPI messages size (bytes):
  total size                       877.981860E+09
  min size                           0.000000E+00
  max size                           3.699200E+06
  average size                     903.541250E+03
 MPI breakdown and total messages size (bytes):
             size <=      128                2904                        0
       128 < size <=     8192                   0                        0
      8192 < size <=    32768                   0                        0
     32768 < size <=   131072                 264                 12013584
    131072 < size <=  4194304              968544             877991535504
   4194304 < size <= 16777216                   0                        0
  16777216 < size                               0                        0
 -------------------------------------------------------------------------------
 
 MEMORY| Estimated peak process memory [MiB]                                 947

 -------------------------------------------------------------------------------
 -                                                                             -
 -                         MESSAGE PASSING PERFORMANCE                         -
 -                                                                             -
 -------------------------------------------------------------------------------

 ROUTINE             CALLS      AVE VOLUME [Bytes]
 MP_Group              891
 MP_Bcast            33837                  39387.
 MP_Allreduce       140759                    597.
 MP_Sync               567
 MP_Alltoall         47012                3055532.
 MP_SendRecv          9464                 518479.
 MP_ISendRecv        49950                 105472.
 MP_Wait            594009
 MP_comm_split         562
 MP_ISend           211124                 465348.
 MP_IRecv           211124                 460858.
 MP_Recv              1059                 623555.
 MP_Memory          442208
 -------------------------------------------------------------------------------


 -------------------------------------------------------------------------------
 -                                                                             -
 -                           R E F E R E N C E S                               -
 -                                                                             -
 -------------------------------------------------------------------------------
 
 CP2K version 6.1, the CP2K developers group (2018).
 CP2K is freely available from https://www.cp2k.org/ .

 Schuett, Ole; Messmer, Peter; Hutter, Juerg; VandeVondele, Joost. 
 Electronic Structure Calculations on Graphics Processing Units, John Wiley & Sons, Ltd, 173-190 (2016). 
 GPU-Accelerated Sparse Matrix-Matrix Multiplication for Linear Scaling Density Functional Theory.
 http://dx.doi.org/10.1002/9781118670712.ch8


 Borstnik, U; VandeVondele, J; Weber, V; Hutter, J. 
 PARALLEL COMPUTING, 40 (5-6), 47-58 (2014). 
 Sparse matrix multiplication: The distributed block-compressed sparse
 row library.
 http://dx.doi.org/10.1016/j.parco.2014.03.012


 Hutter, J; Iannuzzi, M; Schiffmann, F; VandeVondele, J. 
 WILEY INTERDISCIPLINARY REVIEWS-COMPUTATIONAL MOLECULAR SCIENCE, 4 (1), 15-25 (2014). 
 CP2K: atomistic simulations of condensed matter systems.
 http://dx.doi.org/10.1002/wcms.1159


 Grimme, S; Ehrlich, S; Goerigk, L. 
 JOURNAL OF COMPUTATIONAL CHEMISTRY, 32, 1456 (2011). 
 Effect of the damping function in dispersion corrected density functional theory.
 http://dx.doi.org/10.1002/jcc.21759


 Grimme, S; Antony, J; Ehrlich, S; Krieg, H. 
 JOURNAL OF CHEMICAL PHYSICS, 132 (15), 154104 (2010). 
 A consistent and accurate ab initio parametrization of density
 functional dispersion correction (DFT-D) for the 94 elements H-Pu.
 http://dx.doi.org/10.1063/1.3382344


 VandeVondele, J; Hutter, J. 
 JOURNAL OF CHEMICAL PHYSICS, 127 (11), 114105 (2007). 
 Gaussian basis sets for accurate calculations on molecular systems in
 gas and condensed phases.
 http://dx.doi.org/10.1063/1.2770708


 Krack, M. 
 THEORETICAL CHEMISTRY ACCOUNTS, 114 (1-3), 145-152 (2005). 
 Pseudopotentials for H to Kr optimized for gradient-corrected
 exchange-correlation functionals.
 http://dx.doi.org/10.1007/s00214-005-0655-y


 VandeVondele, J; Krack, M; Mohamed, F; Parrinello, M; Chassaing, T;
 Hutter, J. COMPUTER PHYSICS COMMUNICATIONS, 167 (2), 103-128 (2005). 
 QUICKSTEP: Fast and accurate density functional calculations using a
 mixed Gaussian and plane waves approach.
 http://dx.doi.org/10.1016/j.cpc.2004.12.014


 Frigo, M; Johnson, SG. 
 PROCEEDINGS OF THE IEEE, 93 (2), 216-231 (2005). 
 The design and implementation of FFTW3.
 http://dx.doi.org/10.1109/JPROC.2004.840301


 VandeVondele, J; Hutter, J. 
 JOURNAL OF CHEMICAL PHYSICS, 118 (10), 4365-4369 (2003). 
 An efficient orbital transformation method for electronic structure
 calculations.
 http://dx.doi.org/10.1063/1.1543154


 Hartwigsen, C; Goedecker, S; Hutter, J. 
 PHYSICAL REVIEW B, 58 (7), 3641-3662 (1998). 
 Relativistic separable dual-space Gaussian pseudopotentials from H to Rn.
 http://dx.doi.org/10.1103/PhysRevB.58.3641


 Dudarev, SL; Botton, GA; Savrasov, SY; Humphreys, CJ; Sutton, AP. 
 PHYSICAL REVIEW B, 57 (3), 1505-1509 (1998). 
 Electron-energy-loss spectra and the structural stability of
 nickel oxide: An LSDA+U study.
 http://dx.doi.org/10.1103/PhysRevB.57.1505


 Lippert, G; Hutter, J; Parrinello, M. 
 MOLECULAR PHYSICS, 92 (3), 477-487 (1997). 
 A hybrid Gaussian and plane wave density functional scheme.
 http://dx.doi.org/10.1080/002689797170220


 Dudarev, SL; Manh, DN; Sutton, AP. 
 PHILOSOPHICAL MAGAZINE B, 75 (5), 613-628 (1997). 
 Effect of Mott-Hubbard correlations on the electronic
 structure and structural stability of uranium dioxide.
 http://dx.doi.org/10.1080/13642819708202343


 Perdew, JP; Burke, K; Ernzerhof, M. 
 PHYSICAL REVIEW LETTERS, 77 (18), 3865-3868 (1996). 
 Generalized gradient approximation made simple.
 http://dx.doi.org/10.1103/PhysRevLett.77.3865


 Goedecker, S; Teter, M; Hutter, J. 
 PHYSICAL REVIEW B, 54 (3), 1703-1710 (1996). 
 Separable dual-space Gaussian pseudopotentials.
 http://dx.doi.org/10.1103/PhysRevB.54.1703


 -------------------------------------------------------------------------------
 -                                                                             -
 -                                T I M I N G                                  -
 -                                                                             -
 -------------------------------------------------------------------------------
 SUBROUTINE                       CALLS  ASD         SELF TIME        TOTAL TIME
                                MAXIMUM       AVERAGE  MAXIMUM  AVERAGE  MAXIMUM
 CP2K                                 1  1.0    0.051    0.066 4363.439 4363.527
 cp_geo_opt                           1  2.0    0.002    0.002 4362.492 4362.579
 geoopt_bfgs                          1  3.0    0.024    0.028 4362.491 4362.577
 cp_eval_at                          11  4.0    0.002    0.002 4361.679 4361.766
 qs_energies                         11  5.9    0.002    0.004 4186.073 4186.161
 qs_forces                           10  5.0    0.003    0.003 4151.048 4151.130
 scf_env_do_scf                      11  6.9    0.004    0.005 4053.007 4053.088
 scf_env_do_scf_inner_loop          395  8.0    0.037    0.195 3927.505 3927.639
 qs_rho_update_rho                  406  9.0    0.006    0.007 2628.438 2628.628
 calculate_rho_elec                 812 10.0 1997.227 2132.820 2628.432 2628.622
 rebuild_ks_matrix                  405  9.9    0.005    0.005 1336.358 1336.706
 qs_ks_build_kohn_sham_matrix       405 10.9    0.102    0.107 1336.353 1336.701
 qs_ks_update_qs_env                406  9.0    0.007    0.011 1181.117 1181.443
 sum_up_and_integrate               149 11.8    5.863    5.929  928.296  928.394
 integrate_v_rspace                 298 12.8  705.404  776.304  922.431  922.567
 density_rs2pw                      812 11.0    0.068    0.074  579.839  677.259
 pw_transfer                       7332 12.6    0.884    0.925  462.971  464.932
 fft_wrap_pw1pw2                   6522 13.6    0.078    0.084  448.276  450.297
 fft_wrap_pw1pw2_200               2082 14.3   55.964   57.562  418.336  421.668
 rs_pw_transfer                    5571 12.7    0.078    0.085  279.565  376.198
 fft3d_ps                          6522 15.6  184.059  187.021  319.167  322.275
 qs_vxc_create                      405 11.9    0.010    0.011  289.653  290.283
 rs_pw_transfer_RS2PW_200           823 12.9   40.043   51.953  181.470  276.869
 qs_scf_new_mos                     395  9.0    0.005    0.008  268.624  269.471
 qs_scf_loop_do_ot                  395 10.0    0.011    0.024  268.619  269.466
 mp_waitany                       49260 14.7  157.703  251.256  157.703  251.256
 dbcsr_multiply_generic           10122 13.6    0.651    0.698  246.944  248.614
 ot_scf_mini                        395 11.0    0.052    0.065  238.622  239.297
 xc_rho_set_and_dset_create         405 13.9   22.045   22.260  204.268  207.127
 multiply_cannon                  10122 14.6    1.503    1.981  169.623  178.994
 xc_vxc_pw_create                   149 12.8   45.009   46.020  161.114  161.742
 qs_ks_update_qs_env_forces          10  6.0    0.000    0.000  157.282  157.308
 potential_pw2rs                    298 13.8    0.371    0.390  138.988  139.309
 xc_exc_calc                        256 13.0    0.876    0.880  128.528  128.531
 multiply_cannon_multrec          40488 15.6  120.050  125.448  120.142  125.550
 init_scf_loop                       11  7.9    0.001    0.002  125.238  125.244
 rs_distribute_matrix              1130 11.7    9.503   15.374   94.959  122.713
 mp_alltoall_d11v                 10012 15.6   81.996  115.939   81.996  115.939
 pw_nn_compose_r                   4432 14.6   81.211   82.608   89.547   92.556
 xc_functional_eval                 405 14.9    0.007    0.008   88.301   90.701
 pbe_lsd_eval                       405 15.9   88.294   90.695   88.294   90.695
 -------------------------------------------------------------------------------

 The number of warnings for this run is : 1
 
 -------------------------------------------------------------------------------
  **** **** ******  **  PROGRAM ENDED AT                 2020-10-07 13:36:43.417
 ***** ** ***  *** **   PROGRAM RAN ON                                 irene6280
 **    ****   ******    PROGRAM RAN BY                                  marticar
 ***** **    ** ** **   PROGRAM PROCESS ID                                 60127
  **** **  *******  **  PROGRAM STOPPED IN /ccc/scratch/cont003/gen0609/marticar
                                           /684141
