       6
 i =        1, E =       -23.0783919902
  C        -0.4903317433        0.0047785369       -0.0081525036
  C         0.9666684604       -0.0092117068        0.0162559082
  H        -0.8883822483       -0.1171748355        1.0072233098
  H        -0.8540955422        0.9561985945       -0.4165488723
  H        -0.8671621795       -0.8137288991       -0.6345907354
  N         2.1343581272       -0.0207510088        0.0358384117
       6
 i =        2, E =       -23.0784067563
  C        -0.4878492174        0.0048432593       -0.0081093247
  C         0.9662257471       -0.0091322760        0.0162867606
  H        -0.8885169284       -0.1171360849        1.0075393320
  H        -0.8543651363        0.9565344177       -0.4166784728
  H        -0.8672503322       -0.8139769256       -0.6347457023
  N         2.1339718380       -0.0209473428        0.0356279279
       6
 i =        3, E =       -23.0784087937
  C        -0.4866234535        0.0049323667       -0.0080353564
  C         0.9659214321       -0.0090744491        0.0161631888
  H        -0.8881194332       -0.1170633522        1.0077536071
  H        -0.8540444709        0.9567243563       -0.4167479661
  H        -0.8667534905       -0.8140747300       -0.6347737246
  N         2.1333630804       -0.0212071910        0.0353861665
       6
 i =        4, E =       -23.0784087937
  C        -0.4866234535        0.0049323667       -0.0080353564
  C         0.9659214321       -0.0090744491        0.0161631888
  H        -0.8881194332       -0.1170633522        1.0077536071
  H        -0.8540444709        0.9567243563       -0.4167479661
  H        -0.8667534905       -0.8140747300       -0.6347737246
  N         2.1333630804       -0.0212071910        0.0353861665
