 DBCSR| Multiplication driver                                               XSMM
 DBCSR| Multrec recursion limit                                              512
 DBCSR| Multiplication stack size                                           1000
 DBCSR| Maximum elements for images                                    UNLIMITED
 DBCSR| Multiplicative factor virtual images                                   1
 DBCSR| Multiplication size stacks                                             3
 DBCSR| Number of 3D layers                                               SINGLE
 DBCSR| Use MPI memory allocation                                              T
 DBCSR| Use RMA algorithm                                                      F
 DBCSR| Use Communication thread                                               T
 DBCSR| Communication thread load                                             87


  **** **** ******  **  PROGRAM STARTED AT               2020-10-29 15:22:47.468
 ***** ** ***  *** **   PROGRAM STARTED ON                             irene3078
 **    ****   ******    PROGRAM STARTED BY                              marticar
 ***** **    ** ** **   PROGRAM PROCESS ID                                  4458
  **** **  *******  **  PROGRAM STARTED IN /ccc/scratch/cont003/gen0609/marticar
                                           /5720097

 CP2K| version string:                                          CP2K version 6.1
 CP2K| source code revision number:                                    svn:18464
 CP2K| cp2kflags: libint fftw3 parallel mpi3 scalapack xsmm mkl                 
 CP2K| is freely available from                            https://www.cp2k.org/
 CP2K| Program compiled at                          Mon Dec 24 15:18:38 CET 2018
 CP2K| Program compiled on                                             cobalt170
 CP2K| Program compiled for                                   Linux-x86-64-iomkl
 CP2K| Data directory path          /tmp/cp2k/6.1/iomkl-174196.202/cp2k-6.1/data
 CP2K| Input file name                                             screening.inp
 
 GLOBAL| Force Environment number                                              1
 GLOBAL| Basis set file name            /ccc/work/cont003/gen0609/marticar/data/
 GLOBAL| Potential file name            /ccc/work/cont003/gen0609/marticar/data/
 GLOBAL| MM Potential file name                                     MM_POTENTIAL
 GLOBAL| Coordinate file name                                          coord.xyz
 GLOBAL| Method name                                                        CP2K
 GLOBAL| Project name                                         sorbitol_screening
 GLOBAL| Preferred FFT library                                             FFTW3
 GLOBAL| Preferred diagonalization lib.                                       SL
 GLOBAL| Run type                                                        GEO_OPT
 GLOBAL| All-to-all communication in single precision                          F
 GLOBAL| FFTs using library dependent lengths                                  F
 GLOBAL| Global print level                                                  LOW
 GLOBAL| Total number of message passing processes                            64
 GLOBAL| Number of threads for this process                                    1
 GLOBAL| This output is from process                                           0
 GLOBAL| CPU model name :  Intel(R) Xeon Phi(TM) CPU 7250 @ 1.40GHz

 MEMORY| system memory details [Kb]
 MEMORY|                        rank 0           min           max       average
 MEMORY| MemTotal             98253748      98253748      98253748      98253748
 MEMORY| MemFree              70173332      70173332      70173332      70173332
 MEMORY| Buffers                     0             0             0             0
 MEMORY| Cached                1155076       1155076       1155076       1155076
 MEMORY| Slab                   875676        875676        875844        875799
 MEMORY| SReclaimable           104440        104440        104440        104440
 MEMORY| MemLikelyFree        71432848      71432848      71432848      71432848

 
 GENERATE|  Preliminary Number of Bonds generated:                             0
 GENERATE|  Achieved consistency in connectivity generation.

 *******************************************************************************
 *******************************************************************************
 **                                                                           **
 **     #####                         ##              ##                      **
 **    ##   ##            ##          ##              ##                      **
 **   ##     ##                       ##            ######                    **
 **   ##     ##  ##   ##  ##   #####  ##  ##   ####   ##    #####    #####    **
 **   ##     ##  ##   ##  ##  ##      ## ##   ##      ##   ##   ##  ##   ##   **
 **   ##  ## ##  ##   ##  ##  ##      ####     ###    ##   ######   ######    **
 **    ##  ###   ##   ##  ##  ##      ## ##      ##   ##   ##       ##        **
 **     #######   #####   ##   #####  ##  ##  ####    ##    #####   ##        **
 **           ##                                                    ##        **
 **                                                                           **
 **                                                ... make the atoms dance   **
 **                                                                           **
 **            Copyright (C) by CP2K developers group (2000 - 2018)           **
 **                                                                           **
 *******************************************************************************


 TOTAL NUMBERS AND MAXIMUM NUMBERS

  Total number of            - Atomic kinds:                                   6
                             - Atoms:                                        161
                             - Shell sets:                                   161
                             - Shells:                                       939
                             - Primitive Cartesian functions:               1073
                             - Cartesian basis functions:                   3046
                             - Spherical basis functions:                   2683

  Maximum angular momentum of- Orbital basis functions:                        3
                             - Local part of the GTH pseudopotential:          2
                             - Non-local part of the GTH pseudopotential:      3


 SCF PARAMETERS         Density guess:                                   RESTART
                        --------------------------------------------------------
                        max_scf:                                             500
                        max_scf_history:                                       0
                        max_diis:                                              4
                        --------------------------------------------------------
                        eps_scf:                                        1.00E-05
                        eps_scf_history:                                0.00E+00
                        eps_diis:                                       1.00E-01
                        eps_eigval:                                     1.00E-05
                        --------------------------------------------------------
                        level_shift [a.u.]:                                 0.00
                        --------------------------------------------------------
                        Outer loop SCF in use 
                        No variables optimised in outer loop
                        eps_scf                                         1.00E-05
                        max_scf                                               10
                        No outer loop optimization
                        step_size                                       5.00E-01

 BFGS| Use rational function optimization for step estimation:                NO
 BFGS| Use model Hessian for initial guess:                                  YES
 BFGS| Restart Hessian:                                                       NO
 BFGS| Trust radius:                                                       0.472

 *******************************************************************************
 ***                     STARTING GEOMETRY OPTIMIZATION                      ***
 ***                                   BFGS                                  ***
 *******************************************************************************

 Spin 1

 Number of electrons:                                                        712
 Number of occupied orbitals:                                                712
 Number of molecular orbitals:                                               712

 Spin 2

 Number of electrons:                                                        712
 Number of occupied orbitals:                                                712
 Number of molecular orbitals:                                               712

 Number of orbital functions:                                               2683
 Number of independent orbital functions:                                   2683

 Extrapolation method: initial_guess

 *** WARNING in qs_initial_guess.F:263 :: User requested to restart the  ***
 *** wavefunction from the file named: sorbitol_screening-RESTART.wfn.   ***
 *** This file does not exist. Please check the existence of the file or ***
 *** change properly the value of the keyword WFN_RESTART_FILE_NAME.     ***
 *** Calculation continues using ATOMIC GUESS.                           ***



 SCF WAVEFUNCTION OPTIMIZATION

  ----------------------------------- OT ---------------------------------------
  Minimizer      : CG                  : conjugate gradient
  Preconditioner : FULL_ALL            : diagonalization, state selective
  Precond_solver : DEFAULT
  Line search    : 3PNT                : 3 energies
  stepsize       :    0.15000000                  energy_gap     :    0.08000000
  eps_taylor     :   0.10000E-15                  max_taylor     :             4
  ----------------------------------- OT ---------------------------------------

  Step     Update method      Time    Convergence         Total energy    Change
  ------------------------------------------------------------------------------
     1 OT CG       0.12E+00   21.8     0.01885585     -7994.1330528074 -7.99E+03
     2 OT LS       0.17E+00    9.6                    -8078.5037599037
     3 OT LS       0.14E+00    9.6                    -8077.9469643078
     4 OT CG       0.11E+00   18.2     0.00451794     -8079.3999947218 -8.53E+01
     5 OT LS       0.16E+00    9.6                    -8086.7608444040
     6 OT LS       0.34E+00    9.6                    -8088.8708018777

 *** WARNING in dft_plus_u.F:2007 :: DFT+U energy contibution is negative ***
 *** possibly due to unphysical Mulliken charges. Check your input, if    ***
 *** this warning persists or try a different method!                     ***

     7 OT CG       0.27E+00   18.2     0.00285017     -8092.5060951401 -1.31E+01

 *** WARNING in dft_plus_u.F:2007 :: DFT+U energy contibution is negative ***
 *** possibly due to unphysical Mulliken charges. Check your input, if    ***
 *** this warning persists or try a different method!                     ***

     8 OT LS       0.38E+00    9.6                    -8097.7104150088

 *** WARNING in dft_plus_u.F:2007 :: DFT+U energy contibution is negative ***
 *** possibly due to unphysical Mulliken charges. Check your input, if    ***
 *** this warning persists or try a different method!                     ***

     9 OT LS       0.36E+00    9.6                    -8098.0190795702

 *** WARNING in dft_plus_u.F:2007 :: DFT+U energy contibution is negative ***
 *** possibly due to unphysical Mulliken charges. Check your input, if    ***
 *** this warning persists or try a different method!                     ***

    10 OT CG       0.29E+00   18.1     0.00225942     -8098.0378571812 -5.53E+00
    11 OT LS       0.40E+00    9.6                    -8099.3240353344
    12 OT LS       0.19E+00    9.6                    -8097.4209962444

 *** WARNING in dft_plus_u.F:2007 :: DFT+U energy contibution is negative ***
 *** possibly due to unphysical Mulliken charges. Check your input, if    ***
 *** this warning persists or try a different method!                     ***

    13 OT CG       0.15E+00   18.1     0.00208565     -8099.8557831393 -1.82E+00
    14 OT LS       0.21E+00    9.6                    -8101.5330245223
    15 OT LS       0.23E+00    9.6                    -8101.7568276305
    16 OT CG       0.18E+00   18.1     0.00158264     -8101.7749038110 -1.92E+00
    17 OT LS       0.26E+00    9.6                    -8102.5530058325
    18 OT LS       0.16E+00    9.6                    -8102.3063298674
    19 OT CG       0.13E+00   18.1     0.00117841     -8102.5646934395 -7.90E-01
    20 OT LS       0.18E+00    9.6                    -8103.0366645292
    21 OT LS       0.20E+00    9.6                    -8103.0972999979
    22 OT CG       0.16E+00   18.2     0.00094066     -8103.1010982712 -5.36E-01
    23 OT LS       0.23E+00    9.6                    -8103.3968093862
    24 OT LS       0.18E+00    9.6                    -8103.3752201564
    25 OT CG       0.14E+00   18.1     0.00073428     -8103.3989618860 -2.98E-01
    26 OT LS       0.20E+00    9.6                    -8103.5965179242
    27 OT LS       0.22E+00    9.6                    -8103.6234436437
    28 OT CG       0.18E+00   18.1     0.00069739     -8103.6258293566 -2.27E-01
    29 OT LS       0.25E+00    9.6                    -8103.8077546888
    30 OT LS       0.20E+00    9.6                    -8103.7989020434
    31 OT CG       0.16E+00   18.1     0.00058257     -8103.8100392719 -1.84E-01
    32 OT LS       0.22E+00    9.6                    -8103.9365098139
    33 OT LS       0.20E+00    9.6                    -8103.9425547036
    34 OT CG       0.16E+00   18.2     0.00053693     -8103.9434574207 -1.33E-01
    35 OT LS       0.23E+00    9.6                    -8104.0548775910
    36 OT LS       0.21E+00    9.6                    -8104.0601479271
    37 OT CG       0.17E+00   18.1     0.00047955     -8104.0609777945 -1.18E-01
    38 OT LS       0.24E+00    9.6                    -8104.1453484633
    39 OT LS       0.19E+00    9.6                    -8104.1423270507
    40 OT CG       0.16E+00   18.1     0.00042082     -8104.1467203835 -8.57E-02
    41 OT LS       0.22E+00    9.6                    -8104.2151499132
    42 OT LS       0.22E+00    9.6                    -8104.2217593990
    43 OT CG       0.18E+00   18.2     0.00039587     -8104.2217728795 -7.51E-02
    44 OT LS       0.25E+00    9.6                    -8104.2811388804
    45 OT LS       0.20E+00    9.6                    -8104.2787707476
    46 OT CG       0.16E+00   18.1     0.00033631     -8104.2820290795 -6.03E-02
    47 OT LS       0.22E+00    9.6                    -8104.3247950518
    48 OT LS       0.21E+00    9.6                    -8104.3269416057
    49 OT CG       0.17E+00   18.1     0.00030950     -8104.3272101387 -4.52E-02
    50 OT LS       0.23E+00    9.6                    -8104.3642723921
    51 OT LS       0.21E+00    9.6                    -8104.3656313128
    52 OT CG       0.17E+00   18.1     0.00027303     -8104.3660364702 -3.88E-02
    53 OT LS       0.24E+00    9.6                    -8104.3937734842
    54 OT LS       0.20E+00    9.6                    -8104.3933204194
    55 OT CG       0.16E+00   18.2     0.00023654     -8104.3943896910 -2.84E-02
    56 OT LS       0.22E+00    9.6                    -8104.4155571198
    57 OT LS       0.21E+00    9.6                    -8104.4168135307
    58 OT CG       0.17E+00   18.2     0.00020905     -8104.4168926929 -2.25E-02
    59 OT LS       0.24E+00    9.6                    -8104.4333129933
    60 OT LS       0.20E+00    9.6                    -8104.4333360237
    61 OT CG       0.16E+00   18.1     0.00018163     -8104.4337928356 -1.69E-02
    62 OT LS       0.23E+00    9.6                    -8104.4463372681
    63 OT LS       0.21E+00    9.6                    -8104.4469505815
    64 OT CG       0.17E+00   18.1     0.00016162     -8104.4470334577 -1.32E-02
    65 OT LS       0.24E+00    9.6                    -8104.4570093476
    66 OT LS       0.21E+00    9.6                    -8104.4571944020
    67 OT CG       0.17E+00   18.2     0.00014227     -8104.4573816438 -1.03E-02
    68 OT LS       0.23E+00    9.6                    -8104.4651312391
    69 OT LS       0.21E+00    9.6                    -8104.4653865998
    70 OT CG       0.17E+00   18.2     0.00012779     -8104.4654821671 -8.10E-03
    71 OT LS       0.23E+00    9.6                    -8104.4717956111
    72 OT LS       0.21E+00    9.6                    -8104.4720004282
    73 OT CG       0.17E+00   18.1     0.00011350     -8104.4720796408 -6.60E-03
    74 OT LS       0.24E+00    9.6                    -8104.4769622969
    75 OT LS       0.20E+00    9.6                    -8104.4769847982
    76 OT CG       0.16E+00   18.2     0.00010090     -8104.4771117848 -5.03E-03
    77 OT LS       0.23E+00    9.6                    -8104.4810349867
    78 OT LS       0.21E+00    9.6                    -8104.4812380571
    79 OT CG       0.17E+00   18.1     0.00009169     -8104.4812605975 -4.15E-03
    80 OT LS       0.24E+00    9.6                    -8104.4844820675
    81 OT LS       0.21E+00    9.6                    -8104.4845053578
    82 OT CG       0.17E+00   18.2     0.00008087     -8104.4845845407 -3.32E-03
    83 OT LS       0.23E+00    9.6                    -8104.4871010279
    84 OT LS       0.21E+00    9.6                    -8104.4872002767
    85 OT CG       0.17E+00   18.2     0.00007277     -8104.4872249792 -2.64E-03
    86 OT LS       0.24E+00    9.6                    -8104.4892857678
    87 OT LS       0.21E+00    9.6                    -8104.4893488575
    88 OT CG       0.17E+00   18.1     0.00006537     -8104.4893762668 -2.15E-03
    89 OT LS       0.24E+00    9.6                    -8104.4910285022
    90 OT LS       0.21E+00    9.6                    -8104.4910591728
    91 OT CG       0.17E+00   18.2     0.00005842     -8104.4910901714 -1.71E-03
    92 OT LS       0.24E+00    9.6                    -8104.4924085624
    93 OT LS       0.21E+00    9.6                    -8104.4924476867
    94 OT CG       0.17E+00   18.2     0.00005277     -8104.4924657569 -1.38E-03
    95 OT LS       0.24E+00    9.6                    -8104.4935480393
    96 OT LS       0.21E+00    9.6                    -8104.4935811784
    97 OT CG       0.17E+00   18.2     0.00004761     -8104.4935955802 -1.13E-03
    98 OT LS       0.24E+00    9.6                    -8104.4944749944
    99 OT LS       0.21E+00    9.6                    -8104.4944953580
   100 OT CG       0.17E+00   18.2     0.00004297     -8104.4945099485 -9.14E-04
   101 OT LS       0.24E+00    9.6                    -8104.4952226682
   102 OT LS       0.21E+00    9.6                    -8104.4952394532
   103 OT CG       0.17E+00   18.2     0.00003892     -8104.4952511455 -7.41E-04
   104 OT LS       0.24E+00    9.6                    -8104.4958407377
   105 OT LS       0.21E+00    9.6                    -8104.4958621185
   106 OT CG       0.17E+00   18.2     0.00003552     -8104.4958686124 -6.17E-04
   107 OT LS       0.24E+00    9.6                    -8104.4963642710
   108 OT LS       0.21E+00    9.6                    -8104.4963792259
   109 OT CG       0.17E+00   18.2     0.00003252     -8104.4963859116 -5.17E-04
   110 OT LS       0.24E+00    9.6                    -8104.4967977885
   111 OT LS       0.21E+00    9.6                    -8104.4968047311
   112 OT CG       0.17E+00   18.2     0.00002953     -8104.4968128020 -4.27E-04
   113 OT LS       0.24E+00    9.6                    -8104.4971578826
   114 OT LS       0.22E+00    9.6                    -8104.4971736671
   115 OT CG       0.17E+00   18.2     0.00002733     -8104.4971762919 -3.63E-04
   116 OT LS       0.24E+00    9.6                    -8104.4974772248
   117 OT LS       0.22E+00    9.6                    -8104.4974871459
   118 OT CG       0.18E+00   18.2     0.00002530     -8104.4974908555 -3.15E-04
   119 OT LS       0.25E+00    9.6                    -8104.4977476977
   120 OT LS       0.22E+00    9.6                    -8104.4977528621
   121 OT CG       0.17E+00   18.2     0.00002375     -8104.4977574887 -2.67E-04
   122 OT LS       0.24E+00    9.6                    -8104.4979869529
   123 OT LS       0.22E+00    9.6                    -8104.4979966881
   124 OT CG       0.18E+00   18.2     0.00002265     -8104.4979986921 -2.41E-04
   125 OT LS       0.25E+00    9.6                    -8104.4982071352
   126 OT LS       0.22E+00    9.6                    -8104.4982106329
   127 OT CG       0.18E+00   18.1     0.00002158     -8104.4982147245 -2.16E-04
   128 OT LS       0.25E+00    9.6                    -8104.4984046346
   129 OT LS       0.22E+00    9.6                    -8104.4984112440
   130 OT CG       0.18E+00   18.1     0.00002068     -8104.4984134453 -1.99E-04
   131 OT LS       0.25E+00    9.6                    -8104.4985895284
   132 OT LS       0.23E+00    9.6                    -8104.4985950142
   133 OT CG       0.18E+00   18.2     0.00002004     -8104.4985973166 -1.84E-04
   134 OT LS       0.25E+00    9.6                    -8104.4987635268
   135 OT LS       0.23E+00    9.6                    -8104.4987683860
   136 OT CG       0.18E+00   18.2     0.00001922     -8104.4987706936 -1.73E-04
   137 OT LS       0.25E+00    9.6                    -8104.4989235808
   138 OT LS       0.23E+00    9.6                    -8104.4989275196
   139 OT CG       0.18E+00   18.1     0.00001853     -8104.4989298741 -1.59E-04
   140 OT LS       0.25E+00    9.6                    -8104.4990725452
   141 OT LS       0.23E+00    9.6                    -8104.4990769782
   142 OT CG       0.18E+00   18.2     0.00001788     -8104.4990788480 -1.49E-04
   143 OT LS       0.25E+00    9.6                    -8104.4992118141
   144 OT LS       0.23E+00    9.6                    -8104.4992151063
   145 OT CG       0.18E+00   18.2     0.00001721     -8104.4992172146 -1.38E-04
   146 OT LS       0.25E+00    9.6                    -8104.4993382165
   147 OT LS       0.22E+00    9.6                    -8104.4993394788
   148 OT CG       0.18E+00   18.2     0.00001633     -8104.4993422451 -1.25E-04
   149 OT LS       0.25E+00    9.6                    -8104.4994514817
   150 OT LS       0.22E+00    9.6                    -8104.4994554885
   151 OT CG       0.18E+00   18.2     0.00001568     -8104.4994566744 -1.14E-04
   152 OT LS       0.25E+00    9.6                    -8104.4995575218
   153 OT LS       0.22E+00    9.6                    -8104.4995598955
   154 OT CG       0.18E+00   18.1     0.00001500     -8104.4995615504 -1.05E-04
   155 OT LS       0.25E+00    9.6                    -8104.4996527607
   156 OT LS       0.22E+00    9.6                    -8104.4996542592
   157 OT CG       0.18E+00   18.2     0.00001414     -8104.4996560650 -9.45E-05
   158 OT LS       0.25E+00    9.6                    -8104.4997380987
   159 OT LS       0.23E+00    9.6                    -8104.4997416341
   160 OT CG       0.18E+00   18.2     0.00001363     -8104.4997423312 -8.63E-05
   161 OT LS       0.25E+00    9.6                    -8104.4998183505
   162 OT LS       0.22E+00    9.6                    -8104.4998194975
   163 OT CG       0.18E+00   18.2     0.00001293     -8104.4998210536 -7.87E-05
   164 OT LS       0.25E+00    9.6                    -8104.4998887883
   165 OT LS       0.22E+00    9.6                    -8104.4998903498
   166 OT CG       0.18E+00   18.2     0.00001224     -8104.4998914767 -7.04E-05
   167 OT LS       0.25E+00    9.6                    -8104.4999529707
   168 OT LS       0.23E+00    9.6                    -8104.4999554597
   169 OT CG       0.18E+00   18.2     0.00001176     -8104.4999560397 -6.46E-05
   170 OT LS       0.25E+00    9.6                    -8104.5000129722
   171 OT LS       0.22E+00    9.6                    -8104.5000141835
   172 OT CG       0.18E+00   18.2     0.00001116     -8104.5000151775 -5.91E-05
   173 OT LS       0.25E+00    9.6                    -8104.5000655938
   174 OT LS       0.22E+00    9.6                    -8104.5000663114
   175 OT CG       0.18E+00   18.2     0.00001055     -8104.5000673649 -5.22E-05
   176 OT LS       0.25E+00    9.6                    -8104.5001127337
   177 OT LS       0.22E+00    9.6                    -8104.5001145007
   178 OT CG       0.18E+00   18.2     0.00001007     -8104.5001149540 -4.76E-05
   179 OT LS       0.25E+00    9.6                    -8104.5001563549
   180 OT LS       0.22E+00    9.6                    -8104.5001572721
   181 OT CG       0.18E+00   18.2     0.00000947     -8104.5001579780 -4.30E-05

  *** SCF run converged in   181 steps ***


  Electronic density on regular grids:      -1423.9999923631        0.0000076369
  Core density on regular grids:             1423.9999996428       -0.0000003572
  Total charge density on r-space grids:        0.0000072797
  Total charge density g-space grids:           0.0000072797

  Overlap energy of the core charge distribution:               0.00000187483812
  Self energy of the core charge distribution:             -14544.97670297458353
  Core Hamiltonian energy:                                   4078.47727274578665
  Hartree energy:                                            3395.07485536143395
  Exchange-correlation energy:                              -1034.03238885606515
  Dispersion energy:                                           -0.54121171458384

  DFT+U energy:                                                 1.49801558517277

  Total energy:                                             -8104.50015797800006

  outer SCF iter =    1 RMS gradient =   0.95E-05 energy =      -8104.5001579780
  outer SCF loop converged in   1 iterations or  181 steps


  Integrated absolute spin density  :                             232.1614580808
  Ideal and single determinant S**2 :                    0.000000     127.228330

 ENERGY| Total FORCE_EVAL ( QS ) energy (a.u.):            -8104.500194448697584


 --------  Informations at step =     0 ------------
  Optimization Method        =                 BFGS
  Total Energy               =     -8104.5001944487
  Used time                  =             2313.482
 ---------------------------------------------------

 --------------------------
 OPTIMIZATION STEP:      1
 --------------------------

 Spin 1

 Number of electrons:                                                        712
 Number of occupied orbitals:                                                712
 Number of molecular orbitals:                                               712

 Spin 2

 Number of electrons:                                                        712
 Number of occupied orbitals:                                                712
 Number of molecular orbitals:                                               712

 Number of orbital functions:                                               2683
 Number of independent orbital functions:                                   2683

 Extrapolation method: PS Nth order


 SCF WAVEFUNCTION OPTIMIZATION

  ----------------------------------- OT ---------------------------------------
  Minimizer      : CG                  : conjugate gradient
  Preconditioner : FULL_ALL            : diagonalization, state selective
  Precond_solver : DEFAULT
  Line search    : 3PNT                : 3 energies
  stepsize       :    0.15000000                  energy_gap     :    0.08000000
  eps_taylor     :   0.10000E-15                  max_taylor     :             4
  ----------------------------------- OT ---------------------------------------

  Step     Update method      Time    Convergence         Total energy    Change
  ------------------------------------------------------------------------------
     1 OT CG       0.12E+00   20.3     0.00006576     -8104.5012316970 -8.10E+03
     2 OT LS       0.17E+00    8.7                    -8104.5026984614
     3 OT LS       0.23E+00    8.6                    -8104.5029962868
     4 OT CG       0.18E+00   17.3     0.00005632     -8104.5031365021 -1.90E-03
     5 OT LS       0.26E+00    8.6                    -8104.5042895870
     6 OT LS       0.19E+00    8.7                    -8104.5041463991
     7 OT CG       0.15E+00   17.3     0.00002042     -8104.5042908257 -1.15E-03
     8 OT LS       0.21E+00    8.6                    -8104.5043008114
     9 OT LS       0.80E-01    8.6                    -8104.5041740450
    10 OT CG       0.64E-01   17.2     0.00000816     -8104.5043542234 -6.34E-05

  *** SCF run converged in    10 steps ***


  Electronic density on regular grids:      -1423.9999923132        0.0000076868
  Core density on regular grids:             1423.9999996426       -0.0000003574
  Total charge density on r-space grids:        0.0000073294
  Total charge density g-space grids:           0.0000073294

  Overlap energy of the core charge distribution:               0.00000187102333
  Self energy of the core charge distribution:             -14544.97670297458353
  Core Hamiltonian energy:                                   4078.38899158625054
  Hartree energy:                                            3395.12757804781813
  Exchange-correlation energy:                              -1034.00324761301636
  Dispersion energy:                                           -0.54139008836473

  DFT+U energy:                                                 1.50041494746591

  Total energy:                                             -8104.50435422340615

  outer SCF iter =    1 RMS gradient =   0.82E-05 energy =      -8104.5043542234
  outer SCF loop converged in   1 iterations or   10 steps


  Integrated absolute spin density  :                             232.1584304443
  Ideal and single determinant S**2 :                    0.000000     127.233465

 ENERGY| Total FORCE_EVAL ( QS ) energy (a.u.):            -8104.504366979102087


 --------  Informations at step =     1 ------------
  Optimization Method        =                 BFGS
  Total Energy               =     -8104.5043669791
  Real energy change         =        -0.0041725304
  Predicted change in energy =        -0.0024734386
  Scaling factor             =         0.0000000000
  Step size                  =         0.0775687587
  Trust radius               =         0.4724315332
  Decrease in energy         =                  YES
  Used time                  =              173.190

  Convergence check :
  Max. step size             =         0.0775687587
  Conv. limit for step size  =         1.0000000000
  Convergence in step size   =                  YES
  RMS step size              =         0.0095089507
  Conv. limit for RMS step   =         1.0000000000
  Convergence in RMS step    =                  YES
  Max. gradient              =         0.0058142756
  Conv. limit for gradients  =         0.0100000000
  Conv. in gradients         =                  YES
  RMS gradient               =         0.0008046604
  Conv. limit for RMS grad.  =         1.0000000000
  Conv. in RMS gradients     =                  YES
 ---------------------------------------------------

 *******************************************************************************
 ***                    GEOMETRY OPTIMIZATION COMPLETED                      ***
 *******************************************************************************

                    Reevaluating energy at the minimum

 Spin 1

 Number of electrons:                                                        712
 Number of occupied orbitals:                                                712
 Number of molecular orbitals:                                               712

 Spin 2

 Number of electrons:                                                        712
 Number of occupied orbitals:                                                712
 Number of molecular orbitals:                                               712

 Number of orbital functions:                                               2683
 Number of independent orbital functions:                                   2683

 Extrapolation method: PS Nth order


 SCF WAVEFUNCTION OPTIMIZATION

  ----------------------------------- OT ---------------------------------------
  Minimizer      : CG                  : conjugate gradient
  Preconditioner : FULL_ALL            : diagonalization, state selective
  Precond_solver : DEFAULT
  Line search    : 3PNT                : 3 energies
  stepsize       :    0.15000000                  energy_gap     :    0.08000000
  eps_taylor     :   0.10000E-15                  max_taylor     :             4
  ----------------------------------- OT ---------------------------------------

  Step     Update method      Time    Convergence         Total energy    Change
  ------------------------------------------------------------------------------
     1 OT CG       0.12E+00   20.2     0.00006698     -8104.5012392046 -8.10E+03
     2 OT LS       0.17E+00    8.6                    -8104.5027433163
     3 OT LS       0.22E+00    8.6                    -8104.5030356584
     4 OT CG       0.18E+00   17.2     0.00005717     -8104.5031535949 -1.91E-03
     5 OT LS       0.25E+00    8.6                    -8104.5041719408
     6 OT LS       0.16E+00    8.6                    -8104.5038974576
     7 OT CG       0.13E+00   17.2     0.00003079     -8104.5041799982 -1.03E-03
     8 OT LS       0.18E+00    8.6                    -8104.5042810985
     9 OT LS       0.83E-01    8.6                    -8104.5041121695
    10 OT CG       0.67E-01   17.2     0.00001094     -8104.5043309641 -1.51E-04
    11 OT LS       0.93E-01    8.6                    -8104.5043558824
    12 OT LS       0.18E+00    8.6                    -8104.5043627424
    13 OT CG       0.15E+00   17.2     0.00000497     -8104.5043727859 -4.18E-05

  *** SCF run converged in    13 steps ***


  Electronic density on regular grids:      -1423.9999923135        0.0000076865
  Core density on regular grids:             1423.9999996426       -0.0000003574
  Total charge density on r-space grids:        0.0000073291
  Total charge density g-space grids:           0.0000073291

  Overlap energy of the core charge distribution:               0.00000187102333
  Self energy of the core charge distribution:             -14544.97670297458353
  Core Hamiltonian energy:                                   4078.34300027108748
  Hartree energy:                                            3395.16794112800790
  Exchange-correlation energy:                              -1033.99778375448523
  Dispersion energy:                                           -0.54139008836473

  DFT+U energy:                                                 1.50056076139359

  Total energy:                                             -8104.50437278592199

  outer SCF iter =    1 RMS gradient =   0.50E-05 energy =      -8104.5043727859
  outer SCF loop converged in   1 iterations or   13 steps


  Integrated absolute spin density  :                             232.1662456902
  Ideal and single determinant S**2 :                    0.000000     127.235721

 ENERGY| Total FORCE_EVAL ( QS ) energy (a.u.):            -8104.504372785921987


 -------------------------------------------------------------------------------
 -                                                                             -
 -                                DBCSR STATISTICS                             -
 -                                                                             -
 -------------------------------------------------------------------------------
 COUNTER                                    TOTAL       BLAS       SMM       ACC
 flops     5 x     8 x     8                53760       0.0%    100.0%      0.0%
 flops    13 x     8 x     8               928512       0.0%    100.0%      0.0%
 flops    26 x     8 x     8              1078272       0.0%    100.0%      0.0%
 flops     5 x    32 x    32             18923520       0.0%    100.0%      0.0%
 flops     5 x     8 x     5             46804800       0.0%    100.0%      0.0%
 flops     5 x     5 x    64            140448000       0.0%    100.0%      0.0%
 flops     5 x     5 x    72            158004000       0.0%    100.0%      0.0%
 flops    13 x    32 x    32            326836224       0.0%    100.0%      0.0%
 flops    26 x    32 x    32            379551744       0.0%    100.0%      0.0%
 flops     5 x     8 x    13            808385760       0.0%    100.0%      0.0%
 flops    13 x     8 x     5            808385760       0.0%    100.0%      0.0%
 flops    64 x    64 x    64            883949568       0.0%    100.0%      0.0%
 flops     5 x     8 x    26            938770560       0.0%    100.0%      0.0%
 flops    26 x     8 x     5            938770560       0.0%    100.0%      0.0%
 flops    64 x    64 x    72            994443264       0.0%    100.0%      0.0%
 flops    64 x    72 x    64            994443264       0.0%    100.0%      0.0%
 flops    72 x    64 x    64            994443264       0.0%    100.0%      0.0%
 flops    64 x    72 x    72           1118748672       0.0%    100.0%      0.0%
 flops    72 x    64 x    72           1118748672       0.0%    100.0%      0.0%
 flops    72 x    72 x    64           1118748672       0.0%    100.0%      0.0%
 flops    72 x    72 x    72           1258592256       0.0%    100.0%      0.0%
 flops     5 x     5 x    96           1264032000       0.0%    100.0%      0.0%
 flops     5 x    13 x    64           2250110720       0.0%    100.0%      0.0%
 flops    13 x     5 x    64           2277932800       0.0%    100.0%      0.0%
 flops    64 x    64 x   338           2309259264       0.0%    100.0%      0.0%
 flops     5 x    13 x    72           2531374560       0.0%    100.0%      0.0%
 flops    13 x     5 x    72           2562674400       0.0%    100.0%      0.0%
 flops    64 x    72 x   338           2597916672       0.0%    100.0%      0.0%
 flops    72 x    64 x   338           2597916672       0.0%    100.0%      0.0%
 flops    26 x     5 x    64           2601364480       0.0%    100.0%      0.0%
 flops     5 x    26 x    64           2657008640       0.0%    100.0%      0.0%
 flops    72 x    72 x   338           2922656256       0.0%    100.0%      0.0%
 flops    26 x     5 x    72           2926535040       0.0%    100.0%      0.0%
 flops     5 x    26 x    72           2989134720       0.0%    100.0%      0.0%
 flops   338 x    64 x    64           3422355456       0.0%    100.0%      0.0%
 flops   338 x    64 x    72           3850149888       0.0%    100.0%      0.0%
 flops   338 x    72 x    64           3850149888       0.0%    100.0%      0.0%
 flops     5 x    32 x     5           4118822400       0.0%    100.0%      0.0%
 flops   338 x    64 x   338           4269983744     100.0%      0.0%      0.0%
 flops   338 x    72 x    72           4331418624       0.0%    100.0%      0.0%
 flops   338 x    72 x   338           4803731712     100.0%      0.0%      0.0%
 flops    64 x    64 x    96           7955546112       0.0%    100.0%      0.0%
 flops    64 x    96 x    64           7955546112       0.0%    100.0%      0.0%
 flops    96 x    64 x    64           7955546112       0.0%    100.0%      0.0%
 flops    64 x    72 x    96           8949989376       0.0%    100.0%      0.0%
 flops    64 x    96 x    72           8949989376       0.0%    100.0%      0.0%
 flops    72 x    64 x    96           8949989376       0.0%    100.0%      0.0%
 flops    72 x    96 x    64           8949989376       0.0%    100.0%      0.0%
 flops    96 x    64 x    72           8949989376       0.0%    100.0%      0.0%
 flops    96 x    72 x    64           8949989376       0.0%    100.0%      0.0%
 flops    72 x    72 x    96          10068738048       0.0%    100.0%      0.0%
 flops    72 x    96 x    72          10068738048       0.0%    100.0%      0.0%
 flops    96 x    72 x    72          10068738048       0.0%    100.0%      0.0%
 flops    13 x     8 x    13          13842519600       0.0%    100.0%      0.0%
 flops    64 x    64 x   335          16021340160       0.0%    100.0%      0.0%
 flops    26 x     8 x    13          16142880000       0.0%    100.0%      0.0%
 flops    13 x     8 x    26          16142880000       0.0%    100.0%      0.0%
 flops    64 x    72 x   335          18024007680       0.0%    100.0%      0.0%
 flops    72 x    64 x   335          18024007680       0.0%    100.0%      0.0%
 flops    26 x     8 x    26          18829055232       0.0%    100.0%      0.0%
 flops     5 x    13 x    96          20250996480       0.0%    100.0%      0.0%
 flops    72 x    72 x   335          20277008640       0.0%    100.0%      0.0%
 flops    13 x     5 x    96          20501395200       0.0%    100.0%      0.0%
 flops    64 x    96 x   338          20783333376       0.0%    100.0%      0.0%
 flops    96 x    64 x   338          20783333376       0.0%    100.0%      0.0%
 flops    72 x    96 x   338          23381250048     100.0%      0.0%      0.0%
 flops    96 x    72 x   338          23381250048     100.0%      0.0%      0.0%
 flops    26 x     5 x    96          23412280320       0.0%    100.0%      0.0%
 flops   335 x    64 x    64          23743856640       0.0%    100.0%      0.0%
 flops     5 x    26 x    96          23913077760       0.0%    100.0%      0.0%
 flops   335 x    64 x    72          26711838720       0.0%    100.0%      0.0%
 flops   335 x    72 x    64          26711838720       0.0%    100.0%      0.0%
 flops   335 x    64 x   338          29624591360     100.0%      0.0%      0.0%
 flops   338 x    64 x   335          29624591360     100.0%      0.0%      0.0%
 flops   335 x    72 x    72          30050818560       0.0%    100.0%      0.0%
 flops   338 x    64 x    96          30801199104       0.0%    100.0%      0.0%
 flops   338 x    96 x    64          30801199104       0.0%    100.0%      0.0%
 flops   335 x    72 x   338          33327665280     100.0%      0.0%      0.0%
 flops   338 x    72 x   335          33327665280     100.0%      0.0%      0.0%
 flops   338 x    72 x    96          34651348992     100.0%      0.0%      0.0%
 flops   338 x    96 x    72          34651348992     100.0%      0.0%      0.0%
 flops   338 x    96 x   338          38429853696     100.0%      0.0%      0.0%
 flops    13 x    13 x    64          39188790784       0.0%    100.0%      0.0%
 flops    13 x    13 x    72          44087389632       0.0%    100.0%      0.0%
 flops    13 x    26 x    64          45174711296       0.0%    100.0%      0.0%
 flops    26 x    13 x    64          45247048704       0.0%    100.0%      0.0%
 flops    13 x    26 x    72          50821550208       0.0%    100.0%      0.0%
 flops    26 x    13 x    72          50902929792       0.0%    100.0%      0.0%
 flops    26 x    26 x    64          53710525440       0.0%    100.0%      0.0%
 flops    26 x    26 x    72          60424341120       0.0%    100.0%      0.0%
 flops     5 x    32 x    13          71137946880       0.0%    100.0%      0.0%
 flops    13 x    32 x     5          71137946880       0.0%    100.0%      0.0%
 flops    96 x    96 x    64          71599915008       0.0%    100.0%      0.0%
 flops    64 x    96 x    96          71599915008       0.0%    100.0%      0.0%
 flops    96 x    64 x    96          71599915008       0.0%    100.0%      0.0%
 flops    96 x    96 x    72          80549904384       0.0%    100.0%      0.0%
 flops    72 x    96 x    96          80549904384       0.0%    100.0%      0.0%
 flops    96 x    72 x    96          80549904384       0.0%    100.0%      0.0%
 flops     5 x    32 x    26          82611809280       0.0%    100.0%      0.0%
 flops    26 x    32 x     5          82611809280       0.0%    100.0%      0.0%
 flops    64 x    96 x   335         144192061440       0.0%    100.0%      0.0%
 flops    96 x    64 x   335         144192061440       0.0%    100.0%      0.0%
 flops    72 x    96 x   335         162216069120     100.0%      0.0%      0.0%
 flops    96 x    72 x   335         162216069120     100.0%      0.0%      0.0%
 flops    96 x    96 x   338         187050000384     100.0%      0.0%      0.0%
 flops   335 x    64 x   335         205531558400     100.0%      0.0%      0.0%
 flops   335 x    96 x    64         213694709760       0.0%    100.0%      0.0%
 flops   335 x    64 x    96         213694709760       0.0%    100.0%      0.0%
 flops   335 x    72 x   335         231223003200     100.0%      0.0%      0.0%
 flops   335 x    96 x    72         240406548480     100.0%      0.0%      0.0%
 flops   335 x    72 x    96         240406548480     100.0%      0.0%      0.0%
 flops   335 x    96 x   338         266621322240     100.0%      0.0%      0.0%
 flops   338 x    96 x   335         266621322240     100.0%      0.0%      0.0%
 flops   338 x    96 x    96         277210791936     100.0%      0.0%      0.0%
 flops    13 x    13 x    96         352699117056       0.0%    100.0%      0.0%
 flops    13 x    26 x    96         406572401664       0.0%    100.0%      0.0%
 flops    26 x    13 x    96         407223438336       0.0%    100.0%      0.0%
 flops    26 x    26 x    96         483394728960       0.0%    100.0%      0.0%
 flops    96 x    96 x    96         644399235072       0.0%    100.0%      0.0%
 flops    13 x    32 x    13        1218141724800       0.0%    100.0%      0.0%
 flops    96 x    96 x   335        1297728552960     100.0%      0.0%      0.0%
 flops    26 x    32 x    13        1420573440000       0.0%    100.0%      0.0%
 flops    13 x    32 x    26        1420573440000       0.0%    100.0%      0.0%
 flops    26 x    32 x    26        1656956860416       0.0%    100.0%      0.0%
 flops   335 x    96 x   335        1849784025600     100.0%      0.0%      0.0%
 flops   335 x    96 x    96        1923252387840     100.0%      0.0%      0.0%
 flops inhomo. stacks                           0       0.0%      0.0%      0.0%
 flops total                        18.088207E+12      42.0%     58.0%      0.0%
 flops max/rank                    328.103122E+09      43.9%     56.1%      0.0%
 matmuls inhomo. stacks                         0       0.0%      0.0%      0.0%
 matmuls total                          399807595       0.2%     99.8%      0.0%
 number of processed stacks               6685111      14.1%     85.9%      0.0%
 average stack size                                     1.0      69.5       0.0
 marketing flops                    20.277707E+12
 -------------------------------------------------------------------------------
 # multiplications                           5075
 max memory usage/rank             763.912192E+06
 # max total images/rank                        1
 # max 3D layers                                1
 # MPI messages exchanged                 4547200
 MPI messages size (bytes):
  total size                       984.033919E+09
  min size                           0.000000E+00
  max size                         913.952000E+03
  average size                     216.404359E+03
 MPI breakdown and total messages size (bytes):
             size <=      128                7728                        0
       128 < size <=     8192                   0                        0
      8192 < size <=    32768               32592               1064555520
     32768 < size <=   131072             2032128             129758920704
    131072 < size <=  4194304             2474752             853290704840
   4194304 < size <= 16777216                   0                        0
  16777216 < size                               0                        0
 -------------------------------------------------------------------------------
 
 MEMORY| Estimated peak process memory [MiB]                                 729

 -------------------------------------------------------------------------------
 -                                                                             -
 -                         MESSAGE PASSING PERFORMANCE                         -
 -                                                                             -
 -------------------------------------------------------------------------------

 ROUTINE             CALLS      AVE VOLUME [Bytes]
 MP_Group              453
 MP_Bcast            24227                  46576.
 MP_Allreduce        88581                    416.
 MP_Sync               387
 MP_Alltoall         23571                 780716.
 MP_SendRecv          4952                 496973.
 MP_ISendRecv       105462                  29184.
 MP_Wait            597764
 MP_comm_split         382
 MP_ISend           243078                 123381.
 MP_IRecv           243078                 122172.
 MP_Recv                15                 123648.
 MP_Memory          205212
 -------------------------------------------------------------------------------


 -------------------------------------------------------------------------------
 -                                                                             -
 -                           R E F E R E N C E S                               -
 -                                                                             -
 -------------------------------------------------------------------------------
 
 CP2K version 6.1, the CP2K developers group (2018).
 CP2K is freely available from https://www.cp2k.org/ .

 Schuett, Ole; Messmer, Peter; Hutter, Juerg; VandeVondele, Joost. 
 Electronic Structure Calculations on Graphics Processing Units, John Wiley & Sons, Ltd, 173-190 (2016). 
 GPU-Accelerated Sparse Matrix-Matrix Multiplication for Linear Scaling Density Functional Theory.
 http://dx.doi.org/10.1002/9781118670712.ch8


 Borstnik, U; VandeVondele, J; Weber, V; Hutter, J. 
 PARALLEL COMPUTING, 40 (5-6), 47-58 (2014). 
 Sparse matrix multiplication: The distributed block-compressed sparse
 row library.
 http://dx.doi.org/10.1016/j.parco.2014.03.012


 Hutter, J; Iannuzzi, M; Schiffmann, F; VandeVondele, J. 
 WILEY INTERDISCIPLINARY REVIEWS-COMPUTATIONAL MOLECULAR SCIENCE, 4 (1), 15-25 (2014). 
 CP2K: atomistic simulations of condensed matter systems.
 http://dx.doi.org/10.1002/wcms.1159


 Grimme, S; Ehrlich, S; Goerigk, L. 
 JOURNAL OF COMPUTATIONAL CHEMISTRY, 32, 1456 (2011). 
 Effect of the damping function in dispersion corrected density functional theory.
 http://dx.doi.org/10.1002/jcc.21759


 Grimme, S; Antony, J; Ehrlich, S; Krieg, H. 
 JOURNAL OF CHEMICAL PHYSICS, 132 (15), 154104 (2010). 
 A consistent and accurate ab initio parametrization of density
 functional dispersion correction (DFT-D) for the 94 elements H-Pu.
 http://dx.doi.org/10.1063/1.3382344


 VandeVondele, J; Hutter, J. 
 JOURNAL OF CHEMICAL PHYSICS, 127 (11), 114105 (2007). 
 Gaussian basis sets for accurate calculations on molecular systems in
 gas and condensed phases.
 http://dx.doi.org/10.1063/1.2770708


 Krack, M. 
 THEORETICAL CHEMISTRY ACCOUNTS, 114 (1-3), 145-152 (2005). 
 Pseudopotentials for H to Kr optimized for gradient-corrected
 exchange-correlation functionals.
 http://dx.doi.org/10.1007/s00214-005-0655-y


 VandeVondele, J; Krack, M; Mohamed, F; Parrinello, M; Chassaing, T;
 Hutter, J. COMPUTER PHYSICS COMMUNICATIONS, 167 (2), 103-128 (2005). 
 QUICKSTEP: Fast and accurate density functional calculations using a
 mixed Gaussian and plane waves approach.
 http://dx.doi.org/10.1016/j.cpc.2004.12.014


 Frigo, M; Johnson, SG. 
 PROCEEDINGS OF THE IEEE, 93 (2), 216-231 (2005). 
 The design and implementation of FFTW3.
 http://dx.doi.org/10.1109/JPROC.2004.840301


 VandeVondele, J; Hutter, J. 
 JOURNAL OF CHEMICAL PHYSICS, 118 (10), 4365-4369 (2003). 
 An efficient orbital transformation method for electronic structure
 calculations.
 http://dx.doi.org/10.1063/1.1543154


 Hartwigsen, C; Goedecker, S; Hutter, J. 
 PHYSICAL REVIEW B, 58 (7), 3641-3662 (1998). 
 Relativistic separable dual-space Gaussian pseudopotentials from H to Rn.
 http://dx.doi.org/10.1103/PhysRevB.58.3641


 Dudarev, SL; Botton, GA; Savrasov, SY; Humphreys, CJ; Sutton, AP. 
 PHYSICAL REVIEW B, 57 (3), 1505-1509 (1998). 
 Electron-energy-loss spectra and the structural stability of
 nickel oxide: An LSDA+U study.
 http://dx.doi.org/10.1103/PhysRevB.57.1505


 Lippert, G; Hutter, J; Parrinello, M. 
 MOLECULAR PHYSICS, 92 (3), 477-487 (1997). 
 A hybrid Gaussian and plane wave density functional scheme.
 http://dx.doi.org/10.1080/002689797170220


 Dudarev, SL; Manh, DN; Sutton, AP. 
 PHILOSOPHICAL MAGAZINE B, 75 (5), 613-628 (1997). 
 Effect of Mott-Hubbard correlations on the electronic
 structure and structural stability of uranium dioxide.
 http://dx.doi.org/10.1080/13642819708202343


 Perdew, JP; Burke, K; Ernzerhof, M. 
 PHYSICAL REVIEW LETTERS, 77 (18), 3865-3868 (1996). 
 Generalized gradient approximation made simple.
 http://dx.doi.org/10.1103/PhysRevLett.77.3865


 Goedecker, S; Teter, M; Hutter, J. 
 PHYSICAL REVIEW B, 54 (3), 1703-1710 (1996). 
 Separable dual-space Gaussian pseudopotentials.
 http://dx.doi.org/10.1103/PhysRevB.54.1703


 -------------------------------------------------------------------------------
 -                                                                             -
 -                                T I M I N G                                  -
 -                                                                             -
 -------------------------------------------------------------------------------
 SUBROUTINE                       CALLS  ASD         SELF TIME        TOTAL TIME
                                MAXIMUM       AVERAGE  MAXIMUM  AVERAGE  MAXIMUM
 CP2K                                 1  1.0    0.243    0.337 2665.115 2665.154
 cp_geo_opt                           1  2.0    0.011    0.011 2661.667 2661.706
 geoopt_bfgs                          1  3.0    0.097    0.143 2661.656 2661.695
 cp_eval_at                           3  4.0    0.010    0.011 2660.647 2660.694
 qs_energies                          3  5.7    0.015    0.017 2607.890 2607.936
 scf_env_do_scf                       3  6.7    0.006    0.007 2565.674 2565.712
 scf_env_do_scf_inner_loop          204  7.9    0.040    0.084 2506.678 2506.715
 qs_forces                            2  5.0    0.010    0.012 2485.720 2485.756
 qs_rho_update_rho                  207  8.9    0.009    0.010 1565.592 1565.618
 calculate_rho_elec                 414  9.9 1303.866 1451.499 1565.583 1565.608
 rebuild_ks_matrix                  206  9.9    0.009    0.010  792.323  792.378
 qs_ks_build_kohn_sham_matrix       206 10.9    0.111    0.119  792.314  792.369
 qs_ks_update_qs_env                207  8.9    0.013    0.016  744.875  744.928
 density_rs2pw                      414 10.9    0.077    0.081  251.373  604.803
 rs_pw_transfer                    2795 12.7    0.104    0.113  245.889  599.164
 sum_up_and_integrate                72 11.8    0.790    0.799  570.206  570.318
 integrate_v_rspace                 144 12.8  458.790  526.480  569.414  569.525
 rs_pw_transfer_RS2PW_200           417 12.9   21.112   24.254  175.572  528.031
 mp_waitany                       80702 14.7  171.740  527.603  171.740  527.603
 qs_scf_new_mos                     204  8.9    0.006    0.006  245.968  246.248
 qs_scf_loop_do_ot                  204  9.9    0.006    0.006  245.962  246.243
 ot_scf_mini                        204 10.9    0.043    0.046  237.184  237.559
 qs_vxc_create                      206 11.9    0.010    0.012  209.074  209.094
 rs_distribute_matrix               562 11.7    1.872    3.712   74.648  206.980
 mp_alltoall_d11v                  5032 16.3   72.333  206.112   72.333  206.112
 qs_ot_get_p                        414 11.9    0.015    0.016  178.350  179.124
 cp_fm_syevd                        382 14.8    0.012    0.018  178.279  178.346
 cp_fm_redistribute_end             382 15.8  133.971  176.348  134.293  176.448
 cp_fm_syevd_base                   382 15.7   42.009  174.630   42.009  174.630
 xc_rho_set_and_dset_create         206 13.9    6.006    6.025  170.063  172.436
 qs_ot_p2m_diag                     362 13.0    1.347    1.594  165.570  165.910
 cp_dbcsr_syevd                     374 13.9    0.153    0.165  162.678  162.694
 pw_nn_compose_r                   2224 14.6  110.098  110.940  113.555  114.572
 xc_exc_calc                        134 12.9    0.510    0.511  112.286  112.292
 xc_vxc_pw_create                    72 12.8    4.693    4.750   96.778   96.793
 dbcsr_multiply_generic            5075 13.7    1.138    1.165   87.003   88.277
 xc_functional_eval                 206 14.9    0.005    0.005   77.879   80.080
 pbe_lsd_eval                       206 15.9   77.875   80.076   77.875   80.076
 multiply_cannon                   5075 14.7    4.198    4.344   57.567   60.990
 init_scf_loop                        3  7.7    0.004    0.005   58.947   58.948
 -------------------------------------------------------------------------------

 The number of warnings for this run is : 6
 
 -------------------------------------------------------------------------------
  **** **** ******  **  PROGRAM ENDED AT                 2020-10-29 16:07:45.283
 ***** ** ***  *** **   PROGRAM RAN ON                                 irene3078
 **    ****   ******    PROGRAM RAN BY                                  marticar
 ***** **    ** ** **   PROGRAM PROCESS ID                                  4458
  **** **  *******  **  PROGRAM STOPPED IN /ccc/scratch/cont003/gen0609/marticar
                                           /5720097
