36
Lattice="8.324061028128037 0.0 0.0 4.162030514064019 7.208848313010892 0.0 0.0 0.0 36.79656736890028" Properties=species:S:1:pos:R:3:tags:I:1 pbc="T T F"
Pt       0.00000000       0.00000000      15.00000000        4
Pt       2.77468701       0.00000000      15.00000000        4
Pt       5.54937402       0.00000000      15.00000000        4
Pt       1.38734350       2.40294944      15.00000000        4
Pt       4.16203051       2.40294944      15.00000000        4
Pt       6.93671752       2.40294944      15.00000000        4
Pt       2.77468701       4.80589888      15.00000000        4
Pt       5.54937402       4.80589888      15.00000000        4
Pt       8.32406103       4.80589888      15.00000000        4
Pt       1.38734350       0.80098315      17.26552246        3
Pt       4.16203051       0.80098315      17.26552246        3
Pt       6.93671752       0.80098315      17.26552246        3
Pt       2.77468701       3.20393258      17.26552246        3
Pt       5.54937402       3.20393258      17.26552246        3
Pt       8.32406103       3.20393258      17.26552246        3
Pt       4.16203051       5.60688202      17.26552246        3
Pt       6.93671752       5.60688202      17.26552246        3
Pt       9.71140453       5.60688202      17.26552246        3
Pt      -0.00000000       1.60196629      19.53104491        2
Pt       2.77468701       1.60196629      19.53104491        2
Pt       5.54937402       1.60196629      19.53104491        2
Pt       1.38734350       4.00491573      19.53104491        2
Pt       4.16203051       4.00491573      19.53104491        2
Pt       6.93671752       4.00491573      19.53104491        2
Pt       2.77468701       6.40786517      19.53104491        2
Pt       5.54937402       6.40786517      19.53104491        2
Pt       8.32406103       6.40786517      19.53104491        2
Pt       0.00000000       0.00000000      21.79656737        1
Pt       2.77468701       0.00000000      21.79656737        1
Pt       5.54937402       0.00000000      21.79656737        1
Pt       1.38734350       2.40294944      21.79656737        1
Pt       4.16203051       2.40294944      21.79656737        1
Pt       6.93671752       2.40294944      21.79656737        1
Pt       2.77468701       4.80589888      21.79656737        1
Pt       5.54937402       4.80589888      21.79656737        1
Pt       8.32406103       4.80589888      21.79656737        1
