 DBCSR| Multiplication driver                                               XSMM
 DBCSR| Multrec recursion limit                                              512
 DBCSR| Multiplication stack size                                           1000
 DBCSR| Maximum elements for images                                    UNLIMITED
 DBCSR| Multiplicative factor virtual images                                   1
 DBCSR| Multiplication size stacks                                             3
 DBCSR| Number of 3D layers                                               SINGLE
 DBCSR| Use MPI memory allocation                                              T
 DBCSR| Use RMA algorithm                                                      F
 DBCSR| Use Communication thread                                               T
 DBCSR| Communication thread load                                             87


  **** **** ******  **  PROGRAM STARTED AT               2020-10-08 11:05:19.287
 ***** ** ***  *** **   PROGRAM STARTED ON                             irene6058
 **    ****   ******    PROGRAM STARTED BY                              marticar
 ***** **    ** ** **   PROGRAM PROCESS ID                                224277
  **** **  *******  **  PROGRAM STARTED IN /ccc/scratch/cont003/gen0609/marticar
                                           /685780

 CP2K| version string:                                          CP2K version 6.1
 CP2K| source code revision number:                                    svn:18464
 CP2K| cp2kflags: libint fftw3 parallel mpi3 scalapack xsmm mkl                 
 CP2K| is freely available from                            https://www.cp2k.org/
 CP2K| Program compiled at                          Thu Dec 12 15:40:57 CET 2019
 CP2K| Program compiled on                                             cobalt175
 CP2K| Program compiled for                                   Linux-x86-64-iomkl
 CP2K| Data directory path          /tmp/cp2k/6.1/iomkl-195281.401/cp2k-6.1/data
 CP2K| Input file name                                             screening.inp
 
 GLOBAL| Force Environment number                                              1
 GLOBAL| Basis set file name            /ccc/work/cont003/gen0609/marticar/data/
 GLOBAL| Potential file name            /ccc/work/cont003/gen0609/marticar/data/
 GLOBAL| MM Potential file name                                     MM_POTENTIAL
 GLOBAL| Coordinate file name                                          coord.xyz
 GLOBAL| Method name                                                        CP2K
 GLOBAL| Project name                                                    PROJECT
 GLOBAL| Preferred FFT library                                             FFTW3
 GLOBAL| Preferred diagonalization lib.                                       SL
 GLOBAL| Run type                                                        GEO_OPT
 GLOBAL| All-to-all communication in single precision                          F
 GLOBAL| FFTs using library dependent lengths                                  F
 GLOBAL| Global print level                                                  LOW
 GLOBAL| Total number of message passing processes                             8
 GLOBAL| Number of threads for this process                                    1
 GLOBAL| This output is from process                                           0
 GLOBAL| CPU model name :  AMD EPYC 7H12 64-Core Processor

 MEMORY| system memory details [Kb]
 MEMORY|                        rank 0           min           max       average
 MEMORY| MemTotal            263246936     263246936     263246936     263246936
 MEMORY| MemFree             249235656     249235656     249316084     249306030
 MEMORY| Buffers                     0             0             0             0
 MEMORY| Cached                1039152        967868       1039152        976778
 MEMORY| Slab                  2028000       2026212       2028000       2026435
 MEMORY| SReclaimable           282856        282304        282856        282373
 MEMORY| MemLikelyFree       250557664     250557664     250566256     250565182

 
 GENERATE|  Preliminary Number of Bonds generated:                             0
 GENERATE|  Achieved consistency in connectivity generation.

 *******************************************************************************
 *******************************************************************************
 **                                                                           **
 **     #####                         ##              ##                      **
 **    ##   ##            ##          ##              ##                      **
 **   ##     ##                       ##            ######                    **
 **   ##     ##  ##   ##  ##   #####  ##  ##   ####   ##    #####    #####    **
 **   ##     ##  ##   ##  ##  ##      ## ##   ##      ##   ##   ##  ##   ##   **
 **   ##  ## ##  ##   ##  ##  ##      ####     ###    ##   ######   ######    **
 **    ##  ###   ##   ##  ##  ##      ## ##      ##   ##   ##       ##        **
 **     #######   #####   ##   #####  ##  ##  ####    ##    #####   ##        **
 **           ##                                                    ##        **
 **                                                                           **
 **                                                ... make the atoms dance   **
 **                                                                           **
 **            Copyright (C) by CP2K developers group (2000 - 2018)           **
 **                                                                           **
 *******************************************************************************


 TOTAL NUMBERS AND MAXIMUM NUMBERS

  Total number of            - Atomic kinds:                                   3
                             - Atoms:                                         40
                             - Shell sets:                                    40
                             - Shells:                                       276
                             - Primitive Cartesian functions:                204
                             - Cartesian basis functions:                   1168
                             - Spherical basis functions:                    976

  Maximum angular momentum of- Orbital basis functions:                        3
                             - Local part of the GTH pseudopotential:          2
                             - Non-local part of the GTH pseudopotential:      4


 SCF PARAMETERS         Density guess:                                   RESTART
                        --------------------------------------------------------
                        max_scf:                                             300
                        max_scf_history:                                       0
                        max_diis:                                              4
                        --------------------------------------------------------
                        eps_scf:                                        1.00E-05
                        eps_scf_history:                                0.00E+00
                        eps_diis:                                       1.00E-01
                        eps_eigval:                                     1.00E-05
                        --------------------------------------------------------
                        level_shift [a.u.]:                                 0.00
                        added MOs                                        38    0
                        --------------------------------------------------------
                        Mixing method:                            BROYDEN_MIXING
                                                charge density mixing in g-space
                        --------------------------------------------------------
                        Smear method:                                FERMI_DIRAC
                        Electronic temperature [K]:                        300.0
                        Electronic temperature [a.u.]:                  9.50E-04
                        Accuracy threshold:                             1.00E-10
                        --------------------------------------------------------
                        No outer SCF

 BFGS| Use rational function optimization for step estimation:                NO
 BFGS| Use model Hessian for initial guess:                                  YES
 BFGS| Restart Hessian:                                                       NO
 BFGS| Trust radius:                                                       0.472

 *******************************************************************************
 ***                     STARTING GEOMETRY OPTIMIZATION                      ***
 ***                                   BFGS                                  ***
 *******************************************************************************

 Number of electrons:                                                        428
 Number of occupied orbitals:                                                214
 Number of molecular orbitals:                                               252

 Number of orbital functions:                                                976
 Number of independent orbital functions:                                    976

 Extrapolation method: initial_guess

 *** WARNING in qs_initial_guess.F:263 :: User requested to restart the    ***
 *** wavefunction from the file named: PROJECT-RESTART.wfn. This file does ***
 *** not exist. Please check the existence of the file or change properly  ***
 *** the value of the keyword WFN_RESTART_FILE_NAME. Calculation continues ***
 *** using ATOMIC GUESS.                                                   ***



 SCF WAVEFUNCTION OPTIMIZATION

  Step     Update method      Time    Convergence         Total energy    Change
  ------------------------------------------------------------------------------
     1 NoMix/Diag. 0.10E+00    9.7     1.07191613     -1284.3559988373 -1.28E+03
     2 Broy./Diag. 0.10E+00   23.0     0.03134945     -1314.3073509824 -3.00E+01
     3 Broy./Diag. 0.10E+00   32.6     0.22399786     -1302.7055135099  1.16E+01
     4 Broy./Diag. 0.10E+00   34.3     0.01202888     -1290.6184088733  1.21E+01
     5 Broy./Diag. 0.10E+00   98.2     0.07086146     -1287.4310410614  3.19E+00
     6 Broy./Diag. 0.10E+00  139.3     0.00187218     -1284.9545088159  2.48E+00
     7 Broy./Diag. 0.10E+00  126.3     0.01389542     -1284.7810463230  1.73E-01
     8 Broy./Diag. 0.10E+00  242.6     0.00054857     -1284.7070797264  7.40E-02
     9 Broy./Diag. 0.10E+00  102.2     0.00476652     -1284.6956680420  1.14E-02
    10 Broy./Diag. 0.10E+00  368.5     0.00049915     -1284.5738660010  1.22E-01
    11 Broy./Diag. 0.10E+00  373.7     0.00317663     -1284.6041235026 -3.03E-02
    12 Broy./Diag. 0.10E+00   91.2     0.00021438     -1284.5474650120  5.67E-02
    13 Broy./Diag. 0.10E+00  288.9     0.00138528     -1284.5291903187  1.83E-02
    14 Broy./Diag. 0.10E+00  505.6     0.00007649     -1284.5000815540  2.91E-02
    15 Broy./Diag. 0.10E+00  237.3     0.00053480     -1284.4995961158  4.85E-04
    16 Broy./Diag. 0.10E+00  268.7     0.00005300     -1284.4851104464  1.45E-02
    17 Broy./Diag. 0.10E+00  226.5     0.00021678     -1284.4873558310 -2.25E-03
    18 Broy./Diag. 0.10E+00   82.4     0.00025310     -1284.4901815215 -2.83E-03
    19 Broy./Diag. 0.10E+00  508.4     0.00014779     -1284.4902936955 -1.12E-04
    20 Broy./Diag. 0.10E+00  208.4     0.00009681     -1284.4865843454  3.71E-03
    21 Broy./Diag. 0.10E+00  137.6     0.00005413     -1284.4876006403 -1.02E-03
    22 Broy./Diag. 0.10E+00  639.1     0.00008416     -1284.4904515284 -2.85E-03
    23 Broy./Diag. 0.10E+00  525.5     0.00007779     -1284.4862392019  4.21E-03
    24 Broy./Diag. 0.10E+00  449.8     0.00002788     -1284.4796957568  6.54E-03
    25 Broy./Diag. 0.10E+00   34.7     0.00002310     -1284.4793832401  3.13E-04
    26 Broy./Diag. 0.10E+00  199.4     0.00002307     -1284.4806368817 -1.25E-03
    27 Broy./Diag. 0.10E+00  924.6     0.00001146     -1284.4803556417  2.81E-04
    28 Broy./Diag. 0.10E+00  531.9     0.00001917     -1284.4802866149  6.90E-05
    29 Broy./Diag. 0.10E+00  476.7     0.00003245     -1284.4810560295 -7.69E-04
    30 Broy./Diag. 0.10E+00  922.4     0.00004027     -1284.4814773722 -4.21E-04
    31 Broy./Diag. 0.10E+00  371.6     0.00002482     -1284.4812231966  2.54E-04
    32 Broy./Diag. 0.10E+00  333.5     0.00002604     -1284.4820251733 -8.02E-04
    33 Broy./Diag. 0.10E+00   73.9     0.00001875     -1284.4830649590 -1.04E-03
    34 Broy./Diag. 0.10E+00   53.6     0.00001934     -1284.4823730798  6.92E-04
    35 Broy./Diag. 0.10E+00  132.5     0.00001370     -1284.4810521167  1.32E-03
    36 Broy./Diag. 0.10E+00  147.0     0.00001092     -1284.4812362437 -1.84E-04
    37 Broy./Diag. 0.10E+00  105.1     0.00000719     -1284.4821539500 -9.18E-04

  *** SCF run converged in    37 steps ***


  Electronic density on regular grids:       -427.9999999933        0.0000000067
  Core density on regular grids:              427.9999993680       -0.0000006320
  Total charge density on r-space grids:       -0.0000006253
  Total charge density g-space grids:          -0.0000006253

  Overlap energy of the core charge distribution:               0.00000397701120
  Self energy of the core charge distribution:              -2253.28808377914038
  Core Hamiltonian energy:                                    718.19692377650495
  Hartree energy:                                             454.53422283443376
  Exchange-correlation energy:                               -203.60630735230066
  Dispersion energy:                                           -0.31891287202971
  Electronic entropic energy:                                  -0.00000053443977
  Fermi energy:                                                -0.16460048411558

  Total energy:                                             -1284.48215394997783

 ENERGY| Total FORCE_EVAL ( QS ) energy (a.u.):            -1284.482627498925694


 --------  Informations at step =     0 ------------
  Optimization Method        =                 BFGS
  Total Energy               =     -1284.4826274989
  Used time                  =            10075.559
 ---------------------------------------------------

 --------------------------
 OPTIMIZATION STEP:      1
 --------------------------

 Number of electrons:                                                        428
 Number of occupied orbitals:                                                218
 Number of molecular orbitals:                                               252

 Number of orbital functions:                                                976
 Number of independent orbital functions:                                    976

 Extrapolation method: PS Nth order


 SCF WAVEFUNCTION OPTIMIZATION

  Step     Update method      Time    Convergence         Total energy    Change
  ------------------------------------------------------------------------------
     1 Broy./Diag. 0.10E+00   23.0     0.07846625     -1284.4895243953 -1.28E+03
     2 Broy./Diag. 0.10E+00   39.3     0.00187734     -1283.4999104477  9.90E-01
     3 Broy./Diag. 0.10E+00  155.9     0.01541302     -1283.9471354350 -4.47E-01
     4 Broy./Diag. 0.10E+00  772.1     0.00093282     -1284.3426555692 -3.96E-01
     5 Broy./Diag. 0.10E+00  138.6     0.00425137     -1284.4382088347 -9.56E-02
     6 Broy./Diag. 0.10E+00  699.6     0.00052061     -1284.5101175369 -7.19E-02
     7 Broy./Diag. 0.10E+00  296.1     0.00205022     -1284.5208000139 -1.07E-02
     8 Broy./Diag. 0.10E+00   70.4     0.00012258     -1284.5179252875  2.87E-03
     9 Broy./Diag. 0.10E+00  107.4     0.00059857     -1284.5093393460  8.59E-03
    10 Broy./Diag. 0.10E+00  128.2     0.00003781     -1284.5032185985  6.12E-03
    11 Broy./Diag. 0.10E+00  155.1     0.00030118     -1284.5011532165  2.07E-03
    12 Broy./Diag. 0.10E+00  113.4     0.00003203     -1284.4998670960  1.29E-03
    13 Broy./Diag. 0.10E+00   64.3     0.00021039     -1284.5016912361 -1.82E-03
    14 Broy./Diag. 0.10E+00   69.5     0.00001752     -1284.5024262898 -7.35E-04
    15 Broy./Diag. 0.10E+00   94.7     0.00010007     -1284.5021901261  2.36E-04
    16 Broy./Diag. 0.10E+00  101.6     0.00002929     -1284.5019145815  2.76E-04
    17 Broy./Diag. 0.10E+00  173.6     0.00008829     -1284.5018226703  9.19E-05
    18 Broy./Diag. 0.10E+00  631.2     0.00002345     -1284.5020597145 -2.37E-04
    19 Broy./Diag. 0.10E+00  381.5     0.00002022     -1284.5023138791 -2.54E-04
    20 Broy./Diag. 0.10E+00  658.1     0.00002351     -1284.5025571219 -2.43E-04
    21 Broy./Diag. 0.10E+00  159.3     0.00002432     -1284.5026601311 -1.03E-04
    22 Broy./Diag. 0.10E+00   57.2     0.00001284     -1284.5026761260 -1.60E-05
    23 Broy./Diag. 0.10E+00   36.7     0.00001307     -1284.5026366529  3.95E-05
    24 Broy./Diag. 0.10E+00   43.5     0.00000719     -1284.5025837459  5.29E-05

  *** SCF run converged in    24 steps ***


  Electronic density on regular grids:       -427.9999999973        0.0000000027
  Core density on regular grids:              427.9999993687       -0.0000006313
  Total charge density on r-space grids:       -0.0000006286
  Total charge density g-space grids:          -0.0000006286

  Overlap energy of the core charge distribution:               0.00000334525178
  Self energy of the core charge distribution:              -2253.28808377914038
  Core Hamiltonian energy:                                    717.68311241231879
  Hartree energy:                                             454.77771815889730
  Exchange-correlation energy:                               -203.35845519749449
  Dispersion energy:                                           -0.31687811920745
  Electronic entropic energy:                                  -0.00000056653094
  Fermi energy:                                                -0.16536530212905

  Total energy:                                             -1284.50258374590112

 ENERGY| Total FORCE_EVAL ( QS ) energy (a.u.):            -1284.502583018354017


 --------  Informations at step =     1 ------------
  Optimization Method        =                 BFGS
  Total Energy               =     -1284.5025830184
  Real energy change         =        -0.0199555194
  Predicted change in energy =        -0.0147152865
  Scaling factor             =         0.0000000000
  Step size                  =         0.2109508258
  Trust radius               =         0.4724315332
  Decrease in energy         =                  YES
  Used time                  =             5277.868

  Convergence check :
  Max. step size             =         0.2109508258
  Conv. limit for step size  =         1.0000000000
  Convergence in step size   =                  YES
  RMS step size              =         0.0489619470
  Conv. limit for RMS step   =         1.0000000000
  Convergence in RMS step    =                  YES
  Max. gradient              =         0.0154301101
  Conv. limit for gradients  =         0.0100000000
  Conv. for gradients        =                   NO
  RMS gradient               =         0.0031085460
  Conv. limit for RMS grad.  =         1.0000000000
  Conv. in RMS gradients     =                  YES
 ---------------------------------------------------

 --------------------------
 OPTIMIZATION STEP:      2
 --------------------------

 Number of electrons:                                                        428
 Number of occupied orbitals:                                                218
 Number of molecular orbitals:                                               252

 Number of orbital functions:                                                976
 Number of independent orbital functions:                                    976

 Extrapolation method: PS Nth order


 SCF WAVEFUNCTION OPTIMIZATION

  Step     Update method      Time    Convergence         Total energy    Change
  ------------------------------------------------------------------------------
     1 Broy./Diag. 0.10E+00   21.5     0.15243144     -1284.4831981243 -1.28E+03
     2 Broy./Diag. 0.10E+00   63.3     0.00685145     -1283.8918535000  5.91E-01
     3 Broy./Diag. 0.10E+00   57.3     0.04470421     -1284.0911529744 -1.99E-01
     4 Broy./Diag. 0.10E+00   72.9     0.00337028     -1284.2959833832 -2.05E-01
     5 Broy./Diag. 0.10E+00  112.4     0.00355331     -1284.3925902728 -9.66E-02
     6 Broy./Diag. 0.10E+00   70.3     0.00179592     -1284.5060876412 -1.13E-01
     7 Broy./Diag. 0.10E+00   84.9     0.00150765     -1284.5038906230  2.20E-03
     8 Broy./Diag. 0.10E+00  142.1     0.00114131     -1284.4931103657  1.08E-02
     9 Broy./Diag. 0.10E+00  121.3     0.00095666     -1284.4879854413  5.12E-03
    10 Broy./Diag. 0.10E+00  109.0     0.00059210     -1284.4914120881 -3.43E-03
    11 Broy./Diag. 0.10E+00  185.3     0.00016054     -1284.4953463264 -3.93E-03
    12 Broy./Diag. 0.10E+00  111.8     0.00029834     -1284.5009906853 -5.64E-03
    13 Broy./Diag. 0.10E+00  112.7     0.00006032     -1284.5095905069 -8.60E-03
    14 Broy./Diag. 0.10E+00  187.6     0.00024513     -1284.5089159965  6.75E-04
    15 Broy./Diag. 0.10E+00  147.8     0.00002306     -1284.5107962182 -1.88E-03
    16 Broy./Diag. 0.10E+00  167.7     0.00010345     -1284.5096941280  1.10E-03
    17 Broy./Diag. 0.10E+00   92.0     0.00002750     -1284.5098607477 -1.67E-04
    18 Broy./Diag. 0.10E+00  136.4     0.00011521     -1284.5114629489 -1.60E-03
    19 Broy./Diag. 0.10E+00  307.4     0.00000907     -1284.5139552783 -2.49E-03

  *** SCF run converged in    19 steps ***


  Electronic density on regular grids:       -427.9999999940        0.0000000060
  Core density on regular grids:              427.9999993676       -0.0000006324
  Total charge density on r-space grids:       -0.0000006263
  Total charge density g-space grids:          -0.0000006263

  Overlap energy of the core charge distribution:               0.00000289300334
  Self energy of the core charge distribution:              -2253.28808377914038
  Core Hamiltonian energy:                                    717.23356000480192
  Hartree energy:                                             455.00750782118740
  Exchange-correlation energy:                               -203.15198802695122
  Dispersion energy:                                           -0.31495355982939
  Electronic entropic energy:                                  -0.00000063135851
  Fermi energy:                                                -0.16639970241991

  Total energy:                                             -1284.51395527828072

 ENERGY| Total FORCE_EVAL ( QS ) energy (a.u.):            -1284.513676490988246


 --------  Informations at step =     2 ------------
  Optimization Method        =                 BFGS
  Total Energy               =     -1284.5136764910
  Real energy change         =        -0.0110934726
  Predicted change in energy =        -0.0105376448
  Scaling factor             =         0.0000000000
  Step size                  =         0.3493048150
  Trust radius               =         0.4724315332
  Decrease in energy         =                  YES
  Used time                  =             2411.476

  Convergence check :
  Max. step size             =         0.3493048150
  Conv. limit for step size  =         1.0000000000
  Convergence in step size   =                  YES
  RMS step size              =         0.0639441990
  Conv. limit for RMS step   =         1.0000000000
  Convergence in RMS step    =                  YES
  Max. gradient              =         0.0051759169
  Conv. limit for gradients  =         0.0100000000
  Conv. in gradients         =                  YES
  RMS gradient               =         0.0017041419
  Conv. limit for RMS grad.  =         1.0000000000
  Conv. in RMS gradients     =                  YES
 ---------------------------------------------------

 *******************************************************************************
 ***                    GEOMETRY OPTIMIZATION COMPLETED                      ***
 *******************************************************************************

                    Reevaluating energy at the minimum

 Number of electrons:                                                        428
 Number of occupied orbitals:                                                218
 Number of molecular orbitals:                                               252

 Number of orbital functions:                                                976
 Number of independent orbital functions:                                    976

 Extrapolation method: PS Nth order


 SCF WAVEFUNCTION OPTIMIZATION

  Step     Update method      Time    Convergence         Total energy    Change
  ------------------------------------------------------------------------------
     1 Broy./Diag. 0.10E+00   16.9     0.12356461     -1284.4685618875 -1.28E+03
     2 Broy./Diag. 0.10E+00   36.6     0.00915330     -1284.7162709683 -2.48E-01
     3 Broy./Diag. 0.10E+00   28.3     0.04388358     -1284.6965772534  1.97E-02
     4 Broy./Diag. 0.10E+00   56.2     0.00244259     -1284.7251825024 -2.86E-02
     5 Broy./Diag. 0.10E+00   43.8     0.00907263     -1284.6116372766  1.14E-01
     6 Broy./Diag. 0.10E+00   45.3     0.00068040     -1284.5302245106  8.14E-02
     7 Broy./Diag. 0.10E+00   57.8     0.00385219     -1284.5098989446  2.03E-02
     8 Broy./Diag. 0.10E+00   26.6     0.00035181     -1284.5056654750  4.23E-03
     9 Broy./Diag. 0.10E+00   48.9     0.00252892     -1284.5131214432 -7.46E-03
    10 Broy./Diag. 0.10E+00   84.3     0.00015697     -1284.5148920354 -1.77E-03
    11 Broy./Diag. 0.10E+00   80.8     0.00122724     -1284.5187773307 -3.89E-03
    12 Broy./Diag. 0.10E+00   58.7     0.00009529     -1284.5200643859 -1.29E-03
    13 Broy./Diag. 0.10E+00   53.4     0.00052574     -1284.5160281489  4.04E-03
    14 Broy./Diag. 0.10E+00   92.1     0.00007035     -1284.5120193858  4.01E-03
    15 Broy./Diag. 0.10E+00   70.3     0.00031574     -1284.5115535260  4.66E-04
    16 Broy./Diag. 0.10E+00   38.1     0.00011455     -1284.5131540335 -1.60E-03
    17 Broy./Diag. 0.10E+00  320.0     0.00006681     -1284.5144484892 -1.29E-03
    18 Broy./Diag. 0.10E+00   62.2     0.00014510     -1284.5145939584 -1.45E-04
    19 Broy./Diag. 0.10E+00  100.8     0.00010240     -1284.5143037569  2.90E-04
    20 Broy./Diag. 0.10E+00   28.0     0.00008522     -1284.5139853670  3.18E-04
    21 Broy./Diag. 0.10E+00   90.4     0.00003436     -1284.5138943517  9.10E-05
    22 Broy./Diag. 0.10E+00   48.8     0.00008306     -1284.5136249372  2.69E-04
    23 Broy./Diag. 0.10E+00   38.9     0.00000643     -1284.5133793458  2.46E-04

  *** SCF run converged in    23 steps ***


  Electronic density on regular grids:       -427.9999999940        0.0000000060
  Core density on regular grids:              427.9999993676       -0.0000006324
  Total charge density on r-space grids:       -0.0000006263
  Total charge density g-space grids:          -0.0000006263

  Overlap energy of the core charge distribution:               0.00000289300334
  Self energy of the core charge distribution:              -2253.28808377914038
  Core Hamiltonian energy:                                    717.23329495722942
  Hartree energy:                                             455.00847684694963
  Exchange-correlation energy:                               -203.15211607275336
  Dispersion energy:                                           -0.31495355982939
  Electronic entropic energy:                                  -0.00000063128514
  Fermi energy:                                                -0.16636325459595

  Total energy:                                             -1284.51337934582398

 ENERGY| Total FORCE_EVAL ( QS ) energy (a.u.):            -1284.513379345823978


 -------------------------------------------------------------------------------
 -                                                                             -
 -                                DBCSR STATISTICS                             -
 -                                                                             -
 -------------------------------------------------------------------------------
 COUNTER                                    TOTAL       BLAS       SMM       ACC
 flops    13 x    28 x    13               227136       0.0%    100.0%      0.0%
 flops    13 x    32 x    13              1817088       0.0%    100.0%      0.0%
 flops    13 x    13 x    60              6631560       0.0%    100.0%      0.0%
 flops    13 x    28 x    25              8299200       0.0%    100.0%      0.0%
 flops    25 x    28 x    13              8299200       0.0%    100.0%      0.0%
 flops    13 x    13 x    64             21220992       0.0%    100.0%      0.0%
 flops    25 x    32 x    13             66393600       0.0%    100.0%      0.0%
 flops    13 x    32 x    25             66393600       0.0%    100.0%      0.0%
 flops    13 x    25 x    60            161538000       0.0%    100.0%      0.0%
 flops    25 x    13 x    60            161538000       0.0%    100.0%      0.0%
 flops    25 x    28 x    25            303240000       0.0%    100.0%      0.0%
 flops    13 x    25 x    64            516921600       0.0%    100.0%      0.0%
 flops    25 x    13 x    64            516921600       0.0%    100.0%      0.0%
 flops    25 x    32 x    25           2425920000       0.0%    100.0%      0.0%
 flops    25 x    25 x    60           6057675000       0.0%    100.0%      0.0%
 flops    25 x    25 x    64          19384560000       0.0%    100.0%      0.0%
 flops inhomo. stacks                           0       0.0%      0.0%      0.0%
 flops total                        29.707597E+09       0.0%    100.0%      0.0%
 flops max/rank                      4.151634E+09       0.0%    100.0%      0.0%
 matmuls inhomo. stacks                         0       0.0%      0.0%      0.0%
 matmuls total                             434320       0.0%    100.0%      0.0%
 number of processed stacks                  8388       0.0%    100.0%      0.0%
 average stack size                                     0.0      51.8       0.0
 marketing flops                    48.150745E+09
 -------------------------------------------------------------------------------
 # multiplications                            115
 max memory usage/rank               5.216399E+09
 # max total images/rank                        2
 # max 3D layers                                1
 # MPI messages exchanged                    8280
 MPI messages size (bytes):
  total size                         1.459409E+09
  min size                         114.240000E+03
  max size                           1.000000E+06
  average size                     176.257109E+03
 MPI breakdown and total messages size (bytes):
             size <=      128                   0                        0
       128 < size <=     8192                   0                        0
      8192 < size <=    32768                   0                        0
     32768 < size <=   131072                5520                678827520
    131072 < size <=  4194304                2760                780581376
   4194304 < size <= 16777216                   0                        0
  16777216 < size                               0                        0
 -------------------------------------------------------------------------------

 *** WARNING in dbcsr/mm/dbcsr_mm.F:268 :: Using a non-square number of ***
 *** MPI ranks might lead to poor performance.                          ***
 *** Used ranks: 8                                                      ***
 *** Suggested: 9 16                                                    ***

 -------------------------------------------------------------------------------
 
 MEMORY| Estimated peak process memory [MiB]                                5112

 -------------------------------------------------------------------------------
 -                                                                             -
 -                         MESSAGE PASSING PERFORMANCE                         -
 -                                                                             -
 -------------------------------------------------------------------------------

 ROUTINE             CALLS      AVE VOLUME [Bytes]
 MP_Group              119
 MP_Bcast              244                2500431.
 MP_Allreduce         2184                   1213.
 MP_Sync                 8
 MP_Alltoall          4819               51119335.
 MP_SendRecv          1780                1071994.
 MP_ISendRecv         4473                 823483.
 MP_Wait             16488
 MP_comm_split           3
 MP_ISend             7956                3886039.
 MP_IRecv             7956                3885672.
 MP_Recv                55                 225741.
 MP_Memory           13804
 -------------------------------------------------------------------------------


 -------------------------------------------------------------------------------
 -                                                                             -
 -                           R E F E R E N C E S                               -
 -                                                                             -
 -------------------------------------------------------------------------------
 
 CP2K version 6.1, the CP2K developers group (2018).
 CP2K is freely available from https://www.cp2k.org/ .

 Schuett, Ole; Messmer, Peter; Hutter, Juerg; VandeVondele, Joost. 
 Electronic Structure Calculations on Graphics Processing Units, John Wiley & Sons, Ltd, 173-190 (2016). 
 GPU-Accelerated Sparse Matrix-Matrix Multiplication for Linear Scaling Density Functional Theory.
 http://dx.doi.org/10.1002/9781118670712.ch8


 Borstnik, U; VandeVondele, J; Weber, V; Hutter, J. 
 PARALLEL COMPUTING, 40 (5-6), 47-58 (2014). 
 Sparse matrix multiplication: The distributed block-compressed sparse
 row library.
 http://dx.doi.org/10.1016/j.parco.2014.03.012


 Hutter, J; Iannuzzi, M; Schiffmann, F; VandeVondele, J. 
 WILEY INTERDISCIPLINARY REVIEWS-COMPUTATIONAL MOLECULAR SCIENCE, 4 (1), 15-25 (2014). 
 CP2K: atomistic simulations of condensed matter systems.
 http://dx.doi.org/10.1002/wcms.1159


 Grimme, S; Ehrlich, S; Goerigk, L. 
 JOURNAL OF COMPUTATIONAL CHEMISTRY, 32, 1456 (2011). 
 Effect of the damping function in dispersion corrected density functional theory.
 http://dx.doi.org/10.1002/jcc.21759


 Grimme, S; Antony, J; Ehrlich, S; Krieg, H. 
 JOURNAL OF CHEMICAL PHYSICS, 132 (15), 154104 (2010). 
 A consistent and accurate ab initio parametrization of density
 functional dispersion correction (DFT-D) for the 94 elements H-Pu.
 http://dx.doi.org/10.1063/1.3382344


 VandeVondele, J; Hutter, J. 
 JOURNAL OF CHEMICAL PHYSICS, 127 (11), 114105 (2007). 
 Gaussian basis sets for accurate calculations on molecular systems in
 gas and condensed phases.
 http://dx.doi.org/10.1063/1.2770708


 Krack, M. 
 THEORETICAL CHEMISTRY ACCOUNTS, 114 (1-3), 145-152 (2005). 
 Pseudopotentials for H to Kr optimized for gradient-corrected
 exchange-correlation functionals.
 http://dx.doi.org/10.1007/s00214-005-0655-y


 VandeVondele, J; Krack, M; Mohamed, F; Parrinello, M; Chassaing, T;
 Hutter, J. COMPUTER PHYSICS COMMUNICATIONS, 167 (2), 103-128 (2005). 
 QUICKSTEP: Fast and accurate density functional calculations using a
 mixed Gaussian and plane waves approach.
 http://dx.doi.org/10.1016/j.cpc.2004.12.014


 Frigo, M; Johnson, SG. 
 PROCEEDINGS OF THE IEEE, 93 (2), 216-231 (2005). 
 The design and implementation of FFTW3.
 http://dx.doi.org/10.1109/JPROC.2004.840301


 Hartwigsen, C; Goedecker, S; Hutter, J. 
 PHYSICAL REVIEW B, 58 (7), 3641-3662 (1998). 
 Relativistic separable dual-space Gaussian pseudopotentials from H to Rn.
 http://dx.doi.org/10.1103/PhysRevB.58.3641


 Lippert, G; Hutter, J; Parrinello, M. 
 MOLECULAR PHYSICS, 92 (3), 477-487 (1997). 
 A hybrid Gaussian and plane wave density functional scheme.
 http://dx.doi.org/10.1080/002689797170220


 Perdew, JP; Burke, K; Ernzerhof, M. 
 PHYSICAL REVIEW LETTERS, 77 (18), 3865-3868 (1996). 
 Generalized gradient approximation made simple.
 http://dx.doi.org/10.1103/PhysRevLett.77.3865


 Goedecker, S; Teter, M; Hutter, J. 
 PHYSICAL REVIEW B, 54 (3), 1703-1710 (1996). 
 Separable dual-space Gaussian pseudopotentials.
 http://dx.doi.org/10.1103/PhysRevB.54.1703


 -------------------------------------------------------------------------------
 -                                                                             -
 -                                T I M I N G                                  -
 -                                                                             -
 -------------------------------------------------------------------------------
 SUBROUTINE                       CALLS  ASD         SELF TIME        TOTAL TIME
                                MAXIMUM       AVERAGE  MAXIMUM  AVERAGE  MAXIMUM
 CP2K                                 1  1.0     0.47     0.50 19331.55 19331.64
 cp_geo_opt                           1  2.0     0.02     0.02 19327.94 19328.05
 geoopt_bfgs                          1  3.0     0.53     0.55 19327.92 19328.04
 cp_eval_at                           4  4.0     0.52     0.53 19303.00 19303.05
 qs_energies                          4  5.8     0.39     0.40 19182.48 19182.86
 scf_env_do_scf                       4  6.8     0.60     0.66 19073.00 19074.54
 scf_env_do_scf_inner_loop          103  7.8     5.58     7.05 19072.33 19073.78
 qs_forces                            3  5.0     0.28     0.29 17741.84 17741.85
 qs_scf_new_mos                     103  8.8     1.79     1.82 14019.97 14020.11
 eigensolver                        103  9.8     4.14     4.26 13603.73 13603.82
 cp_fm_syevd                        109 10.6     1.46     1.60 13546.57 13547.22
 cp_fm_syevd_base                   109 11.7 13532.79 13541.33 13532.79 13541.33
 rebuild_ks_matrix                  106  9.7     1.18     1.19  2672.26  2672.41
 qs_ks_build_kohn_sham_matrix       106 10.7    16.70    17.04  2671.08  2671.22
 qs_ks_update_qs_env                103  8.8     1.74     1.75  2610.01  2610.12
 sum_up_and_integrate               106 11.7    12.12    12.19  1694.92  1695.45
 integrate_v_rspace                 106 12.7   941.00   966.94  1682.61  1683.15
 qs_rho_update_rho                  107  8.8     0.94     0.95  1675.21  1675.28
 calculate_rho_elec                 107  9.8   653.24   661.71  1674.27  1674.34
 pw_transfer                       1593 12.7    55.02    55.98  1658.45  1662.48
 fft_wrap_pw1pw2                   1381 13.8    22.88    22.99  1583.28  1587.26
 fft3d_ps                          1381 15.8   870.03   874.54  1321.51  1330.61
 fft_wrap_pw1pw2_200                529 14.0    84.00    89.46  1206.35  1210.33
 density_rs2pw                      107 10.8     8.46     9.01   983.49   990.07
 gspace_mixing                       99  8.8     5.81     6.00   771.77   771.80
 potential_pw2rs                    106 13.7    10.23    10.31   677.12   677.67
 qs_vxc_create                      106 11.7     3.04     3.16   550.48   551.66
 xc_vxc_pw_create                   106 12.7    51.07    53.15   547.43   548.66
 rs_pw_transfer                    1072 13.2    10.13    10.45   523.93   530.61
 broyden_mixing                      99  9.8   491.21   494.44   509.61   511.04
 xc_rho_set_and_dset_create         106 13.7    18.56    18.90   389.69   416.56
 -------------------------------------------------------------------------------

 The number of warnings for this run is : 2
 
 -------------------------------------------------------------------------------
  **** **** ******  **  PROGRAM ENDED AT                 2020-10-08 16:27:34.064
 ***** ** ***  *** **   PROGRAM RAN ON                                 irene6058
 **    ****   ******    PROGRAM RAN BY                                  marticar
 ***** **    ** ** **   PROGRAM PROCESS ID                                224277
  **** **  *******  **  PROGRAM STOPPED IN /ccc/scratch/cont003/gen0609/marticar
                                           /685780
