 DBCSR| Multiplication driver                                               XSMM
 DBCSR| Multrec recursion limit                                              512
 DBCSR| Multiplication stack size                                           1000
 DBCSR| Maximum elements for images                                    UNLIMITED
 DBCSR| Multiplicative factor virtual images                                   1
 DBCSR| Multiplication size stacks                                             3
 DBCSR| Number of 3D layers                                               SINGLE
 DBCSR| Use MPI memory allocation                                              T
 DBCSR| Use RMA algorithm                                                      F
 DBCSR| Use Communication thread                                               T
 DBCSR| Communication thread load                                             87


  **** **** ******  **  PROGRAM STARTED AT               2020-10-12 11:30:22.794
 ***** ** ***  *** **   PROGRAM STARTED ON                             irene4013
 **    ****   ******    PROGRAM STARTED BY                              marticar
 ***** **    ** ** **   PROGRAM PROCESS ID                                258949
  **** **  *******  **  PROGRAM STARTED IN /ccc/scratch/cont003/gen0609/marticar
                                           /696825

 CP2K| version string:                                          CP2K version 6.1
 CP2K| source code revision number:                                    svn:18464
 CP2K| cp2kflags: libint fftw3 parallel mpi3 scalapack xsmm mkl                 
 CP2K| is freely available from                            https://www.cp2k.org/
 CP2K| Program compiled at                          Thu Dec 12 15:40:57 CET 2019
 CP2K| Program compiled on                                             cobalt175
 CP2K| Program compiled for                                   Linux-x86-64-iomkl
 CP2K| Data directory path          /tmp/cp2k/6.1/iomkl-195281.401/cp2k-6.1/data
 CP2K| Input file name                                            refinement.inp
 
 GLOBAL| Force Environment number                                              1
 GLOBAL| Basis set file name            /ccc/work/cont003/gen0609/marticar/data/
 GLOBAL| Potential file name            /ccc/work/cont003/gen0609/marticar/data/
 GLOBAL| MM Potential file name                                     MM_POTENTIAL
 GLOBAL| Coordinate file name                                      __STD_INPUT__
 GLOBAL| Method name                                                        CP2K
 GLOBAL| Project name                                                    PROJECT
 GLOBAL| Preferred FFT library                                             FFTW3
 GLOBAL| Preferred diagonalization lib.                                       SL
 GLOBAL| Run type                                                        GEO_OPT
 GLOBAL| All-to-all communication in single precision                          F
 GLOBAL| FFTs using library dependent lengths                                  F
 GLOBAL| Global print level                                                  LOW
 GLOBAL| Total number of message passing processes                             8
 GLOBAL| Number of threads for this process                                    1
 GLOBAL| This output is from process                                           0
 GLOBAL| CPU model name :  AMD EPYC 7H12 64-Core Processor

 MEMORY| system memory details [Kb]
 MEMORY|                        rank 0           min           max       average
 MEMORY| MemTotal            263246936     263246936     263246936     263246936
 MEMORY| MemFree             168655972     168655972     168655972     168655972
 MEMORY| Buffers                     0             0             0             0
 MEMORY| Cached                1215280       1215280       1215280       1215280
 MEMORY| Slab                  2598824       2598824       2598824       2598824
 MEMORY| SReclaimable           355008        355008        355008        355008
 MEMORY| MemLikelyFree       170226260     170226260     170226260     170226260

 
 GENERATE|  Preliminary Number of Bonds generated:                             0
 GENERATE|  Achieved consistency in connectivity generation.

 *******************************************************************************
 *******************************************************************************
 **                                                                           **
 **     #####                         ##              ##                      **
 **    ##   ##            ##          ##              ##                      **
 **   ##     ##                       ##            ######                    **
 **   ##     ##  ##   ##  ##   #####  ##  ##   ####   ##    #####    #####    **
 **   ##     ##  ##   ##  ##  ##      ## ##   ##      ##   ##   ##  ##   ##   **
 **   ##  ## ##  ##   ##  ##  ##      ####     ###    ##   ######   ######    **
 **    ##  ###   ##   ##  ##  ##      ## ##      ##   ##   ##       ##        **
 **     #######   #####   ##   #####  ##  ##  ####    ##    #####   ##        **
 **           ##                                                    ##        **
 **                                                                           **
 **                                                ... make the atoms dance   **
 **                                                                           **
 **            Copyright (C) by CP2K developers group (2000 - 2018)           **
 **                                                                           **
 *******************************************************************************


 TOTAL NUMBERS AND MAXIMUM NUMBERS

  Total number of            - Atomic kinds:                                   3
                             - Atoms:                                         40
                             - Shell sets:                                    40
                             - Shells:                                       276
                             - Primitive Cartesian functions:                204
                             - Cartesian basis functions:                   1168
                             - Spherical basis functions:                    976

  Maximum angular momentum of- Orbital basis functions:                        3
                             - Local part of the GTH pseudopotential:          2
                             - Non-local part of the GTH pseudopotential:      4


 SCF PARAMETERS         Density guess:                                   RESTART
                        --------------------------------------------------------
                        max_scf:                                             300
                        max_scf_history:                                       0
                        max_diis:                                              4
                        --------------------------------------------------------
                        eps_scf:                                        1.00E-07
                        eps_scf_history:                                0.00E+00
                        eps_diis:                                       1.00E-01
                        eps_eigval:                                     1.00E-05
                        --------------------------------------------------------
                        level_shift [a.u.]:                                 0.00
                        added MOs                                        38    0
                        --------------------------------------------------------
                        Mixing method:                            BROYDEN_MIXING
                                                charge density mixing in g-space
                        --------------------------------------------------------
                        Smear method:                                FERMI_DIRAC
                        Electronic temperature [K]:                        300.0
                        Electronic temperature [a.u.]:                  9.50E-04
                        Accuracy threshold:                             1.00E-10
                        --------------------------------------------------------
                        No outer SCF

 BFGS| Use rational function optimization for step estimation:                NO
 BFGS| Use model Hessian for initial guess:                                  YES
 BFGS| Restart Hessian:                                                       NO
 BFGS| Trust radius:                                                       0.472

 *******************************************************************************
 ***                     STARTING GEOMETRY OPTIMIZATION                      ***
 ***                                   BFGS                                  ***
 *******************************************************************************

 Number of electrons:                                                        428
 Number of occupied orbitals:                                                214
 Number of molecular orbitals:                                               252

 Number of orbital functions:                                                976
 Number of independent orbital functions:                                    976

 Extrapolation method: initial_guess


 SCF WAVEFUNCTION OPTIMIZATION

  Step     Update method      Time    Convergence         Total energy    Change
  ------------------------------------------------------------------------------
     1 NoMix/Diag. 0.10E+00   45.2     0.00651952     -1284.5293641187 -1.28E+03
     2 Broy./Diag. 0.10E+00  185.7     0.00003434     -1284.5345959826 -5.23E-03
     3 Broy./Diag. 0.10E+00   96.8     0.00029977     -1284.5318273733  2.77E-03
     4 Broy./Diag. 0.10E+00   70.6     0.00002091     -1284.5291592609  2.67E-03
     5 Broy./Diag. 0.10E+00  110.9     0.00011715     -1284.5294645982 -3.05E-04
     6 Broy./Diag. 0.10E+00  285.0     0.00001545     -1284.5297676555 -3.03E-04
     7 Broy./Diag. 0.10E+00  324.5     0.00006214     -1284.5297010192  6.66E-05
     8 Broy./Diag. 0.10E+00  197.6     0.00000544     -1284.5294979869  2.03E-04
     9 Broy./Diag. 0.10E+00  101.5     0.00001747     -1284.5295259125 -2.79E-05
    10 Broy./Diag. 0.10E+00   33.0     0.00000147     -1284.5295248792  1.03E-06
    11 Broy./Diag. 0.10E+00   28.0     0.00000803     -1284.5294968580  2.80E-05
    12 Broy./Diag. 0.10E+00   19.2     0.00000080     -1284.5294421277  5.47E-05
    13 Broy./Diag. 0.10E+00   26.3     0.00000469     -1284.5294627177 -2.06E-05
    14 Broy./Diag. 0.10E+00   23.9     0.00000064     -1284.5294554766  7.24E-06
    15 Broy./Diag. 0.10E+00   16.8     0.00000425     -1284.5294558959 -4.19E-07
    16 Broy./Diag. 0.10E+00   14.5     0.00000044     -1284.5294408496  1.50E-05
    17 Broy./Diag. 0.10E+00   15.5     0.00000236     -1284.5294374616  3.39E-06
    18 Broy./Diag. 0.10E+00   14.8     0.00000014     -1284.5294287094  8.75E-06
    19 Broy./Diag. 0.10E+00   15.0     0.00000056     -1284.5294326581 -3.95E-06
    20 Broy./Diag. 0.10E+00   15.1     0.00000041     -1284.5294358112 -3.15E-06
    21 Broy./Diag. 0.10E+00   15.0     0.00000080     -1284.5294340441  1.77E-06
    22 Broy./Diag. 0.10E+00   14.6     0.00000015     -1284.5294320778  1.97E-06
    23 Broy./Diag. 0.10E+00   14.5     0.00000028     -1284.5294324238 -3.46E-07
    24 Broy./Diag. 0.10E+00   14.8     0.00000006     -1284.5294328758 -4.52E-07

  *** SCF run converged in    24 steps ***


  Electronic density on regular grids:       -428.0000000009       -0.0000000009
  Core density on regular grids:              427.9999993690       -0.0000006310
  Total charge density on r-space grids:       -0.0000006319
  Total charge density g-space grids:          -0.0000006319

  Overlap energy of the core charge distribution:               0.00000292173662
  Self energy of the core charge distribution:              -2253.28808377914038
  Core Hamiltonian energy:                                    717.42822803731235
  Hartree energy:                                             454.94248200260063
  Exchange-correlation energy:                               -203.28973708259602
  Dispersion energy:                                           -0.32231310737737
  Electronic entropic energy:                                  -0.00001186832991
  Fermi energy:                                                -0.16815824682271

  Total energy:                                             -1284.52943287578751

 ENERGY| Total FORCE_EVAL ( QS ) energy (a.u.):            -1284.529431390922127


 --------  Informations at step =     0 ------------
  Optimization Method        =                 BFGS
  Total Energy               =     -1284.5294313909
  Used time                  =             1747.075
 ---------------------------------------------------

 --------------------------
 OPTIMIZATION STEP:      1
 --------------------------

 Number of electrons:                                                        428
 Number of occupied orbitals:                                                218
 Number of molecular orbitals:                                               252

 Number of orbital functions:                                                976
 Number of independent orbital functions:                                    976

 Extrapolation method: PS Nth order


 SCF WAVEFUNCTION OPTIMIZATION

  Step     Update method      Time    Convergence         Total energy    Change
  ------------------------------------------------------------------------------
     1 Broy./Diag. 0.10E+00   18.4     0.00044230     -1284.5294321610 -1.28E+03
     2 Broy./Diag. 0.10E+00   28.2     0.00000323     -1284.5307351635 -1.30E-03
     3 Broy./Diag. 0.10E+00   28.0     0.00003051     -1284.5300789711  6.56E-04
     4 Broy./Diag. 0.10E+00   50.7     0.00000079     -1284.5294486235  6.30E-04
     5 Broy./Diag. 0.10E+00   27.8     0.00000707     -1284.5294319594  1.67E-05
     6 Broy./Diag. 0.10E+00   55.3     0.00000117     -1284.5294274233  4.54E-06
     7 Broy./Diag. 0.10E+00   18.5     0.00000590     -1284.5294492031 -2.18E-05
     8 Broy./Diag. 0.10E+00   19.7     0.00000061     -1284.5294637828 -1.46E-05
     9 Broy./Diag. 0.10E+00   33.5     0.00000179     -1284.5294541471  9.64E-06
    10 Broy./Diag. 0.10E+00   25.5     0.00000015     -1284.5294386526  1.55E-05
    11 Broy./Diag. 0.10E+00   23.3     0.00000091     -1284.5294376398  1.01E-06
    12 Broy./Diag. 0.10E+00   22.2     0.00000006     -1284.5294346761  2.96E-06

  *** SCF run converged in    12 steps ***


  Electronic density on regular grids:       -428.0000000009       -0.0000000009
  Core density on regular grids:              427.9999993688       -0.0000006312
  Total charge density on r-space grids:       -0.0000006321
  Total charge density g-space grids:          -0.0000006321

  Overlap energy of the core charge distribution:               0.00000292005008
  Self energy of the core charge distribution:              -2253.28808377914038
  Core Hamiltonian energy:                                    717.42831339013264
  Hartree energy:                                             454.94255069412390
  Exchange-correlation energy:                               -203.28989016916782
  Dispersion energy:                                           -0.32231582702606
  Electronic entropic energy:                                  -0.00001190504230
  Fermi energy:                                                -0.16815528298701

  Total energy:                                             -1284.52943467607406

 ENERGY| Total FORCE_EVAL ( QS ) energy (a.u.):            -1284.529432867937885


 --------  Informations at step =     1 ------------
  Optimization Method        =                 BFGS
  Total Energy               =     -1284.5294328679
  Real energy change         =        -0.0000014770
  Predicted change in energy =        -0.0000008474
  Scaling factor             =         0.0000000000
  Step size                  =         0.0009767904
  Trust radius               =         0.4724315332
  Decrease in energy         =                  YES
  Used time                  =              414.672

  Convergence check :
  Max. step size             =         0.0009767904
  Conv. limit for step size  =         0.0030000000
  Convergence in step size   =                  YES
  RMS step size              =         0.0003748634
  Conv. limit for RMS step   =         0.0015000000
  Convergence in RMS step    =                  YES
  Max. gradient              =         0.0000761610
  Conv. limit for gradients  =         0.0004500000
  Conv. in gradients         =                  YES
  RMS gradient               =         0.0000288593
  Conv. limit for RMS grad.  =         0.0003000000
  Conv. in RMS gradients     =                  YES
 ---------------------------------------------------

 *******************************************************************************
 ***                    GEOMETRY OPTIMIZATION COMPLETED                      ***
 *******************************************************************************

                    Reevaluating energy at the minimum

 Number of electrons:                                                        428
 Number of occupied orbitals:                                                218
 Number of molecular orbitals:                                               252

 Number of orbital functions:                                                976
 Number of independent orbital functions:                                    976

 Extrapolation method: PS Nth order


 SCF WAVEFUNCTION OPTIMIZATION

  Step     Update method      Time    Convergence         Total energy    Change
  ------------------------------------------------------------------------------
     1 Broy./Diag. 0.10E+00   13.2     0.00023054     -1284.5294325531 -1.28E+03
     2 Broy./Diag. 0.10E+00   23.0     0.00000516     -1284.5296311259 -1.99E-04
     3 Broy./Diag. 0.10E+00   28.6     0.00003475     -1284.5296063645  2.48E-05
     4 Broy./Diag. 0.10E+00   20.5     0.00000433     -1284.5295607777  4.56E-05
     5 Broy./Diag. 0.10E+00   26.6     0.00001409     -1284.5295085746  5.22E-05
     6 Broy./Diag. 0.10E+00   23.8     0.00000116     -1284.5294413694  6.72E-05
     7 Broy./Diag. 0.10E+00   23.4     0.00000378     -1284.5294612687 -1.99E-05
     8 Broy./Diag. 0.10E+00   27.8     0.00000040     -1284.5294625574 -1.29E-06
     9 Broy./Diag. 0.10E+00   30.4     0.00000228     -1284.5294627050 -1.48E-07
    10 Broy./Diag. 0.10E+00   31.5     0.00000009     -1284.5294468721  1.58E-05

  *** SCF run converged in    10 steps ***


  Electronic density on regular grids:       -428.0000000009       -0.0000000009
  Core density on regular grids:              427.9999993688       -0.0000006312
  Total charge density on r-space grids:       -0.0000006321
  Total charge density g-space grids:          -0.0000006321

  Overlap energy of the core charge distribution:               0.00000292005008
  Self energy of the core charge distribution:              -2253.28808377914038
  Core Hamiltonian energy:                                    717.42830087771745
  Hartree energy:                                             454.94255330874017
  Exchange-correlation energy:                               -203.28989246733721
  Dispersion energy:                                           -0.32231582702606
  Electronic entropic energy:                                  -0.00001190508546
  Fermi energy:                                                -0.16815521078351

  Total energy:                                             -1284.52944687208515

 ENERGY| Total FORCE_EVAL ( QS ) energy (a.u.):            -1284.529446872085146


 -------------------------------------------------------------------------------
 -                                                                             -
 -                                DBCSR STATISTICS                             -
 -                                                                             -
 -------------------------------------------------------------------------------
 COUNTER                                    TOTAL       BLAS       SMM       ACC
 flops    13 x    28 x    13               151424       0.0%    100.0%      0.0%
 flops    13 x    32 x    13              1211392       0.0%    100.0%      0.0%
 flops    13 x    13 x    60              3102840       0.0%    100.0%      0.0%
 flops    13 x    28 x    25              5168800       0.0%    100.0%      0.0%
 flops    25 x    28 x    13              5168800       0.0%    100.0%      0.0%
 flops    13 x    13 x    64              9929088       0.0%    100.0%      0.0%
 flops    25 x    32 x    13             41350400       0.0%    100.0%      0.0%
 flops    13 x    32 x    25             41350400       0.0%    100.0%      0.0%
 flops    25 x    13 x    60             69615000       0.0%    100.0%      0.0%
 flops    13 x    25 x    60             71604000       0.0%    100.0%      0.0%
 flops    25 x    28 x    25            202160000       0.0%    100.0%      0.0%
 flops    25 x    13 x    64            222768000       0.0%    100.0%      0.0%
 flops    13 x    25 x    64            229132800       0.0%    100.0%      0.0%
 flops    25 x    32 x    25           1617280000       0.0%    100.0%      0.0%
 flops    25 x    25 x    60           2834325000       0.0%    100.0%      0.0%
 flops    25 x    25 x    64           9069840000       0.0%    100.0%      0.0%
 flops inhomo. stacks                           0       0.0%      0.0%      0.0%
 flops total                        14.424158E+09       0.0%    100.0%      0.0%
 flops max/rank                      2.016840E+09       0.0%    100.0%      0.0%
 matmuls inhomo. stacks                         0       0.0%      0.0%      0.0%
 matmuls total                             217140       0.0%    100.0%      0.0%
 number of processed stacks                  4032       0.0%    100.0%      0.0%
 average stack size                                     0.0      53.9       0.0
 marketing flops                    23.101864E+09
 -------------------------------------------------------------------------------
 # multiplications                             55
 max memory usage/rank               5.212479E+09
 # max total images/rank                        2
 # max 3D layers                                1
 # MPI messages exchanged                    3960
 MPI messages size (bytes):
  total size                       716.837184E+06
  min size                         114.240000E+03
  max size                           1.000000E+06
  average size                     181.019484E+03
 MPI breakdown and total messages size (bytes):
             size <=      128                   0                        0
       128 < size <=     8192                   0                        0
      8192 < size <=    32768                   0                        0
     32768 < size <=   131072                2640                324656640
    131072 < size <=  4194304                1320                392180544
   4194304 < size <= 16777216                   0                        0
  16777216 < size                               0                        0
 -------------------------------------------------------------------------------

 *** WARNING in dbcsr/mm/dbcsr_mm.F:268 :: Using a non-square number of ***
 *** MPI ranks might lead to poor performance.                          ***
 *** Used ranks: 8                                                      ***
 *** Suggested: 9 16                                                    ***

 -------------------------------------------------------------------------------
 
 MEMORY| Estimated peak process memory [MiB]                                5107

 -------------------------------------------------------------------------------
 -                                                                             -
 -                         MESSAGE PASSING PERFORMANCE                         -
 -                                                                             -
 -------------------------------------------------------------------------------

 ROUTINE             CALLS      AVE VOLUME [Bytes]
 MP_Group               59
 MP_Bcast              367                 732736.
 MP_Allreduce         1120                   2313.
 MP_Sync                 7
 MP_Alltoall          2266               49340515.
 MP_SendRecv           824                1048661.
 MP_ISendRecv         2037                 823483.
 MP_Wait              7662
 MP_comm_split           2
 MP_ISend             3708                3853956.
 MP_IRecv             3708                3853543.
 MP_Recv                31                 228463.
 MP_Memory            6536
 -------------------------------------------------------------------------------


 -------------------------------------------------------------------------------
 -                                                                             -
 -                           R E F E R E N C E S                               -
 -                                                                             -
 -------------------------------------------------------------------------------
 
 CP2K version 6.1, the CP2K developers group (2018).
 CP2K is freely available from https://www.cp2k.org/ .

 Schuett, Ole; Messmer, Peter; Hutter, Juerg; VandeVondele, Joost. 
 Electronic Structure Calculations on Graphics Processing Units, John Wiley & Sons, Ltd, 173-190 (2016). 
 GPU-Accelerated Sparse Matrix-Matrix Multiplication for Linear Scaling Density Functional Theory.
 http://dx.doi.org/10.1002/9781118670712.ch8


 Borstnik, U; VandeVondele, J; Weber, V; Hutter, J. 
 PARALLEL COMPUTING, 40 (5-6), 47-58 (2014). 
 Sparse matrix multiplication: The distributed block-compressed sparse
 row library.
 http://dx.doi.org/10.1016/j.parco.2014.03.012


 Hutter, J; Iannuzzi, M; Schiffmann, F; VandeVondele, J. 
 WILEY INTERDISCIPLINARY REVIEWS-COMPUTATIONAL MOLECULAR SCIENCE, 4 (1), 15-25 (2014). 
 CP2K: atomistic simulations of condensed matter systems.
 http://dx.doi.org/10.1002/wcms.1159


 Grimme, S; Ehrlich, S; Goerigk, L. 
 JOURNAL OF COMPUTATIONAL CHEMISTRY, 32, 1456 (2011). 
 Effect of the damping function in dispersion corrected density functional theory.
 http://dx.doi.org/10.1002/jcc.21759


 Grimme, S; Antony, J; Ehrlich, S; Krieg, H. 
 JOURNAL OF CHEMICAL PHYSICS, 132 (15), 154104 (2010). 
 A consistent and accurate ab initio parametrization of density
 functional dispersion correction (DFT-D) for the 94 elements H-Pu.
 http://dx.doi.org/10.1063/1.3382344


 VandeVondele, J; Hutter, J. 
 JOURNAL OF CHEMICAL PHYSICS, 127 (11), 114105 (2007). 
 Gaussian basis sets for accurate calculations on molecular systems in
 gas and condensed phases.
 http://dx.doi.org/10.1063/1.2770708


 Krack, M. 
 THEORETICAL CHEMISTRY ACCOUNTS, 114 (1-3), 145-152 (2005). 
 Pseudopotentials for H to Kr optimized for gradient-corrected
 exchange-correlation functionals.
 http://dx.doi.org/10.1007/s00214-005-0655-y


 VandeVondele, J; Krack, M; Mohamed, F; Parrinello, M; Chassaing, T;
 Hutter, J. COMPUTER PHYSICS COMMUNICATIONS, 167 (2), 103-128 (2005). 
 QUICKSTEP: Fast and accurate density functional calculations using a
 mixed Gaussian and plane waves approach.
 http://dx.doi.org/10.1016/j.cpc.2004.12.014


 Frigo, M; Johnson, SG. 
 PROCEEDINGS OF THE IEEE, 93 (2), 216-231 (2005). 
 The design and implementation of FFTW3.
 http://dx.doi.org/10.1109/JPROC.2004.840301


 Hartwigsen, C; Goedecker, S; Hutter, J. 
 PHYSICAL REVIEW B, 58 (7), 3641-3662 (1998). 
 Relativistic separable dual-space Gaussian pseudopotentials from H to Rn.
 http://dx.doi.org/10.1103/PhysRevB.58.3641


 Lippert, G; Hutter, J; Parrinello, M. 
 MOLECULAR PHYSICS, 92 (3), 477-487 (1997). 
 A hybrid Gaussian and plane wave density functional scheme.
 http://dx.doi.org/10.1080/002689797170220


 Perdew, JP; Burke, K; Ernzerhof, M. 
 PHYSICAL REVIEW LETTERS, 77 (18), 3865-3868 (1996). 
 Generalized gradient approximation made simple.
 http://dx.doi.org/10.1103/PhysRevLett.77.3865


 Goedecker, S; Teter, M; Hutter, J. 
 PHYSICAL REVIEW B, 54 (3), 1703-1710 (1996). 
 Separable dual-space Gaussian pseudopotentials.
 http://dx.doi.org/10.1103/PhysRevB.54.1703


 -------------------------------------------------------------------------------
 -                                                                             -
 -                                T I M I N G                                  -
 -                                                                             -
 -------------------------------------------------------------------------------
 SUBROUTINE                       CALLS  ASD         SELF TIME        TOTAL TIME
                                MAXIMUM       AVERAGE  MAXIMUM  AVERAGE  MAXIMUM
 CP2K                                 1  1.0    0.639    0.922 2444.444 2444.470
 cp_geo_opt                           1  2.0    0.041    0.041 2427.053 2427.062
 geoopt_bfgs                          1  3.0    0.318    0.319 2427.013 2427.021
 cp_eval_at                           3  4.0    0.044    0.055 2423.561 2423.576
 qs_energies                          3  5.7    0.095    0.099 2369.994 2370.006
 scf_env_do_scf                       3  6.7    0.134    0.169 2309.978 2310.209
 scf_env_do_scf_inner_loop           46  7.8    0.711    0.946 2309.802 2310.016
 qs_forces                            2  5.0    0.043    0.045 2158.635 2158.642
 qs_scf_new_mos                      46  8.8    0.248    0.251 1305.644 1305.660
 eigensolver                         46  9.8    0.532    0.560 1259.088 1259.100
 cp_fm_syevd                         51 10.6    0.138    0.146 1250.005 1250.033
 cp_fm_syevd_base                    51 11.7 1248.311 1249.426 1248.311 1249.426
 rebuild_ks_matrix                   48  9.7    0.207    0.226  531.424  531.448
 qs_ks_build_kohn_sham_matrix        48 10.7    3.476    3.620  531.218  531.225
 qs_ks_update_qs_env                 46  8.8    0.302    0.315  490.513  490.747
 pw_transfer                        724 12.7   10.182   10.299  477.449  478.052
 fft_wrap_pw1pw2                    628 13.7    3.484    3.538  458.346  459.097
 fft_wrap_pw1pw2_200                240 14.0   33.281   35.022  387.275  388.036
 fft3d_ps                           628 15.7  232.797  234.084  357.978  359.405
 qs_rho_update_rho                   49  8.8    0.105    0.111  288.949  288.962
 calculate_rho_elec                  49  9.8   28.231   29.178  288.844  288.855
 density_rs2pw                       49 10.8    0.913    0.971  252.911  254.878
 gspace_mixing                       43  8.8    1.654    1.686  242.388  242.394
 sum_up_and_integrate                48 11.7    5.091    5.225  238.574  238.673
 integrate_v_rspace                  48 12.7   47.716   49.584  233.471  233.679
 potential_pw2rs                     48 13.7    1.747    1.779  180.364  180.571
 broyden_mixing                      43  9.8  155.683  157.522  163.314  164.084
 qs_vxc_create                       48 11.7    0.576    0.614  159.689  160.551
 xc_vxc_pw_create                    48 12.7   15.089   15.557  159.112  159.936
 rs_pw_transfer                     490 13.2    1.820    1.936  123.172  124.344
 xc_rho_set_and_dset_create          48 13.7    6.694    6.814  105.526  121.630
 xc_functional_eval                  48 14.7    0.360    0.401   64.115   79.377
 pbe_lda_eval                        48 15.7   63.755   79.051   63.755   79.051
 x_to_yz                            332 17.2   38.428   38.660   70.994   72.108
 pw_nn_compose_r                    384 14.2   27.876   28.105   56.612   69.516
 mp_alltoall_z22v                   628 17.7   54.064   56.754   54.064   56.754
 -------------------------------------------------------------------------------

 The number of warnings for this run is : 1
 
 -------------------------------------------------------------------------------
  **** **** ******  **  PROGRAM ENDED AT                 2020-10-12 12:11:12.224
 ***** ** ***  *** **   PROGRAM RAN ON                                 irene4013
 **    ****   ******    PROGRAM RAN BY                                  marticar
 ***** **    ** ** **   PROGRAM PROCESS ID                                258949
  **** **  *******  **  PROGRAM STOPPED IN /ccc/scratch/cont003/gen0609/marticar
                                           /696825
