40
Properties=species:S:1:pos:R:3 energy=-34953.38746077358 pbc="F F F"
Au      15.03313938      14.84805876      16.42647056
Au      17.29317243      11.34379007      14.35551342
Au      14.44073394      12.05953872      17.38410441
Au      18.07548256      15.32479996      17.15821438
Au      12.42100259      14.01147598      17.34699345
Au      11.24733234      14.86057561      15.00434034
Au      12.94012986      18.08911006      13.34707164
Au      15.34407227      18.86652766      14.53372337
Au      14.84944202      15.99786290      13.90778532
Au      14.24253082      13.84817180      19.46974239
Au      14.90036069      12.29555127      13.15473109
Au      12.82500394      14.15695867      12.78183362
Au      15.18908043      14.29735596      11.26604715
Au      16.83368918      14.16317073      14.43307601
Au      12.81465064      12.49536408      15.01652349
Au      14.71388776      10.40234149      15.20291554
Au      17.66129796      16.91309777      14.83828894
Au      19.63843588      14.72743294      14.78041122
Au      15.98262524      17.56757285      17.05758079
Au      18.97664469      16.23269298      12.54908769
Au      13.26142785      17.94014074      16.19762282
Au      16.86889865      10.64744898      17.06187894
Au      10.91537838      16.25854078      12.56179998
Au      15.34772709      18.07320571      11.83852364
Au      11.17584833      16.46171640      17.41472014
Au      10.70246329      17.69653955      14.97163404
Au      16.87192537      13.11781136      18.45695021
Au      15.54796863      16.45488055       9.49128596
Au      18.74130989      12.66331264      16.35213866
Au      16.46332464      15.85755181      19.29281558
Au      17.78081916      14.94281105      10.40717793
Au      14.46399738      15.91917557      21.22910142
Au      13.74769351      16.65964947      18.60767352
Au      13.19887128      16.33554818      10.99560026
Au      17.56700367      12.81636439      12.05454121
Au      17.80510490      17.77455430      10.45477428
Au      17.93300117      19.13303452      12.94749992
Au      17.65990152      19.55300623      15.84833234
C       18.97927276      20.75519408      12.38132407
O       19.60129474      21.64742384      12.00950300
