 DBCSR| Multiplication driver                                               XSMM
 DBCSR| Multrec recursion limit                                              512
 DBCSR| Multiplication stack size                                           1000
 DBCSR| Maximum elements for images                                    UNLIMITED
 DBCSR| Multiplicative factor virtual images                                   1
 DBCSR| Multiplication size stacks                                             3
 DBCSR| Number of 3D layers                                               SINGLE
 DBCSR| Use MPI memory allocation                                              T
 DBCSR| Use RMA algorithm                                                      F
 DBCSR| Use Communication thread                                               T
 DBCSR| Communication thread load                                             87


  **** **** ******  **  PROGRAM STARTED AT               2020-10-12 11:06:31.240
 ***** ** ***  *** **   PROGRAM STARTED ON                             irene6253
 **    ****   ******    PROGRAM STARTED BY                              marticar
 ***** **    ** ** **   PROGRAM PROCESS ID                                195943
  **** **  *******  **  PROGRAM STARTED IN /ccc/scratch/cont003/gen0609/marticar
                                           /696815

 CP2K| version string:                                          CP2K version 6.1
 CP2K| source code revision number:                                    svn:18464
 CP2K| cp2kflags: libint fftw3 parallel mpi3 scalapack xsmm mkl                 
 CP2K| is freely available from                            https://www.cp2k.org/
 CP2K| Program compiled at                          Thu Dec 12 15:40:57 CET 2019
 CP2K| Program compiled on                                             cobalt175
 CP2K| Program compiled for                                   Linux-x86-64-iomkl
 CP2K| Data directory path          /tmp/cp2k/6.1/iomkl-195281.401/cp2k-6.1/data
 CP2K| Input file name                                            refinement.inp
 
 GLOBAL| Force Environment number                                              1
 GLOBAL| Basis set file name            /ccc/work/cont003/gen0609/marticar/data/
 GLOBAL| Potential file name            /ccc/work/cont003/gen0609/marticar/data/
 GLOBAL| MM Potential file name                                     MM_POTENTIAL
 GLOBAL| Coordinate file name                                      __STD_INPUT__
 GLOBAL| Method name                                                        CP2K
 GLOBAL| Project name                                                    PROJECT
 GLOBAL| Preferred FFT library                                             FFTW3
 GLOBAL| Preferred diagonalization lib.                                       SL
 GLOBAL| Run type                                                        GEO_OPT
 GLOBAL| All-to-all communication in single precision                          F
 GLOBAL| FFTs using library dependent lengths                                  F
 GLOBAL| Global print level                                                  LOW
 GLOBAL| Total number of message passing processes                             8
 GLOBAL| Number of threads for this process                                    1
 GLOBAL| This output is from process                                           0
 GLOBAL| CPU model name :  AMD EPYC 7H12 64-Core Processor

 MEMORY| system memory details [Kb]
 MEMORY|                        rank 0           min           max       average
 MEMORY| MemTotal            263246932     263246932     263246932     263246932
 MEMORY| MemFree              81405680      81404672      81405680      81404798
 MEMORY| Buffers                     0             0             0             0
 MEMORY| Cached                2264292       2264292       2265044       2264950
 MEMORY| Slab                  2449164       2449164       2449164       2449164
 MEMORY| SReclaimable           351184        351184        351184        351184
 MEMORY| MemLikelyFree        84021156      84020900      84021156      84020932

 
 GENERATE|  Preliminary Number of Bonds generated:                             0
 GENERATE|  Achieved consistency in connectivity generation.

 *******************************************************************************
 *******************************************************************************
 **                                                                           **
 **     #####                         ##              ##                      **
 **    ##   ##            ##          ##              ##                      **
 **   ##     ##                       ##            ######                    **
 **   ##     ##  ##   ##  ##   #####  ##  ##   ####   ##    #####    #####    **
 **   ##     ##  ##   ##  ##  ##      ## ##   ##      ##   ##   ##  ##   ##   **
 **   ##  ## ##  ##   ##  ##  ##      ####     ###    ##   ######   ######    **
 **    ##  ###   ##   ##  ##  ##      ## ##      ##   ##   ##       ##        **
 **     #######   #####   ##   #####  ##  ##  ####    ##    #####   ##        **
 **           ##                                                    ##        **
 **                                                                           **
 **                                                ... make the atoms dance   **
 **                                                                           **
 **            Copyright (C) by CP2K developers group (2000 - 2018)           **
 **                                                                           **
 *******************************************************************************


 TOTAL NUMBERS AND MAXIMUM NUMBERS

  Total number of            - Atomic kinds:                                   3
                             - Atoms:                                         40
                             - Shell sets:                                    40
                             - Shells:                                       276
                             - Primitive Cartesian functions:                204
                             - Cartesian basis functions:                   1168
                             - Spherical basis functions:                    976

  Maximum angular momentum of- Orbital basis functions:                        3
                             - Local part of the GTH pseudopotential:          2
                             - Non-local part of the GTH pseudopotential:      4


 SCF PARAMETERS         Density guess:                                   RESTART
                        --------------------------------------------------------
                        max_scf:                                             300
                        max_scf_history:                                       0
                        max_diis:                                              4
                        --------------------------------------------------------
                        eps_scf:                                        1.00E-07
                        eps_scf_history:                                0.00E+00
                        eps_diis:                                       1.00E-01
                        eps_eigval:                                     1.00E-05
                        --------------------------------------------------------
                        level_shift [a.u.]:                                 0.00
                        added MOs                                        38    0
                        --------------------------------------------------------
                        Mixing method:                            BROYDEN_MIXING
                                                charge density mixing in g-space
                        --------------------------------------------------------
                        Smear method:                                FERMI_DIRAC
                        Electronic temperature [K]:                        300.0
                        Electronic temperature [a.u.]:                  9.50E-04
                        Accuracy threshold:                             1.00E-10
                        --------------------------------------------------------
                        No outer SCF

 BFGS| Use rational function optimization for step estimation:                NO
 BFGS| Use model Hessian for initial guess:                                  YES
 BFGS| Restart Hessian:                                                       NO
 BFGS| Trust radius:                                                       0.472

 *******************************************************************************
 ***                     STARTING GEOMETRY OPTIMIZATION                      ***
 ***                                   BFGS                                  ***
 *******************************************************************************

 Number of electrons:                                                        428
 Number of occupied orbitals:                                                214
 Number of molecular orbitals:                                               252

 Number of orbital functions:                                                976
 Number of independent orbital functions:                                    976

 Extrapolation method: initial_guess


 SCF WAVEFUNCTION OPTIMIZATION

  Step     Update method      Time    Convergence         Total energy    Change
  ------------------------------------------------------------------------------
     1 NoMix/Diag. 0.10E+00   45.4     0.00000187     -1284.5280244844 -1.28E+03
     2 Broy./Diag. 0.10E+00   74.8     0.00000017     -1284.5280299954 -5.51E-06
     3 Broy./Diag. 0.10E+00   42.2     0.00000109     -1284.5280284419  1.55E-06
     4 Broy./Diag. 0.10E+00   68.1     0.00000004     -1284.5280258996  2.54E-06

  *** SCF run converged in     4 steps ***


  Electronic density on regular grids:       -428.0000000007       -0.0000000007
  Core density on regular grids:              427.9999993677       -0.0000006323
  Total charge density on r-space grids:       -0.0000006330
  Total charge density g-space grids:          -0.0000006330

  Overlap energy of the core charge distribution:               0.00000295192691
  Self energy of the core charge distribution:              -2253.28808377914038
  Core Hamiltonian energy:                                    717.45707304322298
  Hartree energy:                                             454.91350460182025
  Exchange-correlation energy:                               -203.28415173480801
  Dispersion energy:                                           -0.32636944584689
  Electronic entropic energy:                                  -0.00000153673707
  Fermi energy:                                                -0.16710464697239

  Total energy:                                             -1284.52802589956173

 ENERGY| Total FORCE_EVAL ( QS ) energy (a.u.):            -1284.528026021164351


 --------  Informations at step =     0 ------------
  Optimization Method        =                 BFGS
  Total Energy               =     -1284.5280260212
  Used time                  =              261.014
 ---------------------------------------------------

 --------------------------
 OPTIMIZATION STEP:      1
 --------------------------

 Number of electrons:                                                        428
 Number of occupied orbitals:                                                218
 Number of molecular orbitals:                                               252

 Number of orbital functions:                                                976
 Number of independent orbital functions:                                    976

 Extrapolation method: PS Nth order


 SCF WAVEFUNCTION OPTIMIZATION

  Step     Update method      Time    Convergence         Total energy    Change
  ------------------------------------------------------------------------------
     1 Broy./Diag. 0.10E+00   19.0     0.00030947     -1284.5280265453 -1.28E+03
     2 Broy./Diag. 0.10E+00   26.0     0.00000323     -1284.5294149295 -1.39E-03
     3 Broy./Diag. 0.10E+00   52.4     0.00003097     -1284.5286843727  7.31E-04
     4 Broy./Diag. 0.10E+00   24.7     0.00000096     -1284.5281504748  5.34E-04
     5 Broy./Diag. 0.10E+00   24.3     0.00000782     -1284.5280571498  9.33E-05
     6 Broy./Diag. 0.10E+00   95.9     0.00000141     -1284.5279878395  6.93E-05
     7 Broy./Diag. 0.10E+00   84.2     0.00000509     -1284.5280037167 -1.59E-05
     8 Broy./Diag. 0.10E+00   81.7     0.00000072     -1284.5280276390 -2.39E-05
     9 Broy./Diag. 0.10E+00  101.7     0.00000184     -1284.5280298742 -2.24E-06
    10 Broy./Diag. 0.10E+00   96.9     0.00000026     -1284.5280281239  1.75E-06
    11 Broy./Diag. 0.10E+00   99.7     0.00000115     -1284.5280305183 -2.39E-06
    12 Broy./Diag. 0.10E+00   93.3     0.00000010     -1284.5280309970 -4.79E-07

  *** SCF run converged in    12 steps ***


  Electronic density on regular grids:       -428.0000000007       -0.0000000007
  Core density on regular grids:              427.9999993677       -0.0000006323
  Total charge density on r-space grids:       -0.0000006330
  Total charge density g-space grids:          -0.0000006330

  Overlap energy of the core charge distribution:               0.00000295008946
  Self energy of the core charge distribution:              -2253.28808377914038
  Core Hamiltonian energy:                                    717.45738122456896
  Hartree energy:                                             454.91339929145306
  Exchange-correlation energy:                               -203.28435758362116
  Dispersion energy:                                           -0.32637156298982
  Electronic entropic energy:                                  -0.00000153737313
  Fermi energy:                                                -0.16710480109452

  Total energy:                                             -1284.52803099701259

 ENERGY| Total FORCE_EVAL ( QS ) energy (a.u.):            -1284.528027073789872


 --------  Informations at step =     1 ------------
  Optimization Method        =                 BFGS
  Total Energy               =     -1284.5280270738
  Real energy change         =        -0.0000010526
  Predicted change in energy =        -0.0000006247
  Scaling factor             =         0.0000000000
  Step size                  =         0.0011908305
  Trust radius               =         0.4724315332
  Decrease in energy         =                  YES
  Used time                  =              828.501

  Convergence check :
  Max. step size             =         0.0011908305
  Conv. limit for step size  =         0.0030000000
  Convergence in step size   =                  YES
  RMS step size              =         0.0003214034
  Conv. limit for RMS step   =         0.0015000000
  Convergence in RMS step    =                  YES
  Max. gradient              =         0.0000886787
  Conv. limit for gradients  =         0.0004500000
  Conv. in gradients         =                  YES
  RMS gradient               =         0.0000242958
  Conv. limit for RMS grad.  =         0.0003000000
  Conv. in RMS gradients     =                  YES
 ---------------------------------------------------

 *******************************************************************************
 ***                    GEOMETRY OPTIMIZATION COMPLETED                      ***
 *******************************************************************************

                    Reevaluating energy at the minimum

 Number of electrons:                                                        428
 Number of occupied orbitals:                                                218
 Number of molecular orbitals:                                               252

 Number of orbital functions:                                                976
 Number of independent orbital functions:                                    976

 Extrapolation method: PS Nth order


 SCF WAVEFUNCTION OPTIMIZATION

  Step     Update method      Time    Convergence         Total energy    Change
  ------------------------------------------------------------------------------
     1 Broy./Diag. 0.10E+00   47.1     0.00015617     -1284.5280268323 -1.28E+03
     2 Broy./Diag. 0.10E+00   97.7     0.00000219     -1284.5275688375  4.58E-04
     3 Broy./Diag. 0.10E+00   68.1     0.00001859     -1284.5278078947 -2.39E-04
     4 Broy./Diag. 0.10E+00  106.2     0.00000080     -1284.5278969879 -8.91E-05
     5 Broy./Diag. 0.10E+00   53.8     0.00000549     -1284.5279930511 -9.61E-05
     6 Broy./Diag. 0.10E+00  101.9     0.00000065     -1284.5280410000 -4.79E-05
     7 Broy./Diag. 0.10E+00   86.6     0.00000275     -1284.5280566023 -1.56E-05
     8 Broy./Diag. 0.10E+00  106.3     0.00000066     -1284.5280597628 -3.16E-06
     9 Broy./Diag. 0.10E+00   23.1     0.00000162     -1284.5280443097  1.55E-05
    10 Broy./Diag. 0.10E+00   76.8     0.00000017     -1284.5280291615  1.51E-05
    11 Broy./Diag. 0.10E+00   89.4     0.00000067     -1284.5280252610  3.90E-06
    12 Broy./Diag. 0.10E+00   99.3     0.00000007     -1284.5280237438  1.52E-06

  *** SCF run converged in    12 steps ***


  Electronic density on regular grids:       -428.0000000007       -0.0000000007
  Core density on regular grids:              427.9999993677       -0.0000006323
  Total charge density on r-space grids:       -0.0000006330
  Total charge density g-space grids:          -0.0000006330

  Overlap energy of the core charge distribution:               0.00000295008946
  Self energy of the core charge distribution:              -2253.28808377914038
  Core Hamiltonian energy:                                    717.45738485218737
  Hartree energy:                                             454.91340235874804
  Exchange-correlation energy:                               -203.28435702534469
  Dispersion energy:                                           -0.32637156298982
  Electronic entropic energy:                                  -0.00000153738337
  Fermi energy:                                                -0.16710499977085

  Total energy:                                             -1284.52802374383396

 ENERGY| Total FORCE_EVAL ( QS ) energy (a.u.):            -1284.528023743833955


 -------------------------------------------------------------------------------
 -                                                                             -
 -                                DBCSR STATISTICS                             -
 -                                                                             -
 -------------------------------------------------------------------------------
 COUNTER                                    TOTAL       BLAS       SMM       ACC
 flops    13 x    28 x    13               151424       0.0%    100.0%      0.0%
 flops    13 x    32 x    13              1211392       0.0%    100.0%      0.0%
 flops    13 x    13 x    60              2007720       0.0%    100.0%      0.0%
 flops    13 x    28 x    25              5532800       0.0%    100.0%      0.0%
 flops    25 x    28 x    13              5532800       0.0%    100.0%      0.0%
 flops    13 x    13 x    64              6424704       0.0%    100.0%      0.0%
 flops    25 x    32 x    13             44262400       0.0%    100.0%      0.0%
 flops    13 x    32 x    25             44262400       0.0%    100.0%      0.0%
 flops    13 x    25 x    60             48906000       0.0%    100.0%      0.0%
 flops    25 x    13 x    60             48906000       0.0%    100.0%      0.0%
 flops    13 x    25 x    64            156499200       0.0%    100.0%      0.0%
 flops    25 x    13 x    64            156499200       0.0%    100.0%      0.0%
 flops    25 x    28 x    25            202160000       0.0%    100.0%      0.0%
 flops    25 x    32 x    25           1617280000       0.0%    100.0%      0.0%
 flops    25 x    25 x    60           1833975000       0.0%    100.0%      0.0%
 flops    25 x    25 x    64           5868720000       0.0%    100.0%      0.0%
 flops inhomo. stacks                           0       0.0%      0.0%      0.0%
 flops total                        10.042331E+09       0.0%    100.0%      0.0%
 flops max/rank                      1.393306E+09       0.0%    100.0%      0.0%
 matmuls inhomo. stacks                         0       0.0%      0.0%      0.0%
 matmuls total                             159440       0.0%    100.0%      0.0%
 number of processed stacks                  2736       0.0%    100.0%      0.0%
 average stack size                                     0.0      58.3       0.0
 marketing flops                    15.626058E+09
 -------------------------------------------------------------------------------
 # multiplications                             37
 max memory usage/rank               5.215781E+09
 # max total images/rank                        2
 # max 3D layers                                1
 # MPI messages exchanged                    2664
 MPI messages size (bytes):
  total size                       504.646656E+06
  min size                         114.240000E+03
  max size                           1.000000E+06
  average size                     189.431922E+03
 MPI breakdown and total messages size (bytes):
             size <=      128                   0                        0
       128 < size <=     8192                   0                        0
      8192 < size <=    32768                   0                        0
     32768 < size <=   131072                1776                218405376
    131072 < size <=  4194304                 888                286241280
   4194304 < size <= 16777216                   0                        0
  16777216 < size                               0                        0
 -------------------------------------------------------------------------------

 *** WARNING in dbcsr/mm/dbcsr_mm.F:268 :: Using a non-square number of ***
 *** MPI ranks might lead to poor performance.                          ***
 *** Used ranks: 8                                                      ***
 *** Suggested: 9 16                                                    ***

 -------------------------------------------------------------------------------
 
 MEMORY| Estimated peak process memory [MiB]                                5108

 -------------------------------------------------------------------------------
 -                                                                             -
 -                         MESSAGE PASSING PERFORMANCE                         -
 -                                                                             -
 -------------------------------------------------------------------------------

 ROUTINE             CALLS      AVE VOLUME [Bytes]
 MP_Group               41
 MP_Bcast              349                 770527.
 MP_Allreduce          814                   3169.
 MP_Sync                 7
 MP_Alltoall          1492               46869575.
 MP_SendRecv           536                1007649.
 MP_ISendRecv         1281                 823483.
 MP_Wait              4962
 MP_comm_split           2
 MP_ISend             2412                3815326.
 MP_IRecv             2412                3814874.
 MP_Recv                24                 222224.
 MP_Memory            4304
 -------------------------------------------------------------------------------


 -------------------------------------------------------------------------------
 -                                                                             -
 -                           R E F E R E N C E S                               -
 -                                                                             -
 -------------------------------------------------------------------------------
 
 CP2K version 6.1, the CP2K developers group (2018).
 CP2K is freely available from https://www.cp2k.org/ .

 Schuett, Ole; Messmer, Peter; Hutter, Juerg; VandeVondele, Joost. 
 Electronic Structure Calculations on Graphics Processing Units, John Wiley & Sons, Ltd, 173-190 (2016). 
 GPU-Accelerated Sparse Matrix-Matrix Multiplication for Linear Scaling Density Functional Theory.
 http://dx.doi.org/10.1002/9781118670712.ch8


 Borstnik, U; VandeVondele, J; Weber, V; Hutter, J. 
 PARALLEL COMPUTING, 40 (5-6), 47-58 (2014). 
 Sparse matrix multiplication: The distributed block-compressed sparse
 row library.
 http://dx.doi.org/10.1016/j.parco.2014.03.012


 Hutter, J; Iannuzzi, M; Schiffmann, F; VandeVondele, J. 
 WILEY INTERDISCIPLINARY REVIEWS-COMPUTATIONAL MOLECULAR SCIENCE, 4 (1), 15-25 (2014). 
 CP2K: atomistic simulations of condensed matter systems.
 http://dx.doi.org/10.1002/wcms.1159


 Grimme, S; Ehrlich, S; Goerigk, L. 
 JOURNAL OF COMPUTATIONAL CHEMISTRY, 32, 1456 (2011). 
 Effect of the damping function in dispersion corrected density functional theory.
 http://dx.doi.org/10.1002/jcc.21759


 Grimme, S; Antony, J; Ehrlich, S; Krieg, H. 
 JOURNAL OF CHEMICAL PHYSICS, 132 (15), 154104 (2010). 
 A consistent and accurate ab initio parametrization of density
 functional dispersion correction (DFT-D) for the 94 elements H-Pu.
 http://dx.doi.org/10.1063/1.3382344


 VandeVondele, J; Hutter, J. 
 JOURNAL OF CHEMICAL PHYSICS, 127 (11), 114105 (2007). 
 Gaussian basis sets for accurate calculations on molecular systems in
 gas and condensed phases.
 http://dx.doi.org/10.1063/1.2770708


 Krack, M. 
 THEORETICAL CHEMISTRY ACCOUNTS, 114 (1-3), 145-152 (2005). 
 Pseudopotentials for H to Kr optimized for gradient-corrected
 exchange-correlation functionals.
 http://dx.doi.org/10.1007/s00214-005-0655-y


 VandeVondele, J; Krack, M; Mohamed, F; Parrinello, M; Chassaing, T;
 Hutter, J. COMPUTER PHYSICS COMMUNICATIONS, 167 (2), 103-128 (2005). 
 QUICKSTEP: Fast and accurate density functional calculations using a
 mixed Gaussian and plane waves approach.
 http://dx.doi.org/10.1016/j.cpc.2004.12.014


 Frigo, M; Johnson, SG. 
 PROCEEDINGS OF THE IEEE, 93 (2), 216-231 (2005). 
 The design and implementation of FFTW3.
 http://dx.doi.org/10.1109/JPROC.2004.840301


 Hartwigsen, C; Goedecker, S; Hutter, J. 
 PHYSICAL REVIEW B, 58 (7), 3641-3662 (1998). 
 Relativistic separable dual-space Gaussian pseudopotentials from H to Rn.
 http://dx.doi.org/10.1103/PhysRevB.58.3641


 Lippert, G; Hutter, J; Parrinello, M. 
 MOLECULAR PHYSICS, 92 (3), 477-487 (1997). 
 A hybrid Gaussian and plane wave density functional scheme.
 http://dx.doi.org/10.1080/002689797170220


 Perdew, JP; Burke, K; Ernzerhof, M. 
 PHYSICAL REVIEW LETTERS, 77 (18), 3865-3868 (1996). 
 Generalized gradient approximation made simple.
 http://dx.doi.org/10.1103/PhysRevLett.77.3865


 Goedecker, S; Teter, M; Hutter, J. 
 PHYSICAL REVIEW B, 54 (3), 1703-1710 (1996). 
 Separable dual-space Gaussian pseudopotentials.
 http://dx.doi.org/10.1103/PhysRevB.54.1703


 -------------------------------------------------------------------------------
 -                                                                             -
 -                                T I M I N G                                  -
 -                                                                             -
 -------------------------------------------------------------------------------
 SUBROUTINE                       CALLS  ASD         SELF TIME        TOTAL TIME
                                MAXIMUM       AVERAGE  MAXIMUM  AVERAGE  MAXIMUM
 CP2K                                 1  1.0    0.373    0.616 2094.431 2094.437
 cp_geo_opt                           1  2.0    0.007    0.007 2089.418 2089.424
 geoopt_bfgs                          1  3.0    0.092    0.094 2089.411 2089.417
 cp_eval_at                           3  4.0    0.041    0.041 2087.391 2087.399
 qs_energies                          3  5.7    0.056    0.061 2063.307 2063.314
 scf_env_do_scf                       3  6.7    0.050    0.090 2004.886 2005.013
 scf_env_do_scf_inner_loop           28  7.6    0.376    0.493 2004.819 2004.895
 qs_scf_new_mos                      28  8.6    0.160    0.163 1491.575 1491.584
 cp_fm_syevd                         33 10.3    0.142    0.146 1484.533 1484.562
 cp_fm_syevd_base                    33 11.5 1483.397 1483.851 1483.397 1483.851
 eigensolver                         28  9.6    0.645    0.680 1477.760 1477.777
 qs_forces                            2  5.0    0.020    0.021 1087.924 1087.927
 rebuild_ks_matrix                   30  9.4    0.047    0.047  257.477  257.478
 qs_ks_build_kohn_sham_matrix        30 10.4    1.636    1.763  257.430  257.431
 qs_ks_update_qs_env                 28  8.6    0.129    0.136  235.852  235.893
 pw_transfer                        454 12.5    5.302    5.605  234.485  235.325
 fft_wrap_pw1pw2                    394 13.5    1.422    1.487  223.470  224.393
 fft_wrap_pw1pw2_200                150 13.8   25.541   26.900  192.247  192.897
 fft3d_ps                           394 15.5  101.231  103.368  159.361  161.905
 qs_rho_update_rho                   31  8.6    0.058    0.066  158.040  158.058
 calculate_rho_elec                  31  9.6    9.656   10.398  157.983  158.004
 density_rs2pw                       31 10.6    0.622    0.729  142.754  143.421
 gspace_mixing                       25  8.6    1.030    1.087  131.664  131.685
 sum_up_and_integrate                30 11.4    3.075    3.171  105.961  106.022
 integrate_v_rspace                  30 12.4   14.810   15.843  102.874  102.983
 broyden_mixing                      25  9.6   96.013   97.108   98.875   99.555
 potential_pw2rs                     30 13.4    0.723    0.745   85.707   85.808
 qs_vxc_create                       30 11.4    0.156    0.180   82.218   82.435
 xc_vxc_pw_create                    30 12.4   14.650   15.279   82.062   82.255
 rs_pw_transfer                     310 12.9    0.921    1.072   69.009   69.774
 xc_rho_set_and_dset_create          30 13.4    3.253    3.388   45.677   54.990
 init_scf_run                         3  6.7    0.032    0.050   48.199   48.263
 scf_env_initial_rho_setup            3  7.7    0.022    0.029   42.834   42.899
 -------------------------------------------------------------------------------

 The number of warnings for this run is : 1
 
 -------------------------------------------------------------------------------
  **** **** ******  **  PROGRAM ENDED AT                 2020-10-12 11:41:29.655
 ***** ** ***  *** **   PROGRAM RAN ON                                 irene6253
 **    ****   ******    PROGRAM RAN BY                                  marticar
 ***** **    ** ** **   PROGRAM PROCESS ID                                195943
  **** **  *******  **  PROGRAM STOPPED IN /ccc/scratch/cont003/gen0609/marticar
                                           /696815
