 DBCSR| Multiplication driver                                               XSMM
 DBCSR| Multrec recursion limit                                              512
 DBCSR| Multiplication stack size                                           1000
 DBCSR| Maximum elements for images                                    UNLIMITED
 DBCSR| Multiplicative factor virtual images                                   1
 DBCSR| Multiplication size stacks                                             3
 DBCSR| Number of 3D layers                                               SINGLE
 DBCSR| Use MPI memory allocation                                              T
 DBCSR| Use RMA algorithm                                                      F
 DBCSR| Use Communication thread                                               T
 DBCSR| Communication thread load                                             87


  **** **** ******  **  PROGRAM STARTED AT               2020-10-08 11:03:03.335
 ***** ** ***  *** **   PROGRAM STARTED ON                             irene4235
 **    ****   ******    PROGRAM STARTED BY                              marticar
 ***** **    ** ** **   PROGRAM PROCESS ID                                117875
  **** **  *******  **  PROGRAM STARTED IN /ccc/scratch/cont003/gen0609/marticar
                                           /685768

 CP2K| version string:                                          CP2K version 6.1
 CP2K| source code revision number:                                    svn:18464
 CP2K| cp2kflags: libint fftw3 parallel mpi3 scalapack xsmm mkl                 
 CP2K| is freely available from                            https://www.cp2k.org/
 CP2K| Program compiled at                          Thu Dec 12 15:40:57 CET 2019
 CP2K| Program compiled on                                             cobalt175
 CP2K| Program compiled for                                   Linux-x86-64-iomkl
 CP2K| Data directory path          /tmp/cp2k/6.1/iomkl-195281.401/cp2k-6.1/data
 CP2K| Input file name                                             screening.inp
 
 GLOBAL| Force Environment number                                              1
 GLOBAL| Basis set file name            /ccc/work/cont003/gen0609/marticar/data/
 GLOBAL| Potential file name            /ccc/work/cont003/gen0609/marticar/data/
 GLOBAL| MM Potential file name                                     MM_POTENTIAL
 GLOBAL| Coordinate file name                                          coord.xyz
 GLOBAL| Method name                                                        CP2K
 GLOBAL| Project name                                                    PROJECT
 GLOBAL| Preferred FFT library                                             FFTW3
 GLOBAL| Preferred diagonalization lib.                                       SL
 GLOBAL| Run type                                                        GEO_OPT
 GLOBAL| All-to-all communication in single precision                          F
 GLOBAL| FFTs using library dependent lengths                                  F
 GLOBAL| Global print level                                                  LOW
 GLOBAL| Total number of message passing processes                             8
 GLOBAL| Number of threads for this process                                    1
 GLOBAL| This output is from process                                           0
 GLOBAL| CPU model name :  AMD EPYC 7H12 64-Core Processor

 MEMORY| system memory details [Kb]
 MEMORY|                        rank 0           min           max       average
 MEMORY| MemTotal            263246932     263246932     263246932     263246932
 MEMORY| MemFree             252760612     252760612     252760612     252760612
 MEMORY| Buffers                     0             0             0             0
 MEMORY| Cached                 686460        686460        686460        686460
 MEMORY| Slab                  2135460       2135460       2135460       2135460
 MEMORY| SReclaimable           331936        331936        331936        331936
 MEMORY| MemLikelyFree       253779008     253779008     253779008     253779008

 
 GENERATE|  Preliminary Number of Bonds generated:                             0
 GENERATE|  Achieved consistency in connectivity generation.

 *******************************************************************************
 *******************************************************************************
 **                                                                           **
 **     #####                         ##              ##                      **
 **    ##   ##            ##          ##              ##                      **
 **   ##     ##                       ##            ######                    **
 **   ##     ##  ##   ##  ##   #####  ##  ##   ####   ##    #####    #####    **
 **   ##     ##  ##   ##  ##  ##      ## ##   ##      ##   ##   ##  ##   ##   **
 **   ##  ## ##  ##   ##  ##  ##      ####     ###    ##   ######   ######    **
 **    ##  ###   ##   ##  ##  ##      ## ##      ##   ##   ##       ##        **
 **     #######   #####   ##   #####  ##  ##  ####    ##    #####   ##        **
 **           ##                                                    ##        **
 **                                                                           **
 **                                                ... make the atoms dance   **
 **                                                                           **
 **            Copyright (C) by CP2K developers group (2000 - 2018)           **
 **                                                                           **
 *******************************************************************************


 TOTAL NUMBERS AND MAXIMUM NUMBERS

  Total number of            - Atomic kinds:                                   3
                             - Atoms:                                         40
                             - Shell sets:                                    40
                             - Shells:                                       276
                             - Primitive Cartesian functions:                204
                             - Cartesian basis functions:                   1168
                             - Spherical basis functions:                    976

  Maximum angular momentum of- Orbital basis functions:                        3
                             - Local part of the GTH pseudopotential:          2
                             - Non-local part of the GTH pseudopotential:      4


 SCF PARAMETERS         Density guess:                                   RESTART
                        --------------------------------------------------------
                        max_scf:                                             300
                        max_scf_history:                                       0
                        max_diis:                                              4
                        --------------------------------------------------------
                        eps_scf:                                        1.00E-05
                        eps_scf_history:                                0.00E+00
                        eps_diis:                                       1.00E-01
                        eps_eigval:                                     1.00E-05
                        --------------------------------------------------------
                        level_shift [a.u.]:                                 0.00
                        added MOs                                        38    0
                        --------------------------------------------------------
                        Mixing method:                            BROYDEN_MIXING
                                                charge density mixing in g-space
                        --------------------------------------------------------
                        Smear method:                                FERMI_DIRAC
                        Electronic temperature [K]:                        300.0
                        Electronic temperature [a.u.]:                  9.50E-04
                        Accuracy threshold:                             1.00E-10
                        --------------------------------------------------------
                        No outer SCF

 BFGS| Use rational function optimization for step estimation:                NO
 BFGS| Use model Hessian for initial guess:                                  YES
 BFGS| Restart Hessian:                                                       NO
 BFGS| Trust radius:                                                       0.472

 *******************************************************************************
 ***                     STARTING GEOMETRY OPTIMIZATION                      ***
 ***                                   BFGS                                  ***
 *******************************************************************************

 Number of electrons:                                                        428
 Number of occupied orbitals:                                                214
 Number of molecular orbitals:                                               252

 Number of orbital functions:                                                976
 Number of independent orbital functions:                                    976

 Extrapolation method: initial_guess

 *** WARNING in qs_initial_guess.F:263 :: User requested to restart the    ***
 *** wavefunction from the file named: PROJECT-RESTART.wfn. This file does ***
 *** not exist. Please check the existence of the file or change properly  ***
 *** the value of the keyword WFN_RESTART_FILE_NAME. Calculation continues ***
 *** using ATOMIC GUESS.                                                   ***



 SCF WAVEFUNCTION OPTIMIZATION

  Step     Update method      Time    Convergence         Total energy    Change
  ------------------------------------------------------------------------------
     1 NoMix/Diag. 0.10E+00    5.4     1.06134597     -1284.3564259036 -1.28E+03
     2 Broy./Diag. 0.10E+00    9.7     0.03238664     -1314.1927131770 -2.98E+01
     3 Broy./Diag. 0.10E+00   12.9     0.23268595     -1302.6076467049  1.16E+01
     4 Broy./Diag. 0.10E+00   10.4     0.01288510     -1290.5729210032  1.20E+01
     5 Broy./Diag. 0.10E+00   37.7     0.07403564     -1287.4135695179  3.16E+00
     6 Broy./Diag. 0.10E+00  114.2     0.00148614     -1284.9584274957  2.46E+00
     7 Broy./Diag. 0.10E+00  300.3     0.01457615     -1284.7775503169  1.81E-01
     8 Broy./Diag. 0.10E+00   53.1     0.00043483     -1284.7011947077  7.64E-02
     9 Broy./Diag. 0.10E+00  142.8     0.00349621     -1284.6895541582  1.16E-02
    10 Broy./Diag. 0.10E+00  158.5     0.00033382     -1284.5685032225  1.21E-01
    11 Broy./Diag. 0.10E+00  190.7     0.00239656     -1284.5975077133 -2.90E-02
    12 Broy./Diag. 0.10E+00  110.4     0.00017620     -1284.5425512127  5.50E-02
    13 Broy./Diag. 0.10E+00   89.3     0.00114264     -1284.5241809690  1.84E-02
    14 Broy./Diag. 0.10E+00  111.1     0.00008589     -1284.4948902534  2.93E-02
    15 Broy./Diag. 0.10E+00  127.6     0.00063476     -1284.4951346139 -2.44E-04
    16 Broy./Diag. 0.10E+00  174.9     0.00005018     -1284.4809124029  1.42E-02
    17 Broy./Diag. 0.10E+00   58.8     0.00020644     -1284.4827932119 -1.88E-03
    18 Broy./Diag. 0.10E+00  152.3     0.00026268     -1284.4858848204 -3.09E-03
    19 Broy./Diag. 0.10E+00   49.6     0.00014888     -1284.4861493099 -2.64E-04
    20 Broy./Diag. 0.10E+00   16.3     0.00009801     -1284.4826683752  3.48E-03
    21 Broy./Diag. 0.10E+00   17.1     0.00005108     -1284.4835494198 -8.81E-04
    22 Broy./Diag. 0.10E+00  141.5     0.00008460     -1284.4860807424 -2.53E-03
    23 Broy./Diag. 0.10E+00   14.6     0.00007768     -1284.4817669177  4.31E-03
    24 Broy./Diag. 0.10E+00   45.4     0.00002994     -1284.4753128363  6.45E-03
    25 Broy./Diag. 0.10E+00  150.4     0.00002072     -1284.4750634804  2.49E-04
    26 Broy./Diag. 0.10E+00   49.8     0.00002542     -1284.4765053805 -1.44E-03
    27 Broy./Diag. 0.10E+00   31.7     0.00001066     -1284.4762861619  2.19E-04
    28 Broy./Diag. 0.10E+00  123.6     0.00002087     -1284.4761458057  1.40E-04
    29 Broy./Diag. 0.10E+00  161.6     0.00002810     -1284.4769070620 -7.61E-04
    30 Broy./Diag. 0.10E+00  128.4     0.00004353     -1284.4773802175 -4.73E-04
    31 Broy./Diag. 0.10E+00   49.7     0.00002371     -1284.4771730555  2.07E-04
    32 Broy./Diag. 0.10E+00  119.6     0.00002347     -1284.4778476875 -6.75E-04
    33 Broy./Diag. 0.10E+00  110.6     0.00002104     -1284.4788285231 -9.81E-04
    34 Broy./Diag. 0.10E+00   36.4     0.00001389     -1284.4782359483  5.93E-04
    35 Broy./Diag. 0.10E+00  109.1     0.00001000     -1284.4769604779  1.28E-03

  *** SCF run converged in    35 steps ***


  Electronic density on regular grids:       -427.9999999982        0.0000000018
  Core density on regular grids:              427.9999993680       -0.0000006320
  Total charge density on r-space grids:       -0.0000006302
  Total charge density g-space grids:          -0.0000006302

  Overlap energy of the core charge distribution:               0.00000397701062
  Self energy of the core charge distribution:              -2253.28808377914038
  Core Hamiltonian energy:                                    718.22443797045764
  Hartree energy:                                             454.51578738724169
  Exchange-correlation energy:                               -203.60993863546051
  Dispersion energy:                                           -0.31916614792254
  Electronic entropic energy:                                  -0.00000125006327
  Fermi energy:                                                -0.16484857898058

  Total energy:                                             -1284.47696047787144

 ENERGY| Total FORCE_EVAL ( QS ) energy (a.u.):            -1284.478559204907697


 --------  Informations at step =     0 ------------
  Optimization Method        =                 BFGS
  Total Energy               =     -1284.4785592049
  Used time                  =             3261.053
 ---------------------------------------------------

 --------------------------
 OPTIMIZATION STEP:      1
 --------------------------

 Number of electrons:                                                        428
 Number of occupied orbitals:                                                219
 Number of molecular orbitals:                                               252

 Number of orbital functions:                                                976
 Number of independent orbital functions:                                    976

 Extrapolation method: PS Nth order


 SCF WAVEFUNCTION OPTIMIZATION

  Step     Update method      Time    Convergence         Total energy    Change
  ------------------------------------------------------------------------------
     1 Broy./Diag. 0.10E+00  115.9     0.06031230     -1284.4866854890 -1.28E+03
     2 Broy./Diag. 0.10E+00   66.4     0.00112071     -1283.4344878480  1.05E+00
     3 Broy./Diag. 0.10E+00   60.3     0.00974062     -1283.9268542092 -4.92E-01
     4 Broy./Diag. 0.10E+00  170.4     0.00068639     -1284.3579583081 -4.31E-01
     5 Broy./Diag. 0.10E+00   48.8     0.00356346     -1284.4448564154 -8.69E-02
     6 Broy./Diag. 0.10E+00   20.3     0.00056121     -1284.5092698498 -6.44E-02
     7 Broy./Diag. 0.10E+00   22.4     0.00187955     -1284.5159451619 -6.68E-03
     8 Broy./Diag. 0.10E+00   24.3     0.00013279     -1284.5111760416  4.77E-03
     9 Broy./Diag. 0.10E+00   37.9     0.00058857     -1284.5019417722  9.23E-03
    10 Broy./Diag. 0.10E+00   33.8     0.00003650     -1284.4959144865  6.03E-03
    11 Broy./Diag. 0.10E+00   35.3     0.00026095     -1284.4939324658  1.98E-03
    12 Broy./Diag. 0.10E+00   44.5     0.00002306     -1284.4929221364  1.01E-03
    13 Broy./Diag. 0.10E+00   15.7     0.00015675     -1284.4947708166 -1.85E-03
    14 Broy./Diag. 0.10E+00   39.2     0.00001429     -1284.4954092050 -6.38E-04
    15 Broy./Diag. 0.10E+00   36.0     0.00009036     -1284.4953755359  3.37E-05
    16 Broy./Diag. 0.10E+00   24.2     0.00001765     -1284.4953742911  1.24E-06
    17 Broy./Diag. 0.10E+00   15.7     0.00008472     -1284.4949825872  3.92E-04
    18 Broy./Diag. 0.10E+00   16.4     0.00000794     -1284.4951196840 -1.37E-04

  *** SCF run converged in    18 steps ***


  Electronic density on regular grids:       -427.9999999974        0.0000000026
  Core density on regular grids:              427.9999993688       -0.0000006312
  Total charge density on r-space grids:       -0.0000006286
  Total charge density g-space grids:          -0.0000006286

  Overlap energy of the core charge distribution:               0.00000335423808
  Self energy of the core charge distribution:              -2253.28808377914038
  Core Hamiltonian energy:                                    717.73219259312009
  Hartree energy:                                             454.74343605586955
  Exchange-correlation energy:                               -203.36563909850364
  Dispersion energy:                                           -0.31702725784006
  Electronic entropic energy:                                  -0.00000155179758
  Fermi energy:                                                -0.16567839173338

  Total energy:                                             -1284.49511968404613

 ENERGY| Total FORCE_EVAL ( QS ) energy (a.u.):            -1284.495557846631527


 --------  Informations at step =     1 ------------
  Optimization Method        =                 BFGS
  Total Energy               =     -1284.4955578466
  Real energy change         =        -0.0169986417
  Predicted change in energy =        -0.0131592240
  Scaling factor             =         0.0000000000
  Step size                  =         0.1672398810
  Trust radius               =         0.4724315332
  Decrease in energy         =                  YES
  Used time                  =              895.512

  Convergence check :
  Max. step size             =         0.1672398810
  Conv. limit for step size  =         1.0000000000
  Convergence in step size   =                  YES
  RMS step size              =         0.0463463236
  Conv. limit for RMS step   =         1.0000000000
  Convergence in RMS step    =                  YES
  Max. gradient              =         0.0142033748
  Conv. limit for gradients  =         0.0100000000
  Conv. for gradients        =                   NO
  RMS gradient               =         0.0026136461
  Conv. limit for RMS grad.  =         1.0000000000
  Conv. in RMS gradients     =                  YES
 ---------------------------------------------------

 --------------------------
 OPTIMIZATION STEP:      2
 --------------------------

 Number of electrons:                                                        428
 Number of occupied orbitals:                                                219
 Number of molecular orbitals:                                               252

 Number of orbital functions:                                                976
 Number of independent orbital functions:                                    976

 Extrapolation method: PS Nth order


 SCF WAVEFUNCTION OPTIMIZATION

  Step     Update method      Time    Convergence         Total energy    Change
  ------------------------------------------------------------------------------
     1 Broy./Diag. 0.10E+00    7.1     0.10883606     -1284.4918561936 -1.28E+03
     2 Broy./Diag. 0.10E+00   10.7     0.00457369     -1283.8730199562  6.19E-01
     3 Broy./Diag. 0.10E+00   11.3     0.02976931     -1284.0783384577 -2.05E-01
     4 Broy./Diag. 0.10E+00   13.5     0.00160953     -1284.3232251216 -2.45E-01
     5 Broy./Diag. 0.10E+00   24.9     0.00342804     -1284.4001478061 -7.69E-02
     6 Broy./Diag. 0.10E+00   11.8     0.00106339     -1284.4948745940 -9.47E-02
     7 Broy./Diag. 0.10E+00   12.0     0.00118564     -1284.4839532856  1.09E-02
     8 Broy./Diag. 0.10E+00   12.6     0.00055260     -1284.4770412439  6.91E-03
     9 Broy./Diag. 0.10E+00   13.0     0.00061116     -1284.4765904758  4.51E-04
    10 Broy./Diag. 0.10E+00   13.7     0.00023673     -1284.4837404364 -7.15E-03
    11 Broy./Diag. 0.10E+00   13.7     0.00019528     -1284.4873577234 -3.62E-03
    12 Broy./Diag. 0.10E+00   13.6     0.00011529     -1284.4942563845 -6.90E-03
    13 Broy./Diag. 0.10E+00   15.2     0.00006056     -1284.4979262437 -3.67E-03
    14 Broy./Diag. 0.10E+00   24.3     0.00006932     -1284.4996952037 -1.77E-03
    15 Broy./Diag. 0.10E+00   27.5     0.00001916     -1284.5017898573 -2.09E-03
    16 Broy./Diag. 0.10E+00   21.6     0.00006593     -1284.5009860862  8.04E-04
    17 Broy./Diag. 0.10E+00   29.2     0.00001338     -1284.5014681526 -4.82E-04
    18 Broy./Diag. 0.10E+00   16.2     0.00005275     -1284.5027794387 -1.31E-03
    19 Broy./Diag. 0.10E+00   13.6     0.00001284     -1284.5046140637 -1.83E-03
    20 Broy./Diag. 0.10E+00   14.5     0.00002488     -1284.5043521357  2.62E-04
    21 Broy./Diag. 0.10E+00   14.0     0.00002022     -1284.5040561308  2.96E-04
    22 Broy./Diag. 0.10E+00   15.1     0.00000990     -1284.5039635560  9.26E-05

  *** SCF run converged in    22 steps ***


  Electronic density on regular grids:       -427.9999999959        0.0000000041
  Core density on regular grids:              427.9999993673       -0.0000006327
  Total charge density on r-space grids:       -0.0000006287
  Total charge density g-space grids:          -0.0000006287

  Overlap energy of the core charge distribution:               0.00000287369407
  Self energy of the core charge distribution:              -2253.28808377914038
  Core Hamiltonian energy:                                    717.37022421407664
  Hartree energy:                                             454.91693029550459
  Exchange-correlation energy:                               -203.18838254933652
  Dispersion energy:                                           -0.31465212077593
  Electronic entropic energy:                                  -0.00000248994691
  Fermi energy:                                                -0.16632603519008

  Total energy:                                             -1284.50396355595194

 ENERGY| Total FORCE_EVAL ( QS ) energy (a.u.):            -1284.504498268024690


 --------  Informations at step =     2 ------------
  Optimization Method        =                 BFGS
  Total Energy               =     -1284.5044982680
  Real energy change         =        -0.0089404214
  Predicted change in energy =        -0.0067427029
  Scaling factor             =         0.0000000000
  Step size                  =         0.2675896743
  Trust radius               =         0.4724315332
  Decrease in energy         =                  YES
  Used time                  =              369.583

  Convergence check :
  Max. step size             =         0.2675896743
  Conv. limit for step size  =         1.0000000000
  Convergence in step size   =                  YES
  RMS step size              =         0.0478371121
  Conv. limit for RMS step   =         1.0000000000
  Convergence in RMS step    =                  YES
  Max. gradient              =         0.0113392383
  Conv. limit for gradients  =         0.0100000000
  Conv. for gradients        =                   NO
  RMS gradient               =         0.0019012101
  Conv. limit for RMS grad.  =         1.0000000000
  Conv. in RMS gradients     =                  YES
 ---------------------------------------------------

 --------------------------
 OPTIMIZATION STEP:      3
 --------------------------

 Number of electrons:                                                        428
 Number of occupied orbitals:                                                219
 Number of molecular orbitals:                                               252

 Number of orbital functions:                                                976
 Number of independent orbital functions:                                    976

 Extrapolation method: PS Nth order


 SCF WAVEFUNCTION OPTIMIZATION

  Step     Update method      Time    Convergence         Total energy    Change
  ------------------------------------------------------------------------------
     1 Broy./Diag. 0.10E+00    6.1     0.18273365     -1284.4821499714 -1.28E+03
     2 Broy./Diag. 0.10E+00   10.9     0.01229503     -1284.5642907306 -8.21E-02
     3 Broy./Diag. 0.10E+00   11.7     0.05536257     -1284.5425592804  2.17E-02
     4 Broy./Diag. 0.10E+00   11.5     0.00650430     -1284.4764699826  6.61E-02
     5 Broy./Diag. 0.10E+00   11.3     0.00748417     -1284.4705178342  5.95E-03
     6 Broy./Diag. 0.10E+00   11.5     0.00405345     -1284.4725165994 -2.00E-03
     7 Broy./Diag. 0.10E+00   12.5     0.00356670     -1284.4892653347 -1.67E-02
     8 Broy./Diag. 0.10E+00   13.3     0.00266196     -1284.5143999456 -2.51E-02
     9 Broy./Diag. 0.10E+00   12.9     0.00182714     -1284.5168782159 -2.48E-03
    10 Broy./Diag. 0.10E+00   13.4     0.00156580     -1284.5061353704  1.07E-02
    11 Broy./Diag. 0.10E+00   13.4     0.00024555     -1284.4971015523  9.03E-03
    12 Broy./Diag. 0.10E+00   13.4     0.00098447     -1284.5021718393 -5.07E-03
    13 Broy./Diag. 0.10E+00   13.4     0.00011966     -1284.5082936413 -6.12E-03
    14 Broy./Diag. 0.10E+00   13.5     0.00055304     -1284.5067893045  1.50E-03
    15 Broy./Diag. 0.10E+00   13.4     0.00004862     -1284.5038864532  2.90E-03
    16 Broy./Diag. 0.10E+00   13.4     0.00040148     -1284.5032343436  6.52E-04
    17 Broy./Diag. 0.10E+00   13.4     0.00003654     -1284.5033604195 -1.26E-04
    18 Broy./Diag. 0.10E+00   13.4     0.00013410     -1284.5031616248  1.99E-04
    19 Broy./Diag. 0.10E+00   15.1     0.00012278     -1284.5035710349 -4.09E-04
    20 Broy./Diag. 0.10E+00   17.9     0.00010367     -1284.5041415055 -5.70E-04
    21 Broy./Diag. 0.10E+00   19.4     0.00005764     -1284.5043581720 -2.17E-04
    22 Broy./Diag. 0.10E+00   33.3     0.00007183     -1284.5038550058  5.03E-04
    23 Broy./Diag. 0.10E+00  102.9     0.00001680     -1284.5035538462  3.01E-04
    24 Broy./Diag. 0.10E+00   98.9     0.00002217     -1284.5036739987 -1.20E-04
    25 Broy./Diag. 0.10E+00   22.2     0.00001638     -1284.5038944876 -2.20E-04
    26 Broy./Diag. 0.10E+00   42.4     0.00000981     -1284.5040398682 -1.45E-04

  *** SCF run converged in    26 steps ***


  Electronic density on regular grids:       -427.9999999971        0.0000000029
  Core density on regular grids:              427.9999993673       -0.0000006327
  Total charge density on r-space grids:       -0.0000006298
  Total charge density g-space grids:          -0.0000006298

  Overlap energy of the core charge distribution:               0.00000377551167
  Self energy of the core charge distribution:              -2253.28808377914038
  Core Hamiltonian energy:                                    717.20568382184922
  Hartree energy:                                             455.02023037173922
  Exchange-correlation energy:                               -203.12710027393967
  Dispersion energy:                                           -0.31476908229892
  Electronic entropic energy:                                  -0.00000470225574
  Fermi energy:                                                -0.16705483812889

  Total energy:                                             -1284.50403986820811

 ENERGY| Total FORCE_EVAL ( QS ) energy (a.u.):            -1284.503940900897078


 --------  Informations at step =     3 ------------
  Optimization Method        =                 BFGS
  Total Energy               =     -1284.5039409009
  Real energy change         =         0.0005573671
  Predicted change in energy =        -0.0039610073
  Scaling factor             =         0.0000000000
  Step size                  =         0.3242604833
  Trust radius               =         0.4724315332
  Decrease in energy         =                   NO
  Used time                  =              606.499

  Convergence check :
  Max. step size             =         0.3242604833
  Conv. limit for step size  =         1.0000000000
  Convergence in step size   =                  YES
  RMS step size              =         0.0463072924
  Conv. limit for RMS step   =         1.0000000000
  Convergence in RMS step    =                  YES
  Max. gradient              =         0.0312700378
  Conv. limit for gradients  =         0.0100000000
  Conv. for gradients        =                   NO
  RMS gradient               =         0.0043280574
  Conv. limit for RMS grad.  =         1.0000000000
  Conv. in RMS gradients     =                  YES
 ---------------------------------------------------

 --------------------------
 OPTIMIZATION STEP:      4
 --------------------------

 Number of electrons:                                                        428
 Number of occupied orbitals:                                                218
 Number of molecular orbitals:                                               252

 Number of orbital functions:                                                976
 Number of independent orbital functions:                                    976

 Extrapolation method: PS Nth order


 SCF WAVEFUNCTION OPTIMIZATION

  Step     Update method      Time    Convergence         Total energy    Change
  ------------------------------------------------------------------------------
     1 Broy./Diag. 0.10E+00   19.9     0.17792948     -1284.4461148622 -1.28E+03
     2 Broy./Diag. 0.10E+00   58.3     0.00960640     -1285.1383250181 -6.92E-01
     3 Broy./Diag. 0.10E+00  122.5     0.04512681     -1285.0043748803  1.34E-01
     4 Broy./Diag. 0.10E+00   17.6     0.00117382     -1284.8749335109  1.29E-01
     5 Broy./Diag. 0.10E+00   59.2     0.00480828     -1284.6851385194  1.90E-01
     6 Broy./Diag. 0.10E+00   98.4     0.00029874     -1284.5030642217  1.82E-01
     7 Broy./Diag. 0.10E+00   34.5     0.00229358     -1284.5194677871 -1.64E-02
     8 Broy./Diag. 0.10E+00  101.8     0.00028313     -1284.5299351083 -1.05E-02
     9 Broy./Diag. 0.10E+00   20.0     0.00192208     -1284.5324140124 -2.48E-03
    10 Broy./Diag. 0.10E+00   21.4     0.00010270     -1284.5185817471  1.38E-02
    11 Broy./Diag. 0.10E+00   18.1     0.00058677     -1284.5154313236  3.15E-03
    12 Broy./Diag. 0.10E+00   15.0     0.00003400     -1284.5070924525  8.34E-03
    13 Broy./Diag. 0.10E+00   17.5     0.00021446     -1284.5094681964 -2.38E-03
    14 Broy./Diag. 0.10E+00   16.8     0.00025655     -1284.5114334342 -1.97E-03
    15 Broy./Diag. 0.10E+00   16.3     0.00008703     -1284.5115084541 -7.50E-05
    16 Broy./Diag. 0.10E+00   16.3     0.00009668     -1284.5114609531  4.75E-05
    17 Broy./Diag. 0.10E+00   17.6     0.00001540     -1284.5110614091  4.00E-04
    18 Broy./Diag. 0.10E+00   16.7     0.00002834     -1284.5097775917  1.28E-03
    19 Broy./Diag. 0.10E+00   26.2     0.00003459     -1284.5085906656  1.19E-03
    20 Broy./Diag. 0.10E+00   35.1     0.00002248     -1284.5085516447  3.90E-05
    21 Broy./Diag. 0.10E+00   17.6     0.00002525     -1284.5088378192 -2.86E-04
    22 Broy./Diag. 0.10E+00   19.0     0.00002560     -1284.5088978012 -6.00E-05
    23 Broy./Diag. 0.10E+00   16.6     0.00004957     -1284.5085293148  3.68E-04
    24 Broy./Diag. 0.10E+00   16.2     0.00000672     -1284.5081041273  4.25E-04

  *** SCF run converged in    24 steps ***


  Electronic density on regular grids:       -427.9999999959        0.0000000041
  Core density on regular grids:              427.9999993675       -0.0000006325
  Total charge density on r-space grids:       -0.0000006284
  Total charge density g-space grids:          -0.0000006284

  Overlap energy of the core charge distribution:               0.00000288028241
  Self energy of the core charge distribution:              -2253.28808377914038
  Core Hamiltonian energy:                                    717.36464399294516
  Hartree energy:                                             454.93152143812625
  Exchange-correlation energy:                               -203.20037919284465
  Dispersion energy:                                           -0.31580654554791
  Electronic entropic energy:                                  -0.00000292101245
  Fermi energy:                                                -0.16642998500114

  Total energy:                                             -1284.50810412732517

 ENERGY| Total FORCE_EVAL ( QS ) energy (a.u.):            -1284.508405387760604


 --------  Informations at step =     4 ------------
  Optimization Method        =                 BFGS
  Total Energy               =     -1284.5084053878
  Real energy change         =        -0.0044644869
  Predicted change in energy =        -0.0062458271
  Scaling factor             =         0.0000000000
  Step size                  =         0.2153278261
  Trust radius               =         0.4724315332
  Decrease in energy         =                  YES
  Used time                  =              840.600

  Convergence check :
  Max. step size             =         0.2153278261
  Conv. limit for step size  =         1.0000000000
  Convergence in step size   =                  YES
  RMS step size              =         0.0292099898
  Conv. limit for RMS step   =         1.0000000000
  Convergence in RMS step    =                  YES
  Max. gradient              =         0.0066327193
  Conv. limit for gradients  =         0.0100000000
  Conv. in gradients         =                  YES
  RMS gradient               =         0.0012438398
  Conv. limit for RMS grad.  =         1.0000000000
  Conv. in RMS gradients     =                  YES
 ---------------------------------------------------

 *******************************************************************************
 ***                    GEOMETRY OPTIMIZATION COMPLETED                      ***
 *******************************************************************************

                    Reevaluating energy at the minimum

 Number of electrons:                                                        428
 Number of occupied orbitals:                                                218
 Number of molecular orbitals:                                               252

 Number of orbital functions:                                                976
 Number of independent orbital functions:                                    976

 Extrapolation method: PS Nth order


 SCF WAVEFUNCTION OPTIMIZATION

  Step     Update method      Time    Convergence         Total energy    Change
  ------------------------------------------------------------------------------
     1 Broy./Diag. 0.10E+00    6.9     0.24364408     -1284.4309524957 -1.28E+03
     2 Broy./Diag. 0.10E+00   13.2     0.01767155     -1283.7672703378  6.64E-01
     3 Broy./Diag. 0.10E+00   13.4     0.08807531     -1283.9036271293 -1.36E-01
     4 Broy./Diag. 0.10E+00   14.4     0.01093732     -1283.9145163346 -1.09E-02
     5 Broy./Diag. 0.10E+00   14.7     0.02491360     -1284.1957007054 -2.81E-01
     6 Broy./Diag. 0.10E+00   13.1     0.00264566     -1284.4129278953 -2.17E-01
     7 Broy./Diag. 0.10E+00   16.4     0.01275152     -1284.4807160799 -6.78E-02
     8 Broy./Diag. 0.10E+00   16.3     0.00245139     -1284.5345928166 -5.39E-02
     9 Broy./Diag. 0.10E+00   17.3     0.00352352     -1284.5150950322  1.95E-02
    10 Broy./Diag. 0.10E+00   17.0     0.00201322     -1284.5034441466  1.17E-02
    11 Broy./Diag. 0.10E+00   20.1     0.00145995     -1284.4957759634  7.67E-03
    12 Broy./Diag. 0.10E+00   16.8     0.00074614     -1284.4984013639 -2.63E-03
    13 Broy./Diag. 0.10E+00   18.4     0.00022115     -1284.5004040253 -2.00E-03
    14 Broy./Diag. 0.10E+00   16.3     0.00087943     -1284.5046997673 -4.30E-03
    15 Broy./Diag. 0.10E+00   15.6     0.00009897     -1284.5105762750 -5.88E-03
    16 Broy./Diag. 0.10E+00   17.5     0.00055385     -1284.5072483719  3.33E-03
    17 Broy./Diag. 0.10E+00   16.2     0.00009293     -1284.5043951293  2.85E-03
    18 Broy./Diag. 0.10E+00   19.0     0.00007272     -1284.5046231390 -2.28E-04
    19 Broy./Diag. 0.10E+00   23.8     0.00021935     -1284.5068680911 -2.24E-03
    20 Broy./Diag. 0.10E+00   18.2     0.00004997     -1284.5092018370 -2.33E-03
    21 Broy./Diag. 0.10E+00   19.0     0.00010748     -1284.5092590984 -5.73E-05
    22 Broy./Diag. 0.10E+00   14.4     0.00003103     -1284.5087554677  5.04E-04
    23 Broy./Diag. 0.10E+00   15.7     0.00002973     -1284.5086264669  1.29E-04
    24 Broy./Diag. 0.10E+00   15.9     0.00002917     -1284.5086412639 -1.48E-05
    25 Broy./Diag. 0.10E+00   14.8     0.00000491     -1284.5086074625  3.38E-05

  *** SCF run converged in    25 steps ***


  Electronic density on regular grids:       -427.9999999959        0.0000000041
  Core density on regular grids:              427.9999993675       -0.0000006325
  Total charge density on r-space grids:       -0.0000006284
  Total charge density g-space grids:          -0.0000006284

  Overlap energy of the core charge distribution:               0.00000288028241
  Self energy of the core charge distribution:              -2253.28808377914038
  Core Hamiltonian energy:                                    717.36441974844251
  Hartree energy:                                             454.93127458125036
  Exchange-correlation energy:                               -203.20041142749383
  Dispersion energy:                                           -0.31580654554791
  Electronic entropic energy:                                  -0.00000292041543
  Fermi energy:                                                -0.16643073944677

  Total energy:                                             -1284.50860746254648

 ENERGY| Total FORCE_EVAL ( QS ) energy (a.u.):            -1284.508607462546479


 -------------------------------------------------------------------------------
 -                                                                             -
 -                                DBCSR STATISTICS                             -
 -                                                                             -
 -------------------------------------------------------------------------------
 COUNTER                                    TOTAL       BLAS       SMM       ACC
 flops    13 x    28 x    13               454272       0.0%    100.0%      0.0%
 flops    13 x    32 x    13              3634176       0.0%    100.0%      0.0%
 flops    13 x    13 x    60              9734400       0.0%    100.0%      0.0%
 flops    13 x    28 x    25             16598400       0.0%    100.0%      0.0%
 flops    25 x    28 x    13             16598400       0.0%    100.0%      0.0%
 flops    13 x    13 x    64             31150080       0.0%    100.0%      0.0%
 flops    25 x    32 x    13            132787200       0.0%    100.0%      0.0%
 flops    13 x    32 x    25            132787200       0.0%    100.0%      0.0%
 flops    13 x    25 x    60            237120000       0.0%    100.0%      0.0%
 flops    25 x    13 x    60            237120000       0.0%    100.0%      0.0%
 flops    25 x    28 x    25            606480000       0.0%    100.0%      0.0%
 flops    13 x    25 x    64            758784000       0.0%    100.0%      0.0%
 flops    25 x    13 x    64            758784000       0.0%    100.0%      0.0%
 flops    25 x    32 x    25           4851840000       0.0%    100.0%      0.0%
 flops    25 x    25 x    60           8892000000       0.0%    100.0%      0.0%
 flops    25 x    25 x    64          28454400000       0.0%    100.0%      0.0%
 flops inhomo. stacks                           0       0.0%      0.0%      0.0%
 flops total                        45.140272E+09       0.0%    100.0%      0.0%
 flops max/rank                      6.293568E+09       0.0%    100.0%      0.0%
 matmuls inhomo. stacks                         0       0.0%      0.0%      0.0%
 matmuls total                             678400       0.0%    100.0%      0.0%
 number of processed stacks                 12600       0.0%    100.0%      0.0%
 average stack size                                     0.0      53.8       0.0
 marketing flops                    72.367186E+09
 -------------------------------------------------------------------------------
 # multiplications                            172
 max memory usage/rank               5.235696E+09
 # max total images/rank                        2
 # max 3D layers                                1
 # MPI messages exchanged                   12384
 MPI messages size (bytes):
  total size                         2.234087E+09
  min size                         114.240000E+03
  max size                           1.000000E+06
  average size                     180.401109E+03
 MPI breakdown and total messages size (bytes):
             size <=      128                   0                        0
       128 < size <=     8192                   0                        0
      8192 < size <=    32768                   0                        0
     32768 < size <=   131072                8256               1015289856
    131072 < size <=  4194304                4128               1218797568
   4194304 < size <= 16777216                   0                        0
  16777216 < size                               0                        0
 -------------------------------------------------------------------------------

 *** WARNING in dbcsr/mm/dbcsr_mm.F:268 :: Using a non-square number of ***
 *** MPI ranks might lead to poor performance.                          ***
 *** Used ranks: 8                                                      ***
 *** Suggested: 9 16                                                    ***

 -------------------------------------------------------------------------------
 
 MEMORY| Estimated peak process memory [MiB]                                5123

 -------------------------------------------------------------------------------
 -                                                                             -
 -                         MESSAGE PASSING PERFORMANCE                         -
 -                                                                             -
 -------------------------------------------------------------------------------

 ROUTINE             CALLS      AVE VOLUME [Bytes]
 MP_Group              174
 MP_Bcast              299                2040496.
 MP_Allreduce         3191                    852.
 MP_Sync                10
 MP_Alltoall          7118               50509980.
 MP_SendRecv          2620                1064981.
 MP_ISendRecv         6531                 823483.
 MP_Wait             24282
 MP_comm_split           5
 MP_ISend            11724                3859121.
 MP_IRecv            11724                3858766.
 MP_Recv                89                 220051.
 MP_Memory           20396
 -------------------------------------------------------------------------------


 -------------------------------------------------------------------------------
 -                                                                             -
 -                           R E F E R E N C E S                               -
 -                                                                             -
 -------------------------------------------------------------------------------
 
 CP2K version 6.1, the CP2K developers group (2018).
 CP2K is freely available from https://www.cp2k.org/ .

 Schuett, Ole; Messmer, Peter; Hutter, Juerg; VandeVondele, Joost. 
 Electronic Structure Calculations on Graphics Processing Units, John Wiley & Sons, Ltd, 173-190 (2016). 
 GPU-Accelerated Sparse Matrix-Matrix Multiplication for Linear Scaling Density Functional Theory.
 http://dx.doi.org/10.1002/9781118670712.ch8


 Borstnik, U; VandeVondele, J; Weber, V; Hutter, J. 
 PARALLEL COMPUTING, 40 (5-6), 47-58 (2014). 
 Sparse matrix multiplication: The distributed block-compressed sparse
 row library.
 http://dx.doi.org/10.1016/j.parco.2014.03.012


 Hutter, J; Iannuzzi, M; Schiffmann, F; VandeVondele, J. 
 WILEY INTERDISCIPLINARY REVIEWS-COMPUTATIONAL MOLECULAR SCIENCE, 4 (1), 15-25 (2014). 
 CP2K: atomistic simulations of condensed matter systems.
 http://dx.doi.org/10.1002/wcms.1159


 Grimme, S; Ehrlich, S; Goerigk, L. 
 JOURNAL OF COMPUTATIONAL CHEMISTRY, 32, 1456 (2011). 
 Effect of the damping function in dispersion corrected density functional theory.
 http://dx.doi.org/10.1002/jcc.21759


 Grimme, S; Antony, J; Ehrlich, S; Krieg, H. 
 JOURNAL OF CHEMICAL PHYSICS, 132 (15), 154104 (2010). 
 A consistent and accurate ab initio parametrization of density
 functional dispersion correction (DFT-D) for the 94 elements H-Pu.
 http://dx.doi.org/10.1063/1.3382344


 VandeVondele, J; Hutter, J. 
 JOURNAL OF CHEMICAL PHYSICS, 127 (11), 114105 (2007). 
 Gaussian basis sets for accurate calculations on molecular systems in
 gas and condensed phases.
 http://dx.doi.org/10.1063/1.2770708


 Krack, M. 
 THEORETICAL CHEMISTRY ACCOUNTS, 114 (1-3), 145-152 (2005). 
 Pseudopotentials for H to Kr optimized for gradient-corrected
 exchange-correlation functionals.
 http://dx.doi.org/10.1007/s00214-005-0655-y


 VandeVondele, J; Krack, M; Mohamed, F; Parrinello, M; Chassaing, T;
 Hutter, J. COMPUTER PHYSICS COMMUNICATIONS, 167 (2), 103-128 (2005). 
 QUICKSTEP: Fast and accurate density functional calculations using a
 mixed Gaussian and plane waves approach.
 http://dx.doi.org/10.1016/j.cpc.2004.12.014


 Frigo, M; Johnson, SG. 
 PROCEEDINGS OF THE IEEE, 93 (2), 216-231 (2005). 
 The design and implementation of FFTW3.
 http://dx.doi.org/10.1109/JPROC.2004.840301


 Hartwigsen, C; Goedecker, S; Hutter, J. 
 PHYSICAL REVIEW B, 58 (7), 3641-3662 (1998). 
 Relativistic separable dual-space Gaussian pseudopotentials from H to Rn.
 http://dx.doi.org/10.1103/PhysRevB.58.3641


 Lippert, G; Hutter, J; Parrinello, M. 
 MOLECULAR PHYSICS, 92 (3), 477-487 (1997). 
 A hybrid Gaussian and plane wave density functional scheme.
 http://dx.doi.org/10.1080/002689797170220


 Perdew, JP; Burke, K; Ernzerhof, M. 
 PHYSICAL REVIEW LETTERS, 77 (18), 3865-3868 (1996). 
 Generalized gradient approximation made simple.
 http://dx.doi.org/10.1103/PhysRevLett.77.3865


 Goedecker, S; Teter, M; Hutter, J. 
 PHYSICAL REVIEW B, 54 (3), 1703-1710 (1996). 
 Separable dual-space Gaussian pseudopotentials.
 http://dx.doi.org/10.1103/PhysRevB.54.1703


 -------------------------------------------------------------------------------
 -                                                                             -
 -                                T I M I N G                                  -
 -                                                                             -
 -------------------------------------------------------------------------------
 SUBROUTINE                       CALLS  ASD         SELF TIME        TOTAL TIME
                                MAXIMUM       AVERAGE  MAXIMUM  AVERAGE  MAXIMUM
 CP2K                                 1  1.0    0.201    0.205 6392.333 6392.372
 cp_geo_opt                           1  2.0    0.009    0.010 6389.493 6389.528
 geoopt_bfgs                          1  3.0    0.213    0.221 6389.484 6389.518
 cp_eval_at                           6  4.0    0.252    0.263 6371.274 6371.311
 qs_energies                          6  5.8    0.150    0.157 6302.839 6302.877
 scf_env_do_scf                       6  6.8    0.246    0.278 6238.883 6239.057
 scf_env_do_scf_inner_loop          150  7.8    3.268    4.285 6238.623 6238.764
 qs_forces                            5  5.0    0.118    0.126 5955.142 5955.176
 qs_scf_new_mos                     150  8.8    1.147    1.187 3060.264 3060.359
 eigensolver                        150  9.8    2.701    2.773 2752.393 2752.475
 cp_fm_syevd                        160 10.7    0.657    0.686 2719.186 2719.266
 cp_fm_syevd_base                   160 11.8 2709.646 2717.085 2709.646 2717.085
 rebuild_ks_matrix                  155  9.7    0.556    0.564 1612.926 1612.989
 qs_ks_build_kohn_sham_matrix       155 10.7   11.903   12.074 1612.370 1612.425
 qs_ks_update_qs_env                150  8.8    1.098    1.129 1566.228 1566.438
 pw_transfer                       2326 12.8   34.153   34.789 1406.580 1408.673
 fft_wrap_pw1pw2                   2016 13.8   12.017   12.073 1349.022 1351.864
 fft_wrap_pw1pw2_200                772 14.0   90.176   92.579 1127.185 1129.439
 fft3d_ps                          2016 15.8  696.108  702.373 1056.749 1065.604
 qs_rho_update_rho                  156  8.9    0.536    0.546  904.659  904.719
 calculate_rho_elec                 156  9.9  139.220  142.977  904.123  904.185
 density_rs2pw                      156 10.9    3.605    4.049  738.665  741.402
 gspace_mixing                      144  8.8    5.784    5.902  717.687  717.709
 sum_up_and_integrate               155 11.7   15.596   15.734  695.054  695.233
 integrate_v_rspace                 155 12.7  132.981  137.461  679.400  679.647
 potential_pw2rs                    155 13.7    6.534    6.581  535.356  535.600
 qs_vxc_create                      155 11.7    1.727    1.826  512.387  513.840
 xc_vxc_pw_create                   155 12.7   79.457   82.014  510.660  512.013
 broyden_mixing                     144  9.8  467.463  471.048  482.281  484.054
 xc_rho_set_and_dset_create         155 13.7   18.186   18.404  337.512  361.795
 rs_pw_transfer                    1566 13.3    5.741    6.006  352.661  354.748
 cp_dbcsr_plus_fm_fm_t_native       160 10.8    1.758    1.774  278.980  279.133
 calculate_dm_sparse                155  9.8    1.016    1.032  267.837  268.011
 xc_functional_eval                 155 14.7    1.127    1.164  224.308  247.619
 pbe_lda_eval                       155 15.7  223.181  246.479  223.181  246.479
 dbcsr_multiply_generic             172 11.8    7.256    7.369  221.177  221.313
 x_to_yz                           1075 17.2  120.188  120.579  200.669  201.993
 pw_nn_compose_r                   1240 14.2   82.630   83.265  140.940  161.705
 mp_alltoall_z22v                  2016 17.8  140.189  144.315  140.189  144.315
 yz_to_x                            941 16.3   67.328   67.747  127.036  129.397
 -------------------------------------------------------------------------------

 The number of warnings for this run is : 2
 
 -------------------------------------------------------------------------------
  **** **** ******  **  PROGRAM ENDED AT                 2020-10-08 12:49:37.204
 ***** ** ***  *** **   PROGRAM RAN ON                                 irene4235
 **    ****   ******    PROGRAM RAN BY                                  marticar
 ***** **    ** ** **   PROGRAM PROCESS ID                                117875
  **** **  *******  **  PROGRAM STOPPED IN /ccc/scratch/cont003/gen0609/marticar
                                           /685768
