     161
 i =        1, E =     -8104.5234497715
 Fe         5.0938794100       11.8196869300        0.3885799900
 Fe         7.6575796300        7.3792284900        0.3885799900
 Fe        10.2212798400        2.9387700600        0.3885799900
 Fe        -0.0335205200       11.8196869300        0.3885799900
 Fe         2.5301797000        7.3792284900        0.3885799900
 Fe         5.0938799200        2.9387700600        0.3885799900
 Fe        -5.1609204400       11.8196869300        0.3885799900
 Fe        -2.5972202200        7.3792284900        0.3885799900
 Fe        -0.0335200000        2.9387700600        0.3885799900
  O         8.4519195100        8.9577468800        1.1642700400
  O        11.0156197300        4.5172884400        1.1642700400
  O        13.5793199500        0.0768300000        1.1642700400
  O         3.3245195900        8.9577468800        1.1642700400
  O         5.8882198100        4.5172884400        1.1642700400
  O         8.4519200300        0.0768300000        1.1642700400
  O        -1.8028803300        8.9577468800        1.1642700400
  O         0.7608198900        4.5172884400        1.1642700400
  O         3.3245201100        0.0768300000        1.1642700400
  O         8.4568493000       11.7183869300        1.1650400200
  O        11.0205495200        7.2779284900        1.1650400200
  O        13.5842497300        2.8374700500        1.1650400200
  O         3.3294493700       11.7183869300        1.1650400200
  O         5.8931495900        7.2779284900        1.1650400200
  O         8.4568498100        2.8374700500        1.1650400200
  O        -1.7979505500       11.7183869300        1.1650400200
  O         0.7657496700        7.2779284900        1.1650400200
  O         3.3294498900        2.8374700500        1.1650400200
  O         6.0627194200       10.3425368500        1.1660399400
  O         8.6264196400        5.9020784100        1.1660399400
  O        11.1901198600        1.4616199700        1.1660399400
  O         0.9353195000       10.3425368500        1.1660399400
  O         3.4990197200        5.9020784100        1.1660399400
  O         6.0627199400        1.4616199700        1.1660399400
  O        -4.1920804200       10.3425368500        1.1660399400
  O        -1.6283802000        5.9020784100        1.1660399400
  O         0.9353200200        1.4616199700        1.1660399400
 Fe         7.6576695000       13.2997167500        1.9292099500
 Fe        10.2213697200        8.8592583200        1.9292099500
 Fe        12.7850699400        4.4187998800        1.9292099500
 Fe         2.5302695800       13.2997167500        1.9292099500
 Fe         5.0939698000        8.8592583200        1.9292099500
 Fe         7.6576700200        4.4187998800        1.9292099500
 Fe        -2.5971303400       13.2997167500        1.9292099500
 Fe        -0.0334301200        8.8592583200        1.9292099500
 Fe         2.5302701000        4.4187998800        1.9292099500
 Fe         7.6573893600       10.3392168700        2.7128999200
 Fe        10.2210895800        5.8987584300        2.7128999200
 Fe        12.7847898000        1.4582999900        2.7128999200
 Fe         2.5299894400       10.3392168700        2.7128999200
 Fe         5.0936896600        5.8987584300        2.7128999200
 Fe         7.6573898800        1.4582999900        2.7128999200
 Fe        -2.5974104800       10.3392168700        2.7128999200
 Fe        -0.0337102600        5.8987584300        2.7128999200
 Fe         2.5299899600        1.4582999900        2.7128999200
  O         4.1328466397       13.3037074632        3.4993686392
  O         6.6962332006        8.8631346278        3.4977023943
  O         9.2601032210        4.4223991552        3.4990400685
  O        -0.9948260524       13.3043140710        3.4990999517
  O         1.5693487783        8.8628647690        3.5018531852
  O         4.1332567038        4.4236105011        3.4995548180
  O        -6.1219293477       13.3039113457        3.4997335102
  O        -3.5584846968        8.8631167643        3.4984569133
  O        -0.9943607521        4.4229808042        3.4996248174
  O         6.8606789991       11.9102031022        3.5007684944
  O         9.4247118780        7.4695446011        3.5008125873
  O        11.9885178745        3.0288644902        3.5010816940
  O         1.7334565983       11.9099525140        3.5011616063
  O         4.2958197739        7.4687133981        3.5015672376
  O         6.8606581383        3.0288180175        3.5002911296
  O        -3.3941307477       11.9105453113        3.5001578988
  O        -0.8291627094        7.4697509425        3.5016527890
  O         1.7318108885        3.0282632820        3.4994680129
  O         9.4152477710       10.2448284081        3.5011584713
  O        11.9790393600        5.8041750431        3.5011330399
  O        14.5431882998        1.3644249728        3.5016087765
  O         4.2867170809       10.2447325417        3.5026946490
  O         6.8520993852        5.8043809420        3.5000959362
  O         9.4155404114        1.3639465932        3.5014978332
  O        -0.8384483425       10.2439427026        3.5011047294
  O         1.7242206264        5.8051575496        3.5012723812
  O         4.2880328313        1.3647124556        3.5024316779
 Fe         5.0944827005       11.8189476789        4.4863328148
 Fe         7.6585408143        7.3784293612        4.4858402445
 Fe        10.2216929734        2.9382120014        4.4863288789
 Fe        -0.0339660402       11.8196193636        4.4857064188
 Fe         2.5322419864        7.3763772844        4.4889724439
 Fe         5.0951105246        2.9399443882        4.4877731855
 Fe        -5.1600602278       11.8185147311        4.4863660830
 Fe        -2.5971902554        7.3785327800        4.4857423468
 Fe        -0.0329367907        2.9389791136        4.4871624454
 Fe         7.6587345032       13.2991260483        4.8227333968
 Fe        10.2227699784        8.8593413383        4.8225715375
 Fe        12.7856654379        4.4179511386        4.8222944242
 Fe         2.5317899145       13.2991072075        4.8226100717
 Fe         5.0948010753        8.8590662295        4.8213451722
 Fe         7.6576586428        4.4186086791        4.8218420154
 Fe        -2.5955251561       13.2988316048        4.8227172699
 Fe        -0.0329253160        8.8583774649        4.8263680586
 Fe         2.5313802013        4.4170199626        4.8169202741
  O         5.8649851706       10.3882044562        5.7285205458
  O         8.4288029970        5.9467435265        5.7307793810
  O        10.9934344465        1.5076492736        5.7270513706
  O         0.7390843869       10.3906494120        5.7242614463
  O         3.3095276000        5.9392365754        5.7317769932
  O         5.8652414241        1.5081573621        5.7282572308
  O        -4.3871103114       10.3887259273        5.7260376307
  O        -1.8258561582        5.9473670528        5.7236925156
  O         0.7386711252        1.5078036020        5.7273089697
  O         5.9477658485       13.2032941717        5.7274729153
  O         8.5120064663        8.7626337359        5.7283259997
  O        11.0751709304        4.3217791327        5.7279157053
  O         0.8214006216       13.2027583725        5.7279621771
  O         3.3858962372        8.7602639490        5.7369921829
  O         5.9467776712        4.3290333060        5.7262227892
  O        -4.3065199405       13.2035704724        5.7276273691
  O        -1.7459997188        8.7628980119        5.7214701962
  O         0.8246640498        4.3234108892        5.7295071641
  O         3.4691877007       11.8646423521        5.7303263864
  O         6.0324209698        7.4253681666        5.7183407073
  O         8.5964428608        2.9856307073        5.7317233275
  O        -1.6583548798       11.8648790924        5.7285780069
  O         0.9063796465        7.4206235687        5.7260685060
  O         3.4682902014        2.9883624085        5.7339529910
  O        -6.7852401873       11.8656856900        5.7296065532
  O        -4.2220332472        7.4255534764        5.7287343783
  O        -1.6576918332        2.9847335261        5.7290334879
 Fe         7.6576187703       10.3389715229        5.9795038010
 Fe        10.2222107514        5.8989055953        5.9786863170
 Fe        12.7852587529        1.4584314723        5.9807898820
 Fe         2.5285900407       10.3388152200        5.9797604217
 Fe         5.1015253534        5.9043178164        6.0502018283
 Fe         7.6576952126        1.4574632863        5.9769669338
 Fe        -2.5958201410       10.3378911406        5.9885625008
 Fe        -0.0363703036        5.8967194419        5.9785010933
 Fe         2.5305463190        1.4584439374        5.9783082385
  C         4.2413417824        5.4950241105       10.6926505152
  C         4.4666788151        6.5491322157        9.5976929128
  H         5.1729079173        4.9158123360       10.8335343382
  O         3.8913718064        6.0693105716       11.9597564990
  H         3.4522467131        4.7963230667       10.3707274289
  C         3.2210558162        7.2017340188        8.9688550003
  C         2.4147671965        8.2115859589        9.8528851185
  O         2.3540004165        6.1427214032        8.5098294391
  H         3.6177960886        7.7656606639        8.1057266640
  C         0.9247809822        7.8626704982       10.1011818960
  H         2.3989176446        9.1556208060        9.2827927895
  O         3.0785541982        8.5076261413       11.1158755417
  C         0.6641731687        6.6501960961       11.0090519814
  O         0.1867540062        7.7681449362        8.8874520002
  H         0.5077050819        8.7425314418       10.6252838079
  H         1.0757005976        5.7371793516       10.5546146508
  O         1.2006697725        6.8567157487       12.3364452841
  H        -0.4269103107        6.5305755623       11.0933375025
  H         3.8459767359        7.0480805479       11.8098777542
  H         2.8608557666        5.6597121973        7.8145828204
  H         2.3874651294        8.3679465286       11.8065311949
  H         0.6669367425        7.0904384860        8.3633276964
  H         2.0317412714        6.3281167888       12.3843197975
  O         5.1018622718        5.8906701476        8.4685248581
  H         5.1371757047        7.3375667530        9.9876371226
  H         5.9029480772        5.4193007810        8.7573778850
     161
 i =        2, E =     -8104.5247739753
 Fe         5.0938794100       11.8196869300        0.3885799900
 Fe         7.6575796300        7.3792284900        0.3885799900
 Fe        10.2212798400        2.9387700600        0.3885799900
 Fe        -0.0335205200       11.8196869300        0.3885799900
 Fe         2.5301797000        7.3792284900        0.3885799900
 Fe         5.0938799200        2.9387700600        0.3885799900
 Fe        -5.1609204400       11.8196869300        0.3885799900
 Fe        -2.5972202200        7.3792284900        0.3885799900
 Fe        -0.0335200000        2.9387700600        0.3885799900
  O         8.4519195100        8.9577468800        1.1642700400
  O        11.0156197300        4.5172884400        1.1642700400
  O        13.5793199500        0.0768300000        1.1642700400
  O         3.3245195900        8.9577468800        1.1642700400
  O         5.8882198100        4.5172884400        1.1642700400
  O         8.4519200300        0.0768300000        1.1642700400
  O        -1.8028803300        8.9577468800        1.1642700400
  O         0.7608198900        4.5172884400        1.1642700400
  O         3.3245201100        0.0768300000        1.1642700400
  O         8.4568493000       11.7183869300        1.1650400200
  O        11.0205495200        7.2779284900        1.1650400200
  O        13.5842497300        2.8374700500        1.1650400200
  O         3.3294493700       11.7183869300        1.1650400200
  O         5.8931495900        7.2779284900        1.1650400200
  O         8.4568498100        2.8374700500        1.1650400200
  O        -1.7979505500       11.7183869300        1.1650400200
  O         0.7657496700        7.2779284900        1.1650400200
  O         3.3294498900        2.8374700500        1.1650400200
  O         6.0627194200       10.3425368500        1.1660399400
  O         8.6264196400        5.9020784100        1.1660399400
  O        11.1901198600        1.4616199700        1.1660399400
  O         0.9353195000       10.3425368500        1.1660399400
  O         3.4990197200        5.9020784100        1.1660399400
  O         6.0627199400        1.4616199700        1.1660399400
  O        -4.1920804200       10.3425368500        1.1660399400
  O        -1.6283802000        5.9020784100        1.1660399400
  O         0.9353200200        1.4616199700        1.1660399400
 Fe         7.6576695000       13.2997167500        1.9292099500
 Fe        10.2213697200        8.8592583200        1.9292099500
 Fe        12.7850699400        4.4187998800        1.9292099500
 Fe         2.5302695800       13.2997167500        1.9292099500
 Fe         5.0939698000        8.8592583200        1.9292099500
 Fe         7.6576700200        4.4187998800        1.9292099500
 Fe        -2.5971303400       13.2997167500        1.9292099500
 Fe        -0.0334301200        8.8592583200        1.9292099500
 Fe         2.5302701000        4.4187998800        1.9292099500
 Fe         7.6573893600       10.3392168700        2.7128999200
 Fe        10.2210895800        5.8987584300        2.7128999200
 Fe        12.7847898000        1.4582999900        2.7128999200
 Fe         2.5299894400       10.3392168700        2.7128999200
 Fe         5.0936896600        5.8987584300        2.7128999200
 Fe         7.6573898800        1.4582999900        2.7128999200
 Fe        -2.5974104800       10.3392168700        2.7128999200
 Fe        -0.0337102600        5.8987584300        2.7128999200
 Fe         2.5299899600        1.4582999900        2.7128999200
  O         4.1361211296       13.2969960054        3.4983508928
  O         6.6988216862        8.8582077246        3.4924007551
  O         9.2636922616        4.4157662227        3.4995322801
  O        -0.9917494840       13.2993040075        3.4988222283
  O         1.5757246905        8.8553261193        3.5094783550
  O         4.1340251803        4.4144837946        3.4882935500
  O        -6.1184705284       13.2980662250        3.4992888516
  O        -3.5571137335        8.8558739374        3.4928683838
  O        -0.9893449040        4.4171927289        3.4999909863
  O         6.8555628964       11.9119036465        3.5001528853
  O         9.4184727287        7.4696410164        3.5022568694
  O        11.9837027664        3.0296278725        3.5001260628
  O         1.7291045155       11.9117179997        3.5002176127
  O         4.2852389606        7.4727313427        3.4934559460
  O         6.8560063732        3.0276696269        3.5010627412
  O        -3.3989763256       11.9143110839        3.4963089779
  O        -0.8309866314        7.4718089346        3.5015614686
  O         1.7239900226        3.0284624653        3.4976296936
  O         9.4196814673       10.2494067209        3.4996953463
  O        11.9839836650        5.8078957747        3.4981640251
  O        14.5489429540        1.3687451202        3.4993553933
  O         4.2886232474       10.2480057101        3.5057801363
  O         6.8641849394        5.8073214196        3.4847850837
  O         9.4205373678        1.3682807367        3.5004161445
  O        -0.8291332282       10.2454210059        3.4960869681
  O         1.7285515918        5.8103518872        3.5006323585
  O         4.2927525100        1.3737817924        3.5052074319
 Fe         5.0953809128       11.8183261187        4.5043172928
 Fe         7.6538789783        7.3746771348        4.5014539042
 Fe        10.2213285670        2.9379233642        4.5043670341
 Fe        -0.0351965380       11.8189400360        4.5014211277
 Fe         2.5420908699        7.3671969889        4.5103078799
 Fe         5.0965449766        2.9513285576        4.5088944273
 Fe        -5.1579018117       11.8174171878        4.5033728609
 Fe        -2.5980895471        7.3791184700        4.5001322752
 Fe        -0.0331469505        2.9392746819        4.5056156250
 Fe         7.6601115330       13.2994881528        4.8190633060
 Fe        10.2246433411        8.8609420914        4.8186471274
 Fe        12.7849337102        4.4169278646        4.8166731513
 Fe         2.5334635744       13.2988580706        4.8187494855
 Fe         5.0952328636        8.8546856849        4.8125477684
 Fe         7.6519749926        4.4225820459        4.8148669789
 Fe        -2.5942458015       13.2991733213        4.8193466308
 Fe        -0.0321813739        8.8558188590        4.8331693313
 Fe         2.5395031840        4.4177711991        4.7966342997
  O         5.8635639587       10.3792549406        5.7382648484
  O         8.4267690952        5.9385541943        5.7491840230
  O        10.9953063257        1.5020431931        5.7344332890
  O         0.7419753781       10.3888368378        5.7274776798
  O         3.3296383398        5.9130443833        5.7676618943
  O         5.8644988856        1.5070630000        5.7371722745
  O        -4.3818939957       10.3842871771        5.7311127472
  O        -1.8273136515        5.9406449298        5.7230022817
  O         0.7406602166        1.5035486909        5.7350923002
  O         5.9509872191       13.2084784081        5.7333446497
  O         8.5148317292        8.7661208844        5.7344075087
  O        11.0780193326        4.3258686303        5.7346135136
  O         0.8258542369       13.2068771549        5.7346030238
  O         3.3940234930        8.7550256469        5.7711727081
  O         5.9459832565        4.3571514876        5.7330716341
  O        -4.3029612376       13.2095411557        5.7345486017
  O        -1.7487688915        8.7671911009        5.7133198307
  O         0.8414654296        4.3315679162        5.7375049256
  O         3.4625222811       11.8638749702        5.7413563232
  O         6.0197996849        7.4208038169        5.7018551967
  O         8.5868575117        2.9907151878        5.7448010440
  O        -1.6649231704       11.8653190419        5.7342696713
  O         0.9063060361        7.4078721986        5.7280568415
  O         3.4589371248        2.9984581086        5.7533355122
  O        -6.7910011140       11.8668319492        5.7378236967
  O        -4.2291091333        7.4270421341        5.7347157830
  O        -1.6628197004        2.9868486536        5.7368970520
 Fe         7.6562084739       10.3385916890        6.0044933570
 Fe        10.2220323623        5.8996502141        6.0032463597
 Fe        12.7850332627        1.4595112105        6.0082071380
 Fe         2.5249946801       10.3373575316        6.0013231353
 Fe         5.1174669122        5.9177491636        6.3002018283
 Fe         7.6561427703        1.4565023595        5.9992268548
 Fe        -2.5933328901       10.3354406354        6.0258032199
 Fe        -0.0455528024        5.8903807123        6.0019449682
 Fe         2.5301462459        1.4597247937        6.0035043180
  C         4.2371297792        5.4974598490       10.6789079594
  C         4.4949746198        6.5422818965        9.5754841507
  H         5.1711417279        4.9209480896       10.8167105331
  O         3.9057648481        6.0718523929       11.9539061644
  H         3.4535058028        4.7951897373       10.3577228881
  C         3.2300891504        7.1773319864        8.9780615310
  C         2.4130168324        8.2072278290        9.8334225430
  O         2.3561218405        6.1074804394        8.5847197879
  H         3.5600543129        7.7409873513        8.0748592565
  C         0.9225864170        7.8664871850       10.1106576776
  H         2.3960552269        9.1641143916        9.2816733536
  O         3.0714901308        8.5002953040       11.1046544885
  C         0.6661499382        6.6476856028       11.0103274390
  O         0.1813125127        7.7586268270        8.9041246436
  H         0.5075416269        8.7494775296       10.6305888041
  H         1.0771694230        5.7361286783       10.5534738595
  O         1.2047550621        6.8562856965       12.3386523272
  H        -0.4258210930        6.5338189740       11.0925889468
  H         3.8416512452        7.0490428955       11.7951315701
  H         2.7407075104        5.7335003391        7.6809220313
  H         2.3855125442        8.3694060393       11.8024962944
  H         0.7303196908        7.1527957543        8.3425819396
  H         2.0326748095        6.3247625522       12.3812822212
  O         5.1225961057        5.8707233996        8.4248724707
  H         5.1467528904        7.3414099361        9.9633687461
  H         5.9176218863        5.4055646544        8.7424088791
     161
 i =        3, E =     -8104.5308312161
 Fe         5.0938794100       11.8196869300        0.3885799900
 Fe         7.6575796300        7.3792284900        0.3885799900
 Fe        10.2212798400        2.9387700600        0.3885799900
 Fe        -0.0335205200       11.8196869300        0.3885799900
 Fe         2.5301797000        7.3792284900        0.3885799900
 Fe         5.0938799200        2.9387700600        0.3885799900
 Fe        -5.1609204400       11.8196869300        0.3885799900
 Fe        -2.5972202200        7.3792284900        0.3885799900
 Fe        -0.0335200000        2.9387700600        0.3885799900
  O         8.4519195100        8.9577468800        1.1642700400
  O        11.0156197300        4.5172884400        1.1642700400
  O        13.5793199500        0.0768300000        1.1642700400
  O         3.3245195900        8.9577468800        1.1642700400
  O         5.8882198100        4.5172884400        1.1642700400
  O         8.4519200300        0.0768300000        1.1642700400
  O        -1.8028803300        8.9577468800        1.1642700400
  O         0.7608198900        4.5172884400        1.1642700400
  O         3.3245201100        0.0768300000        1.1642700400
  O         8.4568493000       11.7183869300        1.1650400200
  O        11.0205495200        7.2779284900        1.1650400200
  O        13.5842497300        2.8374700500        1.1650400200
  O         3.3294493700       11.7183869300        1.1650400200
  O         5.8931495900        7.2779284900        1.1650400200
  O         8.4568498100        2.8374700500        1.1650400200
  O        -1.7979505500       11.7183869300        1.1650400200
  O         0.7657496700        7.2779284900        1.1650400200
  O         3.3294498900        2.8374700500        1.1650400200
  O         6.0627194200       10.3425368500        1.1660399400
  O         8.6264196400        5.9020784100        1.1660399400
  O        11.1901198600        1.4616199700        1.1660399400
  O         0.9353195000       10.3425368500        1.1660399400
  O         3.4990197200        5.9020784100        1.1660399400
  O         6.0627199400        1.4616199700        1.1660399400
  O        -4.1920804200       10.3425368500        1.1660399400
  O        -1.6283802000        5.9020784100        1.1660399400
  O         0.9353200200        1.4616199700        1.1660399400
 Fe         7.6576695000       13.2997167500        1.9292099500
 Fe        10.2213697200        8.8592583200        1.9292099500
 Fe        12.7850699400        4.4187998800        1.9292099500
 Fe         2.5302695800       13.2997167500        1.9292099500
 Fe         5.0939698000        8.8592583200        1.9292099500
 Fe         7.6576700200        4.4187998800        1.9292099500
 Fe        -2.5971303400       13.2997167500        1.9292099500
 Fe        -0.0334301200        8.8592583200        1.9292099500
 Fe         2.5302701000        4.4187998800        1.9292099500
 Fe         7.6573893600       10.3392168700        2.7128999200
 Fe        10.2210895800        5.8987584300        2.7128999200
 Fe        12.7847898000        1.4582999900        2.7128999200
 Fe         2.5299894400       10.3392168700        2.7128999200
 Fe         5.0936896600        5.8987584300        2.7128999200
 Fe         7.6573898800        1.4582999900        2.7128999200
 Fe        -2.5974104800       10.3392168700        2.7128999200
 Fe        -0.0337102600        5.8987584300        2.7128999200
 Fe         2.5299899600        1.4582999900        2.7128999200
  O         4.1338883952       13.3008843714        3.4998723403
  O         6.6967535702        8.8629926883        3.4957192724
  O         9.2621000029        4.4212780502        3.5040656046
  O        -0.9939124518       13.3025956713        3.5002727994
  O         1.5751811147        8.8589439970        3.5106118231
  O         4.1312995129        4.4184468904        3.4924924854
  O        -6.1208804850       13.3018296386        3.5000313147
  O        -3.5598246051        8.8599723504        3.4945640739
  O        -0.9914291709        4.4209426493        3.5012400531
  O         6.8594099809       11.9113146720        3.5013743332
  O         9.4206777640        7.4686028195        3.5040894965
  O        11.9870005503        3.0293159522        3.5009290799
  O         1.7330696288       11.9116369666        3.5007896217
  O         4.2881606520        7.4736861675        3.4924230052
  O         6.8596012568        3.0265005401        3.5049025016
  O        -3.3947302305       11.9140488936        3.4977700868
  O        -0.8279188738        7.4714359216        3.5016372482
  O         1.7305235520        3.0273210332        3.5059412971
  O         9.4175743272       10.2463760771        3.5013204167
  O        11.9818779769        5.8046370344        3.4991819893
  O        14.5461863774        1.3650373387        3.5006508349
  O         4.2865554428       10.2438845019        3.5086194337
  O         6.8624654509        5.8035491308        3.4854556717
  O         9.4180075335        1.3649507220        3.5018777157
  O        -0.8319096167       10.2422265085        3.4976848084
  O         1.7254244880        5.8075313898        3.5080892244
  O         4.2904749821        1.3717464257        3.5064408011
 Fe         5.0954716888       11.8184547456        4.4934261605
 Fe         7.6501626703        7.3739407229        4.4918915919
 Fe        10.2208791203        2.9380457034        4.4934099885
 Fe        -0.0345287739       11.8182256072        4.4904666569
 Fe         2.5436998227        7.3683101597        4.5009919711
 Fe         5.0966858413        2.9528338700        4.4996494522
 Fe        -5.1580319819       11.8182089288        4.4920462607
 Fe        -2.5978401767        7.3796566385        4.4890385356
 Fe        -0.0339334995        2.9386493139        4.4944982005
 Fe         7.6599988208       13.2993748576        4.8188917721
 Fe        10.2234356101        8.8601389690        4.8187019937
 Fe        12.7846205252        4.4169208244        4.8163115735
 Fe         2.5327491990       13.2987889684        4.8188396525
 Fe         5.0959897816        8.8508317352        4.8146634961
 Fe         7.6500245950        4.4236007589        4.8166293935
 Fe        -2.5949789854       13.3004597833        4.8193468590
 Fe        -0.0311626267        8.8547894358        4.8317887263
 Fe         2.5419632187        4.4204241757        4.8077201125
  O         5.8624063322       10.3816308097        5.7340507518
  O         8.4248974379        5.9432079498        5.7455947167
  O        10.9936310293        1.5051972873        5.7319115987
  O         0.7398663887       10.3897891371        5.7281692419
  O         3.3187205309        5.9239531687        5.7783545192
  O         5.8633510386        1.5104756950        5.7350602505
  O        -4.3838092551       10.3870423002        5.7290753192
  O        -1.8290708837        5.9442809262        5.7228993866
  O         0.7386319263        1.5064989710        5.7323910977
  O         5.9494131682       13.2052877481        5.7314055619
  O         8.5120600005        8.7624873720        5.7319018722
  O        11.0763793753        4.3228063533        5.7322772739
  O         0.8231870298       13.2037777223        5.7319222662
  O         3.3922100903        8.7526923560        5.7659071295
  O         5.9459326775        4.3493952037        5.7387547669
  O        -4.3049175609       13.2057465112        5.7324472126
  O        -1.7486989876        8.7651564551        5.7161120032
  O         0.8360372449        4.3273426354        5.7344553428
  O         3.4666756360       11.8646622522        5.7381798416
  O         6.0248589148        7.4202520739        5.7148945979
  O         8.5903716877        2.9908580603        5.7400785313
  O        -1.6617507585       11.8649960223        5.7319532988
  O         0.9109243382        7.4104683167        5.7313443704
  O         3.4650766845        2.9940163346        5.7484864322
  O        -6.7871544530       11.8666552321        5.7351557548
  O        -4.2249037290        7.4267758707        5.7326399452
  O        -1.6594892330        2.9870664462        5.7352262704
 Fe         7.6563711494       10.3386036865        5.9876054407
 Fe        10.2213951364        5.8993566035        5.9861521344
 Fe        12.7851730196        1.4592727271        5.9923108657
 Fe         2.5272872195       10.3372145358        5.9840420698
 Fe         5.1125840510        5.9139918583        6.2073663873
 Fe         7.6568503448        1.4573756330        5.9833913780
 Fe        -2.5943189075       10.3366475131        6.0159131731
 Fe        -0.0437150460        5.8911301586        5.9861744170
 Fe         2.5301662494        1.4592406620        5.9875587234
  C         4.2469879906        5.4927449486       10.6798444701
  C         4.4717409920        6.5555418126        9.5876334429
  H         5.1782631879        4.9133815056       10.8177442181
  O         3.9040799711        6.0736189865       11.9472683846
  H         3.4540515178        4.7997906693       10.3573367397
  C         3.2082307942        7.1795652461        8.9680181792
  C         2.4158371102        8.2089325826        9.8493450228
  O         2.3368762835        6.1282881480        8.5241270829
  H         3.5678486207        7.7372090625        8.0775713366
  C         0.9230407208        7.8640683950       10.1031698413
  H         2.3989209853        9.1545524323        9.2791062956
  O         3.0821090158        8.5045879939       11.1141126361
  C         0.6663293843        6.6515822003       11.0111402601
  O         0.1864276442        7.7635511222        8.8918786810
  H         0.5126450638        8.7452937594       10.6309597591
  H         1.0753344919        5.7386793863       10.5551618909
  O         1.2046315690        6.8544233695       12.3398817605
  H        -0.4249621612        6.5325756551       11.0936622369
  H         3.8411131830        7.0515999618       11.7955729698
  H         2.7641690027        5.7172660302        7.7149456106
  H         2.3848322887        8.3687601528       11.7999462614
  H         0.7179960459        7.1416918430        8.3430613651
  H         2.0336316094        6.3244324407       12.3840505941
  O         5.1234561071        5.8786431548        8.4547744104
  H         5.1551877120        7.3383335118        9.9613446228
  H         5.9220718850        5.4018148421        8.7472236854
     161
 i =        4, E =     -8104.5308168586
 Fe         5.0938794100       11.8196869300        0.3885799900
 Fe         7.6575796300        7.3792284900        0.3885799900
 Fe        10.2212798400        2.9387700600        0.3885799900
 Fe        -0.0335205200       11.8196869300        0.3885799900
 Fe         2.5301797000        7.3792284900        0.3885799900
 Fe         5.0938799200        2.9387700600        0.3885799900
 Fe        -5.1609204400       11.8196869300        0.3885799900
 Fe        -2.5972202200        7.3792284900        0.3885799900
 Fe        -0.0335200000        2.9387700600        0.3885799900
  O         8.4519195100        8.9577468800        1.1642700400
  O        11.0156197300        4.5172884400        1.1642700400
  O        13.5793199500        0.0768300000        1.1642700400
  O         3.3245195900        8.9577468800        1.1642700400
  O         5.8882198100        4.5172884400        1.1642700400
  O         8.4519200300        0.0768300000        1.1642700400
  O        -1.8028803300        8.9577468800        1.1642700400
  O         0.7608198900        4.5172884400        1.1642700400
  O         3.3245201100        0.0768300000        1.1642700400
  O         8.4568493000       11.7183869300        1.1650400200
  O        11.0205495200        7.2779284900        1.1650400200
  O        13.5842497300        2.8374700500        1.1650400200
  O         3.3294493700       11.7183869300        1.1650400200
  O         5.8931495900        7.2779284900        1.1650400200
  O         8.4568498100        2.8374700500        1.1650400200
  O        -1.7979505500       11.7183869300        1.1650400200
  O         0.7657496700        7.2779284900        1.1650400200
  O         3.3294498900        2.8374700500        1.1650400200
  O         6.0627194200       10.3425368500        1.1660399400
  O         8.6264196400        5.9020784100        1.1660399400
  O        11.1901198600        1.4616199700        1.1660399400
  O         0.9353195000       10.3425368500        1.1660399400
  O         3.4990197200        5.9020784100        1.1660399400
  O         6.0627199400        1.4616199700        1.1660399400
  O        -4.1920804200       10.3425368500        1.1660399400
  O        -1.6283802000        5.9020784100        1.1660399400
  O         0.9353200200        1.4616199700        1.1660399400
 Fe         7.6576695000       13.2997167500        1.9292099500
 Fe        10.2213697200        8.8592583200        1.9292099500
 Fe        12.7850699400        4.4187998800        1.9292099500
 Fe         2.5302695800       13.2997167500        1.9292099500
 Fe         5.0939698000        8.8592583200        1.9292099500
 Fe         7.6576700200        4.4187998800        1.9292099500
 Fe        -2.5971303400       13.2997167500        1.9292099500
 Fe        -0.0334301200        8.8592583200        1.9292099500
 Fe         2.5302701000        4.4187998800        1.9292099500
 Fe         7.6573893600       10.3392168700        2.7128999200
 Fe        10.2210895800        5.8987584300        2.7128999200
 Fe        12.7847898000        1.4582999900        2.7128999200
 Fe         2.5299894400       10.3392168700        2.7128999200
 Fe         5.0936896600        5.8987584300        2.7128999200
 Fe         7.6573898800        1.4582999900        2.7128999200
 Fe        -2.5974104800       10.3392168700        2.7128999200
 Fe        -0.0337102600        5.8987584300        2.7128999200
 Fe         2.5299899600        1.4582999900        2.7128999200
  O         4.1338883952       13.3008843714        3.4998723403
  O         6.6967535702        8.8629926883        3.4957192724
  O         9.2621000029        4.4212780502        3.5040656046
  O        -0.9939124518       13.3025956713        3.5002727994
  O         1.5751811147        8.8589439970        3.5106118231
  O         4.1312995129        4.4184468904        3.4924924854
  O        -6.1208804850       13.3018296386        3.5000313147
  O        -3.5598246051        8.8599723504        3.4945640739
  O        -0.9914291709        4.4209426493        3.5012400531
  O         6.8594099809       11.9113146720        3.5013743332
  O         9.4206777640        7.4686028195        3.5040894965
  O        11.9870005503        3.0293159522        3.5009290799
  O         1.7330696288       11.9116369666        3.5007896217
  O         4.2881606520        7.4736861675        3.4924230052
  O         6.8596012568        3.0265005401        3.5049025016
  O        -3.3947302305       11.9140488936        3.4977700868
  O        -0.8279188738        7.4714359216        3.5016372482
  O         1.7305235520        3.0273210332        3.5059412971
  O         9.4175743272       10.2463760771        3.5013204167
  O        11.9818779769        5.8046370344        3.4991819893
  O        14.5461863774        1.3650373387        3.5006508349
  O         4.2865554428       10.2438845019        3.5086194337
  O         6.8624654509        5.8035491308        3.4854556717
  O         9.4180075335        1.3649507220        3.5018777157
  O        -0.8319096167       10.2422265085        3.4976848084
  O         1.7254244880        5.8075313898        3.5080892244
  O         4.2904749821        1.3717464257        3.5064408011
 Fe         5.0954716888       11.8184547456        4.4934261605
 Fe         7.6501626703        7.3739407229        4.4918915919
 Fe        10.2208791203        2.9380457034        4.4934099885
 Fe        -0.0345287739       11.8182256072        4.4904666569
 Fe         2.5436998227        7.3683101597        4.5009919711
 Fe         5.0966858413        2.9528338700        4.4996494522
 Fe        -5.1580319819       11.8182089288        4.4920462607
 Fe        -2.5978401767        7.3796566385        4.4890385356
 Fe        -0.0339334995        2.9386493139        4.4944982005
 Fe         7.6599988208       13.2993748576        4.8188917721
 Fe        10.2234356101        8.8601389690        4.8187019937
 Fe        12.7846205252        4.4169208244        4.8163115735
 Fe         2.5327491990       13.2987889684        4.8188396525
 Fe         5.0959897816        8.8508317352        4.8146634961
 Fe         7.6500245950        4.4236007589        4.8166293935
 Fe        -2.5949789854       13.3004597833        4.8193468590
 Fe        -0.0311626267        8.8547894358        4.8317887263
 Fe         2.5419632187        4.4204241757        4.8077201125
  O         5.8624063322       10.3816308097        5.7340507518
  O         8.4248974379        5.9432079498        5.7455947167
  O        10.9936310293        1.5051972873        5.7319115987
  O         0.7398663887       10.3897891371        5.7281692419
  O         3.3187205309        5.9239531687        5.7783545192
  O         5.8633510386        1.5104756950        5.7350602505
  O        -4.3838092551       10.3870423002        5.7290753192
  O        -1.8290708837        5.9442809262        5.7228993866
  O         0.7386319263        1.5064989710        5.7323910977
  O         5.9494131682       13.2052877481        5.7314055619
  O         8.5120600005        8.7624873720        5.7319018722
  O        11.0763793753        4.3228063533        5.7322772739
  O         0.8231870298       13.2037777223        5.7319222662
  O         3.3922100903        8.7526923560        5.7659071295
  O         5.9459326775        4.3493952037        5.7387547669
  O        -4.3049175609       13.2057465112        5.7324472126
  O        -1.7486989876        8.7651564551        5.7161120032
  O         0.8360372449        4.3273426354        5.7344553428
  O         3.4666756360       11.8646622522        5.7381798416
  O         6.0248589148        7.4202520739        5.7148945979
  O         8.5903716877        2.9908580603        5.7400785313
  O        -1.6617507585       11.8649960223        5.7319532988
  O         0.9109243382        7.4104683167        5.7313443704
  O         3.4650766845        2.9940163346        5.7484864322
  O        -6.7871544530       11.8666552321        5.7351557548
  O        -4.2249037290        7.4267758707        5.7326399452
  O        -1.6594892330        2.9870664462        5.7352262704
 Fe         7.6563711494       10.3386036865        5.9876054407
 Fe        10.2213951364        5.8993566035        5.9861521344
 Fe        12.7851730196        1.4592727271        5.9923108657
 Fe         2.5272872195       10.3372145358        5.9840420698
 Fe         5.1125840510        5.9139918583        6.2073663873
 Fe         7.6568503448        1.4573756330        5.9833913780
 Fe        -2.5943189075       10.3366475131        6.0159131731
 Fe        -0.0437150460        5.8911301586        5.9861744170
 Fe         2.5301662494        1.4592406620        5.9875587234
  C         4.2469879906        5.4927449486       10.6798444701
  C         4.4717409920        6.5555418126        9.5876334429
  H         5.1782631879        4.9133815056       10.8177442181
  O         3.9040799711        6.0736189865       11.9472683846
  H         3.4540515178        4.7997906693       10.3573367397
  C         3.2082307942        7.1795652461        8.9680181792
  C         2.4158371102        8.2089325826        9.8493450228
  O         2.3368762835        6.1282881480        8.5241270829
  H         3.5678486207        7.7372090625        8.0775713366
  C         0.9230407208        7.8640683950       10.1031698413
  H         2.3989209853        9.1545524323        9.2791062956
  O         3.0821090158        8.5045879939       11.1141126361
  C         0.6663293843        6.6515822003       11.0111402601
  O         0.1864276442        7.7635511222        8.8918786810
  H         0.5126450638        8.7452937594       10.6309597591
  H         1.0753344919        5.7386793863       10.5551618909
  O         1.2046315690        6.8544233695       12.3398817605
  H        -0.4249621612        6.5325756551       11.0936622369
  H         3.8411131830        7.0515999618       11.7955729698
  H         2.7641690027        5.7172660302        7.7149456106
  H         2.3848322887        8.3687601528       11.7999462614
  H         0.7179960459        7.1416918430        8.3430613651
  H         2.0336316094        6.3244324407       12.3840505941
  O         5.1234561071        5.8786431548        8.4547744104
  H         5.1551877120        7.3383335118        9.9613446228
  H         5.9220718850        5.4018148421        8.7472236854
