     161
 i =        1, E =     -8104.5078067098
 Fe         5.0938794100       11.8196869300        0.3885799900
 Fe         7.6575796300        7.3792284900        0.3885799900
 Fe        10.2212798400        2.9387700600        0.3885799900
 Fe        -0.0335205200       11.8196869300        0.3885799900
 Fe         2.5301797000        7.3792284900        0.3885799900
 Fe         5.0938799200        2.9387700600        0.3885799900
 Fe        -5.1609204400       11.8196869300        0.3885799900
 Fe        -2.5972202200        7.3792284900        0.3885799900
 Fe        -0.0335200000        2.9387700600        0.3885799900
  O         8.4519195100        8.9577468800        1.1642700400
  O        11.0156197300        4.5172884400        1.1642700400
  O        13.5793199500        0.0768300000        1.1642700400
  O         3.3245195900        8.9577468800        1.1642700400
  O         5.8882198100        4.5172884400        1.1642700400
  O         8.4519200300        0.0768300000        1.1642700400
  O        -1.8028803300        8.9577468800        1.1642700400
  O         0.7608198900        4.5172884400        1.1642700400
  O         3.3245201100        0.0768300000        1.1642700400
  O         8.4568493000       11.7183869300        1.1650400200
  O        11.0205495200        7.2779284900        1.1650400200
  O        13.5842497300        2.8374700500        1.1650400200
  O         3.3294493700       11.7183869300        1.1650400200
  O         5.8931495900        7.2779284900        1.1650400200
  O         8.4568498100        2.8374700500        1.1650400200
  O        -1.7979505500       11.7183869300        1.1650400200
  O         0.7657496700        7.2779284900        1.1650400200
  O         3.3294498900        2.8374700500        1.1650400200
  O         6.0627194200       10.3425368500        1.1660399400
  O         8.6264196400        5.9020784100        1.1660399400
  O        11.1901198600        1.4616199700        1.1660399400
  O         0.9353195000       10.3425368500        1.1660399400
  O         3.4990197200        5.9020784100        1.1660399400
  O         6.0627199400        1.4616199700        1.1660399400
  O        -4.1920804200       10.3425368500        1.1660399400
  O        -1.6283802000        5.9020784100        1.1660399400
  O         0.9353200200        1.4616199700        1.1660399400
 Fe         7.6576695000       13.2997167500        1.9292099500
 Fe        10.2213697200        8.8592583200        1.9292099500
 Fe        12.7850699400        4.4187998800        1.9292099500
 Fe         2.5302695800       13.2997167500        1.9292099500
 Fe         5.0939698000        8.8592583200        1.9292099500
 Fe         7.6576700200        4.4187998800        1.9292099500
 Fe        -2.5971303400       13.2997167500        1.9292099500
 Fe        -0.0334301200        8.8592583200        1.9292099500
 Fe         2.5302701000        4.4187998800        1.9292099500
 Fe         7.6573893600       10.3392168700        2.7128999200
 Fe        10.2210895800        5.8987584300        2.7128999200
 Fe        12.7847898000        1.4582999900        2.7128999200
 Fe         2.5299894400       10.3392168700        2.7128999200
 Fe         5.0936896600        5.8987584300        2.7128999200
 Fe         7.6573898800        1.4582999900        2.7128999200
 Fe        -2.5974104800       10.3392168700        2.7128999200
 Fe        -0.0337102600        5.8987584300        2.7128999200
 Fe         2.5299899600        1.4582999900        2.7128999200
  O         4.1328450606       13.3040339887        3.4990697315
  O         6.6963173313        8.8637818001        3.4979956683
  O         9.2588886724        4.4212125512        3.5003590323
  O        -0.9941525110       13.3045231888        3.5008249535
  O         1.5690991206        8.8636355332        3.4988423279
  O         4.1329233527        4.4218401816        3.4974670531
  O        -6.1219906778       13.3038231226        3.4991581256
  O        -3.5582573414        8.8634550337        3.4993721127
  O        -0.9954059881        4.4225651228        3.4987864309
  O         6.8607697111       11.9104751058        3.5002452021
  O         9.4251287818        7.4684462122        3.5014115963
  O        11.9879041395        3.0296982455        3.5009851051
  O         1.7329487384       11.9107816839        3.5004643635
  O         4.2966638846        7.4707199030        3.4980352142
  O         6.8616253909        3.0280207472        3.5028677043
  O        -3.3940939109       11.9102466195        3.5006378234
  O        -0.8304143993        7.4698980165        3.5002814897
  O         1.7342408353        3.0278967559        3.5012712504
  O         9.4160029979       10.2450041251        3.5006818953
  O        11.9787259279        5.8040406448        3.5021021417
  O        14.5428003550        1.3640603409        3.5013277056
  O         4.2872872913       10.2446520656        3.5016409501
  O         6.8533094626        5.8035694517        3.4999132813
  O         9.4143851143        1.3642707179        3.5030978254
  O        -0.8396523354       10.2447659443        3.5011394534
  O         1.7240950197        5.8040641986        3.4996164949
  O         4.2896435032        1.3654245263        3.5024809072
 Fe         5.0943876765       11.8185976694        4.4860604826
 Fe         7.6591700739        7.3786416292        4.4856943963
 Fe        10.2215046907        2.9376775101        4.4875436420
 Fe        -0.0330817137       11.8180204320        4.4858942117
 Fe         2.5306546217        7.3788804659        4.4853664027
 Fe         5.0956845971        2.9431235391        4.4895575897
 Fe        -5.1607094574       11.8191691066        4.4864664306
 Fe        -2.5961848071        7.3788797289        4.4861067772
 Fe        -0.0323733574        2.9385583213        4.4859048968
 Fe         7.6586803744       13.2990213900        4.8228461078
 Fe        10.2222456939        8.8587145469        4.8221101131
 Fe        12.7863132882        4.4185437352        4.8237694804
 Fe         2.5328364177       13.2990260680        4.8221061298
 Fe         5.0946520170        8.8588702920        4.8229257787
 Fe         7.6534392065        4.4186034014        4.8249004118
 Fe        -2.5960314084       13.2984186110        4.8229263211
 Fe        -0.0316224357        8.8588312449        4.8222893029
 Fe         2.5309497052        4.4171750439        4.8216388403
  O         5.8661290164       10.3896213066        5.7264534114
  O         8.4289498163        5.9446230093        5.7336141724
  O        10.9925165008        1.5079439578        5.7284155788
  O         0.7383795295       10.3890422721        5.7272265443
  O         3.2990096098        5.9479338379        5.7115605980
  O         5.8638524237        1.5083269617        5.7303526552
  O        -4.3887461647       10.3882299275        5.7263240136
  O        -1.8251666223        5.9487585395        5.7268414905
  O         0.7384645675        1.5077013919        5.7267020395
  O         5.9472561249       13.2041895420        5.7265031462
  O         8.5128306101        8.7626116873        5.7283551232
  O        11.0740948305        4.3216318464        5.7293257414
  O         0.8226030985       13.2007202225        5.7295589290
  O         3.3831260901        8.7638392243        5.7260990160
  O         5.9407745221        4.3393767017        5.7374555586
  O        -4.3062547910       13.2036261020        5.7278327691
  O        -1.7426476419        8.7631370700        5.7273606791
  O         0.8203104215        4.3217212786        5.7283300896
  O         3.4693435889       11.8660968628        5.7294360066
  O         6.0376381247        7.4270864465        5.7138361683
  O         8.5958161476        2.9879544157        5.7426678151
  O        -1.6571531058       11.8655737653        5.7304573267
  O         0.9050269517        7.4255420714        5.7299157409
  O         3.4707374532        2.9844733164        5.7313439206
  O        -6.7854745466       11.8650464665        5.7291192524
  O        -4.2210650775        7.4257477116        5.7298254502
  O        -1.6578701729        2.9838586765        5.7277318811
 Fe         7.6573306715       10.3384094865        5.9816253572
 Fe        10.2226971889        5.8994908278        5.9801088519
 Fe        12.7848682634        1.4585774862        5.9855358640
 Fe         2.5304608246       10.3392549906        5.9805620435
 Fe         5.0830898767        5.9200207574        6.0239878566
 Fe         7.6569311478        1.4548889473        5.9629396951
 Fe        -2.5972393633       10.3389569140        5.9807816600
 Fe        -0.0331422495        5.8984198583        5.9804582837
 Fe         2.5299848703        1.4583795540        5.9798885733
  C         9.8496161054        3.9328903076        9.8500542278
  C         8.6800179051        4.5021002266       10.6456142575
  H         9.5406259765        3.0738103410        9.2331762502
  O        10.8906017963        3.4686428865       10.7043421826
  H        10.2205942842        4.7191036168        9.1610242219
  C         7.5146558098        4.9337994897        9.7333517215
  C         6.5398363116        5.8975183719       10.4582661191
  O         6.7785366575        3.7655281385        9.2819908444
  H         7.9049934854        5.4801190080        8.8547181250
  C         5.0925773153        5.9057366649        9.8918850839
  H         6.9538184977        6.9039630975       10.2852847183
  O         6.5382345964        5.7264719087       11.8891059551
  C         4.1889655054        4.7640020345       10.4052051399
  O         5.1064900207        5.8689062038        8.4563189663
  H         4.6291733444        6.8618686328       10.1878106477
  H         3.2220056764        4.8311412355        9.8830575549
  O         3.9986531077        4.8008477958       11.8444694443
  H         4.6382653190        3.7853443499       10.2003370305
  H        11.0152576979        4.1756301003       11.3672002154
  H         7.4111744043        3.1705122096        8.8402008410
  H         5.7130902401        5.2564599485       12.1553733419
  H         5.5332141371        5.0115318535        8.2323077914
  H         3.4278142959        5.5601852753       12.0629142704
  O         9.2244218830        5.5985539139       11.3966229328
  H         8.2971708681        3.7237818001       11.3316923804
  H         8.5251286024        5.8323779308       12.0423167670
     161
 i =        2, E =     -8104.5077997367
 Fe         5.0938794100       11.8196869300        0.3885799900
 Fe         7.6575796300        7.3792284900        0.3885799900
 Fe        10.2212798400        2.9387700600        0.3885799900
 Fe        -0.0335205200       11.8196869300        0.3885799900
 Fe         2.5301797000        7.3792284900        0.3885799900
 Fe         5.0938799200        2.9387700600        0.3885799900
 Fe        -5.1609204400       11.8196869300        0.3885799900
 Fe        -2.5972202200        7.3792284900        0.3885799900
 Fe        -0.0335200000        2.9387700600        0.3885799900
  O         8.4519195100        8.9577468800        1.1642700400
  O        11.0156197300        4.5172884400        1.1642700400
  O        13.5793199500        0.0768300000        1.1642700400
  O         3.3245195900        8.9577468800        1.1642700400
  O         5.8882198100        4.5172884400        1.1642700400
  O         8.4519200300        0.0768300000        1.1642700400
  O        -1.8028803300        8.9577468800        1.1642700400
  O         0.7608198900        4.5172884400        1.1642700400
  O         3.3245201100        0.0768300000        1.1642700400
  O         8.4568493000       11.7183869300        1.1650400200
  O        11.0205495200        7.2779284900        1.1650400200
  O        13.5842497300        2.8374700500        1.1650400200
  O         3.3294493700       11.7183869300        1.1650400200
  O         5.8931495900        7.2779284900        1.1650400200
  O         8.4568498100        2.8374700500        1.1650400200
  O        -1.7979505500       11.7183869300        1.1650400200
  O         0.7657496700        7.2779284900        1.1650400200
  O         3.3294498900        2.8374700500        1.1650400200
  O         6.0627194200       10.3425368500        1.1660399400
  O         8.6264196400        5.9020784100        1.1660399400
  O        11.1901198600        1.4616199700        1.1660399400
  O         0.9353195000       10.3425368500        1.1660399400
  O         3.4990197200        5.9020784100        1.1660399400
  O         6.0627199400        1.4616199700        1.1660399400
  O        -4.1920804200       10.3425368500        1.1660399400
  O        -1.6283802000        5.9020784100        1.1660399400
  O         0.9353200200        1.4616199700        1.1660399400
 Fe         7.6576695000       13.2997167500        1.9292099500
 Fe        10.2213697200        8.8592583200        1.9292099500
 Fe        12.7850699400        4.4187998800        1.9292099500
 Fe         2.5302695800       13.2997167500        1.9292099500
 Fe         5.0939698000        8.8592583200        1.9292099500
 Fe         7.6576700200        4.4187998800        1.9292099500
 Fe        -2.5971303400       13.2997167500        1.9292099500
 Fe        -0.0334301200        8.8592583200        1.9292099500
 Fe         2.5302701000        4.4187998800        1.9292099500
 Fe         7.6573893600       10.3392168700        2.7128999200
 Fe        10.2210895800        5.8987584300        2.7128999200
 Fe        12.7847898000        1.4582999900        2.7128999200
 Fe         2.5299894400       10.3392168700        2.7128999200
 Fe         5.0936896600        5.8987584300        2.7128999200
 Fe         7.6573898800        1.4582999900        2.7128999200
 Fe        -2.5974104800       10.3392168700        2.7128999200
 Fe        -0.0337102600        5.8987584300        2.7128999200
 Fe         2.5299899600        1.4582999900        2.7128999200
  O         4.1328450606       13.3040339887        3.4990697315
  O         6.6963173313        8.8637818001        3.4979956683
  O         9.2588886724        4.4212125512        3.5003590323
  O        -0.9941525110       13.3045231888        3.5008249535
  O         1.5690991206        8.8636355332        3.4988423279
  O         4.1329233527        4.4218401816        3.4974670531
  O        -6.1219906778       13.3038231226        3.4991581256
  O        -3.5582573414        8.8634550337        3.4993721127
  O        -0.9954059881        4.4225651228        3.4987864309
  O         6.8607697111       11.9104751058        3.5002452021
  O         9.4251287818        7.4684462122        3.5014115963
  O        11.9879041395        3.0296982455        3.5009851051
  O         1.7329487384       11.9107816839        3.5004643635
  O         4.2966638846        7.4707199030        3.4980352142
  O         6.8616253909        3.0280207472        3.5028677043
  O        -3.3940939109       11.9102466195        3.5006378234
  O        -0.8304143993        7.4698980165        3.5002814897
  O         1.7342408353        3.0278967559        3.5012712504
  O         9.4160029979       10.2450041251        3.5006818953
  O        11.9787259279        5.8040406448        3.5021021417
  O        14.5428003550        1.3640603409        3.5013277056
  O         4.2872872913       10.2446520656        3.5016409501
  O         6.8533094626        5.8035694517        3.4999132813
  O         9.4143851143        1.3642707179        3.5030978254
  O        -0.8396523354       10.2447659443        3.5011394534
  O         1.7240950197        5.8040641986        3.4996164949
  O         4.2896435032        1.3654245263        3.5024809072
 Fe         5.0943876765       11.8185976694        4.4860604826
 Fe         7.6591700739        7.3786416292        4.4856943963
 Fe        10.2215046907        2.9376775101        4.4875436420
 Fe        -0.0330817137       11.8180204320        4.4858942117
 Fe         2.5306546217        7.3788804659        4.4853664027
 Fe         5.0956845971        2.9431235391        4.4895575897
 Fe        -5.1607094574       11.8191691066        4.4864664306
 Fe        -2.5961848071        7.3788797289        4.4861067772
 Fe        -0.0323733574        2.9385583213        4.4859048968
 Fe         7.6586803744       13.2990213900        4.8228461078
 Fe        10.2222456939        8.8587145469        4.8221101131
 Fe        12.7863132882        4.4185437352        4.8237694804
 Fe         2.5328364177       13.2990260680        4.8221061298
 Fe         5.0946520170        8.8588702920        4.8229257787
 Fe         7.6534392065        4.4186034014        4.8249004118
 Fe        -2.5960314084       13.2984186110        4.8229263211
 Fe        -0.0316224357        8.8588312449        4.8222893029
 Fe         2.5309497052        4.4171750439        4.8216388403
  O         5.8661290164       10.3896213066        5.7264534114
  O         8.4289498163        5.9446230093        5.7336141724
  O        10.9925165008        1.5079439578        5.7284155788
  O         0.7383795295       10.3890422721        5.7272265443
  O         3.2990096098        5.9479338379        5.7115605980
  O         5.8638524237        1.5083269617        5.7303526552
  O        -4.3887461647       10.3882299275        5.7263240136
  O        -1.8251666223        5.9487585395        5.7268414905
  O         0.7384645675        1.5077013919        5.7267020395
  O         5.9472561249       13.2041895420        5.7265031462
  O         8.5128306101        8.7626116873        5.7283551232
  O        11.0740948305        4.3216318464        5.7293257414
  O         0.8226030985       13.2007202225        5.7295589290
  O         3.3831260901        8.7638392243        5.7260990160
  O         5.9407745221        4.3393767017        5.7374555586
  O        -4.3062547910       13.2036261020        5.7278327691
  O        -1.7426476419        8.7631370700        5.7273606791
  O         0.8203104215        4.3217212786        5.7283300896
  O         3.4693435889       11.8660968628        5.7294360066
  O         6.0376381247        7.4270864465        5.7138361683
  O         8.5958161476        2.9879544157        5.7426678151
  O        -1.6571531058       11.8655737653        5.7304573267
  O         0.9050269517        7.4255420714        5.7299157409
  O         3.4707374532        2.9844733164        5.7313439206
  O        -6.7854745466       11.8650464665        5.7291192524
  O        -4.2210650775        7.4257477116        5.7298254502
  O        -1.6578701729        2.9838586765        5.7277318811
 Fe         7.6573306715       10.3384094865        5.9816253572
 Fe        10.2226971889        5.8994908278        5.9801088519
 Fe        12.7848682634        1.4585774862        5.9855358640
 Fe         2.5304608246       10.3392549906        5.9805620435
 Fe         5.0830898767        5.9200207574        6.0239878566
 Fe         7.6569311478        1.4548889473        5.9629396951
 Fe        -2.5972393633       10.3389569140        5.9807816600
 Fe        -0.0331422495        5.8984198583        5.9804582837
 Fe         2.5299848703        1.4583795540        5.9798885733
  C         9.8496161054        3.9328903076        9.8500542278
  C         8.6800179051        4.5021002266       10.6456142575
  H         9.5406259765        3.0738103410        9.2331762502
  O        10.8906017963        3.4686428865       10.7043421826
  H        10.2205942842        4.7191036168        9.1610242219
  C         7.5146558098        4.9337994897        9.7333517215
  C         6.5398363116        5.8975183719       10.4582661191
  O         6.7785366575        3.7655281385        9.2819908444
  H         7.9049934854        5.4801190080        8.8547181250
  C         5.0925773153        5.9057366649        9.8918850839
  H         6.9538184977        6.9039630975       10.2852847183
  O         6.5382345964        5.7264719087       11.8891059551
  C         4.1889655054        4.7640020345       10.4052051399
  O         5.1064900207        5.8689062038        8.4563189663
  H         4.6291733444        6.8618686328       10.1878106477
  H         3.2220056764        4.8311412355        9.8830575549
  O         3.9986531077        4.8008477958       11.8444694443
  H         4.6382653190        3.7853443499       10.2003370305
  H        11.0152576979        4.1756301003       11.3672002154
  H         7.4111744043        3.1705122096        8.8402008410
  H         5.7130902401        5.2564599485       12.1553733419
  H         5.5332141371        5.0115318535        8.2323077914
  H         3.4278142959        5.5601852753       12.0629142704
  O         9.2244218830        5.5985539139       11.3966229328
  H         8.2971708681        3.7237818001       11.3316923804
  H         8.5251286024        5.8323779308       12.0423167670
