     161
 i =        1, E =     -8104.5068212551
 Fe         5.0938794100       11.8196869300        0.3885799900
 Fe         7.6575796300        7.3792284900        0.3885799900
 Fe        10.2212798400        2.9387700600        0.3885799900
 Fe        -0.0335205200       11.8196869300        0.3885799900
 Fe         2.5301797000        7.3792284900        0.3885799900
 Fe         5.0938799200        2.9387700600        0.3885799900
 Fe        -5.1609204400       11.8196869300        0.3885799900
 Fe        -2.5972202200        7.3792284900        0.3885799900
 Fe        -0.0335200000        2.9387700600        0.3885799900
  O         8.4519195100        8.9577468800        1.1642700400
  O        11.0156197300        4.5172884400        1.1642700400
  O        13.5793199500        0.0768300000        1.1642700400
  O         3.3245195900        8.9577468800        1.1642700400
  O         5.8882198100        4.5172884400        1.1642700400
  O         8.4519200300        0.0768300000        1.1642700400
  O        -1.8028803300        8.9577468800        1.1642700400
  O         0.7608198900        4.5172884400        1.1642700400
  O         3.3245201100        0.0768300000        1.1642700400
  O         8.4568493000       11.7183869300        1.1650400200
  O        11.0205495200        7.2779284900        1.1650400200
  O        13.5842497300        2.8374700500        1.1650400200
  O         3.3294493700       11.7183869300        1.1650400200
  O         5.8931495900        7.2779284900        1.1650400200
  O         8.4568498100        2.8374700500        1.1650400200
  O        -1.7979505500       11.7183869300        1.1650400200
  O         0.7657496700        7.2779284900        1.1650400200
  O         3.3294498900        2.8374700500        1.1650400200
  O         6.0627194200       10.3425368500        1.1660399400
  O         8.6264196400        5.9020784100        1.1660399400
  O        11.1901198600        1.4616199700        1.1660399400
  O         0.9353195000       10.3425368500        1.1660399400
  O         3.4990197200        5.9020784100        1.1660399400
  O         6.0627199400        1.4616199700        1.1660399400
  O        -4.1920804200       10.3425368500        1.1660399400
  O        -1.6283802000        5.9020784100        1.1660399400
  O         0.9353200200        1.4616199700        1.1660399400
 Fe         7.6576695000       13.2997167500        1.9292099500
 Fe        10.2213697200        8.8592583200        1.9292099500
 Fe        12.7850699400        4.4187998800        1.9292099500
 Fe         2.5302695800       13.2997167500        1.9292099500
 Fe         5.0939698000        8.8592583200        1.9292099500
 Fe         7.6576700200        4.4187998800        1.9292099500
 Fe        -2.5971303400       13.2997167500        1.9292099500
 Fe        -0.0334301200        8.8592583200        1.9292099500
 Fe         2.5302701000        4.4187998800        1.9292099500
 Fe         7.6573893600       10.3392168700        2.7128999200
 Fe        10.2210895800        5.8987584300        2.7128999200
 Fe        12.7847898000        1.4582999900        2.7128999200
 Fe         2.5299894400       10.3392168700        2.7128999200
 Fe         5.0936896600        5.8987584300        2.7128999200
 Fe         7.6573898800        1.4582999900        2.7128999200
 Fe        -2.5974104800       10.3392168700        2.7128999200
 Fe        -0.0337102600        5.8987584300        2.7128999200
 Fe         2.5299899600        1.4582999900        2.7128999200
  O         4.1325987871       13.3040149628        3.4991457977
  O         6.6964876555        8.8646070229        3.4997868632
  O         9.2604488827        4.4238257236        3.5012065505
  O        -0.9945868972       13.3039573937        3.4993105483
  O         1.5687155209        8.8641618962        3.4984072719
  O         4.1326869917        4.4216759979        3.4968773580
  O        -6.1221485005       13.3033747235        3.4990012638
  O        -3.5586713377        8.8623039061        3.4992065272
  O        -0.9948453738        4.4227116305        3.4987691002
  O         6.8609986824       11.9098416635        3.5012613184
  O         9.4244985100        7.4686120444        3.5031989382
  O        11.9879649396        3.0294017349        3.5009997840
  O         1.7334476846       11.9104558595        3.5003712557
  O         4.2975708965        7.4707618173        3.4989388306
  O         6.8608135284        3.0295768802        3.4995833319
  O        -3.3939727100       11.9098197457        3.5006524835
  O        -0.8306700869        7.4699042920        3.5003486378
  O         1.7340936103        3.0275474855        3.5012233208
  O         9.4151647596       10.2450091516        3.5018634295
  O        11.9783789044        5.8047534391        3.5027683238
  O        14.5427333453        1.3641511460        3.5012826271
  O         4.2898853275       10.2439335654        3.5011628002
  O         6.8532446695        5.8043843093        3.5003447241
  O         9.4154939815        1.3636218494        3.5010595606
  O        -0.8396677484       10.2448348463        3.5011755905
  O         1.7238273031        5.8040935805        3.4998870889
  O         4.2891301806        1.3652811097        3.5016896173
 Fe         5.0942671843       11.8190721934        4.4865049615
 Fe         7.6561026771        7.3790735090        4.4868834642
 Fe        10.2212288036        2.9370634798        4.4857686465
 Fe        -0.0328663317       11.8190465192        4.4861007450
 Fe         2.5298639143        7.3804497605        4.4839997678
 Fe         5.0958195833        2.9416169244        4.4891587929
 Fe        -5.1599145956       11.8194854406        4.4865465364
 Fe        -2.5960721113        7.3787414920        4.4870815675
 Fe        -0.0322749421        2.9384100527        4.4859279586
 Fe         7.6589680273       13.2996060763        4.8225814355
 Fe        10.2215724009        8.8595303146        4.8222117150
 Fe        12.7876616548        4.4181566031        4.8221116115
 Fe         2.5315722936       13.2990151386        4.8228344026
 Fe         5.0969010600        8.8544417381        4.8255688858
 Fe         7.6573335672        4.4187486869        4.8233561566
 Fe        -2.5958095715       13.2991263148        4.8228102194
 Fe        -0.0317751474        8.8590846782        4.8224058922
 Fe         2.5303996742        4.4159417073        4.8212494316
  O         5.8664420273       10.3878137709        5.7282079639
  O         8.4277417286        5.9491589917        5.7376561474
  O        10.9934049006        1.5080838483        5.7269934806
  O         0.7385154222       10.3889903230        5.7265890068
  O         3.2908768488        5.9496917378        5.7088232499
  O         5.8659702164        1.5075156970        5.7274037572
  O        -4.3891342387       10.3874818375        5.7268255119
  O        -1.8255230039        5.9479686573        5.7277431152
  O         0.7381543905        1.5077617369        5.7269952207
  O         5.9483978185       13.2032375914        5.7276855967
  O         8.5128448839        8.7599926129        5.7362281874
  O        11.0774077020        4.3187299071        5.7294905429
  O         0.8206787422       13.2035789962        5.7273910185
  O         3.3844918646        8.7642549555        5.7264833245
  O         5.9461344432        4.3360780927        5.7245332504
  O        -4.3066807906       13.2032467934        5.7270384464
  O        -1.7434528652        8.7636767247        5.7266560894
  O         0.8195428696        4.3217754741        5.7279511416
  O         3.4697536754       11.8655786950        5.7292969775
  O         6.0321669410        7.4140897115        5.7279606839
  O         8.5973890834        2.9857425081        5.7311591562
  O        -1.6577550311       11.8648828107        5.7287368979
  O         0.9051312755        7.4257838877        5.7294868199
  O         3.4694520429        2.9831896711        5.7290042403
  O        -6.7851637311       11.8655250001        5.7296266387
  O        -4.2225062343        7.4275365129        5.7350485019
  O        -1.6578146797        2.9844814047        5.7293673217
 Fe         7.6581272459       10.3393646953        5.9800877238
 Fe        10.2240495594        5.8960321290        5.9619111021
 Fe        12.7852241242        1.4578746535        5.9807224159
 Fe         2.5300868365       10.3392847343        5.9816295545
 Fe         5.0710925182        5.9007546426        6.0241081547
 Fe         7.6576725993        1.4584173346        5.9799606546
 Fe        -2.5974315269       10.3394749735        5.9853626873
 Fe        -0.0328220578        5.8988263161        5.9803837499
 Fe         2.5300258456        1.4577671907        5.9803843136
  C         9.1744324529        9.0341914390        9.8493215932
  C         8.0974024194        8.3051976654       10.6457287634
  H         9.7644402852        8.3356865688        9.2342514413
  O        10.0966154466        9.7022744263       10.7050011172
  H         8.6780870640        9.7483109290        9.1608920307
  C         7.1403397689        7.5121224210        9.7338583258
  C         5.8178981264        7.1497328128       10.4579530783
  O         7.7835613218        6.2905108052        9.2835885579
  H         6.8627509584        8.1217320295        8.8540784643
  C         5.0877223028        5.9001094028        9.8913596126
  H         5.1530970376        8.0114450234       10.2857551828
  O         5.9658871706        7.0621606924       11.8885714977
  C         5.6242980447        4.5468440675       10.4052455506
  O         5.1212462749        5.8990398826        8.4556862246
  H         4.0282449623        5.9777854629       10.1872928015
  H         5.0834171706        3.7429498114        9.8825254331
  O         5.4974528961        4.3986721965       11.8444389738
  H         6.6965672408        4.4460331984       10.2006600206
  H         9.5465607189       10.1650459808       11.3667124355
  H         8.6136375562        6.5384966521        8.8372722096
  H         5.9614533695        6.1125675366       12.1553953392
  H         6.0782346907        5.8322345914        8.2399194409
  H         4.5538994157        4.2881930907       12.0632272948
  O         7.4183368444        9.3244199669       11.3956418632
  H         8.5801682474        7.5841181622       11.3314183732
  H         6.8672480624        8.8366754441       12.0429946082
     161
 i =        2, E =     -8104.5068140407
 Fe         5.0938794100       11.8196869300        0.3885799900
 Fe         7.6575796300        7.3792284900        0.3885799900
 Fe        10.2212798400        2.9387700600        0.3885799900
 Fe        -0.0335205200       11.8196869300        0.3885799900
 Fe         2.5301797000        7.3792284900        0.3885799900
 Fe         5.0938799200        2.9387700600        0.3885799900
 Fe        -5.1609204400       11.8196869300        0.3885799900
 Fe        -2.5972202200        7.3792284900        0.3885799900
 Fe        -0.0335200000        2.9387700600        0.3885799900
  O         8.4519195100        8.9577468800        1.1642700400
  O        11.0156197300        4.5172884400        1.1642700400
  O        13.5793199500        0.0768300000        1.1642700400
  O         3.3245195900        8.9577468800        1.1642700400
  O         5.8882198100        4.5172884400        1.1642700400
  O         8.4519200300        0.0768300000        1.1642700400
  O        -1.8028803300        8.9577468800        1.1642700400
  O         0.7608198900        4.5172884400        1.1642700400
  O         3.3245201100        0.0768300000        1.1642700400
  O         8.4568493000       11.7183869300        1.1650400200
  O        11.0205495200        7.2779284900        1.1650400200
  O        13.5842497300        2.8374700500        1.1650400200
  O         3.3294493700       11.7183869300        1.1650400200
  O         5.8931495900        7.2779284900        1.1650400200
  O         8.4568498100        2.8374700500        1.1650400200
  O        -1.7979505500       11.7183869300        1.1650400200
  O         0.7657496700        7.2779284900        1.1650400200
  O         3.3294498900        2.8374700500        1.1650400200
  O         6.0627194200       10.3425368500        1.1660399400
  O         8.6264196400        5.9020784100        1.1660399400
  O        11.1901198600        1.4616199700        1.1660399400
  O         0.9353195000       10.3425368500        1.1660399400
  O         3.4990197200        5.9020784100        1.1660399400
  O         6.0627199400        1.4616199700        1.1660399400
  O        -4.1920804200       10.3425368500        1.1660399400
  O        -1.6283802000        5.9020784100        1.1660399400
  O         0.9353200200        1.4616199700        1.1660399400
 Fe         7.6576695000       13.2997167500        1.9292099500
 Fe        10.2213697200        8.8592583200        1.9292099500
 Fe        12.7850699400        4.4187998800        1.9292099500
 Fe         2.5302695800       13.2997167500        1.9292099500
 Fe         5.0939698000        8.8592583200        1.9292099500
 Fe         7.6576700200        4.4187998800        1.9292099500
 Fe        -2.5971303400       13.2997167500        1.9292099500
 Fe        -0.0334301200        8.8592583200        1.9292099500
 Fe         2.5302701000        4.4187998800        1.9292099500
 Fe         7.6573893600       10.3392168700        2.7128999200
 Fe        10.2210895800        5.8987584300        2.7128999200
 Fe        12.7847898000        1.4582999900        2.7128999200
 Fe         2.5299894400       10.3392168700        2.7128999200
 Fe         5.0936896600        5.8987584300        2.7128999200
 Fe         7.6573898800        1.4582999900        2.7128999200
 Fe        -2.5974104800       10.3392168700        2.7128999200
 Fe        -0.0337102600        5.8987584300        2.7128999200
 Fe         2.5299899600        1.4582999900        2.7128999200
  O         4.1325987871       13.3040149628        3.4991457977
  O         6.6964876555        8.8646070229        3.4997868632
  O         9.2604488827        4.4238257236        3.5012065505
  O        -0.9945868972       13.3039573937        3.4993105483
  O         1.5687155209        8.8641618962        3.4984072719
  O         4.1326869917        4.4216759979        3.4968773580
  O        -6.1221485005       13.3033747235        3.4990012638
  O        -3.5586713377        8.8623039061        3.4992065272
  O        -0.9948453738        4.4227116305        3.4987691002
  O         6.8609986824       11.9098416635        3.5012613184
  O         9.4244985100        7.4686120444        3.5031989382
  O        11.9879649396        3.0294017349        3.5009997840
  O         1.7334476846       11.9104558595        3.5003712557
  O         4.2975708965        7.4707618173        3.4989388306
  O         6.8608135284        3.0295768802        3.4995833319
  O        -3.3939727100       11.9098197457        3.5006524835
  O        -0.8306700869        7.4699042920        3.5003486378
  O         1.7340936103        3.0275474855        3.5012233208
  O         9.4151647596       10.2450091516        3.5018634295
  O        11.9783789044        5.8047534391        3.5027683238
  O        14.5427333453        1.3641511460        3.5012826271
  O         4.2898853275       10.2439335654        3.5011628002
  O         6.8532446695        5.8043843093        3.5003447241
  O         9.4154939815        1.3636218494        3.5010595606
  O        -0.8396677484       10.2448348463        3.5011755905
  O         1.7238273031        5.8040935805        3.4998870889
  O         4.2891301806        1.3652811097        3.5016896173
 Fe         5.0942671843       11.8190721934        4.4865049615
 Fe         7.6561026771        7.3790735090        4.4868834642
 Fe        10.2212288036        2.9370634798        4.4857686465
 Fe        -0.0328663317       11.8190465192        4.4861007450
 Fe         2.5298639143        7.3804497605        4.4839997678
 Fe         5.0958195833        2.9416169244        4.4891587929
 Fe        -5.1599145956       11.8194854406        4.4865465364
 Fe        -2.5960721113        7.3787414920        4.4870815675
 Fe        -0.0322749421        2.9384100527        4.4859279586
 Fe         7.6589680273       13.2996060763        4.8225814355
 Fe        10.2215724009        8.8595303146        4.8222117150
 Fe        12.7876616548        4.4181566031        4.8221116115
 Fe         2.5315722936       13.2990151386        4.8228344026
 Fe         5.0969010600        8.8544417381        4.8255688858
 Fe         7.6573335672        4.4187486869        4.8233561566
 Fe        -2.5958095715       13.2991263148        4.8228102194
 Fe        -0.0317751474        8.8590846782        4.8224058922
 Fe         2.5303996742        4.4159417073        4.8212494316
  O         5.8664420273       10.3878137709        5.7282079639
  O         8.4277417286        5.9491589917        5.7376561474
  O        10.9934049006        1.5080838483        5.7269934806
  O         0.7385154222       10.3889903230        5.7265890068
  O         3.2908768488        5.9496917378        5.7088232499
  O         5.8659702164        1.5075156970        5.7274037572
  O        -4.3891342387       10.3874818375        5.7268255119
  O        -1.8255230039        5.9479686573        5.7277431152
  O         0.7381543905        1.5077617369        5.7269952207
  O         5.9483978185       13.2032375914        5.7276855967
  O         8.5128448839        8.7599926129        5.7362281874
  O        11.0774077020        4.3187299071        5.7294905429
  O         0.8206787422       13.2035789962        5.7273910185
  O         3.3844918646        8.7642549555        5.7264833245
  O         5.9461344432        4.3360780927        5.7245332504
  O        -4.3066807906       13.2032467934        5.7270384464
  O        -1.7434528652        8.7636767247        5.7266560894
  O         0.8195428696        4.3217754741        5.7279511416
  O         3.4697536754       11.8655786950        5.7292969775
  O         6.0321669410        7.4140897115        5.7279606839
  O         8.5973890834        2.9857425081        5.7311591562
  O        -1.6577550311       11.8648828107        5.7287368979
  O         0.9051312755        7.4257838877        5.7294868199
  O         3.4694520429        2.9831896711        5.7290042403
  O        -6.7851637311       11.8655250001        5.7296266387
  O        -4.2225062343        7.4275365129        5.7350485019
  O        -1.6578146797        2.9844814047        5.7293673217
 Fe         7.6581272459       10.3393646953        5.9800877238
 Fe        10.2240495594        5.8960321290        5.9619111021
 Fe        12.7852241242        1.4578746535        5.9807224159
 Fe         2.5300868365       10.3392847343        5.9816295545
 Fe         5.0710925182        5.9007546426        6.0241081547
 Fe         7.6576725993        1.4584173346        5.9799606546
 Fe        -2.5974315269       10.3394749735        5.9853626873
 Fe        -0.0328220578        5.8988263161        5.9803837499
 Fe         2.5300258456        1.4577671907        5.9803843136
  C         9.1744324529        9.0341914390        9.8493215932
  C         8.0974024194        8.3051976654       10.6457287634
  H         9.7644402852        8.3356865688        9.2342514413
  O        10.0966154466        9.7022744263       10.7050011172
  H         8.6780870640        9.7483109290        9.1608920307
  C         7.1403397689        7.5121224210        9.7338583258
  C         5.8178981264        7.1497328128       10.4579530783
  O         7.7835613218        6.2905108052        9.2835885579
  H         6.8627509584        8.1217320295        8.8540784643
  C         5.0877223028        5.9001094028        9.8913596126
  H         5.1530970376        8.0114450234       10.2857551828
  O         5.9658871706        7.0621606924       11.8885714977
  C         5.6242980447        4.5468440675       10.4052455506
  O         5.1212462749        5.8990398826        8.4556862246
  H         4.0282449623        5.9777854629       10.1872928015
  H         5.0834171706        3.7429498114        9.8825254331
  O         5.4974528961        4.3986721965       11.8444389738
  H         6.6965672408        4.4460331984       10.2006600206
  H         9.5465607189       10.1650459808       11.3667124355
  H         8.6136375562        6.5384966521        8.8372722096
  H         5.9614533695        6.1125675366       12.1553953392
  H         6.0782346907        5.8322345914        8.2399194409
  H         4.5538994157        4.2881930907       12.0632272948
  O         7.4183368444        9.3244199669       11.3956418632
  H         8.5801682474        7.5841181622       11.3314183732
  H         6.8672480624        8.8366754441       12.0429946082
