30
Lattice="7.668573041968109 0.0 0.0 3.8342865209840546 6.641179065120891 0.0 0.0 0.0 34.174242446240996" Properties=species:S:1:pos:R:3:tags:I:1:forces:R:3 energy=-116.1974868774414 free_energy=-116.1974868774414 stress="0.0003024051839020103 2.598346213744662e-07 6.286643383646151e-07 2.598346213744662e-07 0.00030295667238533497 1.7816404351833626e-07 6.286643383646151e-07 1.7816404351833626e-07 7.120976988517214e-06" pbc="T T F"
Cu       1.27809551       0.73790879      15.00000000        3      -0.00078667      -0.00031087      -0.00888038
Cu       3.83428652       0.73790879      15.00000000        3      -0.00000594       0.00008498      -0.01152395
Cu       6.39047753       0.73790879      15.00000000        3       0.00077335      -0.00038677      -0.00888338
Cu       2.55619101       2.95163514      15.00000000        3      -0.00005496      -0.00013565      -0.01161624
Cu       5.11238203       2.95163514      15.00000000        3       0.00000513      -0.00013826      -0.01174014
Cu       7.66857304       2.95163514      15.00000000        3       0.00005255      -0.00011210      -0.01067074
Cu       3.83428652       5.16536150      15.00000000        3      -0.00005493       0.00094634      -0.00942241
Cu       6.39047753       5.16536150      15.00000000        3       0.00005042       0.00002630      -0.01110639
Cu       8.94666855       5.16536150      15.00000000        3       0.00001897       0.00002723      -0.01099655
Cu      -0.00000000       1.47581757      17.08712122        2      -0.00023147      -0.01931547       0.04401316
Cu       2.55619101       1.47581757      17.08712122        2      -0.00144822       0.00050730       0.01514860
Cu       5.11238203       1.47581757      17.08712122        2       0.00049581      -0.00153920       0.01909441
Cu       1.27809551       3.68954393      17.08712122        2       0.00076553       0.00077564       0.01856657
Cu       3.83428652       3.68954393      17.08712122        2      -0.00177234       0.00036208       0.01649028
Cu       6.39047753       3.68954393      17.08712122        2       0.00083818      -0.00056966       0.01799842
Cu       2.55619101       5.90327028      17.08712122        2       0.01690001       0.01069478       0.04353678
Cu       5.11238203       5.90327028      17.08712122        2      -0.01771302       0.01028357       0.04053453
Cu       7.66857304       5.90327028      17.08712122        2       0.00242685       0.00015395       0.01781880
Cu       0.00043782       0.00048879      19.20250648        1       0.00066612       0.00051359      -0.03995279
Cu       2.55660367      -0.00018402      19.17715574        1      -0.00182913       0.00077204      -0.00416815
Cu       5.11349178       0.00010964      19.17963214        1      -0.00055355       0.00028029      -0.00804511
Cu       1.27778143       2.21445351      19.17896872        1       0.00000793      -0.00152363      -0.00716153
Cu       3.83366635       2.21354483      19.17833210        1       0.00079660       0.00068642      -0.00803515
Cu       6.39022276       2.21356836      19.17947185        1       0.00072195      -0.00045114      -0.00782032
Cu       2.55662608       4.42876735      19.17864638        1      -0.00025805      -0.00064496      -0.00637710
Cu       5.11195685       4.42745313      19.17731474        1      -0.00009356       0.00132605      -0.00436661
Cu       7.66816327       4.42741086      19.17863737        1       0.00100891       0.00064572      -0.00848002
O       -0.01301134      -0.00549216      23.15251255        0      -0.00884168       0.01497015      -0.04403985
H       -0.43773411       0.82765524      23.41927528        0      -0.01497161      -0.00470962       0.00150725
H        0.61265013       0.26363337      22.45710685        0       0.02308682      -0.01321913      -0.00142196
