30
Lattice="7.668573041968109 0.0 0.0 3.8342865209840546 6.641179065120891 0.0 0.0 0.0 34.174242446240996" Properties=species:S:1:pos:R:3:tags:I:1:forces:R:3 energy=-116.19749450683594 free_energy=-116.19749450683594 stress="0.0003024495381396264 -3.115068523129594e-07 3.116499840416509e-07 -3.115068523129594e-07 0.00030288269044831395 5.684919415216427e-07 3.116499840416509e-07 5.684919415216427e-07 7.097804427758092e-06" pbc="T T F"
Cu       1.27809551       0.73790879      15.00000000        3      -0.00080183      -0.00037427      -0.00916772
Cu       3.83428652       0.73790879      15.00000000        3       0.00010815       0.00006725      -0.01154406
Cu       6.39047753       0.73790879      15.00000000        3       0.00068147      -0.00043363      -0.00871141
Cu       2.55619101       2.95163514      15.00000000        3       0.00000561      -0.00006340      -0.01168226
Cu       5.11238203       2.95163514      15.00000000        3       0.00000039      -0.00018638      -0.01158842
Cu       7.66857304       2.95163514      15.00000000        3      -0.00000303      -0.00006345      -0.01078551
Cu       3.83428652       5.16536150      15.00000000        3      -0.00010709       0.00094429      -0.00930797
Cu       6.39047753       5.16536150      15.00000000        3       0.00004965       0.00002089      -0.01122057
Cu       8.94666855       5.16536150      15.00000000        3       0.00006356       0.00008852      -0.01085616
Cu      -0.00000000       1.47581757      17.08712122        2      -0.00113852      -0.01949856       0.04272788
Cu       2.55619101       1.47581757      17.08712122        2       0.00004172      -0.00013896       0.01466381
Cu       5.11238203       1.47581757      17.08712122        2       0.00011411      -0.00147778       0.01811952
Cu       1.27809551       3.68954393      17.08712122        2       0.00155911       0.00152574       0.01788290
Cu       3.83428652       3.68954393      17.08712122        2      -0.00110195       0.00059178       0.01910266
Cu       6.39047753       3.68954393      17.08712122        2      -0.00076871       0.00025475       0.01829856
Cu       2.55619101       5.90327028      17.08712122        2       0.01688923       0.00999285       0.04436479
Cu       5.11238203       5.90327028      17.08712122        2      -0.01810656       0.00988436       0.04103484
Cu       7.66857304       5.90327028      17.08712122        2       0.00172144       0.00000525       0.01677615
Cu      -0.00002587       0.00064431      19.20249584        1       0.00009138       0.00086329      -0.03991073
Cu       2.55632907      -0.00049590      19.17699366        1      -0.00163381       0.00107526      -0.00385008
Cu       5.11279237      -0.00020125      19.17954900        1       0.00028547       0.00049525      -0.00793367
Cu       1.27811366       2.21408490      19.17773801        1      -0.00083065      -0.00135027      -0.00514648
Cu       3.83388727       2.21341483      19.17873364        1       0.00018093       0.00110166      -0.00866405
Cu       6.38967429       2.21393667      19.17905442        1       0.00119056      -0.00093157      -0.00726189
Cu       2.55663379       4.42861079      19.17957647        1      -0.00043995      -0.00058656      -0.00791204
Cu       5.11155382       4.42838437      19.17824843        1       0.00019497      -0.00030528      -0.00577188
Cu       7.66839150       4.42688072      19.17819809        1       0.00012982       0.00110963      -0.00779382
O       -0.00533626      -0.01308143      23.15256415        0      -0.01678666       0.00424725      -0.04396796
H       -0.89477431       0.27578050      23.41929161        0      -0.00722450      -0.01376191       0.00143399
H        0.24685085       0.61956437      22.45712267        0       0.02563570       0.00690399      -0.00132833
