30
Lattice="7.668573041968109 0.0 0.0 3.8342865209840546 6.641179065120891 0.0 0.0 0.0 34.174242446240996" Properties=species:S:1:pos:R:3:tags:I:1:forces:R:3 energy=-116.19752502441406 free_energy=-116.19752502441406 stress="0.0003029639774467796 -3.3860848702715884e-07 -1.8477371099834272e-07 -3.3860848702715884e-07 0.0003023605386260897 6.209292564562929e-07 -1.8477371099834272e-07 6.209292564562929e-07 7.102874860720476e-06" pbc="T T F"
Cu       1.27809551       0.73790879      15.00000000        3      -0.00079941      -0.00047969      -0.00940029
Cu       3.83428652       0.73790879      15.00000000        3       0.00015889       0.00002966      -0.01161764
Cu       6.39047753       0.73790879      15.00000000        3       0.00065083      -0.00048295      -0.00874144
Cu       2.55619101       2.95163514      15.00000000        3       0.00008114       0.00003457      -0.01180276
Cu       5.11238203       2.95163514      15.00000000        3      -0.00002211      -0.00012928      -0.01148505
Cu       7.66857304       2.95163514      15.00000000        3      -0.00006103       0.00000479      -0.01094247
Cu       3.83428652       5.16536150      15.00000000        3      -0.00009594       0.00090484      -0.00906026
Cu       6.39047753       5.16536150      15.00000000        3       0.00001005       0.00000347      -0.01107989
Cu       8.94666855       5.16536150      15.00000000        3       0.00007530       0.00011274      -0.01072331
Cu      -0.00000000       1.47581757      17.08712122        2      -0.00102162      -0.01995951       0.04143918
Cu       2.55619101       1.47581757      17.08712122        2       0.00096380      -0.00142170       0.01472702
Cu       5.11238203       1.47581757      17.08712122        2       0.00062766      -0.00133924       0.01618839
Cu       1.27809551       3.68954393      17.08712122        2       0.00067528       0.00201261       0.01750724
Cu       3.83428652       3.68954393      17.08712122        2       0.00042908       0.00120303       0.01954865
Cu       6.39047753       3.68954393      17.08712122        2      -0.00154236       0.00096679       0.01909773
Cu       2.55619101       5.90327028      17.08712122        2       0.01686024       0.00977752       0.04420329
Cu       5.11238203       5.90327028      17.08712122        2      -0.01805047       0.00918401       0.04274985
Cu       7.66857304       5.90327028      17.08712122        2      -0.00030559      -0.00018818       0.01764026
Cu      -0.00048821       0.00043868      19.20252220        1      -0.00051881       0.00069058      -0.03999976
Cu       2.55521405      -0.00031290      19.17785613        1      -0.00008065       0.00027710      -0.00519196
Cu       5.11183946      -0.00060669      19.17910517        1       0.00131697       0.00071129      -0.00731442
Cu       1.27868258       2.21384774      19.17683020        1      -0.00191261      -0.00119643      -0.00358790
Cu       3.83454153       2.21333967      19.17836380        1      -0.00062491       0.00081297      -0.00807777
Cu       6.39003062       2.21378924      19.17834690        1       0.00086966      -0.00107567      -0.00616555
Cu       2.55658667       4.42806791      19.17964632        1      -0.00031479       0.00010401      -0.00809736
Cu       5.11152893       4.42849394      19.17939914        1       0.00034207      -0.00079646      -0.00759972
Cu       7.66852789       4.42681241      19.17855266        1      -0.00072394       0.00090141      -0.00838024
O        0.00549557      -0.01302595      23.15252515        0      -0.01486382      -0.00887609      -0.04397859
H       -0.82765659      -0.43773650      23.41928616        0       0.00467327      -0.01492427       0.00147849
H       -0.26360232       0.61270845      22.45716808        0       0.01320381       0.02313820      -0.00133355
