30
Lattice="7.668573041968109 0.0 0.0 3.8342865209840546 6.641179065120891 0.0 0.0 0.0 34.174242446240996" Properties=species:S:1:pos:R:3:tags:I:1:forces:R:3 energy=-116.19751739501953 free_energy=-116.19751739501953 stress="0.00030299375066533685 3.6804024716730055e-07 5.669928668794455e-07 3.6804024716730055e-07 0.0003023682511411607 -3.1884761142464413e-07 5.669928668794455e-07 -3.1884761142464413e-07 7.142669801396551e-06" pbc="T T F"
Cu       1.27809551       0.73790879      15.00000000        3       0.00085328      -0.00036764      -0.00914899
Cu       3.83428652       0.73790879      15.00000000        3      -0.00072699      -0.00033533      -0.00869711
Cu       6.39047753       0.73790879      15.00000000        3      -0.00013779       0.00008868      -0.01149003
Cu       2.55619101       2.95163514      15.00000000        3       0.00005944      -0.00012013      -0.01076229
Cu       5.11238203       2.95163514      15.00000000        3      -0.00003900      -0.00015074      -0.01158691
Cu       7.66857304       2.95163514      15.00000000        3      -0.00002528      -0.00005504      -0.01178865
Cu       3.83428652       5.16536150      15.00000000        3      -0.00000521      -0.00003106      -0.01112667
Cu       6.39047753       5.16536150      15.00000000        3       0.00000807       0.00091782      -0.00934459
Cu       8.94666855       5.16536150      15.00000000        3       0.00001364       0.00005562      -0.01088185
Cu      -0.00000000       1.47581757      17.08712122        2       0.00086334      -0.00043808       0.01967163
Cu       2.55619101       1.47581757      17.08712122        2       0.00012312      -0.01955233       0.04435282
Cu       5.11238203       1.47581757      17.08712122        2      -0.00138108       0.00016044       0.01701788
Cu       1.27809551       3.68954393      17.08712122        2       0.00132246      -0.00196359       0.01733973
Cu       3.83428652       3.68954393      17.08712122        2      -0.00028157      -0.00017768       0.01727528
Cu       6.39047753       3.68954393      17.08712122        2      -0.00144880      -0.00030601       0.01443207
Cu       2.55619101       5.90327028      17.08712122        2       0.00119978       0.00099231       0.01917578
Cu       5.11238203       5.90327028      17.08712122        2       0.01717085       0.01097978       0.04231425
Cu       7.66857304       5.90327028      17.08712122        2      -0.01644762       0.01106917       0.04190589
Cu       0.00138343       0.00024198      19.17909261        1      -0.00086309       0.00004745      -0.00709077
Cu       2.55684314       0.00003748      19.20254345        1       0.00085993      -0.00012226      -0.04006588
Cu       5.11272490       0.00050421      19.17879557        1      -0.00129300      -0.00048146      -0.00690236
Cu       1.27862701       2.21292902      19.17966671        1       0.00006222       0.00042293      -0.00813273
Cu       3.83402065       2.21425852      19.17925854        1       0.00000570      -0.00126812      -0.00751818
Cu       6.39013165       2.21385108      19.17856544        1       0.00101846      -0.00020859      -0.00839817
Cu       2.55566531       4.42789934      19.17839560        1       0.00110963      -0.00010375      -0.00814246
Cu       5.11238141       4.42816912      19.17756372        1       0.00072932       0.00028594      -0.00476532
Cu       7.66850739       4.42686034      19.17685070        1      -0.00019123       0.00224944      -0.00364279
O        2.54310831       0.00530806      23.15245084        0       0.00429238       0.01669541      -0.04410836
H        2.83184092       0.89476160      23.41925600        0      -0.01395250       0.00738849       0.00154904
H        3.17591040      -0.24677988      22.45712169        0       0.00710150      -0.02567176      -0.00144042
