30
Lattice="7.668573041968109 0.0 0.0 3.8342865209840546 6.641179065120891 0.0 0.0 0.0 34.174242446240996" Properties=species:S:1:pos:R:3:tags:I:1:forces:R:3 energy=-116.19751739501953 free_energy=-116.19751739501953 stress="0.00030299389618448913 3.682503404434101e-07 5.675213401445944e-07 3.682503404434101e-07 0.00030236862949095666 -3.191491373399913e-07 5.675213401445944e-07 -3.191491373399913e-07 7.143464245018549e-06" pbc="T T F"
Cu       1.27809551       0.73790879      15.00000000        3      -0.00072782      -0.00033549      -0.00869663
Cu       3.83428652       0.73790879      15.00000000        3      -0.00013614       0.00008883      -0.01148967
Cu       6.39047753       0.73790879      15.00000000        3       0.00085254      -0.00036776      -0.00914888
Cu       2.55619101       2.95163514      15.00000000        3      -0.00003922      -0.00015130      -0.01158702
Cu       5.11238203       2.95163514      15.00000000        3      -0.00002578      -0.00005513      -0.01178844
Cu       7.66857304       2.95163514      15.00000000        3       0.00006006      -0.00011985      -0.01076246
Cu       3.83428652       5.16536150      15.00000000        3       0.00000989       0.00091808      -0.00934422
Cu       6.39047753       5.16536150      15.00000000        3       0.00001327       0.00005535      -0.01088172
Cu       8.94666855       5.16536150      15.00000000        3      -0.00000654      -0.00003069      -0.01112672
Cu      -0.00000000       1.47581757      17.08712122        2       0.00012359      -0.01955581       0.04435719
Cu       2.55619101       1.47581757      17.08712122        2      -0.00138099       0.00015880       0.01702062
Cu       5.11238203       1.47581757      17.08712122        2       0.00086278      -0.00043788       0.01967141
Cu       1.27809551       3.68954393      17.08712122        2      -0.00028197      -0.00017722       0.01727575
Cu       3.83428652       3.68954393      17.08712122        2      -0.00144717      -0.00030634       0.01443220
Cu       6.39047753       3.68954393      17.08712122        2       0.00132100      -0.00196344       0.01734083
Cu       2.55619101       5.90327028      17.08712122        2       0.01717320       0.01098179       0.04231871
Cu       5.11238203       5.90327028      17.08712122        2      -0.01644840       0.01107110       0.04191206
Cu       7.66857304       5.90327028      17.08712122        2       0.00119881       0.00099341       0.01917836
Cu       0.00065218       0.00003733      19.20254717        1       0.00086017      -0.00012103      -0.04007914
Cu       2.55653419       0.00050433      19.17879639        1      -0.00129597      -0.00048295      -0.00691056
Cu       5.11376533       0.00024204      19.17909293        1      -0.00086094       0.00004598      -0.00709081
Cu       1.27782966       2.21425850      19.17925911        1       0.00000615      -0.00126952      -0.00751799
Cu       3.83394064       2.21385097      19.17856532        1       0.00101713      -0.00020889      -0.00839860
Cu       6.39100896       2.21292905      19.17966739        1       0.00006289       0.00042229      -0.00813225
Cu       2.55619054       4.42816940      19.17756426        1       0.00072901       0.00028681      -0.00476529
Cu       5.11231647       4.42686022      19.17685055        1      -0.00018945       0.00225077      -0.00364315
Cu       7.66804720       4.42789935      19.17839663        1       0.00110820      -0.00010214      -0.00814247
O       -0.01308464       0.00530921      23.15244586        0       0.00425994       0.01669629      -0.04408032
H        0.27564951       0.89476147      23.41925390        0      -0.01395005       0.00740104       0.00155336
H        0.61972133      -0.24678117      22.45712235        0       0.00713178      -0.02568528      -0.00147418
