 DBCSR| Multiplication driver                                               XSMM
 DBCSR| Multrec recursion limit                                              512
 DBCSR| Multiplication stack size                                           1000
 DBCSR| Maximum elements for images                                    UNLIMITED
 DBCSR| Multiplicative factor virtual images                                   1
 DBCSR| Multiplication size stacks                                             3
 DBCSR| Number of 3D layers                                               SINGLE
 DBCSR| Use MPI memory allocation                                              T
 DBCSR| Use RMA algorithm                                                      F
 DBCSR| Use Communication thread                                               T
 DBCSR| Communication thread load                                             87


  **** **** ******  **  PROGRAM STARTED AT               2020-10-07 12:23:10.430
 ***** ** ***  *** **   PROGRAM STARTED ON                             irene6290
 **    ****   ******    PROGRAM STARTED BY                              marticar
 ***** **    ** ** **   PROGRAM PROCESS ID                                 86154
  **** **  *******  **  PROGRAM STARTED IN /ccc/scratch/cont003/gen0609/marticar
                                           /684124

 CP2K| version string:                                          CP2K version 6.1
 CP2K| source code revision number:                                    svn:18464
 CP2K| cp2kflags: libint fftw3 parallel mpi3 scalapack xsmm mkl                 
 CP2K| is freely available from                            https://www.cp2k.org/
 CP2K| Program compiled at                          Thu Dec 12 15:40:57 CET 2019
 CP2K| Program compiled on                                             cobalt175
 CP2K| Program compiled for                                   Linux-x86-64-iomkl
 CP2K| Data directory path          /tmp/cp2k/6.1/iomkl-195281.401/cp2k-6.1/data
 CP2K| Input file name                                             screening.inp
 
 GLOBAL| Force Environment number                                              1
 GLOBAL| Basis set file name            /ccc/work/cont003/gen0609/marticar/data/
 GLOBAL| Potential file name            /ccc/work/cont003/gen0609/marticar/data/
 GLOBAL| MM Potential file name                                     MM_POTENTIAL
 GLOBAL| Coordinate file name                                          coord.xyz
 GLOBAL| Method name                                                        CP2K
 GLOBAL| Project name                                                    PROJECT
 GLOBAL| Preferred FFT library                                             FFTW3
 GLOBAL| Preferred diagonalization lib.                                       SL
 GLOBAL| Run type                                                        GEO_OPT
 GLOBAL| All-to-all communication in single precision                          F
 GLOBAL| FFTs using library dependent lengths                                  F
 GLOBAL| Global print level                                                  LOW
 GLOBAL| Total number of message passing processes                            16
 GLOBAL| Number of threads for this process                                    1
 GLOBAL| This output is from process                                           0
 GLOBAL| CPU model name :  AMD EPYC 7H12 64-Core Processor

 MEMORY| system memory details [Kb]
 MEMORY|                        rank 0           min           max       average
 MEMORY| MemTotal            263246932     263246932     263246932     263246932
 MEMORY| MemFree             241545480     241545480     241545480     241545480
 MEMORY| Buffers                     0             0             0             0
 MEMORY| Cached                2037960       2037960       2037960       2037960
 MEMORY| Slab                  2161428       2161428       2161428       2161428
 MEMORY| SReclaimable           329760        329760        329760        329760
 MEMORY| MemLikelyFree       243913200     243913200     243913200     243913200

 
 GENERATE|  Preliminary Number of Bonds generated:                             0
 GENERATE|  Achieved consistency in connectivity generation.

 *******************************************************************************
 *******************************************************************************
 **                                                                           **
 **     #####                         ##              ##                      **
 **    ##   ##            ##          ##              ##                      **
 **   ##     ##                       ##            ######                    **
 **   ##     ##  ##   ##  ##   #####  ##  ##   ####   ##    #####    #####    **
 **   ##     ##  ##   ##  ##  ##      ## ##   ##      ##   ##   ##  ##   ##   **
 **   ##  ## ##  ##   ##  ##  ##      ####     ###    ##   ######   ######    **
 **    ##  ###   ##   ##  ##  ##      ## ##      ##   ##   ##       ##        **
 **     #######   #####   ##   #####  ##  ##  ####    ##    #####   ##        **
 **           ##                                                    ##        **
 **                                                                           **
 **                                                ... make the atoms dance   **
 **                                                                           **
 **            Copyright (C) by CP2K developers group (2000 - 2018)           **
 **                                                                           **
 *******************************************************************************


 TOTAL NUMBERS AND MAXIMUM NUMBERS

  Total number of            - Atomic kinds:                                   7
                             - Atoms:                                        168
                             - Shell sets:                                   168
                             - Shells:                                       960
                             - Primitive Cartesian functions:               1122
                             - Cartesian basis functions:                   3081
                             - Spherical basis functions:                   2718

  Maximum angular momentum of- Orbital basis functions:                        3
                             - Local part of the GTH pseudopotential:          2
                             - Non-local part of the GTH pseudopotential:      3


 SCF PARAMETERS         Density guess:                                   RESTART
                        --------------------------------------------------------
                        max_scf:                                             500
                        max_scf_history:                                       0
                        max_diis:                                              4
                        --------------------------------------------------------
                        eps_scf:                                        1.00E-05
                        eps_scf_history:                                0.00E+00
                        eps_diis:                                       1.00E-01
                        eps_eigval:                                     1.00E-05
                        --------------------------------------------------------
                        level_shift [a.u.]:                                 0.00
                        --------------------------------------------------------
                        Outer loop SCF in use 
                        No variables optimised in outer loop
                        eps_scf                                         1.00E-05
                        max_scf                                               10
                        No outer loop optimization
                        step_size                                       5.00E-01

 BFGS| Use rational function optimization for step estimation:                NO
 BFGS| Use model Hessian for initial guess:                                  YES
 BFGS| Restart Hessian:                                                       NO
 BFGS| Trust radius:                                                       0.472

 *******************************************************************************
 ***                     STARTING GEOMETRY OPTIMIZATION                      ***
 ***                                   BFGS                                  ***
 *******************************************************************************

 Spin 1

 Number of electrons:                                                        719
 Number of occupied orbitals:                                                719
 Number of molecular orbitals:                                               719

 Spin 2

 Number of electrons:                                                        719
 Number of occupied orbitals:                                                719
 Number of molecular orbitals:                                               719

 Number of orbital functions:                                               2718
 Number of independent orbital functions:                                   2718

 Extrapolation method: initial_guess

 *** WARNING in qs_initial_guess.F:263 :: User requested to restart the    ***
 *** wavefunction from the file named: PROJECT-RESTART.wfn. This file does ***
 *** not exist. Please check the existence of the file or change properly  ***
 *** the value of the keyword WFN_RESTART_FILE_NAME. Calculation continues ***
 *** using ATOMIC GUESS.                                                   ***



 SCF WAVEFUNCTION OPTIMIZATION

  ----------------------------------- OT ---------------------------------------
  Minimizer      : CG                  : conjugate gradient
  Preconditioner : FULL_ALL            : diagonalization, state selective
  Precond_solver : DEFAULT
  Line search    : 3PNT                : 3 energies
  stepsize       :    0.15000000                  energy_gap     :    0.08000000
  eps_taylor     :   0.10000E-15                  max_taylor     :             4
  ----------------------------------- OT ---------------------------------------

  Step     Update method      Time    Convergence         Total energy    Change
  ------------------------------------------------------------------------------
     1 OT CG       0.12E+00   12.8     0.01722139     -8057.7410520796 -8.06E+03
     2 OT LS       0.17E+00    7.9                    -8118.6470705409
     3 OT LS       0.13E+00    7.9                    -8112.9729509795
     4 OT CG       0.10E+00   15.1     0.00611788     -8118.2763896756 -6.05E+01
     5 OT LS       0.14E+00    7.9                    -8127.2950825901
     6 OT LS       0.15E+00    7.9                    -8128.1915837862
     7 OT CG       0.12E+00   15.1     0.00481236     -8128.1983769909 -9.92E+00
     8 OT LS       0.16E+00    7.9                    -8135.6542513313
     9 OT LS       0.20E+00    7.8                    -8136.8434080692
    10 OT CG       0.16E+00   15.1     0.00265698     -8137.0861490984 -8.89E+00
    11 OT LS       0.22E+00    7.8                    -8139.8133864453
    12 OT LS       0.21E+00    7.8                    -8139.9886190845
    13 OT CG       0.17E+00   15.0     0.00237038     -8139.9957614607 -2.91E+00
    14 OT LS       0.23E+00    7.8                    -8140.9313779743
    15 OT LS       0.11E+00    7.8                    -8139.7992090590
    16 OT CG       0.90E-01   15.0     0.00172722     -8141.2212888025 -1.23E+00
    17 OT LS       0.13E+00    7.8                    -8141.9624718610
    18 OT LS       0.15E+00    7.8                    -8142.0874588449
    19 OT CG       0.12E+00   15.0     0.00139893     -8142.1164395454 -8.95E-01
    20 OT LS       0.17E+00    7.8                    -8142.5432756315
    21 OT LS       0.11E+00    7.8                    -8142.4231942744
    22 OT CG       0.90E-01   15.1     0.00111177     -8142.5472354961 -4.31E-01
    23 OT LS       0.13E+00    7.8                    -8142.8469550935
    24 OT LS       0.14E+00    7.8                    -8142.8904474603
    25 OT CG       0.11E+00   15.0     0.00096546     -8142.8955605258 -3.48E-01
    26 OT LS       0.16E+00    7.8                    -8143.1134342352
    27 OT LS       0.12E+00    7.8                    -8143.0881519537
    28 OT CG       0.96E-01   15.0     0.00083652     -8143.1138268865 -2.18E-01
    29 OT LS       0.13E+00    7.9                    -8143.2924112883
    30 OT LS       0.15E+00    7.9                    -8143.3167901337
    31 OT CG       0.12E+00   15.0     0.00076555     -8143.3189325023 -2.05E-01
    32 OT LS       0.17E+00    7.9                    -8143.4651015977
    33 OT LS       0.13E+00    7.9                    -8143.4514553197
    34 OT CG       0.10E+00   15.0     0.00064510     -8143.4657243728 -1.47E-01
    35 OT LS       0.14E+00    7.9                    -8143.5782921215
    36 OT LS       0.16E+00    7.9                    -8143.5927263964
    37 OT CG       0.12E+00   15.0     0.00059396     -8143.5935801803 -1.28E-01
    38 OT LS       0.17E+00    7.9                    -8143.6866304957
    39 OT LS       0.14E+00    7.9                    -8143.6790657124
    40 OT CG       0.11E+00   15.0     0.00051849     -8143.6871958475 -9.36E-02
    41 OT LS       0.15E+00    7.9                    -8143.7595768473
    42 OT LS       0.15E+00    7.9                    -8143.7651500831
    43 OT CG       0.12E+00   15.0     0.00048279     -8143.7651997689 -7.80E-02
    44 OT LS       0.17E+00    7.8                    -8143.8235189733
    45 OT LS       0.13E+00    7.8                    -8143.8190751832
    46 OT CG       0.10E+00   14.9     0.00041976     -8143.8239091746 -5.87E-02
    47 OT LS       0.14E+00    7.9                    -8143.8690304790
    48 OT LS       0.14E+00    7.9                    -8143.8725539969
    49 OT CG       0.11E+00   15.0     0.00038578     -8143.8725792053 -4.87E-02
    50 OT LS       0.16E+00    7.9                    -8143.9116305472
    51 OT LS       0.14E+00    7.9                    -8143.9122870599
    52 OT CG       0.11E+00   15.0     0.00034402     -8143.9130602630 -4.05E-02
    53 OT LS       0.16E+00    7.9                    -8143.9449802891
    54 OT LS       0.15E+00    7.9                    -8143.9467982560
    55 OT CG       0.12E+00   15.1     0.00031308     -8143.9469383250 -3.39E-02
    56 OT LS       0.16E+00    7.9                    -8143.9733952203
    57 OT LS       0.14E+00    7.8                    -8143.9736889589
    58 OT CG       0.11E+00   15.2     0.00028544     -8143.9742862864 -2.73E-02
    59 OT LS       0.16E+00    7.9                    -8143.9961867571
    60 OT LS       0.14E+00    7.8                    -8143.9968396066
    61 OT CG       0.11E+00   15.1     0.00025885     -8143.9971394988 -2.29E-02
    62 OT LS       0.16E+00    7.9                    -8144.0149050195
    63 OT LS       0.14E+00    7.8                    -8144.0151127448
    64 OT CG       0.11E+00   15.2     0.00023525     -8144.0155087989 -1.84E-02
    65 OT LS       0.16E+00    7.9                    -8144.0305174661
    66 OT LS       0.15E+00    7.8                    -8144.0313301339
    67 OT CG       0.12E+00   15.2     0.00021960     -8144.0314069876 -1.59E-02
    68 OT LS       0.16E+00    7.9                    -8144.0443061133
    69 OT LS       0.14E+00    7.8                    -8144.0442828478
    70 OT CG       0.11E+00   15.1     0.00019770     -8144.0446659883 -1.33E-02
    71 OT LS       0.16E+00    7.9                    -8144.0552078542
    72 OT LS       0.15E+00    7.8                    -8144.0557042637
    73 OT CG       0.12E+00   15.1     0.00018313     -8144.0557801428 -1.11E-02
    74 OT LS       0.16E+00    7.9                    -8144.0648569455
    75 OT LS       0.14E+00    7.8                    -8144.0650262489
    76 OT CG       0.11E+00   15.2     0.00016830     -8144.0651965735 -9.42E-03
    77 OT LS       0.16E+00    7.9                    -8144.0727240782
    78 OT LS       0.14E+00    7.8                    -8144.0728220880
    79 OT CG       0.11E+00   15.2     0.00015439     -8144.0729845548 -7.79E-03
    80 OT LS       0.16E+00    7.9                    -8144.0793651131
    81 OT LS       0.14E+00    7.8                    -8144.0796198830
    82 OT CG       0.11E+00   15.1     0.00014217     -8144.0796816540 -6.70E-03
    83 OT LS       0.16E+00    7.9                    -8144.0852412074
    84 OT LS       0.15E+00    7.8                    -8144.0854926890
    85 OT CG       0.12E+00   15.1     0.00013101     -8144.0855360631 -5.85E-03
    86 OT LS       0.17E+00    7.9                    -8144.0902792906
    87 OT LS       0.15E+00    7.8                    -8144.0903792259
    88 OT CG       0.12E+00   15.2     0.00012080     -8144.0904626152 -4.93E-03
    89 OT LS       0.16E+00    7.9                    -8144.0944624161
    90 OT LS       0.15E+00    7.8                    -8144.0945490756
    91 OT CG       0.12E+00   15.2     0.00011277     -8144.0946182784 -4.16E-03
    92 OT LS       0.16E+00    7.9                    -8144.0980376541
    93 OT LS       0.14E+00    7.9                    -8144.0980745114
    94 OT CG       0.11E+00   15.1     0.00010426     -8144.0981521613 -3.53E-03
    95 OT LS       0.16E+00    7.9                    -8144.1010846731
    96 OT LS       0.14E+00    7.9                    -8144.1011938813
    97 OT CG       0.12E+00   15.1     0.00009647     -8144.1012251572 -3.07E-03
    98 OT LS       0.16E+00    7.9                    -8144.1037657250
    99 OT LS       0.15E+00    7.9                    -8144.1038475632
   100 OT CG       0.12E+00   15.1     0.00008915     -8144.1038797133 -2.65E-03
   101 OT LS       0.16E+00    7.9                    -8144.1060822108
   102 OT LS       0.15E+00    7.9                    -8144.1061657702
   103 OT CG       0.12E+00   15.0     0.00008331     -8144.1061886446 -2.31E-03
   104 OT LS       0.17E+00    7.9                    -8144.1081024583
   105 OT LS       0.15E+00    7.9                    -8144.1081329031
   106 OT CG       0.12E+00   15.0     0.00007746     -8144.1081713309 -1.98E-03
   107 OT LS       0.16E+00    7.8                    -8144.1097967445
   108 OT LS       0.14E+00    8.0                    -8144.1098210751
   109 OT CG       0.11E+00   15.1     0.00007259     -8144.1098544832 -1.68E-03
   110 OT LS       0.16E+00    7.8                    -8144.1113008146
   111 OT LS       0.15E+00    8.0                    -8144.1113649625
   112 OT CG       0.12E+00   15.1     0.00006841     -8144.1113766634 -1.52E-03
   113 OT LS       0.17E+00    7.8                    -8144.1126837530
   114 OT LS       0.15E+00    8.0                    -8144.1127272879
   115 OT CG       0.12E+00   15.1     0.00006471     -8144.1127432494 -1.37E-03
   116 OT LS       0.17E+00    7.8                    -8144.1139249506
   117 OT LS       0.15E+00    7.9                    -8144.1139639537
   118 OT CG       0.12E+00   15.1     0.00006184     -8144.1139785294 -1.24E-03
   119 OT LS       0.17E+00    7.8                    -8144.1150700078
   120 OT LS       0.15E+00    7.9                    -8144.1151069991
   121 OT CG       0.12E+00   15.0     0.00005949     -8144.1151200783 -1.14E-03
   122 OT LS       0.17E+00    7.7                    -8144.1161261148
   123 OT LS       0.15E+00    7.8                    -8144.1161451700
   124 OT CG       0.12E+00   14.9     0.00005758     -8144.1161638984 -1.04E-03
   125 OT LS       0.17E+00    7.7                    -8144.1170902915
   126 OT LS       0.15E+00    7.8                    -8144.1171034530
   127 OT CG       0.12E+00   15.0     0.00005572     -8144.1171228673 -9.59E-04
   128 OT LS       0.17E+00    7.7                    -8144.1179859076
   129 OT LS       0.15E+00    7.8                    -8144.1180100158
   130 OT CG       0.12E+00   15.0     0.00005332     -8144.1180225165 -9.00E-04
   131 OT LS       0.17E+00    7.8                    -8144.1188362792
   132 OT LS       0.15E+00    7.8                    -8144.1188792922
   133 OT CG       0.12E+00   15.0     0.00005153     -8144.1188837197 -8.61E-04
   134 OT LS       0.17E+00    7.8                    -8144.1196660335
   135 OT LS       0.16E+00    7.8                    -8144.1196962979
   136 OT CG       0.13E+00   14.9     0.00005012     -8144.1197042303 -8.21E-04
   137 OT LS       0.18E+00    7.8                    -8144.1204440525
   138 OT LS       0.16E+00    7.8                    -8144.1204586088
   139 OT CG       0.13E+00   14.9     0.00004922     -8144.1204721399 -7.68E-04
   140 OT LS       0.18E+00    7.8                    -8144.1211709906
   141 OT LS       0.15E+00    7.8                    -8144.1211782775
   142 OT CG       0.12E+00   14.9     0.00004873     -8144.1211943053 -7.22E-04
   143 OT LS       0.17E+00    7.8                    -8144.1218583684
   144 OT LS       0.15E+00    7.8                    -8144.1218617086
   145 OT CG       0.12E+00   14.9     0.00004737     -8144.1218788616 -6.85E-04
   146 OT LS       0.17E+00    7.8                    -8144.1225054409
   147 OT LS       0.15E+00    7.8                    -8144.1225275608
   148 OT CG       0.12E+00   14.8     0.00004581     -8144.1225347354 -6.56E-04
   149 OT LS       0.17E+00    7.8                    -8144.1231384259
   150 OT LS       0.16E+00    7.8                    -8144.1231684221
   151 OT CG       0.12E+00   14.9     0.00004444     -8144.1231722865 -6.38E-04
   152 OT LS       0.17E+00    7.8                    -8144.1237522499
   153 OT LS       0.16E+00    7.8                    -8144.1237714470
   154 OT CG       0.13E+00   14.8     0.00004302     -8144.1237786087 -6.06E-04
   155 OT LS       0.18E+00    7.8                    -8144.1243212717
   156 OT LS       0.16E+00    7.8                    -8144.1243331320
   157 OT CG       0.12E+00   14.9     0.00004197     -8144.1243425038 -5.64E-04
   158 OT LS       0.17E+00    7.8                    -8144.1248494968
   159 OT LS       0.15E+00    7.8                    -8144.1248553525
   160 OT CG       0.12E+00   14.9     0.00004098     -8144.1248666828 -5.24E-04
   161 OT LS       0.17E+00    7.8                    -8144.1253336317
   162 OT LS       0.15E+00    7.8                    -8144.1253341197
   163 OT CG       0.12E+00   14.9     0.00003933     -8144.1253472150 -4.81E-04
   164 OT LS       0.16E+00    7.8                    -8144.1257742266
   165 OT LS       0.15E+00    7.8                    -8144.1257877390
   166 OT CG       0.12E+00   14.8     0.00003751     -8144.1257932553 -4.46E-04
   167 OT LS       0.17E+00    7.8                    -8144.1261915651
   168 OT LS       0.15E+00    7.8                    -8144.1262105768
   169 OT CG       0.12E+00   14.8     0.00003586     -8144.1262133629 -4.20E-04
   170 OT LS       0.17E+00    7.8                    -8144.1265814144
   171 OT LS       0.15E+00    7.8                    -8144.1265907072
   172 OT CG       0.12E+00   14.8     0.00003427     -8144.1265964761 -3.83E-04
   173 OT LS       0.17E+00    7.8                    -8144.1269318983
   174 OT LS       0.15E+00    7.8                    -8144.1269405139
   175 OT CG       0.12E+00   14.8     0.00003314     -8144.1269457008 -3.49E-04
   176 OT LS       0.17E+00    7.8                    -8144.1272559294
   177 OT LS       0.15E+00    7.8                    -8144.1272610768
   178 OT CG       0.12E+00   14.8     0.00003180     -8144.1272672011 -3.22E-04
   179 OT LS       0.17E+00    7.7                    -8144.1275497238
   180 OT LS       0.15E+00    7.8                    -8144.1275557177
   181 OT CG       0.12E+00   14.8     0.00003046     -8144.1275606644 -2.93E-04
   182 OT LS       0.17E+00    7.7                    -8144.1278217347
   183 OT LS       0.15E+00    7.8                    -8144.1278310820
   184 OT CG       0.12E+00   14.8     0.00002920     -8144.1278340089 -2.73E-04
   185 OT LS       0.17E+00    7.7                    -8144.1280764137
   186 OT LS       0.15E+00    7.8                    -8144.1280841053
   187 OT CG       0.12E+00   14.9     0.00002795     -8144.1280872202 -2.53E-04
   188 OT LS       0.17E+00    7.7                    -8144.1283096355
   189 OT LS       0.15E+00    7.8                    -8144.1283152340
   190 OT CG       0.12E+00   14.9     0.00002703     -8144.1283187217 -2.32E-04
   191 OT LS       0.17E+00    7.7                    -8144.1285247296
   192 OT LS       0.15E+00    7.8                    -8144.1285285639
   193 OT CG       0.12E+00   14.9     0.00002591     -8144.1285324252 -2.14E-04
   194 OT LS       0.17E+00    7.7                    -8144.1287199499
   195 OT LS       0.15E+00    7.8                    -8144.1287239955
   196 OT CG       0.12E+00   14.9     0.00002473     -8144.1287272455 -1.95E-04
   197 OT LS       0.17E+00    7.7                    -8144.1288999042
   198 OT LS       0.15E+00    7.8                    -8144.1289067023
   199 OT CG       0.12E+00   14.9     0.00002360     -8144.1289084013 -1.81E-04
   200 OT LS       0.17E+00    7.8                    -8144.1290670761
   201 OT LS       0.15E+00    7.8                    -8144.1290715718
   202 OT CG       0.12E+00   14.8     0.00002250     -8144.1290738365 -1.65E-04
   203 OT LS       0.17E+00    7.7                    -8144.1292172635
   204 OT LS       0.15E+00    7.8                    -8144.1292202328
   205 OT CG       0.12E+00   14.8     0.00002162     -8144.1292227753 -1.49E-04
   206 OT LS       0.17E+00    7.7                    -8144.1293530255
   207 OT LS       0.15E+00    7.8                    -8144.1293548313
   208 OT CG       0.12E+00   14.8     0.00002057     -8144.1293575771 -1.35E-04
   209 OT LS       0.17E+00    7.7                    -8144.1294746164
   210 OT LS       0.15E+00    7.8                    -8144.1294776380
   211 OT CG       0.12E+00   14.9     0.00001948     -8144.1294794376 -1.22E-04
   212 OT LS       0.17E+00    7.7                    -8144.1295856363
   213 OT LS       0.15E+00    7.8                    -8144.1295897092
   214 OT CG       0.12E+00   14.8     0.00001855     -8144.1295907940 -1.11E-04
   215 OT LS       0.17E+00    7.8                    -8144.1296882386
   216 OT LS       0.15E+00    7.9                    -8144.1296912326
   217 OT CG       0.12E+00   15.0     0.00001762     -8144.1296925238 -1.02E-04
   218 OT LS       0.17E+00    7.8                    -8144.1297812307
   219 OT LS       0.15E+00    7.9                    -8144.1297841914
   220 OT CG       0.12E+00   15.0     0.00001697     -8144.1297852698 -9.27E-05
   221 OT LS       0.17E+00    7.8                    -8144.1298675485
   222 OT LS       0.15E+00    8.0                    -8144.1298694744
   223 OT CG       0.12E+00   15.0     0.00001652     -8144.1298708294 -8.56E-05
   224 OT LS       0.17E+00    7.8                    -8144.1299466475
   225 OT LS       0.15E+00    7.9                    -8144.1299467804
   226 OT CG       0.12E+00   15.0     0.00001587     -8144.1299488715 -7.80E-05
   227 OT LS       0.16E+00    7.8                    -8144.1300192963
   228 OT LS       0.15E+00    8.0                    -8144.1300223485
   229 OT CG       0.12E+00   15.0     0.00001528     -8144.1300229414 -7.41E-05
   230 OT LS       0.17E+00    7.8                    -8144.1300903900
   231 OT LS       0.16E+00    7.9                    -8144.1300935773
   232 OT CG       0.12E+00   15.0     0.00001477     -8144.1300940571 -7.11E-05
   233 OT LS       0.17E+00    7.8                    -8144.1301579409
   234 OT LS       0.16E+00    7.9                    -8144.1301597597
   235 OT CG       0.12E+00   15.1     0.00001438     -8144.1301606682 -6.66E-05
   236 OT LS       0.17E+00    7.8                    -8144.1302206758
   237 OT LS       0.15E+00    7.9                    -8144.1302217448
   238 OT CG       0.12E+00   15.0     0.00001409     -8144.1302228927 -6.22E-05
   239 OT LS       0.17E+00    7.9                    -8144.1302793926
   240 OT LS       0.15E+00    7.9                    -8144.1302801023
   241 OT CG       0.12E+00   14.9     0.00001369     -8144.1302813318 -5.84E-05
   242 OT LS       0.17E+00    7.8                    -8144.1303337492
   243 OT LS       0.15E+00    7.7                    -8144.1303346193
   244 OT CG       0.12E+00   14.9     0.00001318     -8144.1303356534 -5.43E-05
   245 OT LS       0.17E+00    7.8                    -8144.1303845234
   246 OT LS       0.15E+00    7.8                    -8144.1303863454
   247 OT CG       0.12E+00   14.9     0.00001264     -8144.1303868650 -5.12E-05
   248 OT LS       0.17E+00    7.8                    -8144.1304325263
   249 OT LS       0.15E+00    7.7                    -8144.1304341131
   250 OT CG       0.12E+00   14.9     0.00001210     -8144.1304346436 -4.78E-05
   251 OT LS       0.17E+00    7.8                    -8144.1304770186
   252 OT LS       0.15E+00    7.7                    -8144.1304785000
   253 OT CG       0.12E+00   14.9     0.00001164     -8144.1304789887 -4.43E-05
   254 OT LS       0.17E+00    7.8                    -8144.1305177018
   255 OT LS       0.15E+00    7.7                    -8144.1305181047
   256 OT CG       0.12E+00   14.9     0.00001124     -8144.1305189903 -4.00E-05
   257 OT LS       0.17E+00    7.8                    -8144.1305543192
   258 OT LS       0.15E+00    7.8                    -8144.1305548210
   259 OT CG       0.12E+00   14.9     0.00001086     -8144.1305555601 -3.66E-05
   260 OT LS       0.17E+00    7.8                    -8144.1305882575
   261 OT LS       0.15E+00    7.9                    -8144.1305890686
   262 OT CG       0.12E+00   15.0     0.00001034     -8144.1305895864 -3.40E-05
   263 OT LS       0.17E+00    7.8                    -8144.1306198029
   264 OT LS       0.15E+00    7.8                    -8144.1306211468
   265 OT CG       0.12E+00   14.9     0.00000996     -8144.1306213894 -3.18E-05

  *** SCF run converged in   265 steps ***


  Electronic density on regular grids:      -1437.9999923178        0.0000076822
  Core density on regular grids:             1437.9999996448       -0.0000003552
  Total charge density on r-space grids:        0.0000073270
  Total charge density g-space grids:           0.0000073270

  Overlap energy of the core charge distribution:               0.00000638850639
  Self energy of the core charge distribution:             -14650.93922905635191
  Core Hamiltonian energy:                                   4109.26899724984014
  Hartree energy:                                            3439.53908342470640
  Exchange-correlation energy:                              -1042.84222010269082
  Dispersion energy:                                           -0.58848528292599

  DFT+U energy:                                                 1.43122598946990

  Total energy:                                             -8144.13062138944588

  outer SCF iter =    1 RMS gradient =   0.10E-04 energy =      -8144.1306213894
  outer SCF loop converged in   1 iterations or  265 steps


  Integrated absolute spin density  :                             234.5578469544
  Ideal and single determinant S**2 :                    0.000000     127.577178

 ENERGY| Total FORCE_EVAL ( QS ) energy (a.u.):            -8144.130650213878653


 --------  Informations at step =     0 ------------
  Optimization Method        =                 BFGS
  Total Energy               =     -8144.1306502139
  Used time                  =             2746.949
 ---------------------------------------------------

 --------------------------
 OPTIMIZATION STEP:      1
 --------------------------

  Step is scaled; Scaling factor =  0.93555

 Spin 1

 Number of electrons:                                                        719
 Number of occupied orbitals:                                                719
 Number of molecular orbitals:                                               719

 Spin 2

 Number of electrons:                                                        719
 Number of occupied orbitals:                                                719
 Number of molecular orbitals:                                               719

 Number of orbital functions:                                               2718
 Number of independent orbital functions:                                   2718

 Extrapolation method: PS Nth order


 SCF WAVEFUNCTION OPTIMIZATION

  ----------------------------------- OT ---------------------------------------
  Minimizer      : CG                  : conjugate gradient
  Preconditioner : FULL_ALL            : diagonalization, state selective
  Precond_solver : DEFAULT
  Line search    : 3PNT                : 3 energies
  stepsize       :    0.15000000                  energy_gap     :    0.08000000
  eps_taylor     :   0.10000E-15                  max_taylor     :             4
  ----------------------------------- OT ---------------------------------------

  Step     Update method      Time    Convergence         Total energy    Change
  ------------------------------------------------------------------------------
     1 OT CG       0.12E+00   12.7     0.00025264     -8144.1469117872 -8.14E+03
     2 OT LS       0.17E+00    7.8                    -8144.1707605984
     3 OT LS       0.29E+00    7.8                    -8144.1768855126
     4 OT CG       0.24E+00   15.6     0.00021882     -8144.1836555961 -3.67E-02
     5 OT LS       0.33E+00    7.8                    -8144.1936131722
     6 OT LS       0.15E+00    7.7                    -8144.1784214434
     7 OT CG       0.12E+00   15.2     0.00007467     -8144.1979014285 -1.42E-02
     8 OT LS       0.17E+00    7.7                    -8144.1991454637
     9 OT LS       0.11E+00    7.7                    -8144.1988543608
    10 OT CG       0.92E-01   15.2     0.00003276     -8144.1991503096 -1.25E-03
    11 OT LS       0.13E+00    7.7                    -8144.1994070852
    12 OT LS       0.14E+00    7.7                    -8144.1994381617
    13 OT CG       0.11E+00   15.3     0.00002357     -8144.1994395281 -2.89E-04
    14 OT LS       0.15E+00    7.7                    -8144.1995942855
    15 OT LS       0.16E+00    7.7                    -8144.1996088605
    16 OT CG       0.12E+00   15.2     0.00001531     -8144.1996088818 -1.69E-04
    17 OT LS       0.17E+00    7.7                    -8144.1996906926
    18 OT LS       0.22E+00    7.7                    -8144.1997050831
    19 OT CG       0.17E+00   15.2     0.00001506     -8144.1997090414 -1.00E-04
    20 OT LS       0.24E+00    7.7                    -8144.1998180712
    21 OT LS       0.30E+00    7.7                    -8144.1998360711
    22 OT CG       0.24E+00   15.3     0.00001580     -8144.1998399505 -1.31E-04
    23 OT LS       0.33E+00    7.7                    -8144.1998692065
    24 OT LS       0.14E+00    7.7                    -8144.1997655321
    25 OT CG       0.11E+00   15.3     0.00001032     -8144.1999064113 -6.65E-05
    26 OT LS       0.15E+00    7.7                    -8144.1999396433
    27 OT LS       0.20E+00    7.7                    -8144.1999462667
    28 OT CG       0.16E+00   15.2     0.00000992     -8144.1999492186 -4.28E-05

  *** SCF run converged in    28 steps ***


  Electronic density on regular grids:      -1437.9999922964        0.0000077036
  Core density on regular grids:             1437.9999996447       -0.0000003553
  Total charge density on r-space grids:        0.0000073483
  Total charge density g-space grids:           0.0000073483

  Overlap energy of the core charge distribution:               0.00000371546983
  Self energy of the core charge distribution:             -14650.93922905635191
  Core Hamiltonian energy:                                   4108.58740855686483
  Hartree energy:                                            3439.99287067762089
  Exchange-correlation energy:                              -1042.68351087726933
  Dispersion energy:                                           -0.58497355079980

  DFT+U energy:                                                 1.42748131584754

  Total energy:                                             -8144.19994921861871

  outer SCF iter =    1 RMS gradient =   0.99E-05 energy =      -8144.1999492186
  outer SCF loop converged in   1 iterations or   28 steps


  Integrated absolute spin density  :                             234.7290852243
  Ideal and single determinant S**2 :                    0.000000     127.654157

 ENERGY| Total FORCE_EVAL ( QS ) energy (a.u.):            -8144.199995969268457


 --------  Informations at step =     1 ------------
  Optimization Method        =                 BFGS
  Total Energy               =     -8144.1999959693
  Real energy change         =        -0.0693457554
  Predicted change in energy =        -0.0719145379
  Scaling factor             =         0.9355549338
  Step size                  =         0.4724315332
  Trust radius               =         0.4724315332
  Decrease in energy         =                  YES
  Used time                  =              326.893

  Convergence check :
  Max. step size             =         0.4724315332
  Conv. limit for step size  =         1.0000000000
  Convergence in step size   =                  YES
  RMS step size              =         0.0404266696
  Conv. limit for RMS step   =         1.0000000000
  Convergence in RMS step    =                  YES
  Max. gradient              =         0.0558885236
  Conv. limit for gradients  =         0.0100000000
  Conv. for gradients        =                   NO
  RMS gradient               =         0.0069321079
  Conv. limit for RMS grad.  =         1.0000000000
  Conv. in RMS gradients     =                  YES
 ---------------------------------------------------

 --------------------------
 OPTIMIZATION STEP:      2
 --------------------------

 Spin 1

 Number of electrons:                                                        719
 Number of occupied orbitals:                                                719
 Number of molecular orbitals:                                               719

 Spin 2

 Number of electrons:                                                        719
 Number of occupied orbitals:                                                719
 Number of molecular orbitals:                                               719

 Number of orbital functions:                                               2718
 Number of independent orbital functions:                                   2718

 Extrapolation method: PS Nth order


 SCF WAVEFUNCTION OPTIMIZATION

  ----------------------------------- OT ---------------------------------------
  Minimizer      : CG                  : conjugate gradient
  Preconditioner : FULL_ALL            : diagonalization, state selective
  Precond_solver : DEFAULT
  Line search    : 3PNT                : 3 energies
  stepsize       :    0.15000000                  energy_gap     :    0.08000000
  eps_taylor     :   0.10000E-15                  max_taylor     :             4
  ----------------------------------- OT ---------------------------------------

  Step     Update method      Time    Convergence         Total energy    Change
  ------------------------------------------------------------------------------
     1 OT CG       0.12E+00   12.7     0.00031744     -8144.1165109585 -8.14E+03
     2 OT LS       0.17E+00    7.9                    -8144.1474775965
     3 OT LS       0.17E+00    7.8                    -8144.1507553865
     4 OT CG       0.14E+00   15.5     0.00024823     -8144.1508000415 -3.43E-02
     5 OT LS       0.20E+00    7.8                    -8144.1730617662
     6 OT LS       0.21E+00    7.8                    -8144.1757006218
     7 OT CG       0.17E+00   15.5     0.00012845     -8144.1758075028 -2.50E-02
     8 OT LS       0.23E+00    7.9                    -8144.1784137663
     9 OT LS       0.11E+00    7.8                    -8144.1748576639
    10 OT CG       0.88E-01   15.6     0.00004690     -8144.1793654068 -3.56E-03
    11 OT LS       0.12E+00    7.9                    -8144.1798227668
    12 OT LS       0.11E+00    7.8                    -8144.1798379802
    13 OT CG       0.89E-01   15.7     0.00002603     -8144.1798435846 -4.78E-04
    14 OT LS       0.12E+00    7.8                    -8144.1800117313
    15 OT LS       0.16E+00    7.7                    -8144.1800415373
    16 OT CG       0.12E+00   15.6     0.00001632     -8144.1800500855 -2.07E-04
    17 OT LS       0.17E+00    7.9                    -8144.1801298450
    18 OT LS       0.16E+00    7.7                    -8144.1801336409
    19 OT CG       0.13E+00   15.6     0.00000979     -8144.1801341990 -8.41E-05

  *** SCF run converged in    19 steps ***


  Electronic density on regular grids:      -1437.9999923003        0.0000076997
  Core density on regular grids:             1437.9999996446       -0.0000003554
  Total charge density on r-space grids:        0.0000073443
  Total charge density g-space grids:           0.0000073443

  Overlap energy of the core charge distribution:               0.00000209657104
  Self energy of the core charge distribution:             -14650.93922905635191
  Core Hamiltonian energy:                                   4108.27008555304019
  Hartree energy:                                            3440.21198141435616
  Exchange-correlation energy:                              -1042.56387556212553
  Dispersion energy:                                           -0.58698948691269

  DFT+U energy:                                                 1.42789084239613

  Total energy:                                             -8144.18013419902763

  outer SCF iter =    1 RMS gradient =   0.98E-05 energy =      -8144.1801341990
  outer SCF loop converged in   1 iterations or   19 steps


  Integrated absolute spin density  :                             234.8367316947
  Ideal and single determinant S**2 :                    0.000000     127.729837

 ENERGY| Total FORCE_EVAL ( QS ) energy (a.u.):            -8144.180167352744320


 --------  Informations at step =     2 ------------
  Optimization Method        =                 BFGS
  Total Energy               =     -8144.1801673527
  Real energy change         =         0.0198286165
  Predicted change in energy =        -0.0636700411
  Scaling factor             =         0.9355549338
  Step size                  =         0.4711516624
  Trust radius               =         0.4724315332
  Decrease in energy         =                   NO
  Used time                  =              237.866

  Convergence check :
  Max. step size             =         0.4711516624
  Conv. limit for step size  =         1.0000000000
  Convergence in step size   =                  YES
  RMS step size              =         0.0570937513
  Conv. limit for RMS step   =         1.0000000000
  Convergence in RMS step    =                  YES
  Max. gradient              =         0.0689825847
  Conv. limit for gradients  =         0.0100000000
  Conv. for gradients        =                   NO
  RMS gradient               =         0.0074600498
  Conv. limit for RMS grad.  =         1.0000000000
  Conv. in RMS gradients     =                  YES
 ---------------------------------------------------

 --------------------------
 OPTIMIZATION STEP:      3
 --------------------------

 Spin 1

 Number of electrons:                                                        719
 Number of occupied orbitals:                                                719
 Number of molecular orbitals:                                               719

 Spin 2

 Number of electrons:                                                        719
 Number of occupied orbitals:                                                719
 Number of molecular orbitals:                                               719

 Number of orbital functions:                                               2718
 Number of independent orbital functions:                                   2718

 Extrapolation method: PS Nth order


 SCF WAVEFUNCTION OPTIMIZATION

  ----------------------------------- OT ---------------------------------------
  Minimizer      : CG                  : conjugate gradient
  Preconditioner : FULL_ALL            : diagonalization, state selective
  Precond_solver : DEFAULT
  Line search    : 3PNT                : 3 energies
  stepsize       :    0.15000000                  energy_gap     :    0.08000000
  eps_taylor     :   0.10000E-15                  max_taylor     :             4
  ----------------------------------- OT ---------------------------------------

  Step     Update method      Time    Convergence         Total energy    Change
  ------------------------------------------------------------------------------
     1 OT CG       0.12E+00   12.8     0.00069848     -8143.8838549631 -8.14E+03
     2 OT LS       0.17E+00    7.8                    -8144.0440017356
     3 OT LS       0.20E+00    7.9                    -8144.0704231199
     4 OT CG       0.16E+00   15.9     0.00054064     -8144.0765112727 -1.93E-01
     5 OT LS       0.23E+00    8.0                    -8144.1912996336
     6 OT LS       0.21E+00    8.1                    -8144.1963185402
     7 OT CG       0.17E+00   15.7     0.00024175     -8144.1972893513 -1.21E-01
     8 OT LS       0.23E+00    8.0                    -8144.2081443492
     9 OT LS       0.12E+00    8.0                    -8144.1970898518
    10 OT CG       0.93E-01   15.7     0.00008962     -8144.2106396000 -1.34E-02
    11 OT LS       0.13E+00    8.0                    -8144.2125484515
    12 OT LS       0.13E+00    8.0                    -8144.2127411210
    13 OT CG       0.11E+00   15.9     0.00006045     -8144.2127425035 -2.10E-03
    14 OT LS       0.15E+00    8.0                    -8144.2136996241
    15 OT LS       0.14E+00    8.1                    -8144.2137614724
    16 OT CG       0.11E+00   15.9     0.00003281     -8144.2137639089 -1.02E-03
    17 OT LS       0.16E+00    8.0                    -8144.2140663967
    18 OT LS       0.15E+00    8.0                    -8144.2140872489
    19 OT CG       0.12E+00   15.8     0.00001826     -8144.2140877801 -3.24E-04
    20 OT LS       0.17E+00    8.0                    -8144.2142071894
    21 OT LS       0.24E+00    8.0                    -8144.2142319922
    22 OT CG       0.19E+00   15.7     0.00001641     -8144.2142446502 -1.57E-04
    23 OT LS       0.27E+00    8.1                    -8144.2142953020
    24 OT LS       0.13E+00    8.0                    -8144.2142307805
    25 OT CG       0.10E+00   15.7     0.00000996     -8144.2143121285 -6.75E-05

  *** SCF run converged in    25 steps ***


  Electronic density on regular grids:      -1437.9999923062        0.0000076938
  Core density on regular grids:             1437.9999996443       -0.0000003557
  Total charge density on r-space grids:        0.0000073382
  Total charge density g-space grids:           0.0000073382

  Overlap energy of the core charge distribution:               0.00000283307208
  Self energy of the core charge distribution:             -14650.93922905635191
  Core Hamiltonian energy:                                   4108.40730787293978
  Hartree energy:                                            3440.10200954375387
  Exchange-correlation energy:                              -1042.62169016612893
  Dispersion energy:                                           -0.58845144833709

  DFT+U energy:                                                 1.42573829251604

  Total energy:                                             -8144.21431212853531

  outer SCF iter =    1 RMS gradient =   0.10E-04 energy =      -8144.2143121285
  outer SCF loop converged in   1 iterations or   25 steps


  Integrated absolute spin density  :                             234.8694265767
  Ideal and single determinant S**2 :                    0.000000     127.763274

 ENERGY| Total FORCE_EVAL ( QS ) energy (a.u.):            -8144.214338105280149


 --------  Informations at step =     3 ------------
  Optimization Method        =                 BFGS
  Total Energy               =     -8144.2143381053
  Real energy change         =        -0.0341707525
  Predicted change in energy =        -0.0356772559
  Scaling factor             =         0.9355549338
  Step size                  =         0.1871257536
  Trust radius               =         0.4724315332
  Decrease in energy         =                  YES
  Used time                  =              305.431

  Convergence check :
  Max. step size             =         0.1871257536
  Conv. limit for step size  =         1.0000000000
  Convergence in step size   =                  YES
  RMS step size              =         0.0263513147
  Conv. limit for RMS step   =         1.0000000000
  Convergence in RMS step    =                  YES
  Max. gradient              =         0.0538709235
  Conv. limit for gradients  =         0.0100000000
  Conv. for gradients        =                   NO
  RMS gradient               =         0.0043668561
  Conv. limit for RMS grad.  =         1.0000000000
  Conv. in RMS gradients     =                  YES
 ---------------------------------------------------

 --------------------------
 OPTIMIZATION STEP:      4
 --------------------------

 Spin 1

 Number of electrons:                                                        719
 Number of occupied orbitals:                                                719
 Number of molecular orbitals:                                               719

 Spin 2

 Number of electrons:                                                        719
 Number of occupied orbitals:                                                719
 Number of molecular orbitals:                                               719

 Number of orbital functions:                                               2718
 Number of independent orbital functions:                                   2718

 Extrapolation method: PS Nth order


 SCF WAVEFUNCTION OPTIMIZATION

  ----------------------------------- OT ---------------------------------------
  Minimizer      : CG                  : conjugate gradient
  Preconditioner : FULL_ALL            : diagonalization, state selective
  Precond_solver : DEFAULT
  Line search    : 3PNT                : 3 energies
  stepsize       :    0.15000000                  energy_gap     :    0.08000000
  eps_taylor     :   0.10000E-15                  max_taylor     :             4
  ----------------------------------- OT ---------------------------------------

  Step     Update method      Time    Convergence         Total energy    Change
  ------------------------------------------------------------------------------
     1 OT CG       0.12E+00   12.6     0.00047621     -8144.0571667827 -8.14E+03
     2 OT LS       0.17E+00    7.7                    -8144.1359286182
     3 OT LS       0.23E+00    7.7                    -8144.1521279537
     4 OT CG       0.19E+00   15.5     0.00040664     -8144.1603207104 -1.03E-01
     5 OT LS       0.26E+00    7.9                    -8144.2179753972
     6 OT LS       0.18E+00    7.9                    -8144.2051277030
     7 OT CG       0.14E+00   15.5     0.00015950     -8144.2181294902 -5.78E-02
     8 OT LS       0.20E+00    7.9                    -8144.2230255683
     9 OT LS       0.11E+00    7.8                    -8144.2198146252
    10 OT CG       0.87E-01   15.4     0.00006636     -8144.2235321917 -5.40E-03
    11 OT LS       0.12E+00    7.9                    -8144.2245200518
    12 OT LS       0.13E+00    7.9                    -8144.2246327385
    13 OT CG       0.10E+00   15.6     0.00004026     -8144.2246359210 -1.10E-03
    14 OT LS       0.14E+00    7.9                    -8144.2250476067
    15 OT LS       0.14E+00    7.8                    -8144.2250791073
    16 OT CG       0.11E+00   15.5     0.00001938     -8144.2250793888 -4.43E-04
    17 OT LS       0.16E+00    7.9                    -8144.2251887017
    18 OT LS       0.17E+00    7.9                    -8144.2252015762
    19 OT CG       0.13E+00   15.4     0.00001183     -8144.2252020426 -1.23E-04
    20 OT LS       0.19E+00    7.9                    -8144.2252571146
    21 OT LS       0.27E+00    7.8                    -8144.2252690135
    22 OT CG       0.22E+00   15.4     0.00001135     -8144.2252760450 -7.40E-05
    23 OT LS       0.30E+00    7.9                    -8144.2253088806
    24 OT LS       0.15E+00    7.9                    -8144.2252789744
    25 OT CG       0.12E+00   15.6     0.00000852     -8144.2253151263 -3.91E-05

  *** SCF run converged in    25 steps ***


  Electronic density on regular grids:      -1437.9999923045        0.0000076955
  Core density on regular grids:             1437.9999996451       -0.0000003549
  Total charge density on r-space grids:        0.0000073406
  Total charge density g-space grids:           0.0000073406

  Overlap energy of the core charge distribution:               0.00000401732047
  Self energy of the core charge distribution:             -14650.93922905635191
  Core Hamiltonian energy:                                   4108.23711104628001
  Hartree energy:                                            3440.21893049587516
  Exchange-correlation energy:                              -1042.59902578850370
  Dispersion energy:                                           -0.57794289334115

  DFT+U energy:                                                 1.43483705240201

  Total energy:                                             -8144.22531512632031

  outer SCF iter =    1 RMS gradient =   0.85E-05 energy =      -8144.2253151263
  outer SCF loop converged in   1 iterations or   25 steps


  Integrated absolute spin density  :                             235.0173790892
  Ideal and single determinant S**2 :                    0.000000     127.863519

 ENERGY| Total FORCE_EVAL ( QS ) energy (a.u.):            -8144.225336717685423


 --------  Informations at step =     4 ------------
  Optimization Method        =                 BFGS
  Total Energy               =     -8144.2253367177
  Real energy change         =        -0.0109986124
  Predicted change in energy =        -0.0246732294
  Scaling factor             =         0.9355549338
  Step size                  =         0.1940418622
  Trust radius               =         0.4724315332
  Decrease in energy         =                  YES
  Used time                  =              299.562

  Convergence check :
  Max. step size             =         0.1940418622
  Conv. limit for step size  =         1.0000000000
  Convergence in step size   =                  YES
  RMS step size              =         0.0350910498
  Conv. limit for RMS step   =         1.0000000000
  Convergence in RMS step    =                  YES
  Max. gradient              =         0.0373829774
  Conv. limit for gradients  =         0.0100000000
  Conv. for gradients        =                   NO
  RMS gradient               =         0.0072894417
  Conv. limit for RMS grad.  =         1.0000000000
  Conv. in RMS gradients     =                  YES
 ---------------------------------------------------

 --------------------------
 OPTIMIZATION STEP:      5
 --------------------------

 Spin 1

 Number of electrons:                                                        719
 Number of occupied orbitals:                                                719
 Number of molecular orbitals:                                               719

 Spin 2

 Number of electrons:                                                        719
 Number of occupied orbitals:                                                719
 Number of molecular orbitals:                                               719

 Number of orbital functions:                                               2718
 Number of independent orbital functions:                                   2718

 Extrapolation method: PS Nth order


 SCF WAVEFUNCTION OPTIMIZATION

  ----------------------------------- OT ---------------------------------------
  Minimizer      : CG                  : conjugate gradient
  Preconditioner : FULL_ALL            : diagonalization, state selective
  Precond_solver : DEFAULT
  Line search    : 3PNT                : 3 energies
  stepsize       :    0.15000000                  energy_gap     :    0.08000000
  eps_taylor     :   0.10000E-15                  max_taylor     :             4
  ----------------------------------- OT ---------------------------------------

  Step     Update method      Time    Convergence         Total energy    Change
  ------------------------------------------------------------------------------
     1 OT CG       0.12E+00   12.6     0.00032394     -8144.1267665767 -8.14E+03
     2 OT LS       0.17E+00    7.6                    -8144.1586807160
     3 OT LS       0.17E+00    7.6                    -8144.1617766826
     4 OT CG       0.14E+00   15.1     0.00023221     -8144.1617871358 -3.50E-02
     5 OT LS       0.19E+00    7.5                    -8144.1823910196
     6 OT LS       0.24E+00    7.6                    -8144.1860420319
     7 OT CG       0.19E+00   15.1     0.00010958     -8144.1870921176 -2.53E-02
     8 OT LS       0.27E+00    7.6                    -8144.1875948350
     9 OT LS       0.10E+00    7.6                    -8144.1830439525
    10 OT CG       0.81E-01   15.0     0.00004517     -8144.1894785025 -2.39E-03
    11 OT LS       0.11E+00    7.7                    -8144.1899068531
    12 OT LS       0.12E+00    7.7                    -8144.1899546411
    13 OT CG       0.96E-01   15.3     0.00002809     -8144.1899557268 -4.77E-04
    14 OT LS       0.13E+00    7.7                    -8144.1901766796
    15 OT LS       0.19E+00    7.7                    -8144.1902235395
    16 OT CG       0.15E+00   15.3     0.00001771     -8144.1902494056 -2.94E-04
    17 OT LS       0.21E+00    7.7                    -8144.1903636024
    18 OT LS       0.20E+00    7.7                    -8144.1903683935
    19 OT CG       0.16E+00   15.2     0.00001758     -8144.1903694144 -1.20E-04
    20 OT LS       0.22E+00    7.7                    -8144.1905091392
    21 OT LS       0.30E+00    7.5                    -8144.1905374090
    22 OT CG       0.24E+00   15.0     0.00002306     -8144.1905504941 -1.81E-04
    23 OT LS       0.34E+00    7.6                    -8144.1906939000
    24 OT LS       0.17E+00    7.6                    -8144.1905486802
    25 OT CG       0.13E+00   15.0     0.00001532     -8144.1907259363 -1.75E-04
    26 OT LS       0.19E+00    7.6                    -8144.1908117209
    27 OT LS       0.22E+00    7.5                    -8144.1908250759
    28 OT CG       0.18E+00   15.1     0.00001442     -8144.1908273883 -1.01E-04
    29 OT LS       0.25E+00    7.6                    -8144.1909275419
    30 OT LS       0.29E+00    7.6                    -8144.1909432617
    31 OT CG       0.23E+00   15.1     0.00001171     -8144.1909460210 -1.19E-04
    32 OT LS       0.33E+00    7.6                    -8144.1909925935
    33 OT LS       0.19E+00    7.6                    -8144.1909673492
    34 OT CG       0.15E+00   15.1     0.00000975     -8144.1909958108 -4.98E-05

  *** SCF run converged in    34 steps ***


  Electronic density on regular grids:      -1437.9999922955        0.0000077045
  Core density on regular grids:             1437.9999996445       -0.0000003555
  Total charge density on r-space grids:        0.0000073490
  Total charge density g-space grids:           0.0000073490

  Overlap energy of the core charge distribution:               0.00000513411632
  Self energy of the core charge distribution:             -14650.93922905635191
  Core Hamiltonian energy:                                   4108.00969140639609
  Hartree energy:                                            3440.39594459262253
  Exchange-correlation energy:                              -1042.53304762830476
  Dispersion energy:                                           -0.57770572843055

  DFT+U energy:                                                 1.45334546920119

  Total energy:                                             -8144.19099581075170

  outer SCF iter =    1 RMS gradient =   0.98E-05 energy =      -8144.1909958108
  outer SCF loop converged in   1 iterations or   34 steps


  Integrated absolute spin density  :                             235.0576442830
  Ideal and single determinant S**2 :                    0.000000     127.938187

 ENERGY| Total FORCE_EVAL ( QS ) energy (a.u.):            -8144.191029978588631


 --------  Informations at step =     5 ------------
  Optimization Method        =                 BFGS
  Total Energy               =     -8144.1910299786
  Real energy change         =         0.0343067391
  Predicted change in energy =        -0.0369640275
  Scaling factor             =         0.9355549338
  Step size                  =         0.2351843666
  Trust radius               =         0.4724315332
  Decrease in energy         =                   NO
  Used time                  =              384.149

  Convergence check :
  Max. step size             =         0.2351843666
  Conv. limit for step size  =         1.0000000000
  Convergence in step size   =                  YES
  RMS step size              =         0.0448688558
  Conv. limit for RMS step   =         1.0000000000
  Convergence in RMS step    =                  YES
  Max. gradient              =         0.0753017912
  Conv. limit for gradients  =         0.0100000000
  Conv. for gradients        =                   NO
  RMS gradient               =         0.0064732460
  Conv. limit for RMS grad.  =         1.0000000000
  Conv. in RMS gradients     =                  YES
 ---------------------------------------------------

 --------------------------
 OPTIMIZATION STEP:      6
 --------------------------

 Spin 1

 Number of electrons:                                                        719
 Number of occupied orbitals:                                                719
 Number of molecular orbitals:                                               719

 Spin 2

 Number of electrons:                                                        719
 Number of occupied orbitals:                                                719
 Number of molecular orbitals:                                               719

 Number of orbital functions:                                               2718
 Number of independent orbital functions:                                   2718

 Extrapolation method: PS Nth order


 SCF WAVEFUNCTION OPTIMIZATION

  ----------------------------------- OT ---------------------------------------
  Minimizer      : CG                  : conjugate gradient
  Preconditioner : FULL_ALL            : diagonalization, state selective
  Precond_solver : DEFAULT
  Line search    : 3PNT                : 3 energies
  stepsize       :    0.15000000                  energy_gap     :    0.08000000
  eps_taylor     :   0.10000E-15                  max_taylor     :             4
  ----------------------------------- OT ---------------------------------------

  Step     Update method      Time    Convergence         Total energy    Change
  ------------------------------------------------------------------------------
     1 OT CG       0.12E+00   12.5     0.00063654     -8143.9554181638 -8.14E+03
     2 OT LS       0.17E+00    7.6                    -8144.0927196100
     3 OT LS       0.22E+00    7.6                    -8144.1181532665
     4 OT CG       0.17E+00   15.2     0.00053164     -8144.1267869670 -1.71E-01
     5 OT LS       0.24E+00    7.8                    -8144.2278063839
     6 OT LS       0.18E+00    7.8                    -8144.2183605865
     7 OT CG       0.15E+00   15.2     0.00024013     -8144.2281860446 -1.01E-01
     8 OT LS       0.21E+00    7.9                    -8144.2383680842
     9 OT LS       0.11E+00    7.8                    -8144.2293028498
    10 OT CG       0.85E-01   15.2     0.00009239     -8144.2402110140 -1.20E-02
    11 OT LS       0.12E+00    7.8                    -8144.2421617224
    12 OT LS       0.14E+00    7.7                    -8144.2424438537
    13 OT CG       0.11E+00   15.3     0.00005771     -8144.2424781205 -2.27E-03
    14 OT LS       0.15E+00    7.8                    -8144.2433488114
    15 OT LS       0.14E+00    7.8                    -8144.2433957636
    16 OT CG       0.11E+00   15.2     0.00003001     -8144.2434001858 -9.22E-04
    17 OT LS       0.16E+00    7.8                    -8144.2436367028
    18 OT LS       0.14E+00    7.8                    -8144.2436399853
    19 OT CG       0.11E+00   15.2     0.00001857     -8144.2436449819 -2.45E-04
    20 OT LS       0.16E+00    7.8                    -8144.2437593040
    21 OT LS       0.23E+00    7.8                    -8144.2437851360
    22 OT CG       0.19E+00   15.2     0.00001793     -8144.2438030705 -1.58E-04
    23 OT LS       0.26E+00    7.8                    -8144.2439094006
    24 OT LS       0.17E+00    7.8                    -8144.2438791079
    25 OT CG       0.14E+00   15.3     0.00001197     -8144.2439104689 -1.07E-04
    26 OT LS       0.19E+00    7.8                    -8144.2439542364
    27 OT LS       0.16E+00    7.7                    -8144.2439535182
    28 OT CG       0.13E+00   15.3     0.00001052     -8144.2439552023 -4.47E-05
    29 OT LS       0.18E+00    7.8                    -8144.2439965810
    30 OT LS       0.25E+00    7.7                    -8144.2440053266
    31 OT CG       0.20E+00   15.4     0.00001119     -8144.2440101046 -5.49E-05
    32 OT LS       0.28E+00    7.8                    -8144.2440705387
    33 OT LS       0.26E+00    7.7                    -8144.2440727996
    34 OT CG       0.21E+00   15.3     0.00001083     -8144.2440734419 -6.33E-05
    35 OT LS       0.29E+00    7.8                    -8144.2441430773
    36 OT LS       0.40E+00    7.7                    -8144.2441572476
    37 OT CG       0.32E+00   15.2     0.00001810     -8144.2441643821 -9.09E-05
    38 OT LS       0.45E+00    7.8                    -8144.2445056937
    39 OT LS       0.49E+00    7.8                    -8144.2445494049
    40 OT CG       0.39E+00   15.2     0.00004205     -8144.2445406786 -3.76E-04
    41 OT LS       0.19E+00    7.9                    -8144.1723535205
    42 OT LS       0.70E-01    7.7                    -8144.2365866490
    43 OT CG       0.56E-01   15.2     0.00006721     -8144.2443850640  1.56E-04
    44 OT LS       0.28E-01    7.8                    -8144.2437148655
    45 OT LS       0.74E-02    7.8                    -8144.2442778290
    46 OT CG       0.59E-02   15.2     0.00006720     -8144.2443928143 -7.75E-06
    47 OT LS       0.83E-02    7.8                    -8144.2444941411
    48 OT LS       0.33E-01    7.8                    -8144.2445329440
    49 OT CG       0.27E-01   15.2     0.00004656     -8144.2448809342 -4.88E-04
    50 OT LS       0.37E-01    7.8                    -8144.2450846097
    51 OT LS       0.14E+00    7.8                    -8144.2451543954
    52 OT CG       0.11E+00   15.3     0.00003751     -8144.2454886903 -6.08E-04
    53 OT LS       0.16E+00    7.8                    -8144.2460144667
    54 OT LS       0.33E+00    7.7                    -8144.2461634178
    55 OT CG       0.26E+00   15.3     0.00004123     -8144.2464008838 -9.12E-04
    56 OT LS       0.37E+00    7.9                    -8144.2470186053
    57 OT LS       0.20E+00    7.8                    -8144.2466316322
    58 OT CG       0.16E+00   15.2     0.00003758     -8144.2470736843 -6.73E-04
    59 OT LS       0.23E+00    7.8                    -8144.2475716615
    60 OT LS       0.18E+00    7.7                    -8144.2475446643
    61 OT CG       0.15E+00   15.2     0.00003550     -8144.2475769802 -5.03E-04
    62 OT LS       0.20E+00    7.8                    -8144.2480687062
    63 OT LS       0.22E+00    7.8                    -8144.2481268821
    64 OT CG       0.17E+00   15.2     0.00002754     -8144.2481279537 -5.51E-04
    65 OT LS       0.24E+00    7.8                    -8144.2484036489
    66 OT LS       0.19E+00    7.7                    -8144.2483840776
    67 OT CG       0.15E+00   15.2     0.00002163     -8144.2484057282 -2.78E-04
    68 OT LS       0.21E+00    7.9                    -8144.2485723058
    69 OT LS       0.19E+00    7.7                    -8144.2485759828
    70 OT CG       0.15E+00   15.2     0.00002003     -8144.2485788125 -1.73E-04
    71 OT LS       0.21E+00    7.8                    -8144.2487223629
    72 OT LS       0.19E+00    7.7                    -8144.2487261422
    73 OT CG       0.15E+00   15.2     0.00001797     -8144.2487283634 -1.50E-04
    74 OT LS       0.21E+00    7.8                    -8144.2488592020
    75 OT LS       0.24E+00    7.7                    -8144.2488773618
    76 OT CG       0.19E+00   15.3     0.00001798     -8144.2488791167 -1.51E-04
    77 OT LS       0.27E+00    7.8                    -8144.2490489002
    78 OT LS       0.32E+00    7.7                    -8144.2490768152
    79 OT CG       0.26E+00   15.2     0.00002059     -8144.2490825273 -2.03E-04
    80 OT LS       0.36E+00    7.8                    -8144.2492916409
    81 OT LS       0.25E+00    7.7                    -8144.2492499323
    82 OT CG       0.20E+00   15.3     0.00001823     -8144.2492917818 -2.09E-04
    83 OT LS       0.28E+00    7.8                    -8144.2494052204
    84 OT LS       0.18E+00    7.7                    -8144.2493675446
    85 OT CG       0.14E+00   15.3     0.00001745     -8144.2494072260 -1.15E-04
    86 OT LS       0.20E+00    7.8                    -8144.2495188871
    87 OT LS       0.21E+00    7.7                    -8144.2495320648
    88 OT CG       0.17E+00   15.4     0.00001501     -8144.2495325380 -1.25E-04
    89 OT LS       0.24E+00    7.8                    -8144.2496253964
    90 OT LS       0.22E+00    7.7                    -8144.2496311941
    91 OT CG       0.18E+00   15.3     0.00001302     -8144.2496314952 -9.90E-05
    92 OT LS       0.25E+00    7.8                    -8144.2497046658
    93 OT LS       0.23E+00    7.8                    -8144.2497086701
    94 OT CG       0.19E+00   15.3     0.00001196     -8144.2497090310 -7.75E-05
    95 OT LS       0.26E+00    7.8                    -8144.2497550409
    96 OT LS       0.17E+00    7.8                    -8144.2497401324
    97 OT CG       0.13E+00   15.3     0.00001000     -8144.2497557780 -4.67E-05

  *** SCF run converged in    97 steps ***


  Electronic density on regular grids:      -1437.9999923034        0.0000076966
  Core density on regular grids:             1437.9999996447       -0.0000003553
  Total charge density on r-space grids:        0.0000073414
  Total charge density g-space grids:           0.0000073414

  Overlap energy of the core charge distribution:               0.00000366488545
  Self energy of the core charge distribution:             -14650.93922905635191
  Core Hamiltonian energy:                                   4107.80400453077800
  Hartree energy:                                            3440.51666980004802
  Exchange-correlation energy:                              -1042.50840059839629
  Dispersion energy:                                           -0.58407795361382

  DFT+U energy:                                                 1.46127383466404

  Total energy:                                             -8144.24975577798523

  outer SCF iter =    1 RMS gradient =   0.10E-04 energy =      -8144.2497557780
  outer SCF loop converged in   1 iterations or   97 steps


  Integrated absolute spin density  :                             234.9921572650
  Ideal and single determinant S**2 :                    0.000000     127.892775

 ENERGY| Total FORCE_EVAL ( QS ) energy (a.u.):            -8144.249789963035255


 --------  Informations at step =     6 ------------
  Optimization Method        =                 BFGS
  Total Energy               =     -8144.2497899630
  Real energy change         =        -0.0587599844
  Predicted change in energy =        -0.0408486440
  Scaling factor             =         0.9355549338
  Step size                  =         0.2330725865
  Trust radius               =         0.4724315332
  Decrease in energy         =                  YES
  Used time                  =             1035.035

  Convergence check :
  Max. step size             =         0.2330725865
  Conv. limit for step size  =         1.0000000000
  Convergence in step size   =                  YES
  RMS step size              =         0.0346199178
  Conv. limit for RMS step   =         1.0000000000
  Convergence in RMS step    =                  YES
  Max. gradient              =         0.0756014783
  Conv. limit for gradients  =         0.0100000000
  Conv. for gradients        =                   NO
  RMS gradient               =         0.0069307418
  Conv. limit for RMS grad.  =         1.0000000000
  Conv. in RMS gradients     =                  YES
 ---------------------------------------------------

 --------------------------
 OPTIMIZATION STEP:      7
 --------------------------

  Step is scaled; Scaling factor =  0.50746

 Spin 1

 Number of electrons:                                                        719
 Number of occupied orbitals:                                                719
 Number of molecular orbitals:                                               719

 Spin 2

 Number of electrons:                                                        719
 Number of occupied orbitals:                                                719
 Number of molecular orbitals:                                               719

 Number of orbital functions:                                               2718
 Number of independent orbital functions:                                   2718

 Extrapolation method: PS Nth order


 SCF WAVEFUNCTION OPTIMIZATION

  ----------------------------------- OT ---------------------------------------
  Minimizer      : CG                  : conjugate gradient
  Preconditioner : FULL_ALL            : diagonalization, state selective
  Precond_solver : DEFAULT
  Line search    : 3PNT                : 3 energies
  stepsize       :    0.15000000                  energy_gap     :    0.08000000
  eps_taylor     :   0.10000E-15                  max_taylor     :             4
  ----------------------------------- OT ---------------------------------------

  Step     Update method      Time    Convergence         Total energy    Change
  ------------------------------------------------------------------------------
     1 OT CG       0.12E+00   12.6     0.00088124     -8143.9380687342 -8.14E+03
     2 OT LS       0.17E+00    7.8                    -8144.0783540902
     3 OT LS       0.94E-01    7.6                    -8143.9955415220
     4 OT CG       0.75E-01   15.2     0.00038486     -8144.0898210583 -1.52E-01
     5 OT LS       0.11E+00    7.7                    -8144.1269837562
     6 OT LS       0.25E+00    7.6                    -8144.1381448467
     7 OT CG       0.20E+00   15.3     0.00028374     -8144.1631338781 -7.33E-02
     8 OT LS       0.28E+00    7.7                    -8144.1865629046
     9 OT LS       0.16E+00    7.7                    -8144.1726809270
    10 OT CG       0.12E+00   15.3     0.00011930     -8144.1884704279 -2.53E-02
    11 OT LS       0.17E+00    7.8                    -8144.1927669430
    12 OT LS       0.16E+00    7.8                    -8144.1930064708
    13 OT CG       0.13E+00   15.3     0.00007879     -8144.1930257239 -4.56E-03
    14 OT LS       0.18E+00    7.8                    -8144.1948467735
    15 OT LS       0.15E+00    7.8                    -8144.1948180659
    16 OT CG       0.12E+00   15.4     0.00006072     -8144.1948873865 -1.86E-03
    17 OT LS       0.17E+00    7.8                    -8144.1961087529
    18 OT LS       0.20E+00    7.8                    -8144.1962905089
    19 OT CG       0.16E+00   15.4     0.00005071     -8144.1963157546 -1.43E-03
    20 OT LS       0.22E+00    7.8                    -8144.1972768382
    21 OT LS       0.20E+00    7.8                    -8144.1973092462
    22 OT CG       0.16E+00   15.4     0.00003847     -8144.1973206575 -1.00E-03
    23 OT LS       0.22E+00    7.8                    -8144.1978960994
    24 OT LS       0.21E+00    7.8                    -8144.1979300995
    25 OT CG       0.17E+00   15.4     0.00002843     -8144.1979322080 -6.12E-04
    26 OT LS       0.24E+00    7.8                    -8144.1981523989
    27 OT LS       0.14E+00    7.8                    -8144.1980632042
    28 OT CG       0.12E+00   15.3     0.00002022     -8144.1981597030 -2.27E-04
    29 OT LS       0.16E+00    7.8                    -8144.1982779291
    30 OT LS       0.16E+00    7.8                    -8144.1982884974
    31 OT CG       0.13E+00   15.4     0.00001604     -8144.1982884976 -1.29E-04
    32 OT LS       0.18E+00    7.8                    -8144.1983813495
    33 OT LS       0.23E+00    7.8                    -8144.1983979265
    34 OT CG       0.18E+00   15.3     0.00001390     -8144.1984028334 -1.14E-04
    35 OT LS       0.25E+00    7.8                    -8144.1984865496
    36 OT LS       0.23E+00    7.8                    -8144.1984896976
    37 OT CG       0.19E+00   15.4     0.00001176     -8144.1984905830 -8.77E-05
    38 OT LS       0.26E+00    7.8                    -8144.1985539657
    39 OT LS       0.25E+00    7.8                    -8144.1985588385
    40 OT CG       0.20E+00   15.3     0.00001230     -8144.1985588776 -6.83E-05
    41 OT LS       0.28E+00    7.8                    -8144.1986234622
    42 OT LS       0.22E+00    7.7                    -8144.1986182309
    43 OT CG       0.18E+00   15.4     0.00001249     -8144.1986238425 -6.50E-05
    44 OT LS       0.25E+00    7.8                    -8144.1986815627
    45 OT LS       0.19E+00    7.8                    -8144.1986770769
    46 OT CG       0.15E+00   15.4     0.00001023     -8144.1986819292 -5.81E-05
    47 OT LS       0.21E+00    7.8                    -8144.1987257060
    48 OT LS       0.26E+00    7.8                    -8144.1987328803
    49 OT CG       0.21E+00   15.4     0.00001036     -8144.1987344063 -5.25E-05
    50 OT LS       0.29E+00    7.7                    -8144.1987758113
    51 OT LS       0.20E+00    7.8                    -8144.1987668553
    52 OT CG       0.16E+00   15.4     0.00000855     -8144.1987758961 -4.15E-05

  *** SCF run converged in    52 steps ***


  Electronic density on regular grids:      -1437.9999923083        0.0000076917
  Core density on regular grids:             1437.9999996443       -0.0000003557
  Total charge density on r-space grids:        0.0000073360
  Total charge density g-space grids:           0.0000073360

  Overlap energy of the core charge distribution:               0.00000277439857
  Self energy of the core charge distribution:             -14650.93922905635191
  Core Hamiltonian energy:                                   4107.62961855159574
  Hartree energy:                                            3440.66206967044400
  Exchange-correlation energy:                              -1042.43236549152857
  Dispersion energy:                                           -0.58477202075270

  DFT+U energy:                                                 1.46589967611923

  Total energy:                                             -8144.19877589607495

  outer SCF iter =    1 RMS gradient =   0.85E-05 energy =      -8144.1987758961
  outer SCF loop converged in   1 iterations or   52 steps


  Integrated absolute spin density  :                             234.8778651836
  Ideal and single determinant S**2 :                    0.000000     127.841809

 ENERGY| Total FORCE_EVAL ( QS ) energy (a.u.):            -8144.198801559082312


 --------  Informations at step =     7 ------------
  Optimization Method        =                 BFGS
  Total Energy               =     -8144.1988015591
  Real energy change         =         0.0509884040
  Predicted change in energy =        -0.0881929306
  Scaling factor             =         0.5074568434
  Step size                  =         0.4724315332
  Trust radius               =         0.4724315332
  Decrease in energy         =                   NO
  Used time                  =              575.824

  Convergence check :
  Max. step size             =         0.4724315332
  Conv. limit for step size  =         1.0000000000
  Convergence in step size   =                  YES
  RMS step size              =         0.0638634235
  Conv. limit for RMS step   =         1.0000000000
  Convergence in RMS step    =                  YES
  Max. gradient              =         0.0916620871
  Conv. limit for gradients  =         0.0100000000
  Conv. for gradients        =                   NO
  RMS gradient               =         0.0086643799
  Conv. limit for RMS grad.  =         1.0000000000
  Conv. in RMS gradients     =                  YES
 ---------------------------------------------------

 --------------------------
 OPTIMIZATION STEP:      8
 --------------------------

 Spin 1

 Number of electrons:                                                        719
 Number of occupied orbitals:                                                719
 Number of molecular orbitals:                                               719

 Spin 2

 Number of electrons:                                                        719
 Number of occupied orbitals:                                                719
 Number of molecular orbitals:                                               719

 Number of orbital functions:                                               2718
 Number of independent orbital functions:                                   2718

 Extrapolation method: PS Nth order


 SCF WAVEFUNCTION OPTIMIZATION

  ----------------------------------- OT ---------------------------------------
  Minimizer      : CG                  : conjugate gradient
  Preconditioner : FULL_ALL            : diagonalization, state selective
  Precond_solver : DEFAULT
  Line search    : 3PNT                : 3 energies
  stepsize       :    0.15000000                  energy_gap     :    0.08000000
  eps_taylor     :   0.10000E-15                  max_taylor     :             4
  ----------------------------------- OT ---------------------------------------

  Step     Update method      Time    Convergence         Total energy    Change
  ------------------------------------------------------------------------------
     1 OT CG       0.12E+00   12.7     0.00117494     -8143.6211051645 -8.14E+03
     2 OT LS       0.17E+00    7.7                    -8143.9379624118
     3 OT LS       0.13E+00    7.7                    -8143.9021124323
     4 OT CG       0.10E+00   15.3     0.00079024     -8143.9376621792 -3.17E-01
     5 OT LS       0.14E+00    7.8                    -8144.1163173329
     6 OT LS       0.21E+00    7.8                    -8144.1560631076
     7 OT CG       0.17E+00   15.2     0.00050067     -8144.1843333904 -2.47E-01
     8 OT LS       0.23E+00    7.7                    -8144.2493262061
     9 OT LS       0.14E+00    7.7                    -8144.2171406003
    10 OT CG       0.11E+00   15.3     0.00019368     -8144.2528306823 -6.85E-02
    11 OT LS       0.15E+00    7.7                    -8144.2629221138
    12 OT LS       0.15E+00    7.8                    -8144.2636570249
    13 OT CG       0.12E+00   15.3     0.00011621     -8144.2636686181 -1.08E-02
    14 OT LS       0.16E+00    7.7                    -8144.2677112230
    15 OT LS       0.17E+00    7.8                    -8144.2681130183
    16 OT CG       0.13E+00   15.4     0.00009012     -8144.2681151173 -4.45E-03
    17 OT LS       0.19E+00    7.7                    -8144.2705111029
    18 OT LS       0.15E+00    7.8                    -8144.2704022360
    19 OT CG       0.12E+00   15.8     0.00006175     -8144.2705433640 -2.43E-03
    20 OT LS       0.17E+00    7.9                    -8144.2718832998
    21 OT LS       0.23E+00    8.0                    -8144.2721554736
    22 OT CG       0.19E+00   15.7     0.00005419     -8144.2722856264 -1.74E-03
    23 OT LS       0.26E+00    7.9                    -8144.2735155247
    24 OT LS       0.22E+00    8.0                    -8144.2734930757
    25 OT CG       0.17E+00   15.7     0.00003993     -8144.2735418425 -1.26E-03
    26 OT LS       0.24E+00    8.0                    -8144.2741440180
    27 OT LS       0.19E+00    8.0                    -8144.2741089962
    28 OT CG       0.16E+00   15.7     0.00003308     -8144.2741502235 -6.08E-04
    29 OT LS       0.22E+00    8.0                    -8144.2745383340
    30 OT LS       0.19E+00    8.1                    -8144.2745379308
    31 OT CG       0.15E+00   15.6     0.00003108     -8144.2745492648 -3.99E-04
    32 OT LS       0.21E+00    8.0                    -8144.2748773591
    33 OT LS       0.18E+00    8.0                    -8144.2748767723
    34 OT CG       0.14E+00   15.7     0.00002262     -8144.2748865137 -3.37E-04
    35 OT LS       0.20E+00    8.0                    -8144.2750671025
    36 OT LS       0.19E+00    8.0                    -8144.2750808351
    37 OT CG       0.16E+00   15.7     0.00001800     -8144.2750809629 -1.94E-04
    38 OT LS       0.22E+00    8.0                    -8144.2752181761
    39 OT LS       0.26E+00    8.0                    -8144.2752393462
    40 OT CG       0.20E+00   15.7     0.00001676     -8144.2752427806 -1.62E-04
    41 OT LS       0.29E+00    7.9                    -8144.2753284839
    42 OT LS       0.17E+00    7.8                    -8144.2752853322
    43 OT CG       0.13E+00   15.5     0.00001293     -8144.2753334925 -9.07E-05
    44 OT LS       0.19E+00    7.9                    -8144.2753858408
    45 OT LS       0.17E+00    7.9                    -8144.2753875814
    46 OT CG       0.13E+00   15.5     0.00000947     -8144.2753882238 -5.47E-05

  *** SCF run converged in    46 steps ***


  Electronic density on regular grids:      -1437.9999923095        0.0000076905
  Core density on regular grids:             1437.9999996446       -0.0000003554
  Total charge density on r-space grids:        0.0000073351
  Total charge density g-space grids:           0.0000073351

  Overlap energy of the core charge distribution:               0.00000402012456
  Self energy of the core charge distribution:             -14650.93922905635191
  Core Hamiltonian energy:                                   4107.47870147777758
  Hartree energy:                                            3440.75564481783704
  Exchange-correlation energy:                              -1042.44987829855040
  Dispersion energy:                                           -0.58599091785074

  DFT+U energy:                                                 1.46535973319077

  Total energy:                                             -8144.27538822382303

  outer SCF iter =    1 RMS gradient =   0.95E-05 energy =      -8144.2753882238
  outer SCF loop converged in   1 iterations or   46 steps


  Integrated absolute spin density  :                             235.0217028650
  Ideal and single determinant S**2 :                    0.000000     127.903942

 ENERGY| Total FORCE_EVAL ( QS ) energy (a.u.):            -8144.275420418231988


 --------  Informations at step =     8 ------------
  Optimization Method        =                 BFGS
  Total Energy               =     -8144.2754204182
  Real energy change         =        -0.0766188591
  Predicted change in energy =        -0.0510269405
  Scaling factor             =         0.5074568434
  Step size                  =         0.2380953124
  Trust radius               =         0.4724315332
  Decrease in energy         =                  YES
  Used time                  =              519.626

  Convergence check :
  Max. step size             =         0.2380953124
  Conv. limit for step size  =         1.0000000000
  Convergence in step size   =                  YES
  RMS step size              =         0.0347425092
  Conv. limit for RMS step   =         1.0000000000
  Convergence in RMS step    =                  YES
  Max. gradient              =         0.0777176348
  Conv. limit for gradients  =         0.0100000000
  Conv. for gradients        =                   NO
  RMS gradient               =         0.0067975324
  Conv. limit for RMS grad.  =         1.0000000000
  Conv. in RMS gradients     =                  YES
 ---------------------------------------------------

 --------------------------
 OPTIMIZATION STEP:      9
 --------------------------

  Step is scaled; Scaling factor =  0.85979

 Spin 1

 Number of electrons:                                                        719
 Number of occupied orbitals:                                                719
 Number of molecular orbitals:                                               719

 Spin 2

 Number of electrons:                                                        719
 Number of occupied orbitals:                                                719
 Number of molecular orbitals:                                               719

 Number of orbital functions:                                               2718
 Number of independent orbital functions:                                   2718

 Extrapolation method: PS Nth order


 SCF WAVEFUNCTION OPTIMIZATION

  ----------------------------------- OT ---------------------------------------
  Minimizer      : CG                  : conjugate gradient
  Preconditioner : FULL_ALL            : diagonalization, state selective
  Precond_solver : DEFAULT
  Line search    : 3PNT                : 3 energies
  stepsize       :    0.15000000                  energy_gap     :    0.08000000
  eps_taylor     :   0.10000E-15                  max_taylor     :             4
  ----------------------------------- OT ---------------------------------------

  Step     Update method      Time    Convergence         Total energy    Change
  ------------------------------------------------------------------------------
     1 OT CG       0.12E+00   12.6     0.00064215     -8144.0111818086 -8.14E+03
     2 OT LS       0.17E+00    7.7                    -8144.1383048155
     3 OT LS       0.18E+00    7.7                    -8144.1529285674
     4 OT CG       0.14E+00   15.4     0.00045102     -8144.1534401154 -1.42E-01
     5 OT LS       0.20E+00    7.8                    -8144.2333097301
     6 OT LS       0.24E+00    7.8                    -8144.2462033047
     7 OT CG       0.19E+00   15.5     0.00021539     -8144.2487209605 -9.53E-02
     8 OT LS       0.27E+00    7.8                    -8144.2500066686
     9 OT LS       0.99E-01    7.9                    -8144.2318640536
    10 OT CG       0.79E-01   15.5     0.00009110     -8144.2576895135 -8.97E-03
    11 OT LS       0.11E+00    7.9                    -8144.2594977884
    12 OT LS       0.13E+00    7.9                    -8144.2597942568
    13 OT CG       0.11E+00   15.5     0.00005633     -8144.2598564317 -2.17E-03
    14 OT LS       0.15E+00    7.9                    -8144.2607048786
    15 OT LS       0.15E+00    7.9                    -8144.2607785454
    16 OT CG       0.12E+00   15.5     0.00002515     -8144.2607785599 -9.22E-04
    17 OT LS       0.17E+00    7.8                    -8144.2609538186
    18 OT LS       0.15E+00    7.9                    -8144.2609570368
    19 OT CG       0.12E+00   15.5     0.00001502     -8144.2609603482 -1.82E-04
    20 OT LS       0.16E+00    7.9                    -8144.2610332535
    21 OT LS       0.20E+00    7.9                    -8144.2610452349
    22 OT CG       0.16E+00   15.6     0.00001306     -8144.2610477852 -8.74E-05
    23 OT LS       0.22E+00    7.9                    -8144.2610884777
    24 OT LS       0.13E+00    7.9                    -8144.2610682044
    25 OT CG       0.10E+00   15.6     0.00000713     -8144.2610907877 -4.30E-05

  *** SCF run converged in    25 steps ***


  Electronic density on regular grids:      -1437.9999923077        0.0000076923
  Core density on regular grids:             1437.9999996449       -0.0000003551
  Total charge density on r-space grids:        0.0000073372
  Total charge density g-space grids:           0.0000073372

  Overlap energy of the core charge distribution:               0.00000693559006
  Self energy of the core charge distribution:             -14650.93922905635191
  Core Hamiltonian energy:                                   4107.36939720727514
  Hartree energy:                                            3440.84328826678620
  Exchange-correlation energy:                              -1042.42434552188206
  Dispersion energy:                                           -0.57763919497526

  DFT+U energy:                                                 1.46743057582295

  Total energy:                                             -8144.26109078773607

  outer SCF iter =    1 RMS gradient =   0.71E-05 energy =      -8144.2610907877
  outer SCF loop converged in   1 iterations or   25 steps


  Integrated absolute spin density  :                             235.1325962007
  Ideal and single determinant S**2 :                    0.000000     127.928641

 ENERGY| Total FORCE_EVAL ( QS ) energy (a.u.):            -8144.261103681031273


 --------  Informations at step =     9 ------------
  Optimization Method        =                 BFGS
  Total Energy               =     -8144.2611036810
  Real energy change         =         0.0143167372
  Predicted change in energy =        -0.0935355919
  Scaling factor             =         0.8597855045
  Step size                  =         0.4724315332
  Trust radius               =         0.4724315332
  Decrease in energy         =                   NO
  Used time                  =              300.109

  Convergence check :
  Max. step size             =         0.4724315332
  Conv. limit for step size  =         1.0000000000
  Convergence in step size   =                  YES
  RMS step size              =         0.0769285672
  Conv. limit for RMS step   =         1.0000000000
  Convergence in RMS step    =                  YES
  Max. gradient              =         0.0457987940
  Conv. limit for gradients  =         0.0100000000
  Conv. for gradients        =                   NO
  RMS gradient               =         0.0067432750
  Conv. limit for RMS grad.  =         1.0000000000
  Conv. in RMS gradients     =                  YES
 ---------------------------------------------------

 --------------------------
 OPTIMIZATION STEP:     10
 --------------------------

 Spin 1

 Number of electrons:                                                        719
 Number of occupied orbitals:                                                719
 Number of molecular orbitals:                                               719

 Spin 2

 Number of electrons:                                                        719
 Number of occupied orbitals:                                                719
 Number of molecular orbitals:                                               719

 Number of orbital functions:                                               2718
 Number of independent orbital functions:                                   2718

 Extrapolation method: PS Nth order


 SCF WAVEFUNCTION OPTIMIZATION

  ----------------------------------- OT ---------------------------------------
  Minimizer      : CG                  : conjugate gradient
  Preconditioner : FULL_ALL            : diagonalization, state selective
  Precond_solver : DEFAULT
  Line search    : 3PNT                : 3 energies
  stepsize       :    0.15000000                  energy_gap     :    0.08000000
  eps_taylor     :   0.10000E-15                  max_taylor     :             4
  ----------------------------------- OT ---------------------------------------

  Step     Update method      Time    Convergence         Total energy    Change
  ------------------------------------------------------------------------------
     1 OT CG       0.12E+00   12.6     0.00110675     -8143.4971939844 -8.14E+03
     2 OT LS       0.17E+00    7.8                    -8143.8935113039
     3 OT LS       0.19E+00    7.9                    -8143.9533383444
     4 OT CG       0.16E+00   15.5     0.00089496     -8143.9625848187 -4.65E-01
     5 OT LS       0.22E+00    7.9                    -8144.2469972818
     6 OT LS       0.19E+00    7.9                    -8144.2531621686
     7 OT CG       0.15E+00   15.4     0.00046137     -8144.2576535016 -2.95E-01
     8 OT LS       0.22E+00    7.9                    -8144.2919131150
     9 OT LS       0.10E+00    7.9                    -8144.2512205556
    10 OT CG       0.84E-01   15.4     0.00017064     -8144.3018068814 -4.42E-02
    11 OT LS       0.12E+00    7.9                    -8144.3083862146
    12 OT LS       0.13E+00    7.9                    -8144.3093253101
    13 OT CG       0.11E+00   15.5     0.00011827     -8144.3094290220 -7.62E-03
    14 OT LS       0.15E+00    7.9                    -8144.3130406187
    15 OT LS       0.14E+00    7.8                    -8144.3132705221
    16 OT CG       0.11E+00   15.6     0.00005681     -8144.3132800302 -3.85E-03
    17 OT LS       0.16E+00    7.9                    -8144.3141590832
    18 OT LS       0.15E+00    7.9                    -8144.3142011610
    19 OT CG       0.12E+00   15.4     0.00003222     -8144.3142072598 -9.27E-04
    20 OT LS       0.16E+00    7.9                    -8144.3145354600
    21 OT LS       0.19E+00    7.9                    -8144.3145836799
    22 OT CG       0.15E+00   15.4     0.00002919     -8144.3145900130 -3.83E-04
    23 OT LS       0.21E+00    7.9                    -8144.3148355124
    24 OT LS       0.15E+00    7.8                    -8144.3147893498
    25 OT CG       0.12E+00   15.5     0.00001613     -8144.3148356554 -2.46E-04
    26 OT LS       0.17E+00    7.9                    -8144.3149107151
    27 OT LS       0.16E+00    7.9                    -8144.3149155949
    28 OT CG       0.13E+00   15.5     0.00001058     -8144.3149157795 -8.01E-05
    29 OT LS       0.18E+00    7.9                    -8144.3149563253
    30 OT LS       0.24E+00    7.8                    -8144.3149643837
    31 OT CG       0.19E+00   15.5     0.00000904     -8144.3149678976 -5.21E-05

  *** SCF run converged in    31 steps ***


  Electronic density on regular grids:      -1437.9999923142        0.0000076858
  Core density on regular grids:             1437.9999996443       -0.0000003557
  Total charge density on r-space grids:        0.0000073301
  Total charge density g-space grids:           0.0000073301

  Overlap energy of the core charge distribution:               0.00000536960351
  Self energy of the core charge distribution:             -14650.93922905635191
  Core Hamiltonian energy:                                   4107.34893195975019
  Hartree energy:                                            3440.83386751754551
  Exchange-correlation energy:                              -1042.44181139348075
  Dispersion energy:                                           -0.57865552108206

  DFT+U energy:                                                 1.46192322644204

  Total energy:                                             -8144.31496789757330

  outer SCF iter =    1 RMS gradient =   0.90E-05 energy =      -8144.3149678976
  outer SCF loop converged in   1 iterations or   31 steps


  Integrated absolute spin density  :                             235.1055654336
  Ideal and single determinant S**2 :                    0.000000     127.930027

 ENERGY| Total FORCE_EVAL ( QS ) energy (a.u.):            -8144.314995931383237


 --------  Informations at step =    10 ------------
  Optimization Method        =                 BFGS
  Total Energy               =     -8144.3149959314
  Real energy change         =        -0.0538922504
  Predicted change in energy =        -0.0447696315
  Scaling factor             =         0.8597855045
  Step size                  =         0.2158098478
  Trust radius               =         0.4724315332
  Decrease in energy         =                  YES
  Used time                  =              361.874

  Convergence check :
  Max. step size             =         0.2158098478
  Conv. limit for step size  =         1.0000000000
  Convergence in step size   =                  YES
  RMS step size              =         0.0356199890
  Conv. limit for RMS step   =         1.0000000000
  Convergence in RMS step    =                  YES
  Max. gradient              =         0.0409378612
  Conv. limit for gradients  =         0.0100000000
  Conv. for gradients        =                   NO
  RMS gradient               =         0.0037309313
  Conv. limit for RMS grad.  =         1.0000000000
  Conv. in RMS gradients     =                  YES
 ---------------------------------------------------

 --------------------------
 OPTIMIZATION STEP:     11
 --------------------------

 Spin 1

 Number of electrons:                                                        719
 Number of occupied orbitals:                                                719
 Number of molecular orbitals:                                               719

 Spin 2

 Number of electrons:                                                        719
 Number of occupied orbitals:                                                719
 Number of molecular orbitals:                                               719

 Number of orbital functions:                                               2718
 Number of independent orbital functions:                                   2718

 Extrapolation method: PS Nth order


 SCF WAVEFUNCTION OPTIMIZATION

  ----------------------------------- OT ---------------------------------------
  Minimizer      : CG                  : conjugate gradient
  Preconditioner : FULL_ALL            : diagonalization, state selective
  Precond_solver : DEFAULT
  Line search    : 3PNT                : 3 energies
  stepsize       :    0.15000000                  energy_gap     :    0.08000000
  eps_taylor     :   0.10000E-15                  max_taylor     :             4
  ----------------------------------- OT ---------------------------------------

  Step     Update method      Time    Convergence         Total energy    Change
  ------------------------------------------------------------------------------
     1 OT CG       0.12E+00   12.6     0.00086956     -8143.8463161698 -8.14E+03
     2 OT LS       0.17E+00    7.7                    -8144.0840948082
     3 OT LS       0.19E+00    7.7                    -8144.1159643333
     4 OT CG       0.15E+00   15.5     0.00063530     -8144.1190096639 -2.73E-01
     5 OT LS       0.21E+00    7.9                    -8144.2795862540
     6 OT LS       0.23E+00    7.8                    -8144.3006044514
     7 OT CG       0.18E+00   15.6     0.00027653     -8144.3021095221 -1.83E-01
     8 OT LS       0.26E+00    7.9                    -8144.3130734083
     9 OT LS       0.11E+00    7.8                    -8144.2922770463
    10 OT CG       0.91E-01   15.5     0.00011011     -8144.3193628040 -1.73E-02
    11 OT LS       0.13E+00    7.9                    -8144.3224033030
    12 OT LS       0.15E+00    7.8                    -8144.3228845412
    13 OT CG       0.12E+00   15.6     0.00007637     -8144.3229722308 -3.61E-03
    14 OT LS       0.17E+00    7.9                    -8144.3244624397
    15 OT LS       0.13E+00    7.9                    -8144.3243457888
    16 OT CG       0.11E+00   15.5     0.00004024     -8144.3244716947 -1.50E-03
    17 OT LS       0.15E+00    7.9                    -8144.3249026707
    18 OT LS       0.15E+00    7.9                    -8144.3249429989
    19 OT CG       0.12E+00   15.5     0.00002235     -8144.3249430412 -4.71E-04
    20 OT LS       0.17E+00    7.8                    -8144.3251208461
    21 OT LS       0.25E+00    7.9                    -8144.3251614143
    22 OT CG       0.20E+00   15.5     0.00001957     -8144.3251904263 -2.47E-04
    23 OT LS       0.28E+00    7.9                    -8144.3252263954
    24 OT LS       0.12E+00    7.8                    -8144.3250912908
    25 OT CG       0.92E-01   15.5     0.00001038     -8144.3252764474 -8.60E-05
    26 OT LS       0.13E+00    7.9                    -8144.3253027905
    27 OT LS       0.14E+00    7.9                    -8144.3253063646
    28 OT CG       0.11E+00   15.5     0.00000689     -8144.3253066796 -3.02E-05

  *** SCF run converged in    28 steps ***


  Electronic density on regular grids:      -1437.9999923190        0.0000076810
  Core density on regular grids:             1437.9999996448       -0.0000003552
  Total charge density on r-space grids:        0.0000073258
  Total charge density g-space grids:           0.0000073258

  Overlap energy of the core charge distribution:               0.00000703511476
  Self energy of the core charge distribution:             -14650.93922905635191
  Core Hamiltonian energy:                                   4107.26354573095614
  Hartree energy:                                            3440.89659382627633
  Exchange-correlation energy:                              -1042.42290115705282
  Dispersion energy:                                           -0.58269468295909

  DFT+U energy:                                                 1.45937162444461

  Total energy:                                             -8144.32530667957144

  outer SCF iter =    1 RMS gradient =   0.69E-05 energy =      -8144.3253066796
  outer SCF loop converged in   1 iterations or   28 steps


  Integrated absolute spin density  :                             235.0577003925
  Ideal and single determinant S**2 :                    0.000000     127.916638

 ENERGY| Total FORCE_EVAL ( QS ) energy (a.u.):            -8144.325322242104448


 --------  Informations at step =    11 ------------
  Optimization Method        =                 BFGS
  Total Energy               =     -8144.3253222421
  Real energy change         =        -0.0103263107
  Predicted change in energy =        -0.0242307968
  Scaling factor             =         0.8597855045
  Step size                  =         0.2135987271
  Trust radius               =         0.4724315332
  Decrease in energy         =                  YES
  Used time                  =              330.682

  Convergence check :
  Max. step size             =         0.2135987271
  Conv. limit for step size  =         1.0000000000
  Convergence in step size   =                  YES
  RMS step size              =         0.0372468579
  Conv. limit for RMS step   =         1.0000000000
  Convergence in RMS step    =                  YES
  Max. gradient              =         0.0291236931
  Conv. limit for gradients  =         0.0100000000
  Conv. for gradients        =                   NO
  RMS gradient               =         0.0047567966
  Conv. limit for RMS grad.  =         1.0000000000
  Conv. in RMS gradients     =                  YES
 ---------------------------------------------------

 --------------------------
 OPTIMIZATION STEP:     12
 --------------------------

 Spin 1

 Number of electrons:                                                        719
 Number of occupied orbitals:                                                719
 Number of molecular orbitals:                                               719

 Spin 2

 Number of electrons:                                                        719
 Number of occupied orbitals:                                                719
 Number of molecular orbitals:                                               719

 Number of orbital functions:                                               2718
 Number of independent orbital functions:                                   2718

 Extrapolation method: PS Nth order


 SCF WAVEFUNCTION OPTIMIZATION

  ----------------------------------- OT ---------------------------------------
  Minimizer      : CG                  : conjugate gradient
  Preconditioner : FULL_ALL            : diagonalization, state selective
  Precond_solver : DEFAULT
  Line search    : 3PNT                : 3 energies
  stepsize       :    0.15000000                  energy_gap     :    0.08000000
  eps_taylor     :   0.10000E-15                  max_taylor     :             4
  ----------------------------------- OT ---------------------------------------

  Step     Update method      Time    Convergence         Total energy    Change
  ------------------------------------------------------------------------------
     1 OT CG       0.12E+00   12.8     0.00041557     -8144.2110593995 -8.14E+03
     2 OT LS       0.17E+00    7.7                    -8144.2718831905
     3 OT LS       0.24E+00    7.8                    -8144.2848945486
     4 OT CG       0.19E+00   15.5     0.00037256     -8144.2922602379 -8.12E-02
     5 OT LS       0.27E+00    7.8                    -8144.3343742049
     6 OT LS       0.16E+00    7.9                    -8144.3173025400
     7 OT CG       0.13E+00   15.5     0.00015749     -8144.3358619705 -4.36E-02
     8 OT LS       0.18E+00    7.9                    -8144.3404382784
     9 OT LS       0.10E+00    7.8                    -8144.3377923375
    10 OT CG       0.82E-01   15.6     0.00006383     -8144.3408042398 -4.94E-03
    11 OT LS       0.11E+00    7.8                    -8144.3416414976
    12 OT LS       0.11E+00    7.8                    -8144.3417129268
    13 OT CG       0.91E-01   15.6     0.00003341     -8144.3417129802 -9.09E-04
    14 OT LS       0.13E+00    7.7                    -8144.3419949220
    15 OT LS       0.16E+00    7.8                    -8144.3420427899
    16 OT CG       0.13E+00   15.6     0.00001916     -8144.3420544222 -3.41E-04
    17 OT LS       0.18E+00    7.8                    -8144.3421691527
    18 OT LS       0.17E+00    7.8                    -8144.3421785039
    19 OT CG       0.14E+00   15.5     0.00001341     -8144.3421785328 -1.24E-04
    20 OT LS       0.19E+00    7.8                    -8144.3422422988
    21 OT LS       0.20E+00    7.7                    -8144.3422491547
    22 OT CG       0.16E+00   15.3     0.00001412     -8144.3422492653 -7.07E-05
    23 OT LS       0.23E+00    7.6                    -8144.3423225153
    24 OT LS       0.19E+00    7.7                    -8144.3423224743
    25 OT CG       0.15E+00   15.2     0.00001022     -8144.3423245919 -7.53E-05
    26 OT LS       0.22E+00    7.7                    -8144.3423590373
    27 OT LS       0.17E+00    7.7                    -8144.3423567933
    28 OT CG       0.14E+00   15.2     0.00000649     -8144.3423593346 -3.47E-05

  *** SCF run converged in    28 steps ***


  Electronic density on regular grids:      -1437.9999923146        0.0000076854
  Core density on regular grids:             1437.9999996444       -0.0000003556
  Total charge density on r-space grids:        0.0000073298
  Total charge density g-space grids:           0.0000073298

  Overlap energy of the core charge distribution:               0.00000535502779
  Self energy of the core charge distribution:             -14650.93922905635191
  Core Hamiltonian energy:                                   4107.27279805521721
  Hartree energy:                                            3440.88299046686734
  Exchange-correlation energy:                              -1042.42841649080424
  Dispersion energy:                                           -0.58798269122150

  DFT+U energy:                                                 1.45747502662803

  Total energy:                                             -8144.34235933463606

  outer SCF iter =    1 RMS gradient =   0.65E-05 energy =      -8144.3423593346
  outer SCF loop converged in   1 iterations or   28 steps


  Integrated absolute spin density  :                             235.0627945905
  Ideal and single determinant S**2 :                    0.000000     127.916243

 ENERGY| Total FORCE_EVAL ( QS ) energy (a.u.):            -8144.342375519417146


 --------  Informations at step =    12 ------------
  Optimization Method        =                 BFGS
  Total Energy               =     -8144.3423755194
  Real energy change         =        -0.0170532773
  Predicted change in energy =        -0.0170509895
  Scaling factor             =         0.8597855045
  Step size                  =         0.1164540650
  Trust radius               =         0.4724315332
  Decrease in energy         =                  YES
  Used time                  =              329.085

  Convergence check :
  Max. step size             =         0.1164540650
  Conv. limit for step size  =         1.0000000000
  Convergence in step size   =                  YES
  RMS step size              =         0.0178856913
  Conv. limit for RMS step   =         1.0000000000
  Convergence in RMS step    =                  YES
  Max. gradient              =         0.0287620087
  Conv. limit for gradients  =         0.0100000000
  Conv. for gradients        =                   NO
  RMS gradient               =         0.0025740752
  Conv. limit for RMS grad.  =         1.0000000000
  Conv. in RMS gradients     =                  YES
 ---------------------------------------------------

 --------------------------
 OPTIMIZATION STEP:     13
 --------------------------

 Spin 1

 Number of electrons:                                                        719
 Number of occupied orbitals:                                                719
 Number of molecular orbitals:                                               719

 Spin 2

 Number of electrons:                                                        719
 Number of occupied orbitals:                                                719
 Number of molecular orbitals:                                               719

 Number of orbital functions:                                               2718
 Number of independent orbital functions:                                   2718

 Extrapolation method: PS Nth order


 SCF WAVEFUNCTION OPTIMIZATION

  ----------------------------------- OT ---------------------------------------
  Minimizer      : CG                  : conjugate gradient
  Preconditioner : FULL_ALL            : diagonalization, state selective
  Precond_solver : DEFAULT
  Line search    : 3PNT                : 3 energies
  stepsize       :    0.15000000                  energy_gap     :    0.08000000
  eps_taylor     :   0.10000E-15                  max_taylor     :             4
  ----------------------------------- OT ---------------------------------------

  Step     Update method      Time    Convergence         Total energy    Change
  ------------------------------------------------------------------------------
     1 OT CG       0.12E+00   12.6     0.00043591     -8144.2091764195 -8.14E+03
     2 OT LS       0.17E+00    7.7                    -8144.2749405765
     3 OT LS       0.23E+00    7.7                    -8144.2882392220
     4 OT CG       0.18E+00   15.3     0.00035805     -8144.2945060070 -8.53E-02
     5 OT LS       0.26E+00    7.7                    -8144.3422555674
     6 OT LS       0.19E+00    7.7                    -8144.3362859879
     7 OT CG       0.15E+00   15.3     0.00014244     -8144.3423056879 -4.78E-02
     8 OT LS       0.21E+00    7.7                    -8144.3457584157
     9 OT LS       0.11E+00    7.7                    -8144.3422872191
    10 OT CG       0.85E-01   15.3     0.00005822     -8144.3465359396 -4.23E-03
    11 OT LS       0.12E+00    7.7                    -8144.3472780285
    12 OT LS       0.12E+00    7.7                    -8144.3473586350
    13 OT CG       0.99E-01   15.3     0.00003507     -8144.3473600774 -8.24E-04
    14 OT LS       0.14E+00    7.7                    -8144.3476705850
    15 OT LS       0.14E+00    7.7                    -8144.3477011248
    16 OT CG       0.11E+00   15.3     0.00001658     -8144.3477012582 -3.41E-04
    17 OT LS       0.16E+00    7.7                    -8144.3477812407
    18 OT LS       0.16E+00    7.7                    -8144.3477897006
    19 OT CG       0.13E+00   15.3     0.00001055     -8144.3477898126 -8.86E-05
    20 OT LS       0.18E+00    7.7                    -8144.3478300704
    21 OT LS       0.22E+00    7.7                    -8144.3478365537
    22 OT CG       0.18E+00   15.4     0.00001051     -8144.3478378187 -4.80E-05
    23 OT LS       0.25E+00    7.8                    -8144.3478648128
    24 OT LS       0.14E+00    7.7                    -8144.3478481904
    25 OT CG       0.11E+00   15.3     0.00000625     -8144.3478672852 -2.95E-05

  *** SCF run converged in    25 steps ***


  Electronic density on regular grids:      -1437.9999922992        0.0000077008
  Core density on regular grids:             1437.9999996447       -0.0000003553
  Total charge density on r-space grids:        0.0000073455
  Total charge density g-space grids:           0.0000073455

  Overlap energy of the core charge distribution:               0.00000623930612
  Self energy of the core charge distribution:             -14650.93922905635191
  Core Hamiltonian energy:                                   4107.27182539874048
  Hartree energy:                                            3440.88493705911878
  Exchange-correlation energy:                              -1042.43348821131985
  Dispersion energy:                                           -0.58707821394400

  DFT+U energy:                                                 1.45515949920835

  Total energy:                                             -8144.34786728524159

  outer SCF iter =    1 RMS gradient =   0.62E-05 energy =      -8144.3478672852
  outer SCF loop converged in   1 iterations or   25 steps


  Integrated absolute spin density  :                             235.0513346726
  Ideal and single determinant S**2 :                    0.000000     127.911965

 ENERGY| Total FORCE_EVAL ( QS ) energy (a.u.):            -8144.347878205104280


 --------  Informations at step =    13 ------------
  Optimization Method        =                 BFGS
  Total Energy               =     -8144.3478782051
  Real energy change         =        -0.0055026857
  Predicted change in energy =        -0.0094472883
  Scaling factor             =         0.8597855045
  Step size                  =         0.1614779039
  Trust radius               =         0.4724315332
  Decrease in energy         =                  YES
  Used time                  =              296.587

  Convergence check :
  Max. step size             =         0.1614779039
  Conv. limit for step size  =         1.0000000000
  Convergence in step size   =                  YES
  RMS step size              =         0.0220076054
  Conv. limit for RMS step   =         1.0000000000
  Convergence in RMS step    =                  YES
  Max. gradient              =         0.0186576763
  Conv. limit for gradients  =         0.0100000000
  Conv. for gradients        =                   NO
  RMS gradient               =         0.0032169026
  Conv. limit for RMS grad.  =         1.0000000000
  Conv. in RMS gradients     =                  YES
 ---------------------------------------------------

 --------------------------
 OPTIMIZATION STEP:     14
 --------------------------

 Spin 1

 Number of electrons:                                                        719
 Number of occupied orbitals:                                                719
 Number of molecular orbitals:                                               719

 Spin 2

 Number of electrons:                                                        719
 Number of occupied orbitals:                                                719
 Number of molecular orbitals:                                               719

 Number of orbital functions:                                               2718
 Number of independent orbital functions:                                   2718

 Extrapolation method: PS Nth order


 SCF WAVEFUNCTION OPTIMIZATION

  ----------------------------------- OT ---------------------------------------
  Minimizer      : CG                  : conjugate gradient
  Preconditioner : FULL_ALL            : diagonalization, state selective
  Precond_solver : DEFAULT
  Line search    : 3PNT                : 3 energies
  stepsize       :    0.15000000                  energy_gap     :    0.08000000
  eps_taylor     :   0.10000E-15                  max_taylor     :             4
  ----------------------------------- OT ---------------------------------------

  Step     Update method      Time    Convergence         Total energy    Change
  ------------------------------------------------------------------------------
     1 OT CG       0.12E+00   12.7     0.00019896     -8144.3197491422 -8.14E+03
     2 OT LS       0.17E+00    7.8                    -8144.3337877208
     3 OT LS       0.25E+00    7.8                    -8144.3368674353
     4 OT CG       0.20E+00   15.4     0.00017595     -8144.3387809859 -1.90E-02
     5 OT LS       0.28E+00    7.8                    -8144.3488848253
     6 OT LS       0.17E+00    7.9                    -8144.3452754484
     7 OT CG       0.14E+00   15.5     0.00006542     -8144.3491185031 -1.03E-02
     8 OT LS       0.19E+00    7.9                    -8144.3498510415
     9 OT LS       0.10E+00    7.9                    -8144.3492739409
    10 OT CG       0.81E-01   15.5     0.00002708     -8144.3499598370 -8.41E-04
    11 OT LS       0.11E+00    7.8                    -8144.3501157161
    12 OT LS       0.12E+00    7.8                    -8144.3501360414
    13 OT CG       0.99E-01   15.6     0.00001556     -8144.3501374766 -1.78E-04
    14 OT LS       0.14E+00    7.8                    -8144.3502016573
    15 OT LS       0.16E+00    7.8                    -8144.3502107421
    16 OT CG       0.13E+00   15.5     0.00000847     -8144.3502117402 -7.43E-05

  *** SCF run converged in    16 steps ***


  Electronic density on regular grids:      -1437.9999923054        0.0000076946
  Core density on regular grids:             1437.9999996442       -0.0000003558
  Total charge density on r-space grids:        0.0000073387
  Total charge density g-space grids:           0.0000073387

  Overlap energy of the core charge distribution:               0.00000525977466
  Self energy of the core charge distribution:             -14650.93922905635191
  Core Hamiltonian energy:                                   4107.28018485074426
  Hartree energy:                                            3440.87560825561604
  Exchange-correlation energy:                              -1042.43495493144383
  Dispersion energy:                                           -0.58566511149494

  DFT+U energy:                                                 1.45383899295785

  Total energy:                                             -8144.35021174019766

  outer SCF iter =    1 RMS gradient =   0.85E-05 energy =      -8144.3502117402
  outer SCF loop converged in   1 iterations or   16 steps


  Integrated absolute spin density  :                             235.0272756072
  Ideal and single determinant S**2 :                    0.000000     127.904888

 ENERGY| Total FORCE_EVAL ( QS ) energy (a.u.):            -8144.350235866872026


 --------  Informations at step =    14 ------------
  Optimization Method        =                 BFGS
  Total Energy               =     -8144.3502358669
  Real energy change         =        -0.0023576618
  Predicted change in energy =        -0.0067492874
  Scaling factor             =         0.8597855045
  Step size                  =         0.1156260611
  Trust radius               =         0.4724315332
  Decrease in energy         =                  YES
  Used time                  =              206.669

  Convergence check :
  Max. step size             =         0.1156260611
  Conv. limit for step size  =         1.0000000000
  Convergence in step size   =                  YES
  RMS step size              =         0.0143703285
  Conv. limit for RMS step   =         1.0000000000
  Convergence in RMS step    =                  YES
  Max. gradient              =         0.0303291109
  Conv. limit for gradients  =         0.0100000000
  Conv. for gradients        =                   NO
  RMS gradient               =         0.0052328377
  Conv. limit for RMS grad.  =         1.0000000000
  Conv. in RMS gradients     =                  YES
 ---------------------------------------------------

 --------------------------
 OPTIMIZATION STEP:     15
 --------------------------

 Spin 1

 Number of electrons:                                                        719
 Number of occupied orbitals:                                                719
 Number of molecular orbitals:                                               719

 Spin 2

 Number of electrons:                                                        719
 Number of occupied orbitals:                                                719
 Number of molecular orbitals:                                               719

 Number of orbital functions:                                               2718
 Number of independent orbital functions:                                   2718

 Extrapolation method: PS Nth order


 SCF WAVEFUNCTION OPTIMIZATION

  ----------------------------------- OT ---------------------------------------
  Minimizer      : CG                  : conjugate gradient
  Preconditioner : FULL_ALL            : diagonalization, state selective
  Precond_solver : DEFAULT
  Line search    : 3PNT                : 3 energies
  stepsize       :    0.15000000                  energy_gap     :    0.08000000
  eps_taylor     :   0.10000E-15                  max_taylor     :             4
  ----------------------------------- OT ---------------------------------------

  Step     Update method      Time    Convergence         Total energy    Change
  ------------------------------------------------------------------------------
     1 OT CG       0.12E+00   12.8     0.00016143     -8144.3210384303 -8.14E+03
     2 OT LS       0.17E+00    7.7                    -8144.3302367322
     3 OT LS       0.24E+00    7.8                    -8144.3322233133
     4 OT CG       0.19E+00   15.5     0.00014155     -8144.3333926532 -1.24E-02
     5 OT LS       0.27E+00    7.7                    -8144.3401439850
     6 OT LS       0.17E+00    7.8                    -8144.3381177798
     7 OT CG       0.14E+00   15.4     0.00005513     -8144.3402288952 -6.84E-03
     8 OT LS       0.20E+00    7.6                    -8144.3406639794
     9 OT LS       0.95E-01    7.7                    -8144.3401536384
    10 OT CG       0.76E-01   15.2     0.00002125     -8144.3407909042 -5.62E-04
    11 OT LS       0.11E+00    7.6                    -8144.3408832828
    12 OT LS       0.12E+00    7.7                    -8144.3408970807
    13 OT CG       0.98E-01   15.2     0.00001168     -8144.3408990285 -1.08E-04
    14 OT LS       0.14E+00    7.6                    -8144.3409357328
    15 OT LS       0.16E+00    7.7                    -8144.3409416850
    16 OT CG       0.13E+00   15.2     0.00000618     -8144.3409428843 -4.39E-05

  *** SCF run converged in    16 steps ***


  Electronic density on regular grids:      -1437.9999922988        0.0000077012
  Core density on regular grids:             1437.9999996450       -0.0000003550
  Total charge density on r-space grids:        0.0000073462
  Total charge density g-space grids:           0.0000073462

  Overlap energy of the core charge distribution:               0.00000362222991
  Self energy of the core charge distribution:             -14650.93922905635191
  Core Hamiltonian energy:                                   4107.33018791703944
  Hartree energy:                                            3440.83110363194692
  Exchange-correlation energy:                              -1042.43260326440895
  Dispersion energy:                                           -0.58368180724048

  DFT+U energy:                                                 1.45327607252547

  Total energy:                                             -8144.34094288426058

  outer SCF iter =    1 RMS gradient =   0.62E-05 energy =      -8144.3409428843
  outer SCF loop converged in   1 iterations or   16 steps


  Integrated absolute spin density  :                             234.9686062859
  Ideal and single determinant S**2 :                    0.000000     127.881483

 ENERGY| Total FORCE_EVAL ( QS ) energy (a.u.):            -8144.340954837069148


 --------  Informations at step =    15 ------------
  Optimization Method        =                 BFGS
  Total Energy               =     -8144.3409548371
  Real energy change         =         0.0092810298
  Predicted change in energy =        -0.0190115256
  Scaling factor             =         0.8597855045
  Step size                  =         0.3417325051
  Trust radius               =         0.4724315332
  Decrease in energy         =                   NO
  Used time                  =              203.557

  Convergence check :
  Max. step size             =         0.3417325051
  Conv. limit for step size  =         1.0000000000
  Convergence in step size   =                  YES
  RMS step size              =         0.0390467642
  Conv. limit for RMS step   =         1.0000000000
  Convergence in RMS step    =                  YES
  Max. gradient              =         0.0401300044
  Conv. limit for gradients  =         0.0100000000
  Conv. for gradients        =                   NO
  RMS gradient               =         0.0063058892
  Conv. limit for RMS grad.  =         1.0000000000
  Conv. in RMS gradients     =                  YES
 ---------------------------------------------------

 --------------------------
 OPTIMIZATION STEP:     16
 --------------------------

 Spin 1

 Number of electrons:                                                        719
 Number of occupied orbitals:                                                719
 Number of molecular orbitals:                                               719

 Spin 2

 Number of electrons:                                                        719
 Number of occupied orbitals:                                                719
 Number of molecular orbitals:                                               719

 Number of orbital functions:                                               2718
 Number of independent orbital functions:                                   2718

 Extrapolation method: PS Nth order


 SCF WAVEFUNCTION OPTIMIZATION

  ----------------------------------- OT ---------------------------------------
  Minimizer      : CG                  : conjugate gradient
  Preconditioner : FULL_ALL            : diagonalization, state selective
  Precond_solver : DEFAULT
  Line search    : 3PNT                : 3 energies
  stepsize       :    0.15000000                  energy_gap     :    0.08000000
  eps_taylor     :   0.10000E-15                  max_taylor     :             4
  ----------------------------------- OT ---------------------------------------

  Step     Update method      Time    Convergence         Total energy    Change
  ------------------------------------------------------------------------------
     1 OT CG       0.12E+00   12.8     0.00041892     -8144.2257971487 -8.14E+03
     2 OT LS       0.17E+00    7.6                    -8144.2866672810
     3 OT LS       0.23E+00    7.7                    -8144.2990613154
     4 OT CG       0.18E+00   15.3     0.00034767     -8144.3050269916 -7.92E-02
     5 OT LS       0.26E+00    7.5                    -8144.3487381983
     6 OT LS       0.18E+00    7.8                    -8144.3415669643
     7 OT CG       0.15E+00   15.3     0.00014181     -8144.3487386037 -4.37E-02
     8 OT LS       0.21E+00    7.5                    -8144.3521296126
     9 OT LS       0.10E+00    7.7                    -8144.3488983010
    10 OT CG       0.83E-01   15.3     0.00005942     -8144.3528337198 -4.10E-03
    11 OT LS       0.12E+00    7.5                    -8144.3535808559
    12 OT LS       0.12E+00    7.8                    -8144.3536540668
    13 OT CG       0.95E-01   15.2     0.00003151     -8144.3536543596 -8.21E-04
    14 OT LS       0.13E+00    7.5                    -8144.3539056016
    15 OT LS       0.15E+00    7.8                    -8144.3539400794
    16 OT CG       0.12E+00   15.3     0.00001448     -8144.3539433149 -2.89E-04
    17 OT LS       0.17E+00    7.5                    -8144.3540019767
    18 OT LS       0.15E+00    7.8                    -8144.3540035838
    19 OT CG       0.12E+00   15.3     0.00000731     -8144.3540044456 -6.11E-05

  *** SCF run converged in    19 steps ***


  Electronic density on regular grids:      -1437.9999922808        0.0000077192
  Core density on regular grids:             1437.9999996443       -0.0000003557
  Total charge density on r-space grids:        0.0000073635
  Total charge density g-space grids:           0.0000073635

  Overlap energy of the core charge distribution:               0.00000709631733
  Self energy of the core charge distribution:             -14650.93922905635191
  Core Hamiltonian energy:                                   4107.39055119559634
  Hartree energy:                                            3440.77458742225099
  Exchange-correlation energy:                              -1042.44632233696530
  Dispersion energy:                                           -0.58774790912446

  DFT+U energy:                                                 1.45414914267861

  Total energy:                                             -8144.35400444559764

  outer SCF iter =    1 RMS gradient =   0.73E-05 energy =      -8144.3540044456
  outer SCF loop converged in   1 iterations or   19 steps


  Integrated absolute spin density  :                             234.9882489053
  Ideal and single determinant S**2 :                    0.000000     127.887437

 ENERGY| Total FORCE_EVAL ( QS ) energy (a.u.):            -8144.354023185495862


 --------  Informations at step =    16 ------------
  Optimization Method        =                 BFGS
  Total Energy               =     -8144.3540231855
  Real energy change         =        -0.0130683484
  Predicted change in energy =        -0.0170251589
  Scaling factor             =         0.8597855045
  Step size                  =         0.0875371436
  Trust radius               =         0.4724315332
  Decrease in energy         =                  YES
  Used time                  =              233.737

  Convergence check :
  Max. step size             =         0.0875371436
  Conv. limit for step size  =         1.0000000000
  Convergence in step size   =                  YES
  RMS step size              =         0.0154483969
  Conv. limit for RMS step   =         1.0000000000
  Convergence in RMS step    =                  YES
  Max. gradient              =         0.0188608837
  Conv. limit for gradients  =         0.0100000000
  Conv. for gradients        =                   NO
  RMS gradient               =         0.0028582730
  Conv. limit for RMS grad.  =         1.0000000000
  Conv. in RMS gradients     =                  YES
 ---------------------------------------------------

 --------------------------
 OPTIMIZATION STEP:     17
 --------------------------

 Spin 1

 Number of electrons:                                                        719
 Number of occupied orbitals:                                                719
 Number of molecular orbitals:                                               719

 Spin 2

 Number of electrons:                                                        719
 Number of occupied orbitals:                                                719
 Number of molecular orbitals:                                               719

 Number of orbital functions:                                               2718
 Number of independent orbital functions:                                   2718

 Extrapolation method: PS Nth order


 SCF WAVEFUNCTION OPTIMIZATION

  ----------------------------------- OT ---------------------------------------
  Minimizer      : CG                  : conjugate gradient
  Preconditioner : FULL_ALL            : diagonalization, state selective
  Precond_solver : DEFAULT
  Line search    : 3PNT                : 3 energies
  stepsize       :    0.15000000                  energy_gap     :    0.08000000
  eps_taylor     :   0.10000E-15                  max_taylor     :             4
  ----------------------------------- OT ---------------------------------------

  Step     Update method      Time    Convergence         Total energy    Change
  ------------------------------------------------------------------------------
     1 OT CG       0.12E+00   12.9     0.00033163     -8144.2716834984 -8.14E+03
     2 OT LS       0.17E+00    7.8                    -8144.3122532550
     3 OT LS       0.28E+00    7.8                    -8144.3223115645
     4 OT CG       0.22E+00   15.5     0.00027723     -8144.3320681793 -6.04E-02
     5 OT LS       0.31E+00    8.0                    -8144.3522770577
     6 OT LS       0.16E+00    7.9                    -8144.3338545310
     7 OT CG       0.13E+00   15.5     0.00010276     -8144.3561610987 -2.41E-02
     8 OT LS       0.18E+00    7.8                    -8144.3580478276
     9 OT LS       0.99E-01    7.8                    -8144.3568827133
    10 OT CG       0.80E-01   15.5     0.00004536     -8144.3582195683 -2.06E-03
    11 OT LS       0.11E+00    7.8                    -8144.3586469652
    12 OT LS       0.12E+00    7.8                    -8144.3586987264
    13 OT CG       0.96E-01   15.5     0.00002343     -8144.3587010456 -4.81E-04
    14 OT LS       0.13E+00    7.8                    -8144.3588399429
    15 OT LS       0.15E+00    7.9                    -8144.3588582046
    16 OT CG       0.12E+00   15.5     0.00001142     -8144.3588595597 -1.59E-04
    17 OT LS       0.17E+00    7.7                    -8144.3588963820
    18 OT LS       0.15E+00    7.9                    -8144.3588980365
    19 OT CG       0.12E+00   15.5     0.00000757     -8144.3588983261 -3.88E-05

  *** SCF run converged in    19 steps ***


  Electronic density on regular grids:      -1437.9999923015        0.0000076985
  Core density on regular grids:             1437.9999996444       -0.0000003556
  Total charge density on r-space grids:        0.0000073429
  Total charge density g-space grids:           0.0000073429

  Overlap energy of the core charge distribution:               0.00000507694354
  Self energy of the core charge distribution:             -14650.93922905635191
  Core Hamiltonian energy:                                   4107.21849952108460
  Hartree energy:                                            3440.90509151005290
  Exchange-correlation energy:                              -1042.41155342984462
  Dispersion energy:                                           -0.58800444414860

  DFT+U energy:                                                 1.45629249619453

  Total energy:                                             -8144.35889832606972

  outer SCF iter =    1 RMS gradient =   0.76E-05 energy =      -8144.3588983261
  outer SCF loop converged in   1 iterations or   19 steps


  Integrated absolute spin density  :                             235.0324119455
  Ideal and single determinant S**2 :                    0.000000     127.901802

 ENERGY| Total FORCE_EVAL ( QS ) energy (a.u.):            -8144.358916688659519


 --------  Informations at step =    17 ------------
  Optimization Method        =                 BFGS
  Total Energy               =     -8144.3589166887
  Real energy change         =        -0.0048935032
  Predicted change in energy =        -0.0095995020
  Scaling factor             =         0.8597855045
  Step size                  =         0.1178904202
  Trust radius               =         0.4724315332
  Decrease in energy         =                  YES
  Used time                  =              237.998

  Convergence check :
  Max. step size             =         0.1178904202
  Conv. limit for step size  =         1.0000000000
  Convergence in step size   =                  YES
  RMS step size              =         0.0191725021
  Conv. limit for RMS step   =         1.0000000000
  Convergence in RMS step    =                  YES
  Max. gradient              =         0.0259634799
  Conv. limit for gradients  =         0.0100000000
  Conv. for gradients        =                   NO
  RMS gradient               =         0.0028380695
  Conv. limit for RMS grad.  =         1.0000000000
  Conv. in RMS gradients     =                  YES
 ---------------------------------------------------

 --------------------------
 OPTIMIZATION STEP:     18
 --------------------------

 Spin 1

 Number of electrons:                                                        719
 Number of occupied orbitals:                                                719
 Number of molecular orbitals:                                               719

 Spin 2

 Number of electrons:                                                        719
 Number of occupied orbitals:                                                719
 Number of molecular orbitals:                                               719

 Number of orbital functions:                                               2718
 Number of independent orbital functions:                                   2718

 Extrapolation method: PS Nth order


 SCF WAVEFUNCTION OPTIMIZATION

  ----------------------------------- OT ---------------------------------------
  Minimizer      : CG                  : conjugate gradient
  Preconditioner : FULL_ALL            : diagonalization, state selective
  Precond_solver : DEFAULT
  Line search    : 3PNT                : 3 energies
  stepsize       :    0.15000000                  energy_gap     :    0.08000000
  eps_taylor     :   0.10000E-15                  max_taylor     :             4
  ----------------------------------- OT ---------------------------------------

  Step     Update method      Time    Convergence         Total energy    Change
  ------------------------------------------------------------------------------
     1 OT CG       0.12E+00   12.2     0.00032456     -8144.2842434383 -8.14E+03
     2 OT LS       0.17E+00    7.3                    -8144.3214699808
     3 OT LS       0.24E+00    7.2                    -8144.3295414240
     4 OT CG       0.19E+00   14.7     0.00027913     -8144.3343575546 -5.01E-02
     5 OT LS       0.27E+00    7.3                    -8144.3601313170
     6 OT LS       0.17E+00    7.2                    -8144.3518615604
     7 OT CG       0.14E+00   14.8     0.00010299     -8144.3605580946 -2.62E-02
     8 OT LS       0.19E+00    7.3                    -8144.3625494259
     9 OT LS       0.11E+00    7.2                    -8144.3612551765
    10 OT CG       0.85E-01   14.8     0.00004363     -8144.3627527102 -2.19E-03
    11 OT LS       0.12E+00    7.3                    -8144.3631689138
    12 OT LS       0.12E+00    7.2                    -8144.3632145816
    13 OT CG       0.99E-01   14.8     0.00002601     -8144.3632154706 -4.63E-04
    14 OT LS       0.14E+00    7.3                    -8144.3633788386
    15 OT LS       0.13E+00    7.3                    -8144.3633884953
    16 OT CG       0.11E+00   14.8     0.00000996     -8144.3633891086 -1.74E-04

  *** SCF run converged in    16 steps ***


  Electronic density on regular grids:      -1437.9999922984        0.0000077016
  Core density on regular grids:             1437.9999996443       -0.0000003557
  Total charge density on r-space grids:        0.0000073459
  Total charge density g-space grids:           0.0000073459

  Overlap energy of the core charge distribution:               0.00000726040641
  Self energy of the core charge distribution:             -14650.93922905635191
  Core Hamiltonian energy:                                   4107.30070276200331
  Hartree energy:                                            3440.84724871368007
  Exchange-correlation energy:                              -1042.44048791287423
  Dispersion energy:                                           -0.58773245629515

  DFT+U energy:                                                 1.45610158084342

  Total energy:                                             -8144.36338910858831

  outer SCF iter =    1 RMS gradient =   0.10E-04 energy =      -8144.3633891086
  outer SCF loop converged in   1 iterations or   16 steps


  Integrated absolute spin density  :                             235.0418885300
  Ideal and single determinant S**2 :                    0.000000     127.906917

 ENERGY| Total FORCE_EVAL ( QS ) energy (a.u.):            -8144.363415376212288


 --------  Informations at step =    18 ------------
  Optimization Method        =                 BFGS
  Total Energy               =     -8144.3634153762
  Real energy change         =        -0.0044986876
  Predicted change in energy =        -0.0038966141
  Scaling factor             =         0.8597855045
  Step size                  =         0.0940651250
  Trust radius               =         0.4724315332
  Decrease in energy         =                  YES
  Used time                  =              194.875

  Convergence check :
  Max. step size             =         0.0940651250
  Conv. limit for step size  =         1.0000000000
  Convergence in step size   =                  YES
  RMS step size              =         0.0104441737
  Conv. limit for RMS step   =         1.0000000000
  Convergence in RMS step    =                  YES
  Max. gradient              =         0.0158888017
  Conv. limit for gradients  =         0.0100000000
  Conv. for gradients        =                   NO
  RMS gradient               =         0.0021397108
  Conv. limit for RMS grad.  =         1.0000000000
  Conv. in RMS gradients     =                  YES
 ---------------------------------------------------

 --------------------------
 OPTIMIZATION STEP:     19
 --------------------------

 Spin 1

 Number of electrons:                                                        719
 Number of occupied orbitals:                                                719
 Number of molecular orbitals:                                               719

 Spin 2

 Number of electrons:                                                        719
 Number of occupied orbitals:                                                719
 Number of molecular orbitals:                                               719

 Number of orbital functions:                                               2718
 Number of independent orbital functions:                                   2718

 Extrapolation method: PS Nth order


 SCF WAVEFUNCTION OPTIMIZATION

  ----------------------------------- OT ---------------------------------------
  Minimizer      : CG                  : conjugate gradient
  Preconditioner : FULL_ALL            : diagonalization, state selective
  Precond_solver : DEFAULT
  Line search    : 3PNT                : 3 energies
  stepsize       :    0.15000000                  energy_gap     :    0.08000000
  eps_taylor     :   0.10000E-15                  max_taylor     :             4
  ----------------------------------- OT ---------------------------------------

  Step     Update method      Time    Convergence         Total energy    Change
  ------------------------------------------------------------------------------
     1 OT CG       0.12E+00   12.4     0.00017479     -8144.3367928877 -8.14E+03
     2 OT LS       0.17E+00    7.4                    -8144.3481301560
     3 OT LS       0.29E+00    7.2                    -8144.3509865253
     4 OT CG       0.23E+00   14.8     0.00015033     -8144.3539187495 -1.71E-02
     5 OT LS       0.32E+00    7.3                    -8144.3587763613
     6 OT LS       0.15E+00    7.2                    -8144.3521159871
     7 OT CG       0.12E+00   14.7     0.00005820     -8144.3605746119 -6.66E-03
     8 OT LS       0.17E+00    7.4                    -8144.3610871398
     9 OT LS       0.89E-01    7.3                    -8144.3606840961
    10 OT CG       0.71E-01   14.7     0.00002379     -8144.3611629326 -5.88E-04
    11 OT LS       0.10E+00    7.4                    -8144.3612853021
    12 OT LS       0.16E+00    7.3                    -8144.3613146414
    13 OT CG       0.13E+00   14.8     0.00001338     -8144.3613397769 -1.77E-04
    14 OT LS       0.18E+00    7.4                    -8144.3613905608
    15 OT LS       0.15E+00    7.3                    -8144.3613892079
    16 OT CG       0.12E+00   14.7     0.00000671     -8144.3613915055 -5.17E-05

  *** SCF run converged in    16 steps ***


  Electronic density on regular grids:      -1437.9999922925        0.0000077075
  Core density on regular grids:             1437.9999996448       -0.0000003552
  Total charge density on r-space grids:        0.0000073523
  Total charge density g-space grids:           0.0000073523

  Overlap energy of the core charge distribution:               0.00000643434350
  Self energy of the core charge distribution:             -14650.93922905635191
  Core Hamiltonian energy:                                   4107.32363261075443
  Hartree energy:                                            3440.82810596502577
  Exchange-correlation energy:                              -1042.44558232073109
  Dispersion energy:                                           -0.58376688812534

  DFT+U energy:                                                 1.45544174962186

  Total energy:                                             -8144.36139150546205

  outer SCF iter =    1 RMS gradient =   0.67E-05 energy =      -8144.3613915055
  outer SCF loop converged in   1 iterations or   16 steps


  Integrated absolute spin density  :                             235.0210480431
  Ideal and single determinant S**2 :                    0.000000     127.901433

 ENERGY| Total FORCE_EVAL ( QS ) energy (a.u.):            -8144.361407101666373


 --------  Informations at step =    19 ------------
  Optimization Method        =                 BFGS
  Total Energy               =     -8144.3614071017
  Real energy change         =         0.0020082745
  Predicted change in energy =        -0.0051445384
  Scaling factor             =         0.8597855045
  Step size                  =         0.1936716101
  Trust radius               =         0.4724315332
  Decrease in energy         =                   NO
  Used time                  =              195.007

  Convergence check :
  Max. step size             =         0.1936716101
  Conv. limit for step size  =         1.0000000000
  Convergence in step size   =                  YES
  RMS step size              =         0.0220935302
  Conv. limit for RMS step   =         1.0000000000
  Convergence in RMS step    =                  YES
  Max. gradient              =         0.0226965298
  Conv. limit for gradients  =         0.0100000000
  Conv. for gradients        =                   NO
  RMS gradient               =         0.0032901058
  Conv. limit for RMS grad.  =         1.0000000000
  Conv. in RMS gradients     =                  YES
 ---------------------------------------------------

 --------------------------
 OPTIMIZATION STEP:     20
 --------------------------

 Spin 1

 Number of electrons:                                                        719
 Number of occupied orbitals:                                                719
 Number of molecular orbitals:                                               719

 Spin 2

 Number of electrons:                                                        719
 Number of occupied orbitals:                                                719
 Number of molecular orbitals:                                               719

 Number of orbital functions:                                               2718
 Number of independent orbital functions:                                   2718

 Extrapolation method: PS Nth order


 SCF WAVEFUNCTION OPTIMIZATION

  ----------------------------------- OT ---------------------------------------
  Minimizer      : CG                  : conjugate gradient
  Preconditioner : FULL_ALL            : diagonalization, state selective
  Precond_solver : DEFAULT
  Line search    : 3PNT                : 3 energies
  stepsize       :    0.15000000                  energy_gap     :    0.08000000
  eps_taylor     :   0.10000E-15                  max_taylor     :             4
  ----------------------------------- OT ---------------------------------------

  Step     Update method      Time    Convergence         Total energy    Change
  ------------------------------------------------------------------------------
     1 OT CG       0.12E+00   12.1     0.00022537     -8144.3304874210 -8.14E+03
     2 OT LS       0.17E+00    7.3                    -8144.3478767751
     3 OT LS       0.22E+00    7.3                    -8144.3512381770
     4 OT CG       0.18E+00   14.7     0.00018562     -8144.3525726079 -2.21E-02
     5 OT LS       0.25E+00    7.3                    -8144.3655151654
     6 OT LS       0.19E+00    7.4                    -8144.3644940395
     7 OT CG       0.15E+00   14.8     0.00006990     -8144.3655945951 -1.30E-02
     8 OT LS       0.22E+00    7.4                    -8144.3665857702
     9 OT LS       0.12E+00    7.5                    -8144.3658846928
    10 OT CG       0.93E-01   15.1     0.00003057     -8144.3667054319 -1.11E-03
    11 OT LS       0.13E+00    7.5                    -8144.3669164109
    12 OT LS       0.12E+00    7.4                    -8144.3669285650
    13 OT CG       0.98E-01   15.0     0.00001790     -8144.3669294386 -2.24E-04
    14 OT LS       0.14E+00    7.6                    -8144.3670085446
    15 OT LS       0.14E+00    7.4                    -8144.3670156707
    16 OT CG       0.11E+00   15.0     0.00000909     -8144.3670156712 -8.62E-05

  *** SCF run converged in    16 steps ***


  Electronic density on regular grids:      -1437.9999922881        0.0000077119
  Core density on regular grids:             1437.9999996446       -0.0000003554
  Total charge density on r-space grids:        0.0000073565
  Total charge density g-space grids:           0.0000073565

  Overlap energy of the core charge distribution:               0.00000616928589
  Self energy of the core charge distribution:             -14650.93922905635191
  Core Hamiltonian energy:                                   4107.29704110086823
  Hartree energy:                                            3440.84777939018159
  Exchange-correlation energy:                              -1042.44031297686865
  Dispersion energy:                                           -0.58669073180857

  DFT+U energy:                                                 1.45439043347928

  Total energy:                                             -8144.36701567121327

  outer SCF iter =    1 RMS gradient =   0.91E-05 energy =      -8144.3670156712
  outer SCF loop converged in   1 iterations or   16 steps


  Integrated absolute spin density  :                             235.0234818256
  Ideal and single determinant S**2 :                    0.000000     127.901283

 ENERGY| Total FORCE_EVAL ( QS ) energy (a.u.):            -8144.367038944926207


 --------  Informations at step =    20 ------------
  Optimization Method        =                 BFGS
  Total Energy               =     -8144.3670389449
  Real energy change         =        -0.0056318433
  Predicted change in energy =        -0.0045337061
  Scaling factor             =         0.8597855045
  Step size                  =         0.0508000047
  Trust radius               =         0.4724315332
  Decrease in energy         =                  YES
  Used time                  =              197.246

  Convergence check :
  Max. step size             =         0.0508000047
  Conv. limit for step size  =         1.0000000000
  Convergence in step size   =                  YES
  RMS step size              =         0.0073178069
  Conv. limit for RMS step   =         1.0000000000
  Convergence in RMS step    =                  YES
  Max. gradient              =         0.0302836632
  Conv. limit for gradients  =         0.0100000000
  Conv. for gradients        =                   NO
  RMS gradient               =         0.0033669053
  Conv. limit for RMS grad.  =         1.0000000000
  Conv. in RMS gradients     =                  YES
 ---------------------------------------------------

 --------------------------
 OPTIMIZATION STEP:     21
 --------------------------

  Step is scaled; Scaling factor =  0.92062

 Spin 1

 Number of electrons:                                                        719
 Number of occupied orbitals:                                                719
 Number of molecular orbitals:                                               719

 Spin 2

 Number of electrons:                                                        719
 Number of occupied orbitals:                                                719
 Number of molecular orbitals:                                               719

 Number of orbital functions:                                               2718
 Number of independent orbital functions:                                   2718

 Extrapolation method: PS Nth order


 SCF WAVEFUNCTION OPTIMIZATION

  ----------------------------------- OT ---------------------------------------
  Minimizer      : CG                  : conjugate gradient
  Preconditioner : FULL_ALL            : diagonalization, state selective
  Precond_solver : DEFAULT
  Line search    : 3PNT                : 3 energies
  stepsize       :    0.15000000                  energy_gap     :    0.08000000
  eps_taylor     :   0.10000E-15                  max_taylor     :             4
  ----------------------------------- OT ---------------------------------------

  Step     Update method      Time    Convergence         Total energy    Change
  ------------------------------------------------------------------------------
     1 OT CG       0.12E+00   12.5     0.00026170     -8144.2177306244 -8.14E+03
     2 OT LS       0.17E+00    7.4                    -8144.2404440503
     3 OT LS       0.20E+00    7.4                    -8144.2441669727
     4 OT CG       0.16E+00   14.8     0.00023110     -8144.2449110643 -2.72E-02
     5 OT LS       0.23E+00    7.4                    -8144.2628760883
     6 OT LS       0.18E+00    7.4                    -8144.2616144743
     7 OT CG       0.14E+00  123.7     0.00010001     -8144.2630021891 -1.81E-02
     8 OT LS       0.20E+00  922.7                    -8144.2650494118
     9 OT LS       0.11E+00    7.4                    -8144.2639040557
    10 OT CG       0.90E-01   15.0     0.00003480     -8144.2651997274 -2.20E-03
    11 OT LS       0.13E+00    7.5                    -8144.2654912046
    12 OT LS       0.14E+00    7.5                    -8144.2655325272
    13 OT CG       0.11E+00   15.3     0.00002155     -8144.2655370913 -3.37E-04
    14 OT LS       0.16E+00    7.7                    -8144.2656521111
    15 OT LS       0.13E+00    7.6                    -8144.2656467081
    16 OT CG       0.10E+00   15.4     0.00001134     -8144.2656535795 -1.16E-04
    17 OT LS       0.14E+00    7.6                    -8144.2656859610
    18 OT LS       0.14E+00    7.7                    -8144.2656881824
    19 OT CG       0.11E+00   15.3     0.00000669     -8144.2656882406 -3.47E-05

  *** SCF run converged in    19 steps ***


  Electronic density on regular grids:      -1437.9999923021        0.0000076979
  Core density on regular grids:             1437.9999996452       -0.0000003548
  Total charge density on r-space grids:        0.0000073431
  Total charge density g-space grids:           0.0000073431

  Overlap energy of the core charge distribution:               0.00000554316051
  Self energy of the core charge distribution:             -14650.93922905635191
  Core Hamiltonian energy:                                   4107.42687901058707
  Hartree energy:                                            3440.78624356625778
  Exchange-correlation energy:                              -1042.42169610846986
  Dispersion energy:                                           -0.57423917899586

  DFT+U energy:                                                 1.45634798324716

  Total energy:                                             -8144.26568824056449

  outer SCF iter =    1 RMS gradient =   0.67E-05 energy =      -8144.2656882406
  outer SCF loop converged in   1 iterations or   19 steps


  Integrated absolute spin density  :                             234.9797499423
  Ideal and single determinant S**2 :                    0.000000     127.865890

 ENERGY| Total FORCE_EVAL ( QS ) energy (a.u.):            -8144.265703459918768


 --------  Informations at step =    21 ------------
  Optimization Method        =                 BFGS
  Total Energy               =     -8144.2657034599
  Real energy change         =         0.1013354850
  Predicted change in energy =        -0.0350446662
  Scaling factor             =         0.9206176372
  Step size                  =         0.4724315332
  Trust radius               =         0.4724315332
  Decrease in energy         =                   NO
  Used time                  =             1469.470

  Convergence check :
  Max. step size             =         0.4724315332
  Conv. limit for step size  =         1.0000000000
  Convergence in step size   =                  YES
  RMS step size              =         0.0605952520
  Conv. limit for RMS step   =         1.0000000000
  Convergence in RMS step    =                  YES
  Max. gradient              =         0.0923251903
  Conv. limit for gradients  =         0.0100000000
  Conv. for gradients        =                   NO
  RMS gradient               =         0.0085887750
  Conv. limit for RMS grad.  =         1.0000000000
  Conv. in RMS gradients     =                  YES
 ---------------------------------------------------

 --------------------------
 OPTIMIZATION STEP:     22
 --------------------------

 Spin 1

 Number of electrons:                                                        719
 Number of occupied orbitals:                                                719
 Number of molecular orbitals:                                               719

 Spin 2

 Number of electrons:                                                        719
 Number of occupied orbitals:                                                719
 Number of molecular orbitals:                                               719

 Number of orbital functions:                                               2718
 Number of independent orbital functions:                                   2718

 Extrapolation method: PS Nth order


 SCF WAVEFUNCTION OPTIMIZATION

  ----------------------------------- OT ---------------------------------------
  Minimizer      : CG                  : conjugate gradient
  Preconditioner : FULL_ALL            : diagonalization, state selective
  Precond_solver : DEFAULT
  Line search    : 3PNT                : 3 energies
  stepsize       :    0.15000000                  energy_gap     :    0.08000000
  eps_taylor     :   0.10000E-15                  max_taylor     :             4
  ----------------------------------- OT ---------------------------------------

  Step     Update method      Time    Convergence         Total energy    Change
  ------------------------------------------------------------------------------
     1 OT CG       0.12E+00   12.7     0.00113240     -8143.5135526936 -8.14E+03
     2 OT LS       0.17E+00    8.3                    -8143.9317459596
     3 OT LS       0.20E+00    8.1                    -8143.9992555491
     4 OT CG       0.16E+00   15.7     0.00085057     -8144.0138481429 -5.00E-01
     5 OT LS       0.22E+00    7.9                    -8144.2896054331
     6 OT LS       0.20E+00    8.1                    -8144.2976763189
     7 OT CG       0.16E+00   15.8     0.00042835     -8144.3014703314 -2.88E-01
     8 OT LS       0.23E+00    8.0                    -8144.3348588445
     9 OT LS       0.11E+00    8.1                    -8144.3005018100
    10 OT CG       0.90E-01   15.7     0.00017730     -8144.3424350613 -4.10E-02
    11 OT LS       0.13E+00    8.0                    -8144.3495099155
    12 OT LS       0.12E+00    8.1                    -8144.3500937240
    13 OT CG       0.99E-01   15.6     0.00010966     -8144.3500948272 -7.66E-03
    14 OT LS       0.14E+00    7.8                    -8144.3531199560
    15 OT LS       0.14E+00    7.9                    -8144.3534064957
    16 OT CG       0.11E+00   15.3     0.00005962     -8144.3534069718 -3.31E-03
    17 OT LS       0.16E+00    7.8                    -8144.3543970993
    18 OT LS       0.15E+00    7.9                    -8144.3544711240
    19 OT CG       0.12E+00   15.3     0.00003133     -8144.3544720186 -1.07E-03
    20 OT LS       0.17E+00    7.8                    -8144.3547829964
    21 OT LS       0.18E+00    7.9                    -8144.3548180452
    22 OT CG       0.14E+00   15.4     0.00002734     -8144.3548189242 -3.47E-04
    23 OT LS       0.20E+00    7.9                    -8144.3550216060
    24 OT LS       0.14E+00    7.8                    -8144.3549799054
    25 OT CG       0.11E+00   14.8     0.00001565     -8144.3550219229 -2.03E-04
    26 OT LS       0.16E+00    7.5                    -8144.3550875269
    27 OT LS       0.14E+00    7.6                    -8144.3550908345
    28 OT CG       0.12E+00   14.9     0.00000806     -8144.3550912363 -6.93E-05

  *** SCF run converged in    28 steps ***


  Electronic density on regular grids:      -1437.9999922992        0.0000077008
  Core density on regular grids:             1437.9999996448       -0.0000003552
  Total charge density on r-space grids:        0.0000073455
  Total charge density g-space grids:           0.0000073455

  Overlap energy of the core charge distribution:               0.00000587931177
  Self energy of the core charge distribution:             -14650.93922905635191
  Core Hamiltonian energy:                                   4107.32957169360634
  Hartree energy:                                            3440.82218467686880
  Exchange-correlation energy:                              -1042.44132697454302
  Dispersion energy:                                           -0.57977631193115

  DFT+U energy:                                                 1.45347885670246

  Total energy:                                             -8144.35509123633619

  outer SCF iter =    1 RMS gradient =   0.81E-05 energy =      -8144.3550912363
  outer SCF loop converged in   1 iterations or   28 steps


  Integrated absolute spin density  :                             234.9993150748
  Ideal and single determinant S**2 :                    0.000000     127.888888

 ENERGY| Total FORCE_EVAL ( QS ) energy (a.u.):            -8144.355113032818736


 --------  Informations at step =    22 ------------
  Optimization Method        =                 BFGS
  Total Energy               =     -8144.3551130328
  Real energy change         =        -0.0894095729
  Predicted change in energy =        -0.0667310726
  Scaling factor             =         0.9206176372
  Step size                  =         0.3187360766
  Trust radius               =         0.4724315332
  Decrease in energy         =                   NO
  Used time                  =              329.924

  Convergence check :
  Max. step size             =         0.3187360766
  Conv. limit for step size  =         1.0000000000
  Convergence in step size   =                  YES
  RMS step size              =         0.0441704357
  Conv. limit for RMS step   =         1.0000000000
  Convergence in RMS step    =                  YES
  Max. gradient              =         0.0333866294
  Conv. limit for gradients  =         0.0100000000
  Conv. for gradients        =                   NO
  RMS gradient               =         0.0049873261
  Conv. limit for RMS grad.  =         1.0000000000
  Conv. in RMS gradients     =                  YES
 ---------------------------------------------------

 --------------------------
 OPTIMIZATION STEP:     23
 --------------------------

 Spin 1

 Number of electrons:                                                        719
 Number of occupied orbitals:                                                719
 Number of molecular orbitals:                                               719

 Spin 2

 Number of electrons:                                                        719
 Number of occupied orbitals:                                                719
 Number of molecular orbitals:                                               719

 Number of orbital functions:                                               2718
 Number of independent orbital functions:                                   2718

 Extrapolation method: PS Nth order


 SCF WAVEFUNCTION OPTIMIZATION

  ----------------------------------- OT ---------------------------------------
  Minimizer      : CG                  : conjugate gradient
  Preconditioner : FULL_ALL            : diagonalization, state selective
  Precond_solver : DEFAULT
  Line search    : 3PNT                : 3 energies
  stepsize       :    0.15000000                  energy_gap     :    0.08000000
  eps_taylor     :   0.10000E-15                  max_taylor     :             4
  ----------------------------------- OT ---------------------------------------

  Step     Update method      Time    Convergence         Total energy    Change
  ------------------------------------------------------------------------------
     1 OT CG       0.12E+00   12.2     0.00080023     -8143.9010881654 -8.14E+03
     2 OT LS       0.17E+00    7.4                    -8144.0839985989
     3 OT LS       0.16E+00    7.4                    -8144.0938624389
     4 OT CG       0.13E+00   14.7     0.00049775     -8144.0946755699 -1.94E-01
     5 OT LS       0.18E+00    7.3                    -8144.1882037645
     6 OT LS       0.27E+00    7.6                    -8144.2096447846
     7 OT CG       0.22E+00   14.8     0.00026732     -8144.2252288013 -1.31E-01
     8 OT LS       0.11E+00    7.6                    -8144.2203718347
     9 OT LS       0.10E+00    7.6                    -8144.2390519193
    10 OT CG       0.80E-01   14.8     0.00011280     -8144.2391409622 -1.39E-02
    11 OT LS       0.11E+00    7.6                    -8144.2418752145
    12 OT LS       0.13E+00    7.5                    -8144.2422781800
    13 OT CG       0.10E+00   14.7     0.00007016     -8144.2423309819 -3.19E-03
    14 OT LS       0.14E+00    7.7                    -8144.2436720330
    15 OT LS       0.16E+00    7.5                    -8144.2438584307
    16 OT CG       0.13E+00   14.7     0.00003374     -8144.2438773337 -1.55E-03
    17 OT LS       0.18E+00    7.6                    -8144.2442168927
    18 OT LS       0.16E+00    7.6                    -8144.2442211180
    19 OT CG       0.13E+00   14.8     0.00002133     -8144.2442285354 -3.51E-04
    20 OT LS       0.18E+00    7.6                    -8144.2443720696
    21 OT LS       0.18E+00    7.6                    -8144.2443843471
    22 OT CG       0.14E+00   14.8     0.00001837     -8144.2443843544 -1.56E-04
    23 OT LS       0.20E+00    7.6                    -8144.2444735895
    24 OT LS       0.14E+00    7.6                    -8144.2444556542
    25 OT CG       0.11E+00   14.8     0.00000940     -8144.2444736998 -8.93E-05

  *** SCF run converged in    25 steps ***


  Electronic density on regular grids:      -1437.9999922921        0.0000077079
  Core density on regular grids:             1437.9999996444       -0.0000003556
  Total charge density on r-space grids:        0.0000073523
  Total charge density g-space grids:           0.0000073523

  Overlap energy of the core charge distribution:               0.00001003846664
  Self energy of the core charge distribution:             -14650.93922905635191
  Core Hamiltonian energy:                                   4107.56831883586710
  Hartree energy:                                            3440.69747945711879
  Exchange-correlation energy:                              -1042.46669473015118
  Dispersion energy:                                           -0.56975405616581

  DFT+U energy:                                                 1.46539581139447

  Total energy:                                             -8144.24447369982317

  outer SCF iter =    1 RMS gradient =   0.94E-05 energy =      -8144.2444736998
  outer SCF loop converged in   1 iterations or   25 steps


  Integrated absolute spin density  :                             234.9796512833
  Ideal and single determinant S**2 :                    0.000000     127.878366

 ENERGY| Total FORCE_EVAL ( QS ) energy (a.u.):            -8144.244498160524927


 --------  Informations at step =    23 ------------
  Optimization Method        =                 BFGS
  Total Energy               =     -8144.2444981605
  Real energy change         =         0.1106148723
  Predicted change in energy =        -0.0652777377
  Scaling factor             =         0.9206176372
  Step size                  =         0.4663667543
  Trust radius               =         0.4724315332
  Decrease in energy         =                   NO
  Used time                  =              286.981

  Convergence check :
  Max. step size             =         0.4663667543
  Conv. limit for step size  =         1.0000000000
  Convergence in step size   =                  YES
  RMS step size              =         0.0755605548
  Conv. limit for RMS step   =         1.0000000000
  Convergence in RMS step    =                  YES
  Max. gradient              =         0.2071862450
  Conv. limit for gradients  =         0.0100000000
  Conv. for gradients        =                   NO
  RMS gradient               =         0.0175939834
  Conv. limit for RMS grad.  =         1.0000000000
  Conv. in RMS gradients     =                  YES
 ---------------------------------------------------

 --------------------------
 OPTIMIZATION STEP:     24
 --------------------------

 Spin 1

 Number of electrons:                                                        719
 Number of occupied orbitals:                                                719
 Number of molecular orbitals:                                               719

 Spin 2

 Number of electrons:                                                        719
 Number of occupied orbitals:                                                719
 Number of molecular orbitals:                                               719

 Number of orbital functions:                                               2718
 Number of independent orbital functions:                                   2718

 Extrapolation method: PS Nth order


 SCF WAVEFUNCTION OPTIMIZATION

  ----------------------------------- OT ---------------------------------------
  Minimizer      : CG                  : conjugate gradient
  Preconditioner : FULL_ALL            : diagonalization, state selective
  Precond_solver : DEFAULT
  Line search    : 3PNT                : 3 energies
  stepsize       :    0.15000000                  energy_gap     :    0.08000000
  eps_taylor     :   0.10000E-15                  max_taylor     :             4
  ----------------------------------- OT ---------------------------------------

  Step     Update method      Time    Convergence         Total energy    Change
  ------------------------------------------------------------------------------
     1 OT CG       0.12E+00   12.2     0.00108597     -8143.5354577526 -8.14E+03
     2 OT LS       0.17E+00    7.3                    -8143.9230762102
     3 OT LS       0.20E+00    7.6                    -8143.9867281773
     4 OT CG       0.16E+00   14.9     0.00090824     -8144.0008453194 -4.65E-01
     5 OT LS       0.23E+00    7.5                    -8144.2838907821
     6 OT LS       0.19E+00    7.6                    -8144.2743760830
     7 OT CG       0.15E+00   14.9     0.00047157     -8144.2879203402 -2.87E-01
     8 OT LS       0.21E+00    7.6                    -8144.3243616882
     9 OT LS       0.10E+00    7.6                    -8144.2860057483
    10 OT CG       0.82E-01   14.7     0.00017351     -8144.3330236111 -4.51E-02
    11 OT LS       0.12E+00    7.5                    -8144.3397466723
    12 OT LS       0.13E+00    7.6                    -8144.3407335581
    13 OT CG       0.11E+00   14.8     0.00011062     -8144.3408570772 -7.83E-03
    14 OT LS       0.15E+00    7.5                    -8144.3439759235
    15 OT LS       0.14E+00    7.6                    -8144.3441598170
    16 OT CG       0.11E+00   14.9     0.00005643     -8144.3441712388 -3.31E-03
    17 OT LS       0.16E+00    7.7                    -8144.3450173990
    18 OT LS       0.14E+00    7.7                    -8144.3450501573
    19 OT CG       0.11E+00   15.0     0.00002885     -8144.3450587066 -8.87E-04
    20 OT LS       0.16E+00    7.8                    -8144.3453103760
    21 OT LS       0.18E+00    7.6                    -8144.3453443802
    22 OT CG       0.14E+00   14.8     0.00002503     -8144.3453473201 -2.89E-04
    23 OT LS       0.20E+00    7.6                    -8144.3455291909
    24 OT LS       0.15E+00    7.6                    -8144.3455089569
    25 OT CG       0.12E+00   14.8     0.00001501     -8144.3455295720 -1.82E-04
    26 OT LS       0.17E+00    7.6                    -8144.3455920146
    27 OT LS       0.15E+00    7.5                    -8144.3455932823
    28 OT CG       0.12E+00   14.6     0.00000944     -8144.3455944003 -6.48E-05

  *** SCF run converged in    28 steps ***


  Electronic density on regular grids:      -1437.9999922988        0.0000077012
  Core density on regular grids:             1437.9999996440       -0.0000003560
  Total charge density on r-space grids:        0.0000073452
  Total charge density g-space grids:           0.0000073452

  Overlap energy of the core charge distribution:               0.00000574585831
  Self energy of the core charge distribution:             -14650.93922905635191
  Core Hamiltonian energy:                                   4107.27073667996865
  Hartree energy:                                            3440.86607009321324
  Exchange-correlation energy:                              -1042.42068111929802
  Dispersion energy:                                           -0.57708790054066

  DFT+U energy:                                                 1.45459115686565

  Total energy:                                             -8144.34559440028534

  outer SCF iter =    1 RMS gradient =   0.94E-05 energy =      -8144.3455944003
  outer SCF loop converged in   1 iterations or   28 steps


  Integrated absolute spin density  :                             234.9997119331
  Ideal and single determinant S**2 :                    0.000000     127.887906

 ENERGY| Total FORCE_EVAL ( QS ) energy (a.u.):            -8144.345622802026810


 --------  Informations at step =    24 ------------
  Optimization Method        =                 BFGS
  Total Energy               =     -8144.3456228020
  Real energy change         =        -0.1011246415
  Predicted change in energy =        -0.1023303583
  Scaling factor             =         0.9206176372
  Step size                  =         0.2894138127
  Trust radius               =         0.4724315332
  Decrease in energy         =                   NO
  Used time                  =              317.671

  Convergence check :
  Max. step size             =         0.2894138127
  Conv. limit for step size  =         1.0000000000
  Convergence in step size   =                  YES
  RMS step size              =         0.0442377640
  Conv. limit for RMS step   =         1.0000000000
  Convergence in RMS step    =                  YES
  Max. gradient              =         0.0152062526
  Conv. limit for gradients  =         0.0100000000
  Conv. for gradients        =                   NO
  RMS gradient               =         0.0030461976
  Conv. limit for RMS grad.  =         1.0000000000
  Conv. in RMS gradients     =                  YES
 ---------------------------------------------------

 --------------------------
 OPTIMIZATION STEP:     25
 --------------------------

 Spin 1

 Number of electrons:                                                        719
 Number of occupied orbitals:                                                719
 Number of molecular orbitals:                                               719

 Spin 2

 Number of electrons:                                                        719
 Number of occupied orbitals:                                                719
 Number of molecular orbitals:                                               719

 Number of orbital functions:                                               2718
 Number of independent orbital functions:                                   2718

 Extrapolation method: PS Nth order


 SCF WAVEFUNCTION OPTIMIZATION

  ----------------------------------- OT ---------------------------------------
  Minimizer      : CG                  : conjugate gradient
  Preconditioner : FULL_ALL            : diagonalization, state selective
  Precond_solver : DEFAULT
  Line search    : 3PNT                : 3 energies
  stepsize       :    0.15000000                  energy_gap     :    0.08000000
  eps_taylor     :   0.10000E-15                  max_taylor     :             4
  ----------------------------------- OT ---------------------------------------

  Step     Update method      Time    Convergence         Total energy    Change
  ------------------------------------------------------------------------------
     1 OT CG       0.12E+00   12.4     0.00094128     -8143.7663333980 -8.14E+03
     2 OT LS       0.17E+00    7.4                    -8144.0540367527
     3 OT LS       0.20E+00    7.6                    -8144.0994094527
     4 OT CG       0.16E+00   15.3     0.00069215     -8144.1082548977 -3.42E-01
     5 OT LS       0.22E+00    7.6                    -8144.2984508835
     6 OT LS       0.22E+00    7.7                    -8144.3121955212
     7 OT CG       0.17E+00   15.1     0.00035137     -8144.3124412301 -2.04E-01
     8 OT LS       0.24E+00    7.6                    -8144.3282226890
     9 OT LS       0.11E+00    7.6                    -8144.2962347335
    10 OT CG       0.85E-01   15.2     0.00014056     -8144.3381907133 -2.57E-02
    11 OT LS       0.12E+00    7.7                    -8144.3423562903
    12 OT LS       0.12E+00    7.7                    -8144.3426800463
    13 OT CG       0.93E-01   15.2     0.00007643     -8144.3426822850 -4.49E-03
    14 OT LS       0.13E+00    7.6                    -8144.3441873436
    15 OT LS       0.16E+00    7.5                    -8144.3444447732
    16 OT CG       0.13E+00   14.8     0.00004550     -8144.3445090379 -1.83E-03
    17 OT LS       0.18E+00    7.6                    -8144.3451200900
    18 OT LS       0.16E+00    7.5                    -8144.3451264425
    19 OT CG       0.12E+00   14.8     0.00002308     -8144.3451404393 -6.31E-04
    20 OT LS       0.17E+00    7.5                    -8144.3453093869
    21 OT LS       0.18E+00    7.5                    -8144.3453260773
    22 OT CG       0.14E+00   14.8     0.00002089     -8144.3453261551 -1.86E-04
    23 OT LS       0.20E+00    7.6                    -8144.3454448436
    24 OT LS       0.14E+00    7.4                    -8144.3454225826
    25 OT CG       0.11E+00   14.7     0.00001154     -8144.3454449127 -1.19E-04
    26 OT LS       0.16E+00    7.6                    -8144.3454812371
    27 OT LS       0.15E+00    7.4                    -8144.3454836049
    28 OT CG       0.12E+00   14.8     0.00000595     -8144.3454836931 -3.88E-05

  *** SCF run converged in    28 steps ***


  Electronic density on regular grids:      -1437.9999923070        0.0000076930
  Core density on regular grids:             1437.9999996446       -0.0000003554
  Total charge density on r-space grids:        0.0000073376
  Total charge density g-space grids:           0.0000073376

  Overlap energy of the core charge distribution:               0.00000603428589
  Self energy of the core charge distribution:             -14650.93922905635191
  Core Hamiltonian energy:                                   4107.34624658788380
  Hartree energy:                                            3440.81462645480906
  Exchange-correlation energy:                              -1042.44790076237382
  Dispersion energy:                                           -0.57635622126095

  DFT+U energy:                                                 1.45712326988300

  Total energy:                                             -8144.34548369312506

  outer SCF iter =    1 RMS gradient =   0.60E-05 energy =      -8144.3454836931
  outer SCF loop converged in   1 iterations or   28 steps


  Integrated absolute spin density  :                             235.0200884402
  Ideal and single determinant S**2 :                    0.000000     127.894240

 ENERGY| Total FORCE_EVAL ( QS ) energy (a.u.):            -8144.345495828656567


 --------  Informations at step =    25 ------------
  Optimization Method        =                 BFGS
  Total Energy               =     -8144.3454958287
  Real energy change         =         0.0001269734
  Predicted change in energy =        -0.0247655553
  Scaling factor             =         0.9206176372
  Step size                  =         0.2382053080
  Trust radius               =         0.4724315332
  Decrease in energy         =                   NO
  Used time                  =              319.205

  Convergence check :
  Max. step size             =         0.2382053080
  Conv. limit for step size  =         1.0000000000
  Convergence in step size   =                  YES
  RMS step size              =         0.0422735019
  Conv. limit for RMS step   =         1.0000000000
  Convergence in RMS step    =                  YES
  Max. gradient              =         0.0315209027
  Conv. limit for gradients  =         0.0100000000
  Conv. for gradients        =                   NO
  RMS gradient               =         0.0046979662
  Conv. limit for RMS grad.  =         1.0000000000
  Conv. in RMS gradients     =                  YES
 ---------------------------------------------------

 --------------------------
 OPTIMIZATION STEP:     26
 --------------------------

 Spin 1

 Number of electrons:                                                        719
 Number of occupied orbitals:                                                719
 Number of molecular orbitals:                                               719

 Spin 2

 Number of electrons:                                                        719
 Number of occupied orbitals:                                                719
 Number of molecular orbitals:                                               719

 Number of orbital functions:                                               2718
 Number of independent orbital functions:                                   2718

 Extrapolation method: PS Nth order


 SCF WAVEFUNCTION OPTIMIZATION

  ----------------------------------- OT ---------------------------------------
  Minimizer      : CG                  : conjugate gradient
  Preconditioner : FULL_ALL            : diagonalization, state selective
  Precond_solver : DEFAULT
  Line search    : 3PNT                : 3 energies
  stepsize       :    0.15000000                  energy_gap     :    0.08000000
  eps_taylor     :   0.10000E-15                  max_taylor     :             4
  ----------------------------------- OT ---------------------------------------

  Step     Update method      Time    Convergence         Total energy    Change
  ------------------------------------------------------------------------------
     1 OT CG       0.12E+00   12.3     0.00050292     -8144.1771864365 -8.14E+03
     2 OT LS       0.17E+00    7.6                    -8144.2640278358
     3 OT LS       0.22E+00    7.6                    -8144.2809510468
     4 OT CG       0.18E+00   15.0     0.00042380     -8144.2878219276 -1.11E-01
     5 OT LS       0.25E+00    7.6                    -8144.3517129635
     6 OT LS       0.18E+00    7.6                    -8144.3433550542
     7 OT CG       0.15E+00   15.0     0.00017094     -8144.3517499508 -6.39E-02
     8 OT LS       0.21E+00    7.4                    -8144.3572243451
     9 OT LS       0.11E+00    7.7                    -8144.3530551097
    10 OT CG       0.87E-01   15.0     0.00006901     -8144.3579801677 -6.23E-03
    11 OT LS       0.12E+00    7.4                    -8144.3590669204
    12 OT LS       0.13E+00    7.6                    -8144.3591989183
    13 OT CG       0.11E+00   15.1     0.00004287     -8144.3592048369 -1.22E-03
    14 OT LS       0.15E+00    7.6                    -8144.3596556895
    15 OT LS       0.13E+00    7.5                    -8144.3596664747
    16 OT CG       0.10E+00   15.0     0.00002011     -8144.3596737762 -4.69E-04
    17 OT LS       0.15E+00    7.5                    -8144.3597861380
    18 OT LS       0.16E+00    7.6                    -8144.3598013976
    19 OT CG       0.13E+00   14.9     0.00001235     -8144.3598027483 -1.29E-04
    20 OT LS       0.18E+00    7.4                    -8144.3598586255
    21 OT LS       0.23E+00    7.4                    -8144.3598687189
    22 OT CG       0.19E+00   14.7     0.00001294     -8144.3598718309 -6.91E-05
    23 OT LS       0.26E+00    7.3                    -8144.3599190463
    24 OT LS       0.15E+00    7.4                    -8144.3598961188
    25 OT CG       0.12E+00   14.7     0.00000901     -8144.3599215476 -4.97E-05

  *** SCF run converged in    25 steps ***


  Electronic density on regular grids:      -1437.9999922966        0.0000077034
  Core density on regular grids:             1437.9999996446       -0.0000003554
  Total charge density on r-space grids:        0.0000073479
  Total charge density g-space grids:           0.0000073479

  Overlap energy of the core charge distribution:               0.00000614848695
  Self energy of the core charge distribution:             -14650.93922905635191
  Core Hamiltonian energy:                                   4107.33215495792683
  Hartree energy:                                            3440.81456023038118
  Exchange-correlation energy:                              -1042.44164244076251
  Dispersion energy:                                           -0.58172763433584

  DFT+U energy:                                                 1.45595624700896

  Total energy:                                             -8144.35992154764790

  outer SCF iter =    1 RMS gradient =   0.90E-05 energy =      -8144.3599215476
  outer SCF loop converged in   1 iterations or   25 steps


  Integrated absolute spin density  :                             235.0075336899
  Ideal and single determinant S**2 :                    0.000000     127.891948

 ENERGY| Total FORCE_EVAL ( QS ) energy (a.u.):            -8144.359946058034438


 --------  Informations at step =    26 ------------
  Optimization Method        =                 BFGS
  Total Energy               =     -8144.3599460580
  Real energy change         =        -0.0144502294
  Predicted change in energy =        -0.0140550560
  Scaling factor             =         0.9206176372
  Step size                  =         0.0963024042
  Trust radius               =         0.4724315332
  Decrease in energy         =                   NO
  Used time                  =              287.900

  Convergence check :
  Max. step size             =         0.0963024042
  Conv. limit for step size  =         1.0000000000
  Convergence in step size   =                  YES
  RMS step size              =         0.0176686690
  Conv. limit for RMS step   =         1.0000000000
  Convergence in RMS step    =                  YES
  Max. gradient              =         0.0270315806
  Conv. limit for gradients  =         0.0100000000
  Conv. for gradients        =                   NO
  RMS gradient               =         0.0034550974
  Conv. limit for RMS grad.  =         1.0000000000
  Conv. in RMS gradients     =                  YES
 ---------------------------------------------------

 --------------------------
 OPTIMIZATION STEP:     27
 --------------------------

 Spin 1

 Number of electrons:                                                        719
 Number of occupied orbitals:                                                719
 Number of molecular orbitals:                                               719

 Spin 2

 Number of electrons:                                                        719
 Number of occupied orbitals:                                                719
 Number of molecular orbitals:                                               719

 Number of orbital functions:                                               2718
 Number of independent orbital functions:                                   2718

 Extrapolation method: PS Nth order


 SCF WAVEFUNCTION OPTIMIZATION

  ----------------------------------- OT ---------------------------------------
  Minimizer      : CG                  : conjugate gradient
  Preconditioner : FULL_ALL            : diagonalization, state selective
  Precond_solver : DEFAULT
  Line search    : 3PNT                : 3 energies
  stepsize       :    0.15000000                  energy_gap     :    0.08000000
  eps_taylor     :   0.10000E-15                  max_taylor     :             4
  ----------------------------------- OT ---------------------------------------

  Step     Update method      Time    Convergence         Total energy    Change
  ------------------------------------------------------------------------------
     1 OT CG       0.12E+00   12.4     0.00019399     -8144.2407723714 -8.14E+03
     2 OT LS       0.17E+00    7.4                    -8144.2535547787
     3 OT LS       0.22E+00    7.4                    -8144.2559363200
     4 OT CG       0.17E+00   15.0     0.00016389     -8144.2567535881 -1.60E-02
     5 OT LS       0.24E+00    7.5                    -8144.2666919424
     6 OT LS       0.19E+00    7.5                    -8144.2660788365
     7 OT CG       0.15E+00   15.0     0.00006557     -8144.2667825018 -1.00E-02
     8 OT LS       0.22E+00    7.5                    -8144.2674948671
     9 OT LS       0.11E+00    7.6                    -8144.2667271558
    10 OT CG       0.85E-01   14.8     0.00002390     -8144.2676751277 -8.93E-04
    11 OT LS       0.12E+00    7.6                    -8144.2678078200
    12 OT LS       0.14E+00    7.5                    -8144.2678289694
    13 OT CG       0.11E+00   14.8     0.00001636     -8144.2678329266 -1.58E-04
    14 OT LS       0.16E+00    7.5                    -8144.2679042147
    15 OT LS       0.14E+00    7.5                    -8144.2679065564
    16 OT CG       0.11E+00   14.8     0.00000948     -8144.2679074372 -7.45E-05

  *** SCF run converged in    16 steps ***


  Electronic density on regular grids:      -1437.9999923038        0.0000076962
  Core density on regular grids:             1437.9999996441       -0.0000003559
  Total charge density on r-space grids:        0.0000073403
  Total charge density g-space grids:           0.0000073403

  Overlap energy of the core charge distribution:               0.00000482303559
  Self energy of the core charge distribution:             -14650.93922905635191
  Core Hamiltonian energy:                                   4107.28954418712783
  Hartree energy:                                            3440.86386867770898
  Exchange-correlation energy:                              -1042.36845316764584
  Dispersion energy:                                           -0.57602057017977

  DFT+U energy:                                                 1.46237766910116

  Total energy:                                             -8144.26790743720449

  outer SCF iter =    1 RMS gradient =   0.95E-05 energy =      -8144.2679074372
  outer SCF loop converged in   1 iterations or   16 steps


  Integrated absolute spin density  :                             234.9259401273
  Ideal and single determinant S**2 :                    0.000000     127.850192

 ENERGY| Total FORCE_EVAL ( QS ) energy (a.u.):            -8144.267935164449227


 --------  Informations at step =    27 ------------
  Optimization Method        =                 BFGS
  Total Energy               =     -8144.2679351644
  Real energy change         =         0.0920108936
  Predicted change in energy =        -0.0421139157
  Scaling factor             =         0.9206176372
  Step size                  =         0.4598905021
  Trust radius               =         0.4724315332
  Decrease in energy         =                   NO
  Used time                  =              197.638

  Convergence check :
  Max. step size             =         0.4598905021
  Conv. limit for step size  =         1.0000000000
  Convergence in step size   =                  YES
  RMS step size              =         0.0773053775
  Conv. limit for RMS step   =         1.0000000000
  Convergence in RMS step    =                  YES
  Max. gradient              =         0.0376814646
  Conv. limit for gradients  =         0.0100000000
  Conv. for gradients        =                   NO
  RMS gradient               =         0.0074554780
  Conv. limit for RMS grad.  =         1.0000000000
  Conv. in RMS gradients     =                  YES
 ---------------------------------------------------

 --------------------------
 OPTIMIZATION STEP:     28
 --------------------------

 Spin 1

 Number of electrons:                                                        719
 Number of occupied orbitals:                                                719
 Number of molecular orbitals:                                               719

 Spin 2

 Number of electrons:                                                        719
 Number of occupied orbitals:                                                719
 Number of molecular orbitals:                                               719

 Number of orbital functions:                                               2718
 Number of independent orbital functions:                                   2718

 Extrapolation method: PS Nth order


 SCF WAVEFUNCTION OPTIMIZATION

  ----------------------------------- OT ---------------------------------------
  Minimizer      : CG                  : conjugate gradient
  Preconditioner : FULL_ALL            : diagonalization, state selective
  Precond_solver : DEFAULT
  Line search    : 3PNT                : 3 energies
  stepsize       :    0.15000000                  energy_gap     :    0.08000000
  eps_taylor     :   0.10000E-15                  max_taylor     :             4
  ----------------------------------- OT ---------------------------------------

  Step     Update method      Time    Convergence         Total energy    Change
  ------------------------------------------------------------------------------
     1 OT CG       0.12E+00   12.2     0.00133656     -8143.2063595866 -8.14E+03
     2 OT LS       0.17E+00    7.6                    -8143.7746238787
     3 OT LS       0.19E+00    7.4                    -8143.8532068064
     4 OT CG       0.15E+00   14.9     0.00106686     -8143.8614060742 -6.55E-01
     5 OT LS       0.21E+00    7.7                    -8144.2339337567
     6 OT LS       0.18E+00    7.6                    -8144.2394000909
     7 OT CG       0.15E+00   15.2     0.00062555     -8144.2457567022 -3.84E-01
     8 OT LS       0.21E+00    7.7                    -8144.3249591606
     9 OT LS       0.11E+00    7.7                    -8144.2694093406
    10 OT CG       0.89E-01   15.1     0.00023435     -8144.3336547262 -8.79E-02
    11 OT LS       0.12E+00    7.5                    -8144.3472227962
    12 OT LS       0.15E+00    7.6                    -8144.3493838002
    13 OT CG       0.12E+00   14.8     0.00015353     -8144.3497655599 -1.61E-02
    14 OT LS       0.17E+00    7.4                    -8144.3553104427
    15 OT LS       0.12E+00    7.6                    -8144.3545886806
    16 OT CG       0.98E-01   14.9     0.00007917     -8144.3553141101 -5.55E-03
    17 OT LS       0.14E+00    7.4                    -8144.3568606531
    18 OT LS       0.14E+00    7.6                    -8144.3570077309
    19 OT CG       0.11E+00   14.9     0.00003971     -8144.3570080152 -1.69E-03
    20 OT LS       0.16E+00    7.5                    -8144.3575006790
    21 OT LS       0.20E+00    7.6                    -8144.3575909742
    22 OT CG       0.16E+00   14.9     0.00003301     -8144.3576200794 -6.12E-04
    23 OT LS       0.22E+00    7.5                    -8144.3579272788
    24 OT LS       0.15E+00    7.6                    -8144.3578435837
    25 OT CG       0.12E+00   14.8     0.00002068     -8144.3579298486 -3.10E-04
    26 OT LS       0.16E+00    7.5                    -8144.3580413111
    27 OT LS       0.14E+00    7.6                    -8144.3580393854
    28 OT CG       0.11E+00   15.0     0.00001290     -8144.3580437369 -1.14E-04
    29 OT LS       0.15E+00    7.5                    -8144.3580920274
    30 OT LS       0.17E+00    7.6                    -8144.3580986177
    31 OT CG       0.14E+00   14.8     0.00000947     -8144.3580992144 -5.55E-05

  *** SCF run converged in    31 steps ***


  Electronic density on regular grids:      -1437.9999922964        0.0000077036
  Core density on regular grids:             1437.9999996446       -0.0000003554
  Total charge density on r-space grids:        0.0000073482
  Total charge density g-space grids:           0.0000073482

  Overlap energy of the core charge distribution:               0.00000598604088
  Self energy of the core charge distribution:             -14650.93922905635191
  Core Hamiltonian energy:                                   4107.31352845004221
  Hartree energy:                                            3440.82410337263627
  Exchange-correlation energy:                              -1042.43387029247356
  Dispersion energy:                                           -0.57915679561638

  DFT+U energy:                                                 1.45651912130010

  Total energy:                                             -8144.35809921442160

  outer SCF iter =    1 RMS gradient =   0.95E-05 energy =      -8144.3580992144
  outer SCF loop converged in   1 iterations or   31 steps


  Integrated absolute spin density  :                             235.0039071508
  Ideal and single determinant S**2 :                    0.000000     127.892000

 ENERGY| Total FORCE_EVAL ( QS ) energy (a.u.):            -8144.358129615606231


 --------  Informations at step =    28 ------------
  Optimization Method        =                 BFGS
  Total Energy               =     -8144.3581296156
  Real energy change         =        -0.0901944512
  Predicted change in energy =        -0.0797131390
  Scaling factor             =         0.9206176372
  Step size                  =         0.3318227089
  Trust radius               =         0.4724315332
  Decrease in energy         =                   NO
  Used time                  =              348.258

  Convergence check :
  Max. step size             =         0.3318227089
  Conv. limit for step size  =         1.0000000000
  Convergence in step size   =                  YES
  RMS step size              =         0.0563368244
  Conv. limit for RMS step   =         1.0000000000
  Convergence in RMS step    =                  YES
  Max. gradient              =         0.0325683931
  Conv. limit for gradients  =         0.0100000000
  Conv. for gradients        =                   NO
  RMS gradient               =         0.0045941856
  Conv. limit for RMS grad.  =         1.0000000000
  Conv. in RMS gradients     =                  YES
 ---------------------------------------------------

 --------------------------
 OPTIMIZATION STEP:     29
 --------------------------

 Spin 1

 Number of electrons:                                                        719
 Number of occupied orbitals:                                                719
 Number of molecular orbitals:                                               719

 Spin 2

 Number of electrons:                                                        719
 Number of occupied orbitals:                                                719
 Number of molecular orbitals:                                               719

 Number of orbital functions:                                               2718
 Number of independent orbital functions:                                   2718

 Extrapolation method: PS Nth order


 SCF WAVEFUNCTION OPTIMIZATION

  ----------------------------------- OT ---------------------------------------
  Minimizer      : CG                  : conjugate gradient
  Preconditioner : FULL_ALL            : diagonalization, state selective
  Precond_solver : DEFAULT
  Line search    : 3PNT                : 3 energies
  stepsize       :    0.15000000                  energy_gap     :    0.08000000
  eps_taylor     :   0.10000E-15                  max_taylor     :             4
  ----------------------------------- OT ---------------------------------------

  Step     Update method      Time    Convergence         Total energy    Change
  ------------------------------------------------------------------------------
     1 OT CG       0.12E+00   12.2     0.00106226     -8143.6215143571 -8.14E+03
     2 OT LS       0.17E+00    7.3                    -8143.9718322661
     3 OT LS       0.18E+00    7.4                    -8144.0150367369
     4 OT CG       0.15E+00   15.0     0.00073619     -8144.0175917781 -3.96E-01
     5 OT LS       0.20E+00    7.5                    -8144.2310626052
     6 OT LS       0.23E+00    7.5                    -8144.2624435860
     7 OT CG       0.19E+00   14.9     0.00038160     -8144.2665689188 -2.49E-01
     8 OT LS       0.26E+00    7.5                    -8144.2802634353
     9 OT LS       0.11E+00    7.5                    -8144.2321425282
    10 OT CG       0.85E-01   14.8     0.00015444     -8144.2973758451 -3.08E-02
    11 OT LS       0.12E+00    7.6                    -8144.3029697225
    12 OT LS       0.14E+00    7.6                    -8144.3038540101
 DBCSR| Multiplication driver                                               XSMM
 DBCSR| Multrec recursion limit                                              512
 DBCSR| Multiplication stack size                                           1000
 DBCSR| Maximum elements for images                                    UNLIMITED
 DBCSR| Multiplicative factor virtual images                                   1
 DBCSR| Multiplication size stacks                                             3
 DBCSR| Number of 3D layers                                               SINGLE
 DBCSR| Use MPI memory allocation                                              T
 DBCSR| Use RMA algorithm                                                      F
 DBCSR| Use Communication thread                                               T
 DBCSR| Communication thread load                                             87


  **** **** ******  **  PROGRAM STARTED AT               2020-10-07 17:12:42.962
 ***** ** ***  *** **   PROGRAM STARTED ON                             irene4961
 **    ****   ******    PROGRAM STARTED BY                              marticar
 ***** **    ** ** **   PROGRAM PROCESS ID                                101283
  **** **  *******  **  PROGRAM STARTED IN /ccc/scratch/cont003/gen0609/marticar
                                           /684124

 CP2K| version string:                                          CP2K version 6.1
 CP2K| source code revision number:                                    svn:18464
 CP2K| cp2kflags: libint fftw3 parallel mpi3 scalapack xsmm mkl                 
 CP2K| is freely available from                            https://www.cp2k.org/
 CP2K| Program compiled at                          Thu Dec 12 15:40:57 CET 2019
 CP2K| Program compiled on                                             cobalt175
 CP2K| Program compiled for                                   Linux-x86-64-iomkl
 CP2K| Data directory path          /tmp/cp2k/6.1/iomkl-195281.401/cp2k-6.1/data
 CP2K| Input file name                                             screening.inp
 
 GLOBAL| Force Environment number                                              1
 GLOBAL| Basis set file name            /ccc/work/cont003/gen0609/marticar/data/
 GLOBAL| Potential file name            /ccc/work/cont003/gen0609/marticar/data/
 GLOBAL| MM Potential file name                                     MM_POTENTIAL
 GLOBAL| Coordinate file name                                          coord.xyz
 GLOBAL| Method name                                                        CP2K
 GLOBAL| Project name                                                    PROJECT
 GLOBAL| Preferred FFT library                                             FFTW3
 GLOBAL| Preferred diagonalization lib.                                       SL
 GLOBAL| Run type                                                        GEO_OPT
 GLOBAL| All-to-all communication in single precision                          F
 GLOBAL| FFTs using library dependent lengths                                  F
 GLOBAL| Global print level                                                  LOW
 GLOBAL| Total number of message passing processes                            16
 GLOBAL| Number of threads for this process                                    1
 GLOBAL| This output is from process                                           0
 GLOBAL| CPU model name :  AMD EPYC 7H12 64-Core Processor

 MEMORY| system memory details [Kb]
 MEMORY|                        rank 0           min           max       average
 MEMORY| MemTotal            263246936     263246936     263246936     263246936
 MEMORY| MemFree             241090572     241090572     241293436     241280408
 MEMORY| Buffers                     0             0             0             0
 MEMORY| Cached                2405248       2219504       2405248       2231865
 MEMORY| Slab                  1873100       1873100       1873100       1873100
 MEMORY| SReclaimable           301680        301680        301680        301680
 MEMORY| MemLikelyFree       243797500     243797500     243817008     243813953

 
 GENERATE|  Preliminary Number of Bonds generated:                             0
 GENERATE|  Achieved consistency in connectivity generation.

 *******************************************************************************
 *******************************************************************************
 **                                                                           **
 **     #####                         ##              ##                      **
 **    ##   ##            ##          ##              ##                      **
 **   ##     ##                       ##            ######                    **
 **   ##     ##  ##   ##  ##   #####  ##  ##   ####   ##    #####    #####    **
 **   ##     ##  ##   ##  ##  ##      ## ##   ##      ##   ##   ##  ##   ##   **
 **   ##  ## ##  ##   ##  ##  ##      ####     ###    ##   ######   ######    **
 **    ##  ###   ##   ##  ##  ##      ## ##      ##   ##   ##       ##        **
 **     #######   #####   ##   #####  ##  ##  ####    ##    #####   ##        **
 **           ##                                                    ##        **
 **                                                                           **
 **                                                ... make the atoms dance   **
 **                                                                           **
 **            Copyright (C) by CP2K developers group (2000 - 2018)           **
 **                                                                           **
 *******************************************************************************


 TOTAL NUMBERS AND MAXIMUM NUMBERS

  Total number of            - Atomic kinds:                                   7
                             - Atoms:                                        168
                             - Shell sets:                                   168
                             - Shells:                                       960
                             - Primitive Cartesian functions:               1122
                             - Cartesian basis functions:                   3081
                             - Spherical basis functions:                   2718

  Maximum angular momentum of- Orbital basis functions:                        3
                             - Local part of the GTH pseudopotential:          2
                             - Non-local part of the GTH pseudopotential:      3


 SCF PARAMETERS         Density guess:                                   RESTART
                        --------------------------------------------------------
                        max_scf:                                             500
                        max_scf_history:                                       0
                        max_diis:                                              4
                        --------------------------------------------------------
                        eps_scf:                                        1.00E-05
                        eps_scf_history:                                0.00E+00
                        eps_diis:                                       1.00E-01
                        eps_eigval:                                     1.00E-05
                        --------------------------------------------------------
                        level_shift [a.u.]:                                 0.00
                        --------------------------------------------------------
                        Outer loop SCF in use 
                        No variables optimised in outer loop
                        eps_scf                                         1.00E-05
                        max_scf                                               10
                        No outer loop optimization
                        step_size                                       5.00E-01

 BFGS| Use rational function optimization for step estimation:                NO
 BFGS| Use model Hessian for initial guess:                                  YES
 BFGS| Restart Hessian:                                                       NO
 BFGS| Trust radius:                                                       0.472

 *******************************************************************************
 ***                     STARTING GEOMETRY OPTIMIZATION                      ***
 ***                                   BFGS                                  ***
 *******************************************************************************

 Spin 1

 Number of electrons:                                                        719
 Number of occupied orbitals:                                                719
 Number of molecular orbitals:                                               719

 Spin 2

 Number of electrons:                                                        719
 Number of occupied orbitals:                                                719
 Number of molecular orbitals:                                               719

 Number of orbital functions:                                               2718
 Number of independent orbital functions:                                   2718

 Extrapolation method: initial_guess


 SCF WAVEFUNCTION OPTIMIZATION

  ----------------------------------- OT ---------------------------------------
  Minimizer      : CG                  : conjugate gradient
  Preconditioner : FULL_ALL            : diagonalization, state selective
  Precond_solver : DEFAULT
  Line search    : 3PNT                : 3 energies
  stepsize       :    0.15000000                  energy_gap     :    0.08000000
  eps_taylor     :   0.10000E-15                  max_taylor     :             4
  ----------------------------------- OT ---------------------------------------

  Step     Update method      Time    Convergence         Total energy    Change
  ------------------------------------------------------------------------------
     1 OT CG       0.12E+00   12.5     0.00087910     -8143.5855148668 -8.14E+03
     2 OT LS       0.17E+00    8.0                    -8143.8491553358
     3 OT LS       0.19E+00    7.9                    -8143.8868183154
     4 OT CG       0.15E+00   15.1     0.00090233     -8143.8898716514 -3.04E-01
     5 OT LS       0.21E+00    7.9                    -8144.0888482160
     6 OT LS       0.14E+00    7.8                    -8144.0242161896
     7 OT CG       0.11E+00   15.0     0.00043942     -8144.0927667247 -2.03E-01
     8 OT LS       0.15E+00    7.8                    -8144.1207386204
     9 OT LS       0.87E-01    7.8                    -8144.1061070950
    10 OT CG       0.70E-01   14.9     0.00018997     -8144.1230405678 -3.03E-02
    11 OT LS       0.97E-01    7.8                    -8144.1304695978
    12 OT LS       0.16E+00    7.8                    -8144.1323244174
    13 OT CG       0.13E+00   14.9     0.00013023     -8144.1340999968 -1.11E-02
    14 OT LS       0.18E+00    7.9                    -8144.1389681701
    15 OT LS       0.15E+00    7.8                    -8144.1387889518
    16 OT CG       0.12E+00   15.0     0.00009533     -8144.1390461044 -4.95E-03
    17 OT LS       0.17E+00    7.9                    -8144.1414027681
    18 OT LS       0.14E+00    7.9                    -8144.1413058228
    19 OT CG       0.11E+00   15.0     0.00006053     -8144.1414349767 -2.39E-03
    20 OT LS       0.15E+00    7.9                    -8144.1426574616
    21 OT LS       0.25E+00    7.9                    -8144.1429540357
    22 OT CG       0.20E+00   15.1     0.00004957     -8144.1432020744 -1.77E-03
    23 OT LS       0.28E+00    7.9                    -8144.1436962754
    24 OT LS       0.14E+00    7.8                    -8144.1431413510
    25 OT CG       0.11E+00   15.0     0.00003549     -8144.1438323200 -6.30E-04
    26 OT LS       0.15E+00    7.9                    -8144.1441878917
    27 OT LS       0.16E+00    7.8                    -8144.1442312511
    28 OT CG       0.13E+00   15.0     0.00002668     -8144.1442333367 -4.01E-04
    29 OT LS       0.18E+00    7.8                    -8144.1444869124
    30 OT LS       0.21E+00    7.8                    -8144.1445257106
    31 OT CG       0.17E+00   15.0     0.00002007     -8144.1445316915 -2.98E-04
    32 OT LS       0.24E+00    7.8                    -8144.1446659195
    33 OT LS       0.17E+00    7.8                    -8144.1446441984
    34 OT CG       0.14E+00   15.0     0.00001554     -8144.1446659198 -1.34E-04
    35 OT LS       0.19E+00    7.9                    -8144.1447555016
    36 OT LS       0.22E+00    7.8                    -8144.1447692043
    37 OT CG       0.18E+00   15.0     0.00001613     -8144.1447713266 -1.05E-04
    38 OT LS       0.25E+00    7.9                    -8144.1448721016
    39 OT LS       0.20E+00    7.9                    -8144.1448671003
    40 OT CG       0.16E+00   15.0     0.00001510     -8144.1448733324 -1.02E-04
    41 OT LS       0.22E+00    7.9                    -8144.1449686241
    42 OT LS       0.24E+00    7.9                    -8144.1449801091
    43 OT CG       0.19E+00   15.0     0.00001617     -8144.1449806085 -1.07E-04
    44 OT LS       0.27E+00    7.9                    -8144.1450922166
    45 OT LS       0.22E+00    7.8                    -8144.1450882049
    46 OT CG       0.18E+00   15.0     0.00001427     -8144.1450940323 -1.13E-04
    47 OT LS       0.25E+00    7.9                    -8144.1451829497
    48 OT LS       0.24E+00    7.8                    -8144.1451892891
    49 OT CG       0.19E+00   15.1     0.00001364     -8144.1451894259 -9.54E-05
    50 OT LS       0.27E+00    7.8                    -8144.1452739638
    51 OT LS       0.24E+00    7.8                    -8144.1452772609
    52 OT CG       0.19E+00   15.0     0.00001530     -8144.1452781329 -8.87E-05
    53 OT LS       0.27E+00    7.9                    -8144.1453651814
    54 OT LS       0.19E+00    7.9                    -8144.1453488076
    55 OT CG       0.15E+00   15.0     0.00001229     -8144.1453652252 -8.71E-05
    56 OT LS       0.21E+00    7.8                    -8144.1454231089
    57 OT LS       0.21E+00    7.9                    -8144.1454284838
    58 OT CG       0.17E+00   14.8     0.00001199     -8144.1454284887 -6.33E-05
    59 OT LS       0.24E+00    7.5                    -8144.1454941343
    60 OT LS       0.27E+00    7.7                    -8144.1455028505
    61 OT CG       0.21E+00   14.4     0.00000994     -8144.1455034760 -7.50E-05

  *** SCF run converged in    61 steps ***


  Electronic density on regular grids:      -1437.9999923185        0.0000076815
  Core density on regular grids:             1437.9999996448       -0.0000003552
  Total charge density on r-space grids:        0.0000073263
  Total charge density g-space grids:           0.0000073263

  Overlap energy of the core charge distribution:               0.00000638850639
  Self energy of the core charge distribution:             -14650.93922905635191
  Core Hamiltonian energy:                                   4109.06774220430179
  Hartree energy:                                            3439.68409527380254
  Exchange-correlation energy:                              -1042.82065666618246
  Dispersion energy:                                           -0.58848528292599

  DFT+U energy:                                                 1.45102366288731

  Total energy:                                             -8144.14550347596105

  outer SCF iter =    1 RMS gradient =   0.99E-05 energy =      -8144.1455034760
  outer SCF loop converged in   1 iterations or   61 steps


  Integrated absolute spin density  :                             234.6770875973
  Ideal and single determinant S**2 :                    0.000000     127.692632

 ENERGY| Total FORCE_EVAL ( QS ) energy (a.u.):            -8144.145554135734528


 --------  Informations at step =     0 ------------
  Optimization Method        =                 BFGS
  Total Energy               =     -8144.1455541357
  Used time                  =              663.140
 ---------------------------------------------------

 --------------------------
 OPTIMIZATION STEP:      1
 --------------------------

  Step is scaled; Scaling factor =  0.89653

 Spin 1

 Number of electrons:                                                        719
 Number of occupied orbitals:                                                719
 Number of molecular orbitals:                                               719

 Spin 2

 Number of electrons:                                                        719
 Number of occupied orbitals:                                                719
 Number of molecular orbitals:                                               719

 Number of orbital functions:                                               2718
 Number of independent orbital functions:                                   2718

 Extrapolation method: PS Nth order


 SCF WAVEFUNCTION OPTIMIZATION

  ----------------------------------- OT ---------------------------------------
  Minimizer      : CG                  : conjugate gradient
  Preconditioner : FULL_ALL            : diagonalization, state selective
  Precond_solver : DEFAULT
  Line search    : 3PNT                : 3 energies
  stepsize       :    0.15000000                  energy_gap     :    0.08000000
  eps_taylor     :   0.10000E-15                  max_taylor     :             4
  ----------------------------------- OT ---------------------------------------

  Step     Update method      Time    Convergence         Total energy    Change
  ------------------------------------------------------------------------------
     1 OT CG       0.12E+00   12.3     0.00022873     -8144.1691249601 -8.14E+03
     2 OT LS       0.17E+00    7.4                    -8144.1895186183
     3 OT LS       0.35E+00    7.3                    -8144.1953489013
     4 OT CG       0.28E+00   14.7     0.00019102     -8144.2053060530 -3.62E-02
     5 OT LS       0.14E+00    7.4                    -8144.2012996368
     6 OT LS       0.13E+00    7.3                    -8144.2143509936
     7 OT CG       0.10E+00   14.7     0.00006247     -8144.2144440018 -9.14E-03
     8 OT LS       0.14E+00    7.3                    -8144.2153176442
     9 OT LS       0.12E+00    7.5                    -8144.2152760183
    10 OT CG       0.93E-01   14.7     0.00002729     -8144.2153286534 -8.85E-04
    11 OT LS       0.13E+00    7.3                    -8144.2155134517
    12 OT LS       0.15E+00    7.4                    -8144.2155394580
    13 OT CG       0.12E+00   14.7     0.00002019     -8144.2155422342 -2.14E-04
    14 OT LS       0.16E+00    7.3                    -8144.2156671292
    15 OT LS       0.18E+00    7.4                    -8144.2156823251
    16 OT CG       0.14E+00   14.7     0.00001475     -8144.2156830226 -1.41E-04
    17 OT LS       0.20E+00    7.3                    -8144.2157578683
    18 OT LS       0.19E+00    7.3                    -8144.2157624911
    19 OT CG       0.15E+00   14.7     0.00001256     -8144.2157627233 -7.97E-05
    20 OT LS       0.21E+00    7.3                    -8144.2158282237
    21 OT LS       0.26E+00    7.3                    -8144.2158392043
    22 OT CG       0.20E+00   14.7     0.00001065     -8144.2158417402 -7.90E-05
    23 OT LS       0.29E+00    7.4                    -8144.2158684421
    24 OT LS       0.15E+00    7.4                    -8144.2158433252
    25 OT CG       0.12E+00   14.7     0.00000753     -8144.2158738765 -3.21E-05

  *** SCF run converged in    25 steps ***


  Electronic density on regular grids:      -1437.9999924024        0.0000075976
  Core density on regular grids:             1437.9999996448       -0.0000003552
  Total charge density on r-space grids:        0.0000072423
  Total charge density g-space grids:           0.0000072423

  Overlap energy of the core charge distribution:               0.00000383441733
  Self energy of the core charge distribution:             -14650.93922905635191
  Core Hamiltonian energy:                                   4108.29652208139851
  Hartree energy:                                            3440.21424813210751
  Exchange-correlation energy:                              -1042.65212004220257
  Dispersion energy:                                           -0.58558246062756

  DFT+U energy:                                                 1.45028363475203

  Total energy:                                             -8144.21587387650743

  outer SCF iter =    1 RMS gradient =   0.75E-05 energy =      -8144.2158738765
  outer SCF loop converged in   1 iterations or   25 steps


  Integrated absolute spin density  :                             234.8937288450
  Ideal and single determinant S**2 :                    0.000000     127.804232

 ENERGY| Total FORCE_EVAL ( QS ) energy (a.u.):            -8144.215891251011271


 --------  Informations at step =     1 ------------
  Optimization Method        =                 BFGS
  Total Energy               =     -8144.2158912510
  Real energy change         =        -0.0703371153
  Predicted change in energy =        -0.0704403143
  Scaling factor             =         0.8965261859
  Step size                  =         0.4724315332
  Trust radius               =         0.4724315332
  Decrease in energy         =                  YES
  Used time                  =              283.273

  Convergence check :
  Max. step size             =         0.4724315332
  Conv. limit for step size  =         1.0000000000
  Convergence in step size   =                  YES
  RMS step size              =         0.0376823772
  Conv. limit for RMS step   =         1.0000000000
  Convergence in RMS step    =                  YES
  Max. gradient              =         0.0951864217
  Conv. limit for gradients  =         0.0100000000
  Conv. for gradients        =                   NO
  RMS gradient               =         0.0077218075
  Conv. limit for RMS grad.  =         1.0000000000
  Conv. in RMS gradients     =                  YES
 ---------------------------------------------------

 --------------------------
 OPTIMIZATION STEP:      2
 --------------------------

 Spin 1

 Number of electrons:                                                        719
 Number of occupied orbitals:                                                719
 Number of molecular orbitals:                                               719

 Spin 2

 Number of electrons:                                                        719
 Number of occupied orbitals:                                                719
 Number of molecular orbitals:                                               719

 Number of orbital functions:                                               2718
 Number of independent orbital functions:                                   2718

 Extrapolation method: PS Nth order


 SCF WAVEFUNCTION OPTIMIZATION

  ----------------------------------- OT ---------------------------------------
  Minimizer      : CG                  : conjugate gradient
  Preconditioner : FULL_ALL            : diagonalization, state selective
  Precond_solver : DEFAULT
  Line search    : 3PNT                : 3 energies
  stepsize       :    0.15000000                  energy_gap     :    0.08000000
  eps_taylor     :   0.10000E-15                  max_taylor     :             4
  ----------------------------------- OT ---------------------------------------

  Step     Update method      Time    Convergence         Total energy    Change
  ------------------------------------------------------------------------------
     1 OT CG       0.12E+00   12.2     0.00026118     -8144.1845737576 -8.14E+03
     2 OT LS       0.17E+00    7.3                    -8144.2070648201
     3 OT LS       0.20E+00    7.4                    -8144.2107370077
     4 OT CG       0.16E+00   14.7     0.00021880     -8144.2114974876 -2.69E-02
     5 OT LS       0.23E+00    7.4                    -8144.2295132422
     6 OT LS       0.20E+00    7.4                    -8144.2299215255
     7 OT CG       0.16E+00   14.7     0.00008449     -8144.2302219584 -1.87E-02
     8 OT LS       0.22E+00    7.5                    -8144.2317472647
     9 OT LS       0.12E+00    7.4                    -8144.2307039519
    10 OT CG       0.97E-01   14.6     0.00003592     -8144.2319198331 -1.70E-03
    11 OT LS       0.14E+00    7.4                    -8144.2322509850
    12 OT LS       0.15E+00    7.4                    -8144.2322940103
    13 OT CG       0.12E+00   14.7     0.00002815     -8144.2322970062 -3.77E-04
    14 OT LS       0.17E+00    7.4                    -8144.2325436045
    15 OT LS       0.18E+00    7.4                    -8144.2325723851
    16 OT CG       0.14E+00   14.7     0.00002074     -8144.2325733367 -2.76E-04
    17 OT LS       0.20E+00    7.4                    -8144.2327394457
    18 OT LS       0.23E+00    7.4                    -8144.2327644390
    19 OT CG       0.18E+00   14.7     0.00002041     -8144.2327679626 -1.95E-04
    20 OT LS       0.26E+00    7.4                    -8144.2329671980
    21 OT LS       0.28E+00    7.4                    -8144.2329904729
    22 OT CG       0.22E+00   14.7     0.00001614     -8144.2329912521 -2.23E-04
    23 OT LS       0.31E+00    7.4                    -8144.2330442191
    24 OT LS       0.14E+00    7.4                    -8144.2329685115
    25 OT CG       0.12E+00   14.6     0.00000835     -8144.2330648148 -7.36E-05

  *** SCF run converged in    25 steps ***


  Electronic density on regular grids:      -1437.9999923060        0.0000076940
  Core density on regular grids:             1437.9999996443       -0.0000003557
  Total charge density on r-space grids:        0.0000073384
  Total charge density g-space grids:           0.0000073384

  Overlap energy of the core charge distribution:               0.00000217069145
  Self energy of the core charge distribution:             -14650.93922905635191
  Core Hamiltonian energy:                                   4107.78555512965613
  Hartree energy:                                            3440.58163747901563
  Exchange-correlation energy:                              -1042.52303718502094
  Dispersion energy:                                           -0.58642036249851

  DFT+U energy:                                                 1.44842700969889

  Total energy:                                             -8144.23306481480995

  outer SCF iter =    1 RMS gradient =   0.84E-05 energy =      -8144.2330648148
  outer SCF loop converged in   1 iterations or   25 steps


  Integrated absolute spin density  :                             234.9842563315
  Ideal and single determinant S**2 :                    0.000000     127.869018

 ENERGY| Total FORCE_EVAL ( QS ) energy (a.u.):            -8144.233084508818138


 --------  Informations at step =     2 ------------
  Optimization Method        =                 BFGS
  Total Energy               =     -8144.2330845088
  Real energy change         =        -0.0171932578
  Predicted change in energy =        -0.0496685873
  Scaling factor             =         0.8965261859
  Step size                  =         0.4051988866
  Trust radius               =         0.4724315332
  Decrease in energy         =                  YES
  Used time                  =              283.863

  Convergence check :
  Max. step size             =         0.4051988866
  Conv. limit for step size  =         1.0000000000
  Convergence in step size   =                  YES
  RMS step size              =         0.0467474725
  Conv. limit for RMS step   =         1.0000000000
  Convergence in RMS step    =                  YES
  Max. gradient              =         0.1213750822
  Conv. limit for gradients  =         0.0100000000
  Conv. for gradients        =                   NO
  RMS gradient               =         0.0093637746
  Conv. limit for RMS grad.  =         1.0000000000
  Conv. in RMS gradients     =                  YES
 ---------------------------------------------------

 --------------------------
 OPTIMIZATION STEP:      3
 --------------------------

 Spin 1

 Number of electrons:                                                        719
 Number of occupied orbitals:                                                719
 Number of molecular orbitals:                                               719

 Spin 2

 Number of electrons:                                                        719
 Number of occupied orbitals:                                                719
 Number of molecular orbitals:                                               719

 Number of orbital functions:                                               2718
 Number of independent orbital functions:                                   2718

 Extrapolation method: PS Nth order


 SCF WAVEFUNCTION OPTIMIZATION

  ----------------------------------- OT ---------------------------------------
  Minimizer      : CG                  : conjugate gradient
  Preconditioner : FULL_ALL            : diagonalization, state selective
  Precond_solver : DEFAULT
  Line search    : 3PNT                : 3 energies
  stepsize       :    0.15000000                  energy_gap     :    0.08000000
  eps_taylor     :   0.10000E-15                  max_taylor     :             4
  ----------------------------------- OT ---------------------------------------

  Step     Update method      Time    Convergence         Total energy    Change
  ------------------------------------------------------------------------------
     1 OT CG       0.12E+00   12.2     0.00062357     -8144.0603860280 -8.14E+03
     2 OT LS       0.17E+00    7.3                    -8144.1653467939
     3 OT LS       0.15E+00    7.5                    -8144.1661117035
     4 OT CG       0.12E+00   14.8     0.00036167     -8144.1685425798 -1.08E-01
     5 OT LS       0.16E+00    7.6                    -8144.2150951207
     6 OT LS       0.27E+00    7.7                    -8144.2264128520
     7 OT CG       0.21E+00   15.2     0.00023136     -8144.2364987736 -6.80E-02
     8 OT LS       0.30E+00    7.6                    -8144.2410395775
     9 OT LS       0.12E+00    7.7                    -8144.2206063287
    10 OT CG       0.95E-01   15.1     0.00009021     -8144.2488394072 -1.23E-02
    11 OT LS       0.13E+00    7.5                    -8144.2508179162
    12 OT LS       0.14E+00    7.7                    -8144.2510264322
    13 OT CG       0.11E+00   15.1     0.00006271     -8144.2510290242 -2.19E-03
    14 OT LS       0.15E+00    7.6                    -8144.2520800584
    15 OT LS       0.15E+00    7.6                    -8144.2521424610
    16 OT CG       0.12E+00   15.1     0.00004100     -8144.2521463303 -1.12E-03
    17 OT LS       0.16E+00    7.6                    -8144.2526891457
    18 OT LS       0.20E+00    7.6                    -8144.2527817045
    19 OT CG       0.16E+00   15.0     0.00003253     -8144.2528044370 -6.58E-04
    20 OT LS       0.22E+00    7.7                    -8144.2532297565
    21 OT LS       0.22E+00    7.6                    -8144.2532678555
    22 OT CG       0.18E+00   15.0     0.00002787     -8144.2532678572 -4.63E-04
    23 OT LS       0.25E+00    7.7                    -8144.2535054877
    24 OT LS       0.16E+00    7.6                    -8144.2534283828
    25 OT CG       0.13E+00   15.1     0.00002009     -8144.2535094794 -2.42E-04
    26 OT LS       0.18E+00    7.6                    -8144.2536241375
    27 OT LS       0.15E+00    7.5                    -8144.2536218470
    28 OT CG       0.12E+00   15.1     0.00001255     -8144.2536265217 -1.17E-04
    29 OT LS       0.17E+00    7.5                    -8144.2536778380
    30 OT LS       0.20E+00    7.4                    -8144.2536860917
    31 OT CG       0.16E+00   14.9     0.00000934     -8144.2536877000 -6.12E-05

  *** SCF run converged in    31 steps ***


  Electronic density on regular grids:      -1437.9999923149        0.0000076851
  Core density on regular grids:             1437.9999996439       -0.0000003561
  Total charge density on r-space grids:        0.0000073290
  Total charge density g-space grids:           0.0000073290

  Overlap energy of the core charge distribution:               0.00000225169623
  Self energy of the core charge distribution:             -14650.93922905635191
  Core Hamiltonian energy:                                   4107.81110365982295
  Hartree energy:                                            3440.53144392873173
  Exchange-correlation energy:                              -1042.51833451837820
  Dispersion energy:                                           -0.58853251123576

  DFT+U energy:                                                 1.44985854569188

  Total energy:                                             -8144.25368770002297

  outer SCF iter =    1 RMS gradient =   0.93E-05 energy =      -8144.2536877000
  outer SCF loop converged in   1 iterations or   31 steps


  Integrated absolute spin density  :                             234.9472974610
  Ideal and single determinant S**2 :                    0.000000     127.859332

 ENERGY| Total FORCE_EVAL ( QS ) energy (a.u.):            -8144.253722841594936


 --------  Informations at step =     3 ------------
  Optimization Method        =                 BFGS
  Total Energy               =     -8144.2537228416
  Real energy change         =        -0.0206383328
  Predicted change in energy =        -0.0421275571
  Scaling factor             =         0.8965261859
  Step size                  =         0.3891630919
  Trust radius               =         0.4724315332
  Decrease in energy         =                  YES
  Used time                  =              350.508

  Convergence check :
  Max. step size             =         0.3891630919
  Conv. limit for step size  =         1.0000000000
  Convergence in step size   =                  YES
  RMS step size              =         0.0377240004
  Conv. limit for RMS step   =         1.0000000000
  Convergence in RMS step    =                  YES
  Max. gradient              =         0.1019341470
  Conv. limit for gradients  =         0.0100000000
  Conv. for gradients        =                   NO
  RMS gradient               =         0.0080773859
  Conv. limit for RMS grad.  =         1.0000000000
  Conv. in RMS gradients     =                  YES
 ---------------------------------------------------

 --------------------------
 OPTIMIZATION STEP:      4
 --------------------------

 Spin 1

 Number of electrons:                                                        719
 Number of occupied orbitals:                                                719
 Number of molecular orbitals:                                               719

 Spin 2

 Number of electrons:                                                        719
 Number of occupied orbitals:                                                719
 Number of molecular orbitals:                                               719

 Number of orbital functions:                                               2718
 Number of independent orbital functions:                                   2718

 Extrapolation method: PS Nth order


 SCF WAVEFUNCTION OPTIMIZATION

  ----------------------------------- OT ---------------------------------------
  Minimizer      : CG                  : conjugate gradient
  Preconditioner : FULL_ALL            : diagonalization, state selective
  Precond_solver : DEFAULT
  Line search    : 3PNT                : 3 energies
  stepsize       :    0.15000000                  energy_gap     :    0.08000000
  eps_taylor     :   0.10000E-15                  max_taylor     :             4
  ----------------------------------- OT ---------------------------------------

  Step     Update method      Time    Convergence         Total energy    Change
  ------------------------------------------------------------------------------
     1 OT CG       0.12E+00   12.3     0.00043111     -8144.1841283515 -8.14E+03
     2 OT LS       0.17E+00    7.6                    -8144.2419605973
     3 OT LS       0.18E+00    7.5                    -8144.2489254380
     4 OT CG       0.14E+00   15.1     0.00032752     -8144.2492497857 -6.51E-02
     5 OT LS       0.20E+00    7.6                    -8144.2891451542
     6 OT LS       0.21E+00    7.8                    -8144.2934670396
     7 OT CG       0.17E+00   15.1     0.00017829     -8144.2935409861 -4.43E-02
     8 OT LS       0.24E+00    7.7                    -8144.2968375981
     9 OT LS       0.10E+00    7.8                    -8144.2885115581
    10 OT CG       0.80E-01   15.2     0.00007140     -8144.2997076910 -6.17E-03
    11 OT LS       0.11E+00    7.6                    -8144.3007993650
    12 OT LS       0.13E+00    7.7                    -8144.3009561412
    13 OT CG       0.10E+00   15.1     0.00003983     -8144.3009744136 -1.27E-03
    14 OT LS       0.14E+00    7.6                    -8144.3014392154
    15 OT LS       0.19E+00    7.7                    -8144.3015309170
    16 OT CG       0.15E+00   15.2     0.00002289     -8144.3015700149 -5.96E-04
    17 OT LS       0.22E+00    7.6                    -8144.3016962886
    18 OT LS       0.13E+00    7.8                    -8144.3016407033
    19 OT CG       0.10E+00   15.1     0.00001512     -8144.3017015334 -1.32E-04
    20 OT LS       0.14E+00    7.5                    -8144.3017662149
    21 OT LS       0.17E+00    7.6                    -8144.3017769505
    22 OT CG       0.14E+00   14.8     0.00001220     -8144.3017793159 -7.78E-05
    23 OT LS       0.19E+00    7.5                    -8144.3018252797
    24 OT LS       0.16E+00    7.6                    -8144.3018241272
    25 OT CG       0.13E+00   14.8     0.00000604     -8144.3018261581 -4.68E-05

  *** SCF run converged in    25 steps ***


  Electronic density on regular grids:      -1437.9999923173        0.0000076827
  Core density on regular grids:             1437.9999996449       -0.0000003551
  Total charge density on r-space grids:        0.0000073276
  Total charge density g-space grids:           0.0000073276

  Overlap energy of the core charge distribution:               0.00000553810250
  Self energy of the core charge distribution:             -14650.93922905635191
  Core Hamiltonian energy:                                   4107.55834994747966
  Hartree energy:                                            3440.69744639515056
  Exchange-correlation energy:                              -1042.48948668351068
  Dispersion energy:                                           -0.58699835419416

  DFT+U energy:                                                 1.45808605521407

  Total energy:                                             -8144.30182615811100

  outer SCF iter =    1 RMS gradient =   0.60E-05 energy =      -8144.3018261581
  outer SCF loop converged in   1 iterations or   25 steps


  Integrated absolute spin density  :                             235.0832746570
  Ideal and single determinant S**2 :                    0.000000     127.919542

 ENERGY| Total FORCE_EVAL ( QS ) energy (a.u.):            -8144.301836982598616


 --------  Informations at step =     4 ------------
  Optimization Method        =                 BFGS
  Total Energy               =     -8144.3018369826
  Real energy change         =        -0.0481141410
  Predicted change in energy =        -0.0360216795
  Scaling factor             =         0.8965261859
  Step size                  =         0.2551848793
  Trust radius               =         0.4724315332
  Decrease in energy         =                  YES
  Used time                  =              291.047

  Convergence check :
  Max. step size             =         0.2551848793
  Conv. limit for step size  =         1.0000000000
  Convergence in step size   =                  YES
  RMS step size              =         0.0349193725
  Conv. limit for RMS step   =         1.0000000000
  Convergence in RMS step    =                  YES
  Max. gradient              =         0.0501539409
  Conv. limit for gradients  =         0.0100000000
  Conv. for gradients        =                   NO
  RMS gradient               =         0.0057319829
  Conv. limit for RMS grad.  =         1.0000000000
  Conv. in RMS gradients     =                  YES
 ---------------------------------------------------

 --------------------------
 OPTIMIZATION STEP:      5
 --------------------------

  Step is scaled; Scaling factor =  0.76673

 Spin 1

 Number of electrons:                                                        719
 Number of occupied orbitals:                                                719
 Number of molecular orbitals:                                               719

 Spin 2

 Number of electrons:                                                        719
 Number of occupied orbitals:                                                719
 Number of molecular orbitals:                                               719

 Number of orbital functions:                                               2718
 Number of independent orbital functions:                                   2718

 Extrapolation method: PS Nth order


 SCF WAVEFUNCTION OPTIMIZATION

  ----------------------------------- OT ---------------------------------------
  Minimizer      : CG                  : conjugate gradient
  Preconditioner : FULL_ALL            : diagonalization, state selective
  Precond_solver : DEFAULT
  Line search    : 3PNT                : 3 energies
  stepsize       :    0.15000000                  energy_gap     :    0.08000000
  eps_taylor     :   0.10000E-15                  max_taylor     :             4
  ----------------------------------- OT ---------------------------------------

  Step     Update method      Time    Convergence         Total energy    Change
  ------------------------------------------------------------------------------
     1 OT CG       0.12E+00   12.3     0.00032923     -8144.1764150648 -8.14E+03
     2 OT LS       0.17E+00    7.4                    -8144.2135839852
     3 OT LS       0.22E+00    7.3                    -8144.2207686731
     4 OT CG       0.18E+00   14.7     0.00027868     -8144.2235794967 -4.72E-02
     5 OT LS       0.25E+00    7.6                    -8144.2516602722
     6 OT LS       0.19E+00    7.3                    -8144.2487084930
     7 OT CG       0.15E+00   14.8     0.00010160     -8144.2517276249 -2.81E-02
     8 OT LS       0.21E+00    7.5                    -8144.2537354918
     9 OT LS       0.11E+00    7.4                    -8144.2522565247
    10 OT CG       0.90E-01   14.8     0.00003838     -8144.2539944162 -2.27E-03
    11 OT LS       0.13E+00    7.5                    -8144.2543579882
    12 OT LS       0.15E+00    7.5                    -8144.2544172766
    13 OT CG       0.12E+00   14.7     0.00002429     -8144.2544294827 -4.35E-04
    14 OT LS       0.17E+00    7.6                    -8144.2545622070
    15 OT LS       0.12E+00    7.5                    -8144.2545339555
    16 OT CG       0.92E-01   14.7     0.00001083     -8144.2545624790 -1.33E-04
    17 OT LS       0.13E+00    7.5                    -8144.2545908229
    18 OT LS       0.14E+00    7.5                    -8144.2545943093
    19 OT CG       0.11E+00   14.7     0.00000640     -8144.2545944811 -3.20E-05

  *** SCF run converged in    19 steps ***


  Electronic density on regular grids:      -1437.9999923037        0.0000076963
  Core density on regular grids:             1437.9999996448       -0.0000003552
  Total charge density on r-space grids:        0.0000073411
  Total charge density g-space grids:           0.0000073411

  Overlap energy of the core charge distribution:               0.00001738527172
  Self energy of the core charge distribution:             -14650.93922905635191
  Core Hamiltonian energy:                                   4107.22390412946515
  Hartree energy:                                            3440.94218846738931
  Exchange-correlation energy:                              -1042.38219164821203
  Dispersion energy:                                           -0.57114021414653

  DFT+U energy:                                                 1.47185645549083

  Total energy:                                             -8144.25459448109450

  outer SCF iter =    1 RMS gradient =   0.64E-05 energy =      -8144.2545944811
  outer SCF loop converged in   1 iterations or   19 steps


  Integrated absolute spin density  :                             235.2121213989
  Ideal and single determinant S**2 :                    0.000000     127.962152

 ENERGY| Total FORCE_EVAL ( QS ) energy (a.u.):            -8144.254608089076100


 --------  Informations at step =     5 ------------
  Optimization Method        =                 BFGS
  Total Energy               =     -8144.2546080891
  Real energy change         =         0.0472288935
  Predicted change in energy =        -0.0685284171
  Scaling factor             =         0.7667285586
  Step size                  =         0.4724315332
  Trust radius               =         0.4724315332
  Decrease in energy         =                   NO
  Used time                  =              225.998

  Convergence check :
  Max. step size             =         0.4724315332
  Conv. limit for step size  =         1.0000000000
  Convergence in step size   =                  YES
  RMS step size              =         0.0684275967
  Conv. limit for RMS step   =         1.0000000000
  Convergence in RMS step    =                  YES
  Max. gradient              =         0.1107524754
  Conv. limit for gradients  =         0.0100000000
  Conv. for gradients        =                   NO
  RMS gradient               =         0.0112729257
  Conv. limit for RMS grad.  =         1.0000000000
  Conv. in RMS gradients     =                  YES
 ---------------------------------------------------

 --------------------------
 OPTIMIZATION STEP:      6
 --------------------------

 Spin 1

 Number of electrons:                                                        719
 Number of occupied orbitals:                                                719
 Number of molecular orbitals:                                               719

 Spin 2

 Number of electrons:                                                        719
 Number of occupied orbitals:                                                719
 Number of molecular orbitals:                                               719

 Number of orbital functions:                                               2718
 Number of independent orbital functions:                                   2718

 Extrapolation method: PS Nth order


 SCF WAVEFUNCTION OPTIMIZATION

  ----------------------------------- OT ---------------------------------------
  Minimizer      : CG                  : conjugate gradient
  Preconditioner : FULL_ALL            : diagonalization, state selective
  Precond_solver : DEFAULT
  Line search    : 3PNT                : 3 energies
  stepsize       :    0.15000000                  energy_gap     :    0.08000000
  eps_taylor     :   0.10000E-15                  max_taylor     :             4
  ----------------------------------- OT ---------------------------------------

  Step     Update method      Time    Convergence         Total energy    Change
  ------------------------------------------------------------------------------
     1 OT CG       0.12E+00   12.2     0.00095379     -8143.7129551510 -8.14E+03
     2 OT LS       0.17E+00    7.5                    -8144.0101200342
     3 OT LS       0.20E+00    7.4                    -8144.0560893083
     4 OT CG       0.16E+00   15.1     0.00076558     -8144.0636394137 -3.51E-01
     5 OT LS       0.22E+00    7.5                    -8144.2781136923
     6 OT LS       0.20E+00    7.5                    -8144.2851437876
     7 OT CG       0.16E+00   14.9     0.00033375     -8144.2876215690 -2.24E-01
     8 OT LS       0.22E+00    7.5                    -8144.3072894660
     9 OT LS       0.11E+00    7.5                    -8144.2865313136
    10 OT CG       0.88E-01   14.9     0.00012308     -8144.3119780042 -2.44E-02
    11 OT LS       0.12E+00    7.5                    -8144.3156914540
    12 OT LS       0.15E+00    7.5                    -8144.3163130634
    13 OT CG       0.12E+00   14.9     0.00008716     -8144.3164538643 -4.48E-03
    14 OT LS       0.17E+00    7.6                    -8144.3182874633
    15 OT LS       0.12E+00    7.5                    -8144.3180587787
    16 OT CG       0.99E-01   14.9     0.00003803     -8144.3182893069 -1.84E-03
    17 OT LS       0.14E+00    7.7                    -8144.3186637431
    18 OT LS       0.15E+00    7.7                    -8144.3187088408
    19 OT CG       0.12E+00   15.2     0.00002106     -8144.3187107579 -4.21E-04
    20 OT LS       0.17E+00    7.8                    -8144.3188621756
    21 OT LS       0.22E+00    7.6                    -8144.3188916994
    22 OT CG       0.18E+00   15.0     0.00001667     -8144.3189037287 -1.93E-04
    23 OT LS       0.25E+00    7.7                    -8144.3189799443
    24 OT LS       0.15E+00    7.7                    -8144.3189446319
    25 OT CG       0.12E+00   15.0     0.00001055     -8144.3189835588 -7.98E-05
    26 OT LS       0.16E+00    7.8                    -8144.3190123701
    27 OT LS       0.13E+00    7.8                    -8144.3190114040
    28 OT CG       0.11E+00   15.2     0.00000768     -8144.3190128441 -2.93E-05

  *** SCF run converged in    28 steps ***


  Electronic density on regular grids:      -1437.9999923060        0.0000076940
  Core density on regular grids:             1437.9999996449       -0.0000003551
  Total charge density on r-space grids:        0.0000073390
  Total charge density g-space grids:           0.0000073390

  Overlap energy of the core charge distribution:               0.00000416401604
  Self energy of the core charge distribution:             -14650.93922905635191
  Core Hamiltonian energy:                                   4107.21234598001774
  Hartree energy:                                            3440.93894043251203
  Exchange-correlation energy:                              -1042.41484652011036
  Dispersion energy:                                           -0.57836854946163

  DFT+U energy:                                                 1.46214070526588

  Total energy:                                             -8144.31901284411379

  outer SCF iter =    1 RMS gradient =   0.77E-05 energy =      -8144.3190128441
  outer SCF loop converged in   1 iterations or   28 steps


  Integrated absolute spin density  :                             235.1524916627
  Ideal and single determinant S**2 :                    0.000000     127.944632

 ENERGY| Total FORCE_EVAL ( QS ) energy (a.u.):            -8144.319031328424899


 --------  Informations at step =     6 ------------
  Optimization Method        =                 BFGS
  Total Energy               =     -8144.3190313284
  Real energy change         =        -0.0644232393
  Predicted change in energy =        -0.0582679368
  Scaling factor             =         0.7667285586
  Step size                  =         0.3306811466
  Trust radius               =         0.4724315332
  Decrease in energy         =                  YES
  Used time                  =              320.673

  Convergence check :
  Max. step size             =         0.3306811466
  Conv. limit for step size  =         1.0000000000
  Convergence in step size   =                  YES
  RMS step size              =         0.0352164371
  Conv. limit for RMS step   =         1.0000000000
  Convergence in RMS step    =                  YES
  Max. gradient              =         0.0414082637
  Conv. limit for gradients  =         0.0100000000
  Conv. for gradients        =                   NO
  RMS gradient               =         0.0070012945
  Conv. limit for RMS grad.  =         1.0000000000
  Conv. in RMS gradients     =                  YES
 ---------------------------------------------------

 --------------------------
 OPTIMIZATION STEP:      7
 --------------------------

  Step is scaled; Scaling factor =  0.88312

 Spin 1

 Number of electrons:                                                        719
 Number of occupied orbitals:                                                719
 Number of molecular orbitals:                                               719

 Spin 2

 Number of electrons:                                                        719
 Number of occupied orbitals:                                                719
 Number of molecular orbitals:                                               719

 Number of orbital functions:                                               2718
 Number of independent orbital functions:                                   2718

 Extrapolation method: PS Nth order


 SCF WAVEFUNCTION OPTIMIZATION

  ----------------------------------- OT ---------------------------------------
  Minimizer      : CG                  : conjugate gradient
  Preconditioner : FULL_ALL            : diagonalization, state selective
  Precond_solver : DEFAULT
  Line search    : 3PNT                : 3 energies
  stepsize       :    0.15000000                  energy_gap     :    0.08000000
  eps_taylor     :   0.10000E-15                  max_taylor     :             4
  ----------------------------------- OT ---------------------------------------

  Step     Update method      Time    Convergence         Total energy    Change
  ------------------------------------------------------------------------------
     1 OT CG       0.12E+00   12.4     0.00064204     -8143.9497942543 -8.14E+03
     2 OT LS       0.17E+00    7.6                    -8144.0831431873
     3 OT LS       0.20E+00    7.6                    -8144.1034481972
     4 OT CG       0.16E+00   15.3     0.00050702     -8144.1067972897 -1.57E-01
     5 OT LS       0.22E+00    7.8                    -8144.2042420548
     6 OT LS       0.20E+00    7.7                    -8144.2087015357
     7 OT CG       0.16E+00   15.2     0.00016280     -8144.2094572374 -1.03E-01
     8 OT LS       0.23E+00    7.7                    -8144.2157472909
     9 OT LS       0.13E+00    7.6                    -8144.2123983901
    10 OT CG       0.10E+00   15.3     0.00008657     -8144.2161626719 -6.71E-03
    11 OT LS       0.14E+00    7.8                    -8144.2181443745
    12 OT LS       0.15E+00    7.7                    -8144.2183478312
    13 OT CG       0.12E+00   15.2     0.00005477     -8144.2183496279 -2.19E-03
    14 OT LS       0.17E+00    7.6                    -8144.2189797590
    15 OT LS       0.11E+00    7.7                    -8144.2188026492
    16 OT CG       0.87E-01   15.2     0.00002085     -8144.2189858676 -6.36E-04
    17 OT LS       0.12E+00    7.6                    -8144.2190889868
    18 OT LS       0.14E+00    7.7                    -8144.2191052311
    19 OT CG       0.12E+00   15.2     0.00001298     -8144.2191081201 -1.22E-04
    20 OT LS       0.16E+00    7.7                    -8144.2191625302
    21 OT LS       0.20E+00    7.7                    -8144.2191723616
    22 OT CG       0.16E+00   15.2     0.00000969     -8144.2191753873 -6.73E-05

  *** SCF run converged in    22 steps ***


  Electronic density on regular grids:      -1437.9999923041        0.0000076959
  Core density on regular grids:             1437.9999996441       -0.0000003559
  Total charge density on r-space grids:        0.0000073400
  Total charge density g-space grids:           0.0000073400

  Overlap energy of the core charge distribution:               0.00000207127411
  Self energy of the core charge distribution:             -14650.93922905635191
  Core Hamiltonian energy:                                   4107.69742640103868
  Hartree energy:                                            3440.62321950132809
  Exchange-correlation energy:                              -1042.47298155152225
  Dispersion energy:                                           -0.58062333882390

  DFT+U energy:                                                 1.45301058573766

  Total energy:                                             -8144.21917538731941

  outer SCF iter =    1 RMS gradient =   0.97E-05 energy =      -8144.2191753873
  outer SCF loop converged in   1 iterations or   22 steps


  Integrated absolute spin density  :                             234.8768607911
  Ideal and single determinant S**2 :                    0.000000     127.833442

 ENERGY| Total FORCE_EVAL ( QS ) energy (a.u.):            -8144.219198749638053


 --------  Informations at step =     7 ------------
  Optimization Method        =                 BFGS
  Total Energy               =     -8144.2191987496
  Real energy change         =         0.0998325788
  Predicted change in energy =        -0.0963818287
  Scaling factor             =         0.8831165525
  Step size                  =         0.4724315332
  Trust radius               =         0.4724315332
  Decrease in energy         =                   NO
  Used time                  =              263.211

  Convergence check :
  Max. step size             =         0.4724315332
  Conv. limit for step size  =         1.0000000000
  Convergence in step size   =                  YES
  RMS step size              =         0.0797796237
  Conv. limit for RMS step   =         1.0000000000
  Convergence in RMS step    =                  YES
  Max. gradient              =         0.1017881065
  Conv. limit for gradients  =         0.0100000000
  Conv. for gradients        =                   NO
  RMS gradient               =         0.0099548511
  Conv. limit for RMS grad.  =         1.0000000000
  Conv. in RMS gradients     =                  YES
 ---------------------------------------------------

 --------------------------
 OPTIMIZATION STEP:      8
 --------------------------

 Spin 1

 Number of electrons:                                                        719
 Number of occupied orbitals:                                                719
 Number of molecular orbitals:                                               719

 Spin 2

 Number of electrons:                                                        719
 Number of occupied orbitals:                                                719
 Number of molecular orbitals:                                               719

 Number of orbital functions:                                               2718
 Number of independent orbital functions:                                   2718

 Extrapolation method: PS Nth order


 SCF WAVEFUNCTION OPTIMIZATION

  ----------------------------------- OT ---------------------------------------
  Minimizer      : CG                  : conjugate gradient
  Preconditioner : FULL_ALL            : diagonalization, state selective
  Precond_solver : DEFAULT
  Line search    : 3PNT                : 3 energies
  stepsize       :    0.15000000                  energy_gap     :    0.08000000
  eps_taylor     :   0.10000E-15                  max_taylor     :             4
  ----------------------------------- OT ---------------------------------------

  Step     Update method      Time    Convergence         Total energy    Change
  ------------------------------------------------------------------------------
     1 OT CG       0.12E+00   12.4     0.00133454     -8143.1668533358 -8.14E+03
     2 OT LS       0.17E+00    7.6                    -8143.7423180187
     3 OT LS       0.20E+00    7.7                    -8143.8307099985
     4 OT CG       0.16E+00   15.1     0.00100538     -8143.8462241306 -6.79E-01
     5 OT LS       0.22E+00    7.8                    -8144.2341504325
     6 OT LS       0.21E+00    7.7                    -8144.2568887913
     7 OT CG       0.17E+00   15.1     0.00047994     -8144.2583431623 -4.12E-01
     8 OT LS       0.23E+00    7.7                    -8144.2972252096
     9 OT LS       0.11E+00    7.7                    -8144.2502778087
    10 OT CG       0.89E-01   15.1     0.00019898     -8144.3089626419 -5.06E-02
    11 OT LS       0.13E+00    7.7                    -8144.3181021954
    12 OT LS       0.13E+00    7.8                    -8144.3190939665
    13 OT CG       0.10E+00   15.2     0.00013203     -8144.3191108171 -1.01E-02
    14 OT LS       0.15E+00    7.7                    -8144.3236549944
    15 OT LS       0.15E+00    7.7                    -8144.3240382793
    16 OT CG       0.12E+00   15.1     0.00006599     -8144.3240386493 -4.93E-03
    17 OT LS       0.16E+00    7.7                    -8144.3252595330
    18 OT LS       0.15E+00    7.7                    -8144.3253232483
    19 OT CG       0.12E+00   15.1     0.00003935     -8144.3253301694 -1.29E-03
    20 OT LS       0.17E+00    7.7                    -8144.3258534325
    21 OT LS       0.21E+00    7.6                    -8144.3259454353
    22 OT CG       0.17E+00   14.8     0.00003633     -8144.3259710124 -6.41E-04
    23 OT LS       0.24E+00    7.5                    -8144.3262760472
    24 OT LS       0.13E+00    7.6                    -8144.3260782293
    25 OT CG       0.10E+00   14.9     0.00001851     -8144.3263069225 -3.36E-04
    26 OT LS       0.15E+00    7.5                    -8144.3264044884
    27 OT LS       0.17E+00    7.6                    -8144.3264200794
    28 OT CG       0.14E+00   14.9     0.00001307     -8144.3264230362 -1.16E-04
    29 OT LS       0.19E+00    7.5                    -8144.3264873590
    30 OT LS       0.23E+00    7.6                    -8144.3264972505
    31 OT CG       0.18E+00   14.9     0.00001012     -8144.3264988404 -7.58E-05
    32 OT LS       0.25E+00    7.5                    -8144.3265337728
    33 OT LS       0.17E+00    7.6                    -8144.3265266355
    34 OT CG       0.14E+00   14.8     0.00000642     -8144.3265338238 -3.50E-05

  *** SCF run converged in    34 steps ***


  Electronic density on regular grids:      -1437.9999923047        0.0000076953
  Core density on regular grids:             1437.9999996440       -0.0000003560
  Total charge density on r-space grids:        0.0000073393
  Total charge density g-space grids:           0.0000073393

  Overlap energy of the core charge distribution:               0.00000475020319
  Self energy of the core charge distribution:             -14650.93922905635191
  Core Hamiltonian energy:                                   4107.38613733609509
  Hartree energy:                                            3440.80113032308282
  Exchange-correlation energy:                              -1042.44810254067488
  Dispersion energy:                                           -0.58462742022384

  DFT+U energy:                                                 1.45815278409570

  Total energy:                                             -8144.32653382377248

  outer SCF iter =    1 RMS gradient =   0.64E-05 energy =      -8144.3265338238
  outer SCF loop converged in   1 iterations or   34 steps


  Integrated absolute spin density  :                             235.0468217272
  Ideal and single determinant S**2 :                    0.000000     127.905587

 ENERGY| Total FORCE_EVAL ( QS ) energy (a.u.):            -8144.326547125394427


 --------  Informations at step =     8 ------------
  Optimization Method        =                 BFGS
  Total Energy               =     -8144.3265471254
  Real energy change         =        -0.1073483758
  Predicted change in energy =        -0.0779112669
  Scaling factor             =         0.8831165525
  Step size                  =         0.2727559098
  Trust radius               =         0.4724315332
  Decrease in energy         =                  YES
  Used time                  =              381.681

  Convergence check :
  Max. step size             =         0.2727559098
  Conv. limit for step size  =         1.0000000000
  Convergence in step size   =                  YES
  RMS step size              =         0.0490134508
  Conv. limit for RMS step   =         1.0000000000
  Convergence in RMS step    =                  YES
  Max. gradient              =         0.0362470489
  Conv. limit for gradients  =         0.0100000000
  Conv. for gradients        =                   NO
  RMS gradient               =         0.0040073324
  Conv. limit for RMS grad.  =         1.0000000000
  Conv. in RMS gradients     =                  YES
 ---------------------------------------------------

 --------------------------
 OPTIMIZATION STEP:      9
 --------------------------

 Spin 1

 Number of electrons:                                                        719
 Number of occupied orbitals:                                                719
 Number of molecular orbitals:                                               719

 Spin 2

 Number of electrons:                                                        719
 Number of occupied orbitals:                                                719
 Number of molecular orbitals:                                               719

 Number of orbital functions:                                               2718
 Number of independent orbital functions:                                   2718

 Extrapolation method: PS Nth order


 SCF WAVEFUNCTION OPTIMIZATION

  ----------------------------------- OT ---------------------------------------
  Minimizer      : CG                  : conjugate gradient
  Preconditioner : FULL_ALL            : diagonalization, state selective
  Precond_solver : DEFAULT
  Line search    : 3PNT                : 3 energies
  stepsize       :    0.15000000                  energy_gap     :    0.08000000
  eps_taylor     :   0.10000E-15                  max_taylor     :             4
  ----------------------------------- OT ---------------------------------------

  Step     Update method      Time    Convergence         Total energy    Change
  ------------------------------------------------------------------------------
     1 OT CG       0.12E+00   12.3     0.00111760     -8143.5419385353 -8.14E+03
     2 OT LS       0.17E+00    7.5                    -8143.9429304470
     3 OT LS       0.19E+00    7.5                    -8144.0022909442
     4 OT CG       0.15E+00   14.8     0.00081318     -8144.0110500930 -4.69E-01
     5 OT LS       0.22E+00    7.6                    -8144.2669986965
     6 OT LS       0.22E+00    7.6                    -8144.2889043253
     7 OT CG       0.17E+00   14.8     0.00041304     -8144.2889054236 -2.78E-01
     8 OT LS       0.24E+00    7.6                    -8144.3103715597
     9 OT LS       0.10E+00    7.6                    -8144.2640785983
    10 OT CG       0.84E-01   14.8     0.00017096     -8144.3247319810 -3.58E-02
    11 OT LS       0.12E+00    7.6                    -8144.3314544329
    12 OT LS       0.14E+00    7.6                    -8144.3324920480
    13 OT CG       0.11E+00   14.8     0.00011449     -8144.3326624989 -7.93E-03
    14 OT LS       0.15E+00    7.6                    -8144.3359441742
    15 OT LS       0.13E+00    7.5                    -8144.3359387226
    16 OT CG       0.11E+00   14.7     0.00004915     -8144.3360353728 -3.37E-03
    17 OT LS       0.15E+00    7.6                    -8144.3366959101
    18 OT LS       0.16E+00    7.5                    -8144.3367724180
    19 OT CG       0.13E+00   14.7     0.00002960     -8144.3367748418 -7.39E-04
    20 OT LS       0.18E+00    7.6                    -8144.3370687796
    21 OT LS       0.20E+00    7.5                    -8144.3371107632
    22 OT CG       0.16E+00   14.9     0.00002517     -8144.3371155588 -3.41E-04
    23 OT LS       0.22E+00    7.6                    -8144.3372416120
    24 OT LS       0.12E+00    7.5                    -8144.3371421532
    25 OT CG       0.94E-01   14.9     0.00001321     -8144.3372603882 -1.45E-04
    26 OT LS       0.13E+00    7.6                    -8144.3373053387
    27 OT LS       0.16E+00    7.5                    -8144.3373127055
    28 OT CG       0.13E+00   14.9     0.00000785     -8144.3373142531 -5.39E-05

  *** SCF run converged in    28 steps ***


  Electronic density on regular grids:      -1437.9999923046        0.0000076954
  Core density on regular grids:             1437.9999996449       -0.0000003551
  Total charge density on r-space grids:        0.0000073403
  Total charge density g-space grids:           0.0000073403

  Overlap energy of the core charge distribution:               0.00000760662487
  Self energy of the core charge distribution:             -14650.93922905635191
  Core Hamiltonian energy:                                   4107.05926635337255
  Hartree energy:                                            3441.03788194004755
  Exchange-correlation energy:                              -1042.37785749085924
  Dispersion energy:                                           -0.58023261345975

  DFT+U energy:                                                 1.46284900750753

  Total energy:                                             -8144.33731425311998

  outer SCF iter =    1 RMS gradient =   0.79E-05 energy =      -8144.3373142531
  outer SCF loop converged in   1 iterations or   28 steps


  Integrated absolute spin density  :                             235.1289245573
  Ideal and single determinant S**2 :                    0.000000     127.938296

 ENERGY| Total FORCE_EVAL ( QS ) energy (a.u.):            -8144.337335311186507


 --------  Informations at step =     9 ------------
  Optimization Method        =                 BFGS
  Total Energy               =     -8144.3373353112
  Real energy change         =        -0.0107881858
  Predicted change in energy =        -0.0229501381
  Scaling factor             =         0.8831165525
  Step size                  =         0.2770622259
  Trust radius               =         0.4724315332
  Decrease in energy         =                  YES
  Used time                  =              318.150

  Convergence check :
  Max. step size             =         0.2770622259
  Conv. limit for step size  =         1.0000000000
  Convergence in step size   =                  YES
  RMS step size              =         0.0361130090
  Conv. limit for RMS step   =         1.0000000000
  Convergence in RMS step    =                  YES
  Max. gradient              =         0.0542978889
  Conv. limit for gradients  =         0.0100000000
  Conv. for gradients        =                   NO
  RMS gradient               =         0.0071786767
  Conv. limit for RMS grad.  =         1.0000000000
  Conv. in RMS gradients     =                  YES
 ---------------------------------------------------

 --------------------------
 OPTIMIZATION STEP:     10
 --------------------------

 Spin 1

 Number of electrons:                                                        719
 Number of occupied orbitals:                                                719
 Number of molecular orbitals:                                               719

 Spin 2

 Number of electrons:                                                        719
 Number of occupied orbitals:                                                719
 Number of molecular orbitals:                                               719

 Number of orbital functions:                                               2718
 Number of independent orbital functions:                                   2718

 Extrapolation method: PS Nth order


 SCF WAVEFUNCTION OPTIMIZATION

  ----------------------------------- OT ---------------------------------------
  Minimizer      : CG                  : conjugate gradient
  Preconditioner : FULL_ALL            : diagonalization, state selective
  Precond_solver : DEFAULT
  Line search    : 3PNT                : 3 energies
  stepsize       :    0.15000000                  energy_gap     :    0.08000000
  eps_taylor     :   0.10000E-15                  max_taylor     :             4
  ----------------------------------- OT ---------------------------------------

  Step     Update method      Time    Convergence         Total energy    Change
  ------------------------------------------------------------------------------
     1 OT CG       0.12E+00   12.2     0.00031835     -8144.2644472899 -8.14E+03
     2 OT LS       0.17E+00    7.3                    -8144.3005640277
     3 OT LS       0.25E+00    7.3                    -8144.3086188658
     4 OT CG       0.20E+00   14.8     0.00027713     -8144.3139369724 -4.95E-02
     5 OT LS       0.28E+00    7.5                    -8144.3379794072
     6 OT LS       0.17E+00    7.3                    -8144.3277313740
     7 OT CG       0.13E+00   14.8     0.00010291     -8144.3389281572 -2.50E-02
     8 OT LS       0.19E+00    7.4                    -8144.3411058261
     9 OT LS       0.11E+00    7.3                    -8144.3400992308
    10 OT CG       0.89E-01   14.7     0.00004358     -8144.3412090689 -2.28E-03
    11 OT LS       0.12E+00    7.3                    -8144.3416106950
    12 OT LS       0.11E+00    7.3                    -8144.3416282025
    13 OT CG       0.91E-01   14.7     0.00002532     -8144.3416315627 -4.22E-04
    14 OT LS       0.13E+00    7.3                    -8144.3417926518
    15 OT LS       0.16E+00    7.5                    -8144.3418196239
    16 OT CG       0.12E+00   14.7     0.00001410     -8144.3418258182 -1.94E-04
    17 OT LS       0.17E+00    7.4                    -8144.3418874854
    18 OT LS       0.17E+00    7.4                    -8144.3418926410
    19 OT CG       0.14E+00   14.7     0.00001002     -8144.3418926490 -6.68E-05
    20 OT LS       0.19E+00    7.3                    -8144.3419308133
    21 OT LS       0.24E+00    7.4                    -8144.3419372775
    22 OT CG       0.19E+00   14.7     0.00001074     -8144.3419388325 -4.62E-05
    23 OT LS       0.26E+00    7.3                    -8144.3419774080
    24 OT LS       0.17E+00    7.4                    -8144.3419667316
    25 OT CG       0.14E+00   14.7     0.00000763     -8144.3419777511 -3.89E-05

  *** SCF run converged in    25 steps ***


  Electronic density on regular grids:      -1437.9999923040        0.0000076960
  Core density on regular grids:             1437.9999996446       -0.0000003554
  Total charge density on r-space grids:        0.0000073406
  Total charge density g-space grids:           0.0000073406

  Overlap energy of the core charge distribution:               0.00000786594663
  Self energy of the core charge distribution:             -14650.93922905635191
  Core Hamiltonian energy:                                   4107.22899691833209
  Hartree energy:                                            3440.90122257384473
  Exchange-correlation energy:                              -1042.40971523281200
  Dispersion energy:                                           -0.58425012854775

  DFT+U energy:                                                 1.46098930845140

  Total energy:                                             -8144.34197775113626

  outer SCF iter =    1 RMS gradient =   0.76E-05 energy =      -8144.3419777511
  outer SCF loop converged in   1 iterations or   25 steps


  Integrated absolute spin density  :                             235.0837248879
  Ideal and single determinant S**2 :                    0.000000     127.919414

 ENERGY| Total FORCE_EVAL ( QS ) energy (a.u.):            -8144.341995069238692


 --------  Informations at step =    10 ------------
  Optimization Method        =                 BFGS
  Total Energy               =     -8144.3419950692
  Real energy change         =        -0.0046597581
  Predicted change in energy =        -0.0237715431
  Scaling factor             =         0.8831165525
  Step size                  =         0.1364907929
  Trust radius               =         0.4724315332
  Decrease in energy         =                  YES
  Used time                  =              284.440

  Convergence check :
  Max. step size             =         0.1364907929
  Conv. limit for step size  =         1.0000000000
  Convergence in step size   =                  YES
  RMS step size              =         0.0187415285
  Conv. limit for RMS step   =         1.0000000000
  Convergence in RMS step    =                  YES
  Max. gradient              =         0.0396317144
  Conv. limit for gradients  =         0.0100000000
  Conv. for gradients        =                   NO
  RMS gradient               =         0.0042408283
  Conv. limit for RMS grad.  =         1.0000000000
  Conv. in RMS gradients     =                  YES
 ---------------------------------------------------

 --------------------------
 OPTIMIZATION STEP:     11
 --------------------------

 Spin 1

 Number of electrons:                                                        719
 Number of occupied orbitals:                                                719
 Number of molecular orbitals:                                               719

 Spin 2

 Number of electrons:                                                        719
 Number of occupied orbitals:                                                719
 Number of molecular orbitals:                                               719

 Number of orbital functions:                                               2718
 Number of independent orbital functions:                                   2718

 Extrapolation method: PS Nth order


 SCF WAVEFUNCTION OPTIMIZATION

  ----------------------------------- OT ---------------------------------------
  Minimizer      : CG                  : conjugate gradient
  Preconditioner : FULL_ALL            : diagonalization, state selective
  Precond_solver : DEFAULT
  Line search    : 3PNT                : 3 energies
  stepsize       :    0.15000000                  energy_gap     :    0.08000000
  eps_taylor     :   0.10000E-15                  max_taylor     :             4
  ----------------------------------- OT ---------------------------------------

  Step     Update method      Time    Convergence         Total energy    Change
  ------------------------------------------------------------------------------
     1 OT CG       0.12E+00   12.3     0.00031801     -8144.2659356294 -8.14E+03
     2 OT LS       0.17E+00    7.3                    -8144.3001044010
     3 OT LS       0.22E+00    7.3                    -8144.3063880479
     4 OT CG       0.17E+00   14.7     0.00025155     -8144.3084844010 -4.25E-02
     5 OT LS       0.24E+00    7.4                    -8144.3335618722
     6 OT LS       0.21E+00    7.4                    -8144.3336333163
     7 OT CG       0.17E+00   14.7     0.00009673     -8144.3343132516 -2.58E-02
     8 OT LS       0.23E+00    7.3                    -8144.3360877594
     9 OT LS       0.12E+00    7.4                    -8144.3343862251
    10 OT CG       0.94E-01   14.7     0.00003478     -8144.3364596060 -2.15E-03
    11 OT LS       0.13E+00    7.3                    -8144.3367659469
    12 OT LS       0.15E+00    7.3                    -8144.3368115831
    13 OT CG       0.12E+00   14.7     0.00002522     -8144.3368179692 -3.58E-04
    14 OT LS       0.17E+00    7.3                    -8144.3369720931
    15 OT LS       0.12E+00    7.3                    -8144.3369510839
    16 OT CG       0.99E-01   14.7     0.00001129     -8144.3369721657 -1.54E-04
    17 OT LS       0.14E+00    7.3                    -8144.3370056571
    18 OT LS       0.15E+00    7.4                    -8144.3370101500
    19 OT CG       0.12E+00   14.7     0.00000744     -8144.3370105234 -3.84E-05

  *** SCF run converged in    19 steps ***


  Electronic density on regular grids:      -1437.9999922994        0.0000077006
  Core density on regular grids:             1437.9999996441       -0.0000003559
  Total charge density on r-space grids:        0.0000073447
  Total charge density g-space grids:           0.0000073447

  Overlap energy of the core charge distribution:               0.00000453537674
  Self energy of the core charge distribution:             -14650.93922905635191
  Core Hamiltonian energy:                                   4107.37618075546652
  Hartree energy:                                            3440.80081747809027
  Exchange-correlation energy:                              -1042.45176100437016
  Dispersion energy:                                           -0.58092230839433

  DFT+U energy:                                                 1.45789907681420

  Total energy:                                             -8144.33701052336983

  outer SCF iter =    1 RMS gradient =   0.74E-05 energy =      -8144.3370105234
  outer SCF loop converged in   1 iterations or   19 steps


  Integrated absolute spin density  :                             235.0398821653
  Ideal and single determinant S**2 :                    0.000000     127.905058

 ENERGY| Total FORCE_EVAL ( QS ) energy (a.u.):            -8144.337030786467039


 --------  Informations at step =    11 ------------
  Optimization Method        =                 BFGS
  Total Energy               =     -8144.3370307865
  Real energy change         =         0.0049642828
  Predicted change in energy =        -0.0148288973
  Scaling factor             =         0.8831165525
  Step size                  =         0.2579292008
  Trust radius               =         0.4724315332
  Decrease in energy         =                   NO
  Used time                  =              224.398

  Convergence check :
  Max. step size             =         0.2579292008
  Conv. limit for step size  =         1.0000000000
  Convergence in step size   =                  YES
  RMS step size              =         0.0243975224
  Conv. limit for RMS step   =         1.0000000000
  Convergence in RMS step    =                  YES
  Max. gradient              =         0.0563220056
  Conv. limit for gradients  =         0.0100000000
  Conv. for gradients        =                   NO
  RMS gradient               =         0.0055304302
  Conv. limit for RMS grad.  =         1.0000000000
  Conv. in RMS gradients     =                  YES
 ---------------------------------------------------

 --------------------------
 OPTIMIZATION STEP:     12
 --------------------------

 Spin 1

 Number of electrons:                                                        719
 Number of occupied orbitals:                                                719
 Number of molecular orbitals:                                               719

 Spin 2

 Number of electrons:                                                        719
 Number of occupied orbitals:                                                719
 Number of molecular orbitals:                                               719

 Number of orbital functions:                                               2718
 Number of independent orbital functions:                                   2718

 Extrapolation method: PS Nth order


 SCF WAVEFUNCTION OPTIMIZATION

  ----------------------------------- OT ---------------------------------------
  Minimizer      : CG                  : conjugate gradient
  Preconditioner : FULL_ALL            : diagonalization, state selective
  Precond_solver : DEFAULT
  Line search    : 3PNT                : 3 energies
  stepsize       :    0.15000000                  energy_gap     :    0.08000000
  eps_taylor     :   0.10000E-15                  max_taylor     :             4
  ----------------------------------- OT ---------------------------------------

  Step     Update method      Time    Convergence         Total energy    Change
  ------------------------------------------------------------------------------
     1 OT CG       0.12E+00   12.3     0.00042790     -8144.2096522525 -8.14E+03
     2 OT LS       0.17E+00    7.6                    -8144.2753689298
     3 OT LS       0.26E+00    7.6                    -8144.2903668604
     4 OT CG       0.20E+00   14.9     0.00036180     -8144.3011179763 -9.15E-02
     5 OT LS       0.29E+00    7.6                    -8144.3439357048
     6 OT LS       0.17E+00    7.5                    -8144.3265441584
     7 OT CG       0.14E+00   15.0     0.00012796     -8144.3453826951 -4.43E-02
     8 OT LS       0.19E+00    7.5                    -8144.3483239819
     9 OT LS       0.10E+00    7.7                    -8144.3461859010
    10 OT CG       0.83E-01   15.1     0.00005451     -8144.3486988651 -3.32E-03
    11 OT LS       0.12E+00    7.5                    -8144.3493566589
    12 OT LS       0.13E+00    7.6                    -8144.3494482469
    13 OT CG       0.10E+00   15.1     0.00003252     -8144.3494574432 -7.59E-04
    14 OT LS       0.15E+00    7.5                    -8144.3497269952
    15 OT LS       0.14E+00    7.6                    -8144.3497440129
    16 OT CG       0.11E+00   15.0     0.00001501     -8144.3497447776 -2.87E-04
    17 OT LS       0.16E+00    7.4                    -8144.3498086769
    18 OT LS       0.16E+00    7.3                    -8144.3498151490
    19 OT CG       0.13E+00   14.4     0.00000903     -8144.3498151961 -7.04E-05

  *** SCF run converged in    19 steps ***


  Electronic density on regular grids:      -1437.9999922939        0.0000077061
  Core density on regular grids:             1437.9999996439       -0.0000003561
  Total charge density on r-space grids:        0.0000073501
  Total charge density g-space grids:           0.0000073501

  Overlap energy of the core charge distribution:               0.00000610242762
  Self energy of the core charge distribution:             -14650.93922905635191
  Core Hamiltonian energy:                                   4107.33496090483186
  Hartree energy:                                            3440.82266238305283
  Exchange-correlation energy:                              -1042.44258894688687
  Dispersion energy:                                           -0.58402768506234

  DFT+U energy:                                                 1.45840110184147

  Total energy:                                             -8144.34981519614666

  outer SCF iter =    1 RMS gradient =   0.90E-05 energy =      -8144.3498151961
  outer SCF loop converged in   1 iterations or   19 steps


  Integrated absolute spin density  :                             235.0537893508
  Ideal and single determinant S**2 :                    0.000000     127.910489

 ENERGY| Total FORCE_EVAL ( QS ) energy (a.u.):            -8144.349845300796915


 --------  Informations at step =    12 ------------
  Optimization Method        =                 BFGS
  Total Energy               =     -8144.3498453008
  Real energy change         =        -0.0128145143
  Predicted change in energy =        -0.0112076254
  Scaling factor             =         0.8831165525
  Step size                  =         0.0865032512
  Trust radius               =         0.4724315332
  Decrease in energy         =                  YES
  Used time                  =              227.976

  Convergence check :
  Max. step size             =         0.0865032512
  Conv. limit for step size  =         1.0000000000
  Convergence in step size   =                  YES
  RMS step size              =         0.0138680832
  Conv. limit for RMS step   =         1.0000000000
  Convergence in RMS step    =                  YES
  Max. gradient              =         0.0221333208
  Conv. limit for gradients  =         0.0100000000
  Conv. for gradients        =                   NO
  RMS gradient               =         0.0027068013
  Conv. limit for RMS grad.  =         1.0000000000
  Conv. in RMS gradients     =                  YES
 ---------------------------------------------------

 --------------------------
 OPTIMIZATION STEP:     13
 --------------------------

 Spin 1

 Number of electrons:                                                        719
 Number of occupied orbitals:                                                719
 Number of molecular orbitals:                                               719

 Spin 2

 Number of electrons:                                                        719
 Number of occupied orbitals:                                                719
 Number of molecular orbitals:                                               719

 Number of orbital functions:                                               2718
 Number of independent orbital functions:                                   2718

 Extrapolation method: PS Nth order


 SCF WAVEFUNCTION OPTIMIZATION

  ----------------------------------- OT ---------------------------------------
  Minimizer      : CG                  : conjugate gradient
  Preconditioner : FULL_ALL            : diagonalization, state selective
  Precond_solver : DEFAULT
  Line search    : 3PNT                : 3 energies
  stepsize       :    0.15000000                  energy_gap     :    0.08000000
  eps_taylor     :   0.10000E-15                  max_taylor     :             4
  ----------------------------------- OT ---------------------------------------

  Step     Update method      Time    Convergence         Total energy    Change
  ------------------------------------------------------------------------------
     1 OT CG       0.12E+00   12.0     0.00022224     -8144.2979651804 -8.14E+03
     2 OT LS       0.17E+00    7.1                    -8144.3154018905
     3 OT LS       0.24E+00    7.1                    -8144.3191765041
     4 OT CG       0.19E+00   14.4     0.00018340     -8144.3214262386 -2.35E-02
     5 OT LS       0.27E+00    7.1                    -8144.3333361792
     6 OT LS       0.18E+00    7.1                    -8144.3304205970
     7 OT CG       0.15E+00   14.3     0.00007852     -8144.3333951788 -1.20E-02
     8 OT LS       0.20E+00    7.1                    -8144.3343037408
     9 OT LS       0.98E-01    7.0                    -8144.3332061181
    10 OT CG       0.78E-01   14.1     0.00003281     -8144.3345792010 -1.18E-03
    11 OT LS       0.11E+00    7.0                    -8144.3347926846
    12 OT LS       0.11E+00    7.0                    -8144.3348128137
    13 OT CG       0.89E-01   14.1     0.00001632     -8144.3348128440 -2.34E-04
    14 OT LS       0.12E+00    7.0                    -8144.3348800268
    15 OT LS       0.16E+00    7.0                    -8144.3348927762
    16 OT CG       0.13E+00   14.0     0.00000956     -8144.3348974778 -8.46E-05

  *** SCF run converged in    16 steps ***


  Electronic density on regular grids:      -1437.9999923135        0.0000076865
  Core density on regular grids:             1437.9999996446       -0.0000003554
  Total charge density on r-space grids:        0.0000073311
  Total charge density g-space grids:           0.0000073311

  Overlap energy of the core charge distribution:               0.00000973746367
  Self energy of the core charge distribution:             -14650.93922905635191
  Core Hamiltonian energy:                                   4107.12397564596540
  Hartree energy:                                            3440.98217510697941
  Exchange-correlation energy:                              -1042.38688455503370
  Dispersion energy:                                           -0.57701841740640

  DFT+U energy:                                                 1.46207406055300

  Total energy:                                             -8144.33489747783005

  outer SCF iter =    1 RMS gradient =   0.96E-05 energy =      -8144.3348974778
  outer SCF loop converged in   1 iterations or   16 steps


  Integrated absolute spin density  :                             235.0900475780
  Ideal and single determinant S**2 :                    0.000000     127.923228

 ENERGY| Total FORCE_EVAL ( QS ) energy (a.u.):            -8144.334925960868532


 --------  Informations at step =    13 ------------
  Optimization Method        =                 BFGS
  Total Energy               =     -8144.3349259609
  Real energy change         =         0.0149193399
  Predicted change in energy =        -0.0145941169
  Scaling factor             =         0.8831165525
  Step size                  =         0.2330401665
  Trust radius               =         0.4724315332
  Decrease in energy         =                   NO
  Used time                  =              187.642

  Convergence check :
  Max. step size             =         0.2330401665
  Conv. limit for step size  =         1.0000000000
  Convergence in step size   =                  YES
  RMS step size              =         0.0331008171
  Conv. limit for RMS step   =         1.0000000000
  Convergence in RMS step    =                  YES
  Max. gradient              =         0.0645886781
  Conv. limit for gradients  =         0.0100000000
  Conv. for gradients        =                   NO
  RMS gradient               =         0.0066738601
  Conv. limit for RMS grad.  =         1.0000000000
  Conv. in RMS gradients     =                  YES
 ---------------------------------------------------

 --------------------------
 OPTIMIZATION STEP:     14
 --------------------------

 Spin 1

 Number of electrons:                                                        719
 Number of occupied orbitals:                                                719
 Number of molecular orbitals:                                               719

 Spin 2

 Number of electrons:                                                        719
 Number of occupied orbitals:                                                719
 Number of molecular orbitals:                                               719

 Number of orbital functions:                                               2718
 Number of independent orbital functions:                                   2718

 Extrapolation method: PS Nth order


 SCF WAVEFUNCTION OPTIMIZATION

  ----------------------------------- OT ---------------------------------------
  Minimizer      : CG                  : conjugate gradient
  Preconditioner : FULL_ALL            : diagonalization, state selective
  Precond_solver : DEFAULT
  Line search    : 3PNT                : 3 energies
  stepsize       :    0.15000000                  energy_gap     :    0.08000000
  eps_taylor     :   0.10000E-15                  max_taylor     :             4
  ----------------------------------- OT ---------------------------------------

  Step     Update method      Time    Convergence         Total energy    Change
  ------------------------------------------------------------------------------
     1 OT CG       0.12E+00   11.8     0.00045812     -8144.1996350262 -8.14E+03
     2 OT LS       0.17E+00    7.0                    -8144.2720760326
     3 OT LS       0.23E+00    7.0                    -8144.2865529004
     4 OT CG       0.18E+00   14.2     0.00038615     -8144.2930658741 -9.34E-02
     5 OT LS       0.26E+00    7.1                    -8144.3467356236
     6 OT LS       0.18E+00    7.1                    -8144.3387448418
     7 OT CG       0.15E+00   14.2     0.00015301     -8144.3467403462 -5.37E-02
     8 OT LS       0.21E+00    7.1                    -8144.3500741499
     9 OT LS       0.98E-01    7.1                    -8144.3457400818
    10 OT CG       0.78E-01   14.2     0.00006207     -8144.3512140044 -4.47E-03
    11 OT LS       0.11E+00    7.1                    -8144.3520345162
    12 OT LS       0.13E+00    7.1                    -8144.3521616938
    13 OT CG       0.10E+00   14.2     0.00003641     -8144.3521827802 -9.69E-04
    14 OT LS       0.14E+00    7.1                    -8144.3525286462
    15 OT LS       0.15E+00    7.1                    -8144.3525621068
    16 OT CG       0.12E+00   14.1     0.00001689     -8144.3525622102 -3.79E-04
    17 OT LS       0.16E+00    7.3                    -8144.3526434404
    18 OT LS       0.15E+00    7.1                    -8144.3526481650
    19 OT CG       0.12E+00   14.1     0.00000986     -8144.3526484900 -8.63E-05

  *** SCF run converged in    19 steps ***


  Electronic density on regular grids:      -1437.9999923086        0.0000076914
  Core density on regular grids:             1437.9999996443       -0.0000003557
  Total charge density on r-space grids:        0.0000073357
  Total charge density g-space grids:           0.0000073357

  Overlap energy of the core charge distribution:               0.00000662717946
  Self energy of the core charge distribution:             -14650.93922905635191
  Core Hamiltonian energy:                                   4107.22165964003034
  Hartree energy:                                            3440.90415511339415
  Exchange-correlation energy:                              -1042.41788333738759
  Dispersion energy:                                           -0.58118823922879

  DFT+U energy:                                                 1.45983076238459

  Total energy:                                             -8144.35264848998122

  outer SCF iter =    1 RMS gradient =   0.99E-05 energy =      -8144.3526484900
  outer SCF loop converged in   1 iterations or   19 steps


  Integrated absolute spin density  :                             235.0670207701
  Ideal and single determinant S**2 :                    0.000000     127.917287

 ENERGY| Total FORCE_EVAL ( QS ) energy (a.u.):            -8144.352680538968343


 --------  Informations at step =    14 ------------
  Optimization Method        =                 BFGS
  Total Energy               =     -8144.3526805390
  Real energy change         =        -0.0177545781
  Predicted change in energy =        -0.0168940341
  Scaling factor             =         0.8831165525
  Step size                  =         0.1759248097
  Trust radius               =         0.4724315332
  Decrease in energy         =                  YES
  Used time                  =              216.779

  Convergence check :
  Max. step size             =         0.1759248097
  Conv. limit for step size  =         1.0000000000
  Convergence in step size   =                  YES
  RMS step size              =         0.0177298217
  Conv. limit for RMS step   =         1.0000000000
  Convergence in RMS step    =                  YES
  Max. gradient              =         0.0359598083
  Conv. limit for gradients  =         0.0100000000
  Conv. for gradients        =                   NO
  RMS gradient               =         0.0059366925
  Conv. limit for RMS grad.  =         1.0000000000
  Conv. in RMS gradients     =                  YES
 ---------------------------------------------------

 --------------------------
 OPTIMIZATION STEP:     15
 --------------------------

  Step is scaled; Scaling factor =  0.19085

 Spin 1

 Number of electrons:                                                        719
 Number of occupied orbitals:                                                719
 Number of molecular orbitals:                                               719

 Spin 2

 Number of electrons:                                                        719
 Number of occupied orbitals:                                                719
 Number of molecular orbitals:                                               719

 Number of orbital functions:                                               2718
 Number of independent orbital functions:                                   2718

 Extrapolation method: PS Nth order


 SCF WAVEFUNCTION OPTIMIZATION

  ----------------------------------- OT ---------------------------------------
  Minimizer      : CG                  : conjugate gradient
  Preconditioner : FULL_ALL            : diagonalization, state selective
  Precond_solver : DEFAULT
  Line search    : 3PNT                : 3 energies
  stepsize       :    0.15000000                  energy_gap     :    0.08000000
  eps_taylor     :   0.10000E-15                  max_taylor     :             4
  ----------------------------------- OT ---------------------------------------

  Step     Update method      Time    Convergence         Total energy    Change
  ------------------------------------------------------------------------------
     1 OT CG       0.12E+00   12.0     0.00016260     -8144.2633444372 -8.14E+03
     2 OT LS       0.17E+00    7.1                    -8144.2730168716
     3 OT LS       0.27E+00    7.1                    -8144.2753549262
     4 OT CG       0.22E+00   14.3     0.00013641     -8144.2774104743 -1.41E-02
     5 OT LS       0.30E+00    7.1                    -8144.2818058749
     6 OT LS       0.15E+00    7.1                    -8144.2771311922
     7 OT CG       0.12E+00   14.3     0.00004911     -8144.2828931854 -5.48E-03
     8 OT LS       0.17E+00    7.1                    -8144.2834120758
     9 OT LS       0.11E+00    7.1                    -8144.2832730191
    10 OT CG       0.89E-01   14.2     0.00002640     -8144.2834161026 -5.23E-04
    11 OT LS       0.12E+00    7.0                    -8144.2835869852
    12 OT LS       0.15E+00    7.0                    -8144.2836158449
    13 OT CG       0.12E+00   14.0     0.00001822     -8144.2836226968 -2.07E-04
    14 OT LS       0.17E+00    7.0                    -8144.2837246082
    15 OT LS       0.17E+00    7.0                    -8144.2837342573
    16 OT CG       0.14E+00   14.0     0.00001146     -8144.2837342733 -1.12E-04
    17 OT LS       0.19E+00    7.1                    -8144.2837819316
    18 OT LS       0.21E+00    7.1                    -8144.2837881878
    19 OT CG       0.17E+00   14.3     0.00001069     -8144.2837886504 -5.44E-05
    20 OT LS       0.24E+00    7.1                    -8144.2838394187
    21 OT LS       0.26E+00    7.0                    -8144.2838456347
    22 OT CG       0.20E+00   14.0     0.00001163     -8144.2838459217 -5.73E-05
    23 OT LS       0.29E+00    7.0                    -8144.2838718571
    24 OT LS       0.14E+00    7.0                    -8144.2838367445
    25 OT CG       0.11E+00   14.0     0.00000637     -8144.2838813713 -3.54E-05

  *** SCF run converged in    25 steps ***


  Electronic density on regular grids:      -1437.9999923044        0.0000076956
  Core density on regular grids:             1437.9999996434       -0.0000003566
  Total charge density on r-space grids:        0.0000073390
  Total charge density g-space grids:           0.0000073390

  Overlap energy of the core charge distribution:               0.00000287185473
  Self energy of the core charge distribution:             -14650.93922905635191
  Core Hamiltonian energy:                                   4107.47701943388347
  Hartree energy:                                            3440.75939140438322
  Exchange-correlation energy:                              -1042.45907831331851
  Dispersion energy:                                           -0.57760916950710

  DFT+U energy:                                                 1.45562145776401

  Total energy:                                             -8144.28388137129241

  outer SCF iter =    1 RMS gradient =   0.64E-05 energy =      -8144.2838813713
  outer SCF loop converged in   1 iterations or   25 steps


  Integrated absolute spin density  :                             234.9595416929
  Ideal and single determinant S**2 :                    0.000000     127.868867

 ENERGY| Total FORCE_EVAL ( QS ) energy (a.u.):            -8144.283892200553964


 --------  Informations at step =    15 ------------
  Optimization Method        =                 BFGS
  Total Energy               =     -8144.2838922006
  Real energy change         =         0.0687883384
  Predicted change in energy =        -0.0800145356
  Scaling factor             =         0.1908515350
  Step size                  =         0.4724315332
  Trust radius               =         0.4724315332
  Decrease in energy         =                   NO
  Used time                  =              273.064

  Convergence check :
  Max. step size             =         0.4724315332
  Conv. limit for step size  =         1.0000000000
  Convergence in step size   =                  YES
  RMS step size              =         0.0536782692
  Conv. limit for RMS step   =         1.0000000000
  Convergence in RMS step    =                  YES
  Max. gradient              =         0.1033444008
  Conv. limit for gradients  =         0.0100000000
  Conv. for gradients        =                   NO
  RMS gradient               =         0.0117369218
  Conv. limit for RMS grad.  =         1.0000000000
  Conv. in RMS gradients     =                  YES
 ---------------------------------------------------

 --------------------------
 OPTIMIZATION STEP:     16
 --------------------------

 Spin 1

 Number of electrons:                                                        719
 Number of occupied orbitals:                                                719
 Number of molecular orbitals:                                               719

 Spin 2

 Number of electrons:                                                        719
 Number of occupied orbitals:                                                719
 Number of molecular orbitals:                                               719

 Number of orbital functions:                                               2718
 Number of independent orbital functions:                                   2718

 Extrapolation method: PS Nth order


 SCF WAVEFUNCTION OPTIMIZATION

  ----------------------------------- OT ---------------------------------------
  Minimizer      : CG                  : conjugate gradient
  Preconditioner : FULL_ALL            : diagonalization, state selective
  Precond_solver : DEFAULT
  Line search    : 3PNT                : 3 energies
  stepsize       :    0.15000000                  energy_gap     :    0.08000000
  eps_taylor     :   0.10000E-15                  max_taylor     :             4
  ----------------------------------- OT ---------------------------------------

  Step     Update method      Time    Convergence         Total energy    Change
  ------------------------------------------------------------------------------
     1 OT CG       0.12E+00   12.0     0.00078001     -8143.8798605222 -8.14E+03
     2 OT LS       0.17E+00    7.1                    -8144.0947158775
     3 OT LS       0.24E+00    7.3                    -8144.1415837838
     4 OT CG       0.20E+00   14.6     0.00064964     -8144.1708976517 -2.91E-01
     5 OT LS       0.27E+00    7.3                    -8144.3158571128
     6 OT LS       0.18E+00    7.3                    -8144.2718932286
     7 OT CG       0.14E+00   14.5     0.00024764     -8144.3177026286 -1.47E-01
     8 OT LS       0.20E+00    7.3                    -8144.3291414938
     9 OT LS       0.11E+00    7.4                    -8144.3212492502
    10 OT CG       0.85E-01   14.5     0.00010844     -8144.3304633789 -1.28E-02
    11 OT LS       0.12E+00    7.3                    -8144.3330681086
    12 OT LS       0.13E+00    7.4                    -8144.3333760160
    13 OT CG       0.10E+00   14.5     0.00006639     -8144.3333873718 -2.92E-03
    14 OT LS       0.14E+00    7.3                    -8144.3345595154
    15 OT LS       0.15E+00    7.4                    -8144.3347034683
    16 OT CG       0.12E+00   14.5     0.00003110     -8144.3347105479 -1.32E-03
    17 OT LS       0.17E+00    7.3                    -8144.3350015066
    18 OT LS       0.16E+00    7.3                    -8144.3350203281
    19 OT CG       0.13E+00   14.5     0.00002181     -8144.3350210696 -3.11E-04
    20 OT LS       0.18E+00    7.3                    -8144.3351926078
    21 OT LS       0.22E+00    7.3                    -8144.3352205977
    22 OT CG       0.18E+00   14.5     0.00002161     -8144.3352264092 -2.05E-04
    23 OT LS       0.25E+00    7.4                    -8144.3353399539
    24 OT LS       0.14E+00    7.3                    -8144.3352676667
    25 OT CG       0.11E+00   14.5     0.00001225     -8144.3353510011 -1.25E-04
    26 OT LS       0.15E+00    7.4                    -8144.3353961470
    27 OT LS       0.19E+00    7.3                    -8144.3354037122
    28 OT CG       0.15E+00   14.5     0.00000938     -8144.3354054550 -5.45E-05

  *** SCF run converged in    28 steps ***


  Electronic density on regular grids:      -1437.9999923003        0.0000076997
  Core density on regular grids:             1437.9999996441       -0.0000003559
  Total charge density on r-space grids:        0.0000073438
  Total charge density g-space grids:           0.0000073438

  Overlap energy of the core charge distribution:               0.00000582479254
  Self energy of the core charge distribution:             -14650.93922905635191
  Core Hamiltonian energy:                                   4107.43447692368863
  Hartree energy:                                            3440.75846226927661
  Exchange-correlation energy:                              -1042.46276151281472
  Dispersion energy:                                           -0.58270301244693

  DFT+U energy:                                                 1.45634310881859

  Total energy:                                             -8144.33540545503729

  outer SCF iter =    1 RMS gradient =   0.94E-05 energy =      -8144.3354054550
  outer SCF loop converged in   1 iterations or   28 steps


  Integrated absolute spin density  :                             234.9892676354
  Ideal and single determinant S**2 :                    0.000000     127.885306

 ENERGY| Total FORCE_EVAL ( QS ) energy (a.u.):            -8144.335440678209125


 --------  Informations at step =    16 ------------
  Optimization Method        =                 BFGS
  Total Energy               =     -8144.3354406782
  Real energy change         =        -0.0515484777
  Predicted change in energy =        -0.0391439090
  Scaling factor             =         0.1908515350
  Step size                  =         0.1726093924
  Trust radius               =         0.4724315332
  Decrease in energy         =                   NO
  Used time                  =              309.623

  Convergence check :
  Max. step size             =         0.1726093924
  Conv. limit for step size  =         1.0000000000
  Convergence in step size   =                  YES
  RMS step size              =         0.0259195270
  Conv. limit for RMS step   =         1.0000000000
  Convergence in RMS step    =                  YES
  Max. gradient              =         0.0450876032
  Conv. limit for gradients  =         0.0100000000
  Conv. for gradients        =                   NO
  RMS gradient               =         0.0060323590
  Conv. limit for RMS grad.  =         1.0000000000
  Conv. in RMS gradients     =                  YES
 ---------------------------------------------------

 --------------------------
 OPTIMIZATION STEP:     17
 --------------------------

  Step is scaled; Scaling factor =  0.35999

 Spin 1

 Number of electrons:                                                        719
 Number of occupied orbitals:                                                719
 Number of molecular orbitals:                                               719

 Spin 2

 Number of electrons:                                                        719
 Number of occupied orbitals:                                                719
 Number of molecular orbitals:                                               719

 Number of orbital functions:                                               2718
 Number of independent orbital functions:                                   2718

 Extrapolation method: PS Nth order


 SCF WAVEFUNCTION OPTIMIZATION

  ----------------------------------- OT ---------------------------------------
  Minimizer      : CG                  : conjugate gradient
  Preconditioner : FULL_ALL            : diagonalization, state selective
  Precond_solver : DEFAULT
  Line search    : 3PNT                : 3 energies
  stepsize       :    0.15000000                  energy_gap     :    0.08000000
  eps_taylor     :   0.10000E-15                  max_taylor     :             4
  ----------------------------------- OT ---------------------------------------

  Step     Update method      Time    Convergence         Total energy    Change
  ------------------------------------------------------------------------------
     1 OT CG       0.12E+00   11.9     0.00038012     -8144.1816003450 -8.14E+03
     2 OT LS       0.17E+00    7.2                    -8144.2321617390
     3 OT LS       0.24E+00    7.1                    -8144.2428246443
     4 OT CG       0.19E+00   14.3     0.00030557     -8144.2486930217 -6.71E-02
     5 OT LS       0.27E+00    7.3                    -8144.2826239318
     6 OT LS       0.18E+00    7.1                    -8144.2758846662
     7 OT CG       0.15E+00   14.4     0.00011192     -8144.2826574851 -3.40E-02
     8 OT LS       0.21E+00    7.1                    -8144.2852539652
     9 OT LS       0.12E+00    7.1                    -8144.2837158075
    10 OT CG       0.92E-01   14.4     0.00006137     -8144.2854741738 -2.82E-03
    11 OT LS       0.13E+00    7.1                    -8144.2863102559
    12 OT LS       0.12E+00    7.1                    -8144.2863542922
    13 OT CG       0.96E-01   14.4     0.00002833     -8144.2863588748 -8.85E-04
    14 OT LS       0.13E+00    7.1                    -8144.2865567009
    15 OT LS       0.14E+00    7.1                    -8144.2865775666
    16 OT CG       0.11E+00   14.3     0.00001291     -8144.2865778341 -2.19E-04
    17 OT LS       0.16E+00    7.2                    -8144.2866244223
    18 OT LS       0.16E+00    7.2                    -8144.2866284126
    19 OT CG       0.12E+00   14.4     0.00000852     -8144.2866284149 -5.06E-05

  *** SCF run converged in    19 steps ***


  Electronic density on regular grids:      -1437.9999923081        0.0000076919
  Core density on regular grids:             1437.9999996446       -0.0000003554
  Total charge density on r-space grids:        0.0000073366
  Total charge density g-space grids:           0.0000073366

  Overlap energy of the core charge distribution:               0.00001750383136
  Self energy of the core charge distribution:             -14650.93922905635191
  Core Hamiltonian energy:                                   4107.15300777377888
  Hartree energy:                                            3440.96932801193498
  Exchange-correlation energy:                              -1042.36904764204996
  Dispersion energy:                                           -0.56727896604209

  DFT+U energy:                                                 1.46657396004030

  Total energy:                                             -8144.28662841485766

  outer SCF iter =    1 RMS gradient =   0.85E-05 energy =      -8144.2866284149
  outer SCF loop converged in   1 iterations or   19 steps


  Integrated absolute spin density  :                             235.0912407663
  Ideal and single determinant S**2 :                    0.000000     127.918060

 ENERGY| Total FORCE_EVAL ( QS ) energy (a.u.):            -8144.286651629251537


 --------  Informations at step =    17 ------------
  Optimization Method        =                 BFGS
  Total Energy               =     -8144.2866516293
  Real energy change         =         0.0487890490
  Predicted change in energy =        -0.1086875272
  Scaling factor             =         0.3599946854
  Step size                  =         0.4724315332
  Trust radius               =         0.4724315332
  Decrease in energy         =                   NO
  Used time                  =              218.863

  Convergence check :
  Max. step size             =         0.4724315332
  Conv. limit for step size  =         1.0000000000
  Convergence in step size   =                  YES
  RMS step size              =         0.0671313641
  Conv. limit for RMS step   =         1.0000000000
  Convergence in RMS step    =                  YES
  Max. gradient              =         0.1075935084
  Conv. limit for gradients  =         0.0100000000
  Conv. for gradients        =                   NO
  RMS gradient               =         0.0117692155
  Conv. limit for RMS grad.  =         1.0000000000
  Conv. in RMS gradients     =                  YES
 ---------------------------------------------------

 --------------------------
 OPTIMIZATION STEP:     18
 --------------------------

 Spin 1

 Number of electrons:                                                        719
 Number of occupied orbitals:                                                719
 Number of molecular orbitals:                                               719

 Spin 2

 Number of electrons:                                                        719
 Number of occupied orbitals:                                                719
 Number of molecular orbitals:                                               719

 Number of orbital functions:                                               2718
 Number of independent orbital functions:                                   2718

 Extrapolation method: PS Nth order


 SCF WAVEFUNCTION OPTIMIZATION

  ----------------------------------- OT ---------------------------------------
  Minimizer      : CG                  : conjugate gradient
  Preconditioner : FULL_ALL            : diagonalization, state selective
  Precond_solver : DEFAULT
  Line search    : 3PNT                : 3 energies
  stepsize       :    0.15000000                  energy_gap     :    0.08000000
  eps_taylor     :   0.10000E-15                  max_taylor     :             4
  ----------------------------------- OT ---------------------------------------

  Step     Update method      Time    Convergence         Total energy    Change
  ------------------------------------------------------------------------------
     1 OT CG       0.12E+00   12.0     0.00096628     -8143.7058343000 -8.14E+03
     2 OT LS       0.17E+00    7.2                    -8144.0170408783
     3 OT LS       0.21E+00    7.3                    -8144.0709893310
     4 OT CG       0.17E+00   14.6     0.00080759     -8144.0854728659 -3.80E-01
     5 OT LS       0.23E+00    7.3                    -8144.3164831379
     6 OT LS       0.19E+00    7.3                    -8144.3043681066
     7 OT CG       0.15E+00   14.5     0.00037032     -8144.3188986867 -2.33E-01
     8 OT LS       0.21E+00    7.3                    -8144.3405725824
     9 OT LS       0.10E+00    7.3                    -8144.3158131259
    10 OT CG       0.81E-01   14.6     0.00013157     -8144.3464410818 -2.75E-02
    11 OT LS       0.11E+00    7.3                    -8144.3503487183
    12 OT LS       0.14E+00    7.3                    -8144.3510011257
    13 OT CG       0.11E+00   14.5     0.00009004     -8144.3511484192 -4.71E-03
    14 OT LS       0.15E+00    7.3                    -8144.3532211280
    15 OT LS       0.14E+00    7.3                    -8144.3532497010
    16 OT CG       0.11E+00   14.6     0.00004201     -8144.3532933984 -2.14E-03
    17 OT LS       0.15E+00    7.3                    -8144.3537780764
    18 OT LS       0.15E+00    7.3                    -8144.3538244177
    19 OT CG       0.12E+00   14.5     0.00002224     -8144.3538245219 -5.31E-04
    20 OT LS       0.17E+00    7.3                    -8144.3540016467
    21 OT LS       0.24E+00    7.3                    -8144.3540382911
    22 OT CG       0.19E+00   14.5     0.00001904     -8144.3540567557 -2.32E-04
    23 OT LS       0.27E+00    7.3                    -8144.3541574466
    24 OT LS       0.15E+00    7.3                    -8144.3541017488
    25 OT CG       0.12E+00   14.6     0.00001268     -8144.3541647415 -1.08E-04
    26 OT LS       0.17E+00    7.3                    -8144.3542103247
    27 OT LS       0.15E+00    7.3                    -8144.3542111630
    28 OT CG       0.12E+00   14.5     0.00000928     -8144.3542120221 -4.73E-05

  *** SCF run converged in    28 steps ***


  Electronic density on regular grids:      -1437.9999923151        0.0000076849
  Core density on regular grids:             1437.9999996445       -0.0000003555
  Total charge density on r-space grids:        0.0000073294
  Total charge density g-space grids:           0.0000073294

  Overlap energy of the core charge distribution:               0.00000676743402
  Self energy of the core charge distribution:             -14650.93922905635191
  Core Hamiltonian energy:                                   4107.21060705001582
  Hartree energy:                                            3440.91169520650601
  Exchange-correlation energy:                              -1042.41213028367679
  Dispersion energy:                                           -0.58396073738388

  DFT+U energy:                                                 1.45879903139850

  Total energy:                                             -8144.35421202205816

  outer SCF iter =    1 RMS gradient =   0.93E-05 energy =      -8144.3542120221
  outer SCF loop converged in   1 iterations or   28 steps


  Integrated absolute spin density  :                             235.0399441848
  Ideal and single determinant S**2 :                    0.000000     127.904308

 ENERGY| Total FORCE_EVAL ( QS ) energy (a.u.):            -8144.354242322881873


 --------  Informations at step =    18 ------------
  Optimization Method        =                 BFGS
  Total Energy               =     -8144.3542423229
  Real energy change         =        -0.0675906936
  Predicted change in energy =        -0.0467522704
  Scaling factor             =         0.3599946854
  Step size                  =         0.3092133235
  Trust radius               =         0.4724315332
  Decrease in energy         =                  YES
  Used time                  =              308.549

  Convergence check :
  Max. step size             =         0.3092133235
  Conv. limit for step size  =         1.0000000000
  Convergence in step size   =                  YES
  RMS step size              =         0.0357143392
  Conv. limit for RMS step   =         1.0000000000
  Convergence in RMS step    =                  YES
  Max. gradient              =         0.0239043855
  Conv. limit for gradients  =         0.0100000000
  Conv. for gradients        =                   NO
  RMS gradient               =         0.0028164984
  Conv. limit for RMS grad.  =         1.0000000000
  Conv. in RMS gradients     =                  YES
 ---------------------------------------------------

 --------------------------
 OPTIMIZATION STEP:     19
 --------------------------

 Spin 1

 Number of electrons:                                                        719
 Number of occupied orbitals:                                                719
 Number of molecular orbitals:                                               719

 Spin 2

 Number of electrons:                                                        719
 Number of occupied orbitals:                                                719
 Number of molecular orbitals:                                               719

 Number of orbital functions:                                               2718
 Number of independent orbital functions:                                   2718

 Extrapolation method: PS Nth order


 SCF WAVEFUNCTION OPTIMIZATION

  ----------------------------------- OT ---------------------------------------
  Minimizer      : CG                  : conjugate gradient
  Preconditioner : FULL_ALL            : diagonalization, state selective
  Precond_solver : DEFAULT
  Line search    : 3PNT                : 3 energies
  stepsize       :    0.15000000                  energy_gap     :    0.08000000
  eps_taylor     :   0.10000E-15                  max_taylor     :             4
  ----------------------------------- OT ---------------------------------------

  Step     Update method      Time    Convergence         Total energy    Change
  ------------------------------------------------------------------------------
     1 OT CG       0.12E+00   11.8     0.00083612     -8143.8455660269 -8.14E+03
     2 OT LS       0.17E+00    7.0                    -8144.0919603509
     3 OT LS       0.24E+00    7.2                    -8144.1452505402
     4 OT CG       0.19E+00   14.2     0.00068184     -8144.1774149754 -3.32E-01
     5 OT LS       0.27E+00    7.3                    -8144.3368437111
     6 OT LS       0.18E+00    7.3                    -8144.2910421583
     7 OT CG       0.14E+00   14.5     0.00027795     -8144.3385299689 -1.61E-01
     8 OT LS       0.20E+00    7.3                    -8144.3525600852
     9 OT LS       0.10E+00    7.3                    -8144.3420562194
    10 OT CG       0.84E-01   14.5     0.00011912     -8144.3544297373 -1.59E-02
    11 OT LS       0.12E+00    7.3                    -8144.3576036782
    12 OT LS       0.13E+00    7.3                    -8144.3580399510
    13 OT CG       0.11E+00   14.6     0.00007397     -8144.3580812828 -3.65E-03
    14 OT LS       0.15E+00    7.3                    -8144.3595182948
    15 OT LS       0.15E+00    7.3                    -8144.3596379411
    16 OT CG       0.12E+00   14.5     0.00003193     -8144.3596381488 -1.56E-03
    17 OT LS       0.16E+00    7.3                    -8144.3599099744
    18 OT LS       0.14E+00    7.3                    -8144.3599110416
    19 OT CG       0.11E+00   14.6     0.00001795     -8144.3599182118 -2.80E-04
    20 OT LS       0.16E+00    7.2                    -8144.3600171297
    21 OT LS       0.19E+00    7.1                    -8144.3600327680
    22 OT CG       0.15E+00   14.3     0.00001613     -8144.3600355938 -1.17E-04
    23 OT LS       0.21E+00    7.2                    -8144.3601007202
    24 OT LS       0.13E+00    7.2                    -8144.3600784131
    25 OT CG       0.10E+00   14.3     0.00000787     -8144.3601020279 -6.64E-05

  *** SCF run converged in    25 steps ***


  Electronic density on regular grids:      -1437.9999922969        0.0000077031
  Core density on regular grids:             1437.9999996438       -0.0000003562
  Total charge density on r-space grids:        0.0000073469
  Total charge density g-space grids:           0.0000073469

  Overlap energy of the core charge distribution:               0.00000555064003
  Self energy of the core charge distribution:             -14650.93922905635191
  Core Hamiltonian energy:                                   4107.26477936079482
  Hartree energy:                                            3440.87236346089094
  Exchange-correlation energy:                              -1042.42827998611642
  Dispersion energy:                                           -0.58777256984412

  DFT+U energy:                                                 1.45803121209631

  Total energy:                                             -8144.36010202788930

  outer SCF iter =    1 RMS gradient =   0.79E-05 energy =      -8144.3601020279
  outer SCF loop converged in   1 iterations or   25 steps


  Integrated absolute spin density  :                             235.0272797712
  Ideal and single determinant S**2 :                    0.000000     127.898822

 ENERGY| Total FORCE_EVAL ( QS ) energy (a.u.):            -8144.360118872215935


 --------  Informations at step =    19 ------------
  Optimization Method        =                 BFGS
  Total Energy               =     -8144.3601188722
  Real energy change         =        -0.0058765493
  Predicted change in energy =        -0.0077315116
  Scaling factor             =         0.3599946854
  Step size                  =         0.0811128095
  Trust radius               =         0.4724315332
  Decrease in energy         =                  YES
  Used time                  =              277.950

  Convergence check :
  Max. step size             =         0.0811128095
  Conv. limit for step size  =         1.0000000000
  Convergence in step size   =                  YES
  RMS step size              =         0.0159573908
  Conv. limit for RMS step   =         1.0000000000
  Convergence in RMS step    =                  YES
  Max. gradient              =         0.0134461232
  Conv. limit for gradients  =         0.0100000000
  Conv. for gradients        =                   NO
  RMS gradient               =         0.0019647423
  Conv. limit for RMS grad.  =         1.0000000000
  Conv. in RMS gradients     =                  YES
 ---------------------------------------------------

 --------------------------
 OPTIMIZATION STEP:     20
 --------------------------

 Spin 1

 Number of electrons:                                                        719
 Number of occupied orbitals:                                                719
 Number of molecular orbitals:                                               719

 Spin 2

 Number of electrons:                                                        719
 Number of occupied orbitals:                                                719
 Number of molecular orbitals:                                               719

 Number of orbital functions:                                               2718
 Number of independent orbital functions:                                   2718

 Extrapolation method: PS Nth order


 SCF WAVEFUNCTION OPTIMIZATION

  ----------------------------------- OT ---------------------------------------
  Minimizer      : CG                  : conjugate gradient
  Preconditioner : FULL_ALL            : diagonalization, state selective
  Precond_solver : DEFAULT
  Line search    : 3PNT                : 3 energies
  stepsize       :    0.15000000                  energy_gap     :    0.08000000
  eps_taylor     :   0.10000E-15                  max_taylor     :             4
  ----------------------------------- OT ---------------------------------------

  Step     Update method      Time    Convergence         Total energy    Change
  ------------------------------------------------------------------------------
     1 OT CG       0.12E+00   12.0     0.00017877     -8144.3404550995 -8.14E+03
     2 OT LS       0.17E+00    7.1                    -8144.3517600556
     3 OT LS       0.24E+00    7.2                    -8144.3542180827
     4 OT CG       0.20E+00   14.3     0.00015680     -8144.3556959511 -1.52E-02
     5 OT LS       0.27E+00    7.1                    -8144.3638411712
     6 OT LS       0.17E+00    7.1                    -8144.3611609862
     7 OT CG       0.14E+00   14.3     0.00005778     -8144.3639838503 -8.29E-03
     8 OT LS       0.19E+00    7.1                    -8144.3645269208
     9 OT LS       0.99E-01    7.1                    -8144.3640398877
    10 OT CG       0.79E-01   14.3     0.00002589     -8144.3646284824 -6.45E-04
    11 OT LS       0.11E+00    7.1                    -8144.3647765290
    12 OT LS       0.14E+00    7.2                    -8144.3648026175
    13 OT CG       0.11E+00   14.3     0.00001575     -8144.3648099065 -1.81E-04
    14 OT LS       0.16E+00    7.1                    -8144.3648808294
    15 OT LS       0.16E+00    7.2                    -8144.3648888047
    16 OT CG       0.13E+00   14.3     0.00000828     -8144.3648890035 -7.91E-05

  *** SCF run converged in    16 steps ***


  Electronic density on regular grids:      -1437.9999922995        0.0000077005
  Core density on regular grids:             1437.9999996442       -0.0000003558
  Total charge density on r-space grids:        0.0000073447
  Total charge density g-space grids:           0.0000073447

  Overlap energy of the core charge distribution:               0.00000532038095
  Self energy of the core charge distribution:             -14650.93922905635191
  Core Hamiltonian energy:                                   4107.22692993840519
  Hartree energy:                                            3440.89801097791315
  Exchange-correlation energy:                              -1042.42166407915147
  Dispersion energy:                                           -0.58749885001320

  DFT+U energy:                                                 1.45855674536166

  Total energy:                                             -8144.36488900345557

  outer SCF iter =    1 RMS gradient =   0.83E-05 energy =      -8144.3648890035
  outer SCF loop converged in   1 iterations or   16 steps


  Integrated absolute spin density  :                             235.0366327902
  Ideal and single determinant S**2 :                    0.000000     127.903905

 ENERGY| Total FORCE_EVAL ( QS ) energy (a.u.):            -8144.364913787779187


 --------  Informations at step =    20 ------------
  Optimization Method        =                 BFGS
  Total Energy               =     -8144.3649137878
  Real energy change         =        -0.0047949156
  Predicted change in energy =        -0.0032595052
  Scaling factor             =         0.3599946854
  Step size                  =         0.0788070659
  Trust radius               =         0.4724315332
  Decrease in energy         =                  YES
  Used time                  =              189.299

  Convergence check :
  Max. step size             =         0.0788070659
  Conv. limit for step size  =         1.0000000000
  Convergence in step size   =                  YES
  RMS step size              =         0.0106610482
  Conv. limit for RMS step   =         1.0000000000
  Convergence in RMS step    =                  YES
  Max. gradient              =         0.0136473060
  Conv. limit for gradients  =         0.0100000000
  Conv. for gradients        =                   NO
  RMS gradient               =         0.0016945173
  Conv. limit for RMS grad.  =         1.0000000000
  Conv. in RMS gradients     =                  YES
 ---------------------------------------------------

 --------------------------
 OPTIMIZATION STEP:     21
 --------------------------

 Spin 1

 Number of electrons:                                                        719
 Number of occupied orbitals:                                                719
 Number of molecular orbitals:                                               719

 Spin 2

 Number of electrons:                                                        719
 Number of occupied orbitals:                                                719
 Number of molecular orbitals:                                               719

 Number of orbital functions:                                               2718
 Number of independent orbital functions:                                   2718

 Extrapolation method: PS Nth order


 SCF WAVEFUNCTION OPTIMIZATION

  ----------------------------------- OT ---------------------------------------
  Minimizer      : CG                  : conjugate gradient
  Preconditioner : FULL_ALL            : diagonalization, state selective
  Precond_solver : DEFAULT
  Line search    : 3PNT                : 3 energies
  stepsize       :    0.15000000                  energy_gap     :    0.08000000
  eps_taylor     :   0.10000E-15                  max_taylor     :             4
  ----------------------------------- OT ---------------------------------------

  Step     Update method      Time    Convergence         Total energy    Change
  ------------------------------------------------------------------------------
     1 OT CG       0.12E+00   11.7     0.00011084     -8144.3503688409 -8.14E+03
     2 OT LS       0.17E+00    6.9                    -8144.3545308029
     3 OT LS       0.22E+00    7.0                    -8144.3553013417
     4 OT CG       0.17E+00   13.9     0.00008791     -8144.3555623397 -5.19E-03
     5 OT LS       0.24E+00    6.9                    -8144.3585615081
     6 OT LS       0.20E+00    6.9                    -8144.3585077126
     7 OT CG       0.16E+00   13.9     0.00004060     -8144.3586262590 -3.06E-03
     8 OT LS       0.23E+00    6.9                    -8144.3588183700
     9 OT LS       0.99E-01    6.9                    -8144.3584197661
    10 OT CG       0.79E-01   13.9     0.00001810     -8144.3589458114 -3.20E-04
    11 OT LS       0.11E+00    6.9                    -8144.3590156859
    12 OT LS       0.13E+00    6.9                    -8144.3590258328
    13 OT CG       0.10E+00   13.9     0.00001141     -8144.3590270893 -8.13E-05
    14 OT LS       0.14E+00    6.9                    -8144.3590668630
    15 OT LS       0.22E+00    6.9                    -8144.3590760813
    16 OT CG       0.18E+00   13.9     0.00000885     -8144.3590830729 -5.60E-05

  *** SCF run converged in    16 steps ***


  Electronic density on regular grids:      -1437.9999922954        0.0000077046
  Core density on regular grids:             1437.9999996448       -0.0000003552
  Total charge density on r-space grids:        0.0000073494
  Total charge density g-space grids:           0.0000073494

  Overlap energy of the core charge distribution:               0.00000576963642
  Self energy of the core charge distribution:             -14650.93922905635191
  Core Hamiltonian energy:                                   4107.23492692627769
  Hartree energy:                                            3440.89639099794385
  Exchange-correlation energy:                              -1042.42972398459278
  Dispersion energy:                                           -0.57741532046471

  DFT+U energy:                                                 1.45596159464295

  Total energy:                                             -8144.35908307290902

  outer SCF iter =    1 RMS gradient =   0.89E-05 energy =      -8144.3590830729
  outer SCF loop converged in   1 iterations or   16 steps


  Integrated absolute spin density  :                             235.0325799910
  Ideal and single determinant S**2 :                    0.000000     127.904844

 ENERGY| Total FORCE_EVAL ( QS ) energy (a.u.):            -8144.359113678782705


 --------  Informations at step =    21 ------------
  Optimization Method        =                 BFGS
  Total Energy               =     -8144.3591136788
  Real energy change         =         0.0058001090
  Predicted change in energy =        -0.0040893866
  Scaling factor             =         0.3599946854
  Step size                  =         0.1511810907
  Trust radius               =         0.4724315332
  Decrease in energy         =                   NO
  Used time                  =              184.587

  Convergence check :
  Max. step size             =         0.1511810907
  Conv. limit for step size  =         1.0000000000
  Convergence in step size   =                  YES
  RMS step size              =         0.0189051890
  Conv. limit for RMS step   =         1.0000000000
  Convergence in RMS step    =                  YES
  Max. gradient              =         0.0312097034
  Conv. limit for gradients  =         0.0100000000
  Conv. for gradients        =                   NO
  RMS gradient               =         0.0050640444
  Conv. limit for RMS grad.  =         1.0000000000
  Conv. in RMS gradients     =                  YES
 ---------------------------------------------------

 --------------------------
 OPTIMIZATION STEP:     22
 --------------------------

 Spin 1

 Number of electrons:                                                        719
 Number of occupied orbitals:                                                719
 Number of molecular orbitals:                                               719

 Spin 2

 Number of electrons:                                                        719
 Number of occupied orbitals:                                                719
 Number of molecular orbitals:                                               719

 Number of orbital functions:                                               2718
 Number of independent orbital functions:                                   2718

 Extrapolation method: PS Nth order


 SCF WAVEFUNCTION OPTIMIZATION

  ----------------------------------- OT ---------------------------------------
  Minimizer      : CG                  : conjugate gradient
  Preconditioner : FULL_ALL            : diagonalization, state selective
  Precond_solver : DEFAULT
  Line search    : 3PNT                : 3 energies
  stepsize       :    0.15000000                  energy_gap     :    0.08000000
  eps_taylor     :   0.10000E-15                  max_taylor     :             4
  ----------------------------------- OT ---------------------------------------

  Step     Update method      Time    Convergence         Total energy    Change
  ------------------------------------------------------------------------------
     1 OT CG       0.12E+00   11.8     0.00014486     -8144.3414872812 -8.14E+03
     2 OT LS       0.17E+00    6.9                    -8144.3486055568
     3 OT LS       0.22E+00    6.9                    -8144.3499283516
     4 OT CG       0.17E+00   13.9     0.00012062     -8144.3503808242 -8.89E-03
     5 OT LS       0.24E+00    6.9                    -8144.3555718727
     6 OT LS       0.18E+00    6.9                    -8144.3550312129
     7 OT CG       0.15E+00   13.9     0.00005754     -8144.3555861307 -5.21E-03
     8 OT LS       0.21E+00    6.9                    -8144.3559142322
     9 OT LS       0.89E-01    6.9                    -8144.3551734131
    10 OT CG       0.71E-01   13.9     0.00002295     -8144.3561581536 -5.72E-04
    11 OT LS       0.99E-01    6.9                    -8144.3562699090
    12 OT LS       0.15E+00    7.1                    -8144.3562955092
    13 OT CG       0.12E+00   13.9     0.00001229     -8144.3563140840 -1.56E-04
    14 OT LS       0.17E+00    6.9                    -8144.3563557442
    15 OT LS       0.15E+00    7.0                    -8144.3563556503
    16 OT CG       0.12E+00   13.9     0.00000570     -8144.3563568944 -4.28E-05

  *** SCF run converged in    16 steps ***


  Electronic density on regular grids:      -1437.9999922836        0.0000077164
  Core density on regular grids:             1437.9999996445       -0.0000003555
  Total charge density on r-space grids:        0.0000073610
  Total charge density g-space grids:           0.0000073610

  Overlap energy of the core charge distribution:               0.00000619867947
  Self energy of the core charge distribution:             -14650.93922905635191
  Core Hamiltonian energy:                                   4107.29476990372950
  Hartree energy:                                            3440.85242666479280
  Exchange-correlation energy:                              -1042.44299712677548
  Dispersion energy:                                           -0.57525316550314

  DFT+U energy:                                                 1.45391968705846

  Total energy:                                             -8144.35635689437186

  outer SCF iter =    1 RMS gradient =   0.57E-05 energy =      -8144.3563568944
  outer SCF loop converged in   1 iterations or   16 steps


  Integrated absolute spin density  :                             235.0240410356
  Ideal and single determinant S**2 :                    0.000000     127.902245

 ENERGY| Total FORCE_EVAL ( QS ) energy (a.u.):            -8144.356364913195648


 --------  Informations at step =    22 ------------
  Optimization Method        =                 BFGS
  Total Energy               =     -8144.3563649132
  Real energy change         =         0.0027487656
  Predicted change in energy =        -0.0075323287
  Scaling factor             =         0.3599946854
  Step size                  =         0.0724924809
  Trust radius               =         0.4724315332
  Decrease in energy         =                   NO
  Used time                  =              184.820

  Convergence check :
  Max. step size             =         0.0724924809
  Conv. limit for step size  =         1.0000000000
  Convergence in step size   =                  YES
  RMS step size              =         0.0118971618
  Conv. limit for RMS step   =         1.0000000000
  Convergence in RMS step    =                  YES
  Max. gradient              =         0.0337524146
  Conv. limit for gradients  =         0.0100000000
  Conv. for gradients        =                   NO
  RMS gradient               =         0.0051186434
  Conv. limit for RMS grad.  =         1.0000000000
  Conv. in RMS gradients     =                  YES
 ---------------------------------------------------

 --------------------------
 OPTIMIZATION STEP:     23
 --------------------------

 Spin 1

 Number of electrons:                                                        719
 Number of occupied orbitals:                                                719
 Number of molecular orbitals:                                               719

 Spin 2

 Number of electrons:                                                        719
 Number of occupied orbitals:                                                719
 Number of molecular orbitals:                                               719

 Number of orbital functions:                                               2718
 Number of independent orbital functions:                                   2718

 Extrapolation method: PS Nth order


 SCF WAVEFUNCTION OPTIMIZATION

  ----------------------------------- OT ---------------------------------------
  Minimizer      : CG                  : conjugate gradient
  Preconditioner : FULL_ALL            : diagonalization, state selective
  Precond_solver : DEFAULT
  Line search    : 3PNT                : 3 energies
  stepsize       :    0.15000000                  energy_gap     :    0.08000000
  eps_taylor     :   0.10000E-15                  max_taylor     :             4
  ----------------------------------- OT ---------------------------------------

  Step     Update method      Time    Convergence         Total energy    Change
  ------------------------------------------------------------------------------
     1 OT CG       0.12E+00   11.9     0.00013726     -8144.3389710067 -8.14E+03
     2 OT LS       0.17E+00    7.0                    -8144.3454742885
     3 OT LS       0.23E+00    7.0                    -8144.3467693129
     4 OT CG       0.18E+00   14.1     0.00012022     -8144.3473384532 -8.37E-03
     5 OT LS       0.25E+00    7.0                    -8144.3523331177
     6 OT LS       0.18E+00    7.0                    -8144.3513810431
     7 OT CG       0.14E+00   14.1     0.00005320     -8144.3523367127 -5.00E-03
     8 OT LS       0.20E+00    7.0                    -8144.3526613286
     9 OT LS       0.89E-01    7.0                    -8144.3520962916
    10 OT CG       0.72E-01   14.0     0.00002050     -8144.3528306872 -4.94E-04
    11 OT LS       0.10E+00    7.1                    -8144.3529202956
    12 OT LS       0.15E+00    7.0                    -8144.3529405951
    13 OT CG       0.12E+00   14.0     0.00001309     -8144.3529547464 -1.24E-04
    14 OT LS       0.17E+00    7.0                    -8144.3530098491
    15 OT LS       0.19E+00    7.0                    -8144.3530174290
    16 OT CG       0.15E+00   14.0     0.00000818     -8144.3530181498 -6.34E-05

  *** SCF run converged in    16 steps ***


  Electronic density on regular grids:      -1437.9999923168        0.0000076832
  Core density on regular grids:             1437.9999996445       -0.0000003555
  Total charge density on r-space grids:        0.0000073276
  Total charge density g-space grids:           0.0000073276

  Overlap energy of the core charge distribution:               0.00000890331672
  Self energy of the core charge distribution:             -14650.93922905635191
  Core Hamiltonian energy:                                   4107.44420660382093
  Hartree energy:                                            3440.74136307662775
  Exchange-correlation energy:                              -1042.47286263106048
  Dispersion energy:                                           -0.57998043028384

  DFT+U energy:                                                 1.45347538417401

  Total energy:                                             -8144.35301814975719

  outer SCF iter =    1 RMS gradient =   0.82E-05 energy =      -8144.3530181498
  outer SCF loop converged in   1 iterations or   16 steps


  Integrated absolute spin density  :                             234.9993293711
  Ideal and single determinant S**2 :                    0.000000     127.891270

 ENERGY| Total FORCE_EVAL ( QS ) energy (a.u.):            -8144.353044524146753


 --------  Informations at step =    23 ------------
  Optimization Method        =                 BFGS
  Total Energy               =     -8144.3530445241
  Real energy change         =         0.0033203890
  Predicted change in energy =        -0.0145263173
  Scaling factor             =         0.3599946854
  Step size                  =         0.1013874261
  Trust radius               =         0.4724315332
  Decrease in energy         =                   NO
  Used time                  =              186.250

  Convergence check :
  Max. step size             =         0.1013874261
  Conv. limit for step size  =         1.0000000000
  Convergence in step size   =                  YES
  RMS step size              =         0.0194211503
  Conv. limit for RMS step   =         1.0000000000
  Convergence in RMS step    =                  YES
  Max. gradient              =         0.0314433071
  Conv. limit for gradients  =         0.0100000000
  Conv. for gradients        =                   NO
  RMS gradient               =         0.0041493137
  Conv. limit for RMS grad.  =         1.0000000000
  Conv. in RMS gradients     =                  YES
 ---------------------------------------------------

 --------------------------
 OPTIMIZATION STEP:     24
 --------------------------

 Spin 1

 Number of electrons:                                                        719
 Number of occupied orbitals:                                                719
 Number of molecular orbitals:                                               719

 Spin 2

 Number of electrons:                                                        719
 Number of occupied orbitals:                                                719
 Number of molecular orbitals:                                               719

 Number of orbital functions:                                               2718
 Number of independent orbital functions:                                   2718

 Extrapolation method: PS Nth order


 SCF WAVEFUNCTION OPTIMIZATION

  ----------------------------------- OT ---------------------------------------
  Minimizer      : CG                  : conjugate gradient
  Preconditioner : FULL_ALL            : diagonalization, state selective
  Precond_solver : DEFAULT
  Line search    : 3PNT                : 3 energies
  stepsize       :    0.15000000                  energy_gap     :    0.08000000
  eps_taylor     :   0.10000E-15                  max_taylor     :             4
  ----------------------------------- OT ---------------------------------------

  Step     Update method      Time    Convergence         Total energy    Change
  ------------------------------------------------------------------------------
     1 OT CG       0.12E+00   11.8     0.00028312     -8144.2965051158 -8.14E+03
     2 OT LS       0.17E+00    6.9                    -8144.3246070656
     3 OT LS       0.24E+00    6.9                    -8144.3305425158
     4 OT CG       0.19E+00   13.9     0.00023165     -8144.3337815279 -3.73E-02
     5 OT LS       0.27E+00    6.9                    -8144.3536397532
     6 OT LS       0.19E+00    6.9                    -8144.3502708031
     7 OT CG       0.15E+00   14.0     0.00008671     -8144.3536410316 -1.99E-02
     8 OT LS       0.21E+00    6.9                    -8144.3549051646
     9 OT LS       0.11E+00    6.9                    -8144.3536308787
    10 OT CG       0.84E-01   14.0     0.00003728     -8144.3551931034 -1.55E-03
    11 OT LS       0.12E+00    6.9                    -8144.3554963776
    12 OT LS       0.12E+00    6.9                    -8144.3555306277
    13 OT CG       0.10E+00   13.9     0.00002126     -8144.3555315145 -3.38E-04
    14 OT LS       0.14E+00    7.1                    -8144.3556482291
    15 OT LS       0.15E+00    6.9                    -8144.3556616592
    16 OT CG       0.12E+00   13.9     0.00000905     -8144.3556620648 -1.31E-04

  *** SCF run converged in    16 steps ***


  Electronic density on regular grids:      -1437.9999923081        0.0000076919
  Core density on regular grids:             1437.9999996439       -0.0000003561
  Total charge density on r-space grids:        0.0000073359
  Total charge density g-space grids:           0.0000073359

  Overlap energy of the core charge distribution:               0.00000500415113
  Self energy of the core charge distribution:             -14650.93922905635191
  Core Hamiltonian energy:                                   4107.32586469741909
  Hartree energy:                                            3440.82269571746974
  Exchange-correlation energy:                              -1042.43921931795808
  Dispersion energy:                                           -0.58073816965976

  DFT+U energy:                                                 1.45495906017035

  Total energy:                                             -8144.35566206475960

  outer SCF iter =    1 RMS gradient =   0.90E-05 energy =      -8144.3556620648
  outer SCF loop converged in   1 iterations or   16 steps


  Integrated absolute spin density  :                             235.0116548067
  Ideal and single determinant S**2 :                    0.000000     127.892938

 ENERGY| Total FORCE_EVAL ( QS ) energy (a.u.):            -8144.355686916085688


 --------  Informations at step =    24 ------------
  Optimization Method        =                 BFGS
  Total Energy               =     -8144.3556869161
  Real energy change         =        -0.0026423919
  Predicted change in energy =        -0.0067532189
  Scaling factor             =         0.3599946854
  Step size                  =         0.0922877369
  Trust radius               =         0.4724315332
  Decrease in energy         =                   NO
  Used time                  =              185.023

  Convergence check :
  Max. step size             =         0.0922877369
  Conv. limit for step size  =         1.0000000000
  Convergence in step size   =                  YES
  RMS step size              =         0.0124008395
  Conv. limit for RMS step   =         1.0000000000
  Convergence in RMS step    =                  YES
  Max. gradient              =         0.0312005589
  Conv. limit for gradients  =         0.0100000000
  Conv. for gradients        =                   NO
  RMS gradient               =         0.0054278418
  Conv. limit for RMS grad.  =         1.0000000000
  Conv. in RMS gradients     =                  YES
 ---------------------------------------------------

 --------------------------
 OPTIMIZATION STEP:     25
 --------------------------

  Step is scaled; Scaling factor =  0.86254

 Spin 1

 Number of electrons:                                                        719
 Number of occupied orbitals:                                                719
 Number of molecular orbitals:                                               719

 Spin 2

 Number of electrons:                                                        719
 Number of occupied orbitals:                                                719
 Number of molecular orbitals:                                               719

 Number of orbital functions:                                               2718
 Number of independent orbital functions:                                   2718

 Extrapolation method: PS Nth order


 SCF WAVEFUNCTION OPTIMIZATION

  ----------------------------------- OT ---------------------------------------
  Minimizer      : CG                  : conjugate gradient
  Preconditioner : FULL_ALL            : diagonalization, state selective
  Precond_solver : DEFAULT
  Line search    : 3PNT                : 3 energies
  stepsize       :    0.15000000                  energy_gap     :    0.08000000
  eps_taylor     :   0.10000E-15                  max_taylor     :             4
  ----------------------------------- OT ---------------------------------------

  Step     Update method      Time    Convergence         Total energy    Change
  ------------------------------------------------------------------------------
     1 OT CG       0.12E+00   11.8     0.00034736     -8144.1150334686 -8.14E+03
     2 OT LS       0.17E+00    6.9                    -8144.1541858095
     3 OT LS       0.19E+00    6.9                    -8144.1598724646
     4 OT CG       0.15E+00   14.1     0.00030459     -8144.1605288512 -4.55E-02
     5 OT LS       0.21E+00    7.0                    -8144.1920220503
     6 OT LS       0.18E+00    6.9                    -8144.1916871049
     7 OT CG       0.15E+00   14.1     0.00012953     -8144.1927620811 -3.22E-02
     8 OT LS       0.20E+00    6.9                    -8144.1960891202
     9 OT LS       0.11E+00    6.9                    -8144.1939372427
    10 OT CG       0.89E-01   14.1     0.00004780     -8144.1964225668 -3.66E-03
    11 OT LS       0.12E+00    6.9                    -8144.1969416221
    12 OT LS       0.13E+00    6.9                    -8144.1969937101
    13 OT CG       0.10E+00   14.0     0.00002938     -8144.1969940422 -5.71E-04
    14 OT LS       0.14E+00    6.9                    -8144.1972006647
    15 OT LS       0.13E+00    6.9                    -8144.1972057293
    16 OT CG       0.10E+00   14.0     0.00001396     -8144.1972090315 -2.15E-04
    17 OT LS       0.14E+00    7.1                    -8144.1972562540
    18 OT LS       0.13E+00    6.9                    -8144.1972581078
    19 OT CG       0.10E+00   14.0     0.00000747     -8144.1972585742 -4.95E-05

  *** SCF run converged in    19 steps ***


  Electronic density on regular grids:      -1437.9999923030        0.0000076970
  Core density on regular grids:             1437.9999996444       -0.0000003556
  Total charge density on r-space grids:        0.0000073414
  Total charge density g-space grids:           0.0000073414

  Overlap energy of the core charge distribution:               0.00000105603702
  Self energy of the core charge distribution:             -14650.93922905635191
  Core Hamiltonian energy:                                   4106.78100154876120
  Hartree energy:                                            3441.29195827859439
  Exchange-correlation energy:                              -1042.22731541335406
  Dispersion energy:                                           -0.57682236177915

  DFT+U energy:                                                 1.47314737390146

  Total energy:                                             -8144.19725857419235

  outer SCF iter =    1 RMS gradient =   0.75E-05 energy =      -8144.1972585742
  outer SCF loop converged in   1 iterations or   19 steps


  Integrated absolute spin density  :                             235.0727467519
  Ideal and single determinant S**2 :                    0.000000     127.878364

 ENERGY| Total FORCE_EVAL ( QS ) energy (a.u.):            -8144.197275589327546


 --------  Informations at step =    25 ------------
  Optimization Method        =                 BFGS
  Total Energy               =     -8144.1972755893
  Real energy change         =         0.1584113268
  Predicted change in energy =        -0.0390909031
  Scaling factor             =         0.8625448469
  Step size                  =         0.4724315332
  Trust radius               =         0.4724315332
  Decrease in energy         =                   NO
  Used time                  =              213.551

  Convergence check :
  Max. step size             =         0.4724315332
  Conv. limit for step size  =         1.0000000000
  Convergence in step size   =                  YES
  RMS step size              =         0.0726225935
  Conv. limit for RMS step   =         1.0000000000
  Convergence in RMS step    =                  YES
  Max. gradient              =         0.2018355532
  Conv. limit for gradients  =         0.0100000000
  Conv. for gradients        =                   NO
  RMS gradient               =         0.0169008048
  Conv. limit for RMS grad.  =         1.0000000000
  Conv. in RMS gradients     =                  YES
 ---------------------------------------------------

 --------------------------
 OPTIMIZATION STEP:     26
 --------------------------

  Step is scaled; Scaling factor =  0.97968

 Spin 1

 Number of electrons:                                                        719
 Number of occupied orbitals:                                                719
 Number of molecular orbitals:                                               719

 Spin 2

 Number of electrons:                                                        719
 Number of occupied orbitals:                                                719
 Number of molecular orbitals:                                               719

 Number of orbital functions:                                               2718
 Number of independent orbital functions:                                   2718

 Extrapolation method: PS Nth order


 SCF WAVEFUNCTION OPTIMIZATION

  ----------------------------------- OT ---------------------------------------
  Minimizer      : CG                  : conjugate gradient
  Preconditioner : FULL_ALL            : diagonalization, state selective
  Precond_solver : DEFAULT
  Line search    : 3PNT                : 3 energies
  stepsize       :    0.15000000                  energy_gap     :    0.08000000
  eps_taylor     :   0.10000E-15                  max_taylor     :             4
  ----------------------------------- OT ---------------------------------------

  Step     Update method      Time    Convergence         Total energy    Change
  ------------------------------------------------------------------------------
     1 OT CG       0.12E+00   12.0     0.00138219     -8143.0747954726 -8.14E+03
     2 OT LS       0.17E+00    7.1                    -8143.7121604677
     3 OT LS       0.21E+00    7.1                    -8143.8235520901
     4 OT CG       0.17E+00   14.1     0.00108831     -8143.8550518839 -7.80E-01
     5 OT LS       0.23E+00    7.1                    -8144.2808930234
     6 OT LS       0.18E+00    7.1                    -8144.2537702555
     7 OT CG       0.15E+00   14.1     0.00045967     -8144.2846081336 -4.30E-01
     8 OT LS       0.21E+00    7.1                    -8144.3302891094
     9 OT LS       0.12E+00    7.2                    -8144.3046207388
    10 OT CG       0.94E-01   14.1     0.00020541     -8144.3335571472 -4.89E-02
    11 OT LS       0.13E+00    7.1                    -8144.3439577111
    12 OT LS       0.14E+00    7.1                    -8144.3452667472
    13 OT CG       0.11E+00   14.2     0.00013748     -8144.3453434255 -1.18E-02
    14 OT LS       0.16E+00    7.2                    -8144.3501798249
    15 OT LS       0.13E+00    7.1                    -8144.3501038139
    16 OT CG       0.11E+00   14.1     0.00006542     -8144.3502882140 -4.94E-03
    17 OT LS       0.15E+00    7.1                    -8144.3514192165
    18 OT LS       0.15E+00    7.1                    -8144.3515030366
    19 OT CG       0.12E+00   14.1     0.00003671     -8144.3515041510 -1.22E-03
    20 OT LS       0.16E+00    7.1                    -8144.3519391770
    21 OT LS       0.20E+00    7.1                    -8144.3520139948
    22 OT CG       0.16E+00   14.1     0.00002967     -8144.3520329885 -5.29E-04
    23 OT LS       0.22E+00    7.2                    -8144.3522785996
    24 OT LS       0.14E+00    7.2                    -8144.3522054154
    25 OT CG       0.12E+00   14.3     0.00001929     -8144.3522816103 -2.49E-04
    26 OT LS       0.16E+00    7.2                    -8144.3523815717
    27 OT LS       0.14E+00    7.1                    -8144.3523832437
    28 OT CG       0.11E+00   14.2     0.00001336     -8144.3523852111 -1.04E-04
    29 OT LS       0.16E+00    7.2                    -8144.3524427881
    30 OT LS       0.21E+00    7.3                    -8144.3524535207
    31 OT CG       0.17E+00   14.2     0.00000944     -8144.3524572380 -7.20E-05

  *** SCF run converged in    31 steps ***


  Electronic density on regular grids:      -1437.9999923025        0.0000076975
  Core density on regular grids:             1437.9999996446       -0.0000003554
  Total charge density on r-space grids:        0.0000073421
  Total charge density g-space grids:           0.0000073421

  Overlap energy of the core charge distribution:               0.00000339190374
  Self energy of the core charge distribution:             -14650.93922905635191
  Core Hamiltonian energy:                                   4107.27990600510748
  Hartree energy:                                            3440.85356118097388
  Exchange-correlation energy:                              -1042.42257264664136
  Dispersion energy:                                           -0.58095747992282

  DFT+U energy:                                                 1.45683136691555

  Total energy:                                             -8144.35245723801563

  outer SCF iter =    1 RMS gradient =   0.94E-05 energy =      -8144.3524572380
  outer SCF loop converged in   1 iterations or   31 steps


  Integrated absolute spin density  :                             235.0179469185
  Ideal and single determinant S**2 :                    0.000000     127.891470

 ENERGY| Total FORCE_EVAL ( QS ) energy (a.u.):            -8144.352492758494009


 --------  Informations at step =    26 ------------
  Optimization Method        =                 BFGS
  Total Energy               =     -8144.3524927585
  Real energy change         =        -0.1552171692
  Predicted change in energy =        -0.1201941212
  Scaling factor             =         0.9796833658
  Step size                  =         0.4724315332
  Trust radius               =         0.4724315332
  Decrease in energy         =                   NO
  Used time                  =              330.248

  Convergence check :
  Max. step size             =         0.4724315332
  Conv. limit for step size  =         1.0000000000
  Convergence in step size   =                  YES
  RMS step size              =         0.0585428951
  Conv. limit for RMS step   =         1.0000000000
  Convergence in RMS step    =                  YES
  Max. gradient              =         0.0504971026
  Conv. limit for gradients  =         0.0100000000
  Conv. for gradients        =                   NO
  RMS gradient               =         0.0051193541
  Conv. limit for RMS grad.  =         1.0000000000
  Conv. in RMS gradients     =                  YES
 ---------------------------------------------------

 --------------------------
 OPTIMIZATION STEP:     27
 --------------------------

 Spin 1

 Number of electrons:                                                        719
 Number of occupied orbitals:                                                719
 Number of molecular orbitals:                                               719

 Spin 2

 Number of electrons:                                                        719
 Number of occupied orbitals:                                                719
 Number of molecular orbitals:                                               719

 Number of orbital functions:                                               2718
 Number of independent orbital functions:                                   2718

 Extrapolation method: PS Nth order


 SCF WAVEFUNCTION OPTIMIZATION

  ----------------------------------- OT ---------------------------------------
  Minimizer      : CG                  : conjugate gradient
  Preconditioner : FULL_ALL            : diagonalization, state selective
  Precond_solver : DEFAULT
  Line search    : 3PNT                : 3 energies
  stepsize       :    0.15000000                  energy_gap     :    0.08000000
  eps_taylor     :   0.10000E-15                  max_taylor     :             4
  ----------------------------------- OT ---------------------------------------

  Step     Update method      Time    Convergence         Total energy    Change
  ------------------------------------------------------------------------------
     1 OT CG       0.12E+00   11.8     0.00115063     -8143.5032524880 -8.14E+03
     2 OT LS       0.17E+00    7.0                    -8143.9351047021
     3 OT LS       0.20E+00    7.1                    -8144.0039667781
     4 OT CG       0.16E+00   14.2     0.00083384     -8144.0177617738 -5.15E-01
     5 OT LS       0.22E+00    7.1                    -8144.2791352324
     6 OT LS       0.20E+00    7.1                    -8144.2875523766
     7 OT CG       0.16E+00   14.1     0.00043777     -8144.2907019321 -2.73E-01
     8 OT LS       0.23E+00    7.1                    -8144.3224621345
     9 OT LS       0.11E+00    7.1                    -8144.2847077402
    10 OT CG       0.87E-01   14.1     0.00019768     -8144.3317964751 -4.11E-02
    11 OT LS       0.12E+00    7.1                    -8144.3405974166
    12 OT LS       0.13E+00    7.1                    -8144.3415574095
    13 OT CG       0.10E+00   14.1     0.00011376     -8144.3415746183 -9.78E-03
    14 OT LS       0.14E+00    7.1                    -8144.3446852612
    15 OT LS       0.13E+00    7.2                    -8144.3447928619
    16 OT CG       0.10E+00   14.1     0.00005147     -8144.3448286599 -3.25E-03
    17 OT LS       0.14E+00    7.1                    -8144.3456166555
    18 OT LS       0.20E+00    7.1                    -8144.3457734207
    19 OT CG       0.16E+00   14.1     0.00003572     -8144.3458417553 -1.01E-03
    20 OT LS       0.22E+00    7.1                    -8144.3461854679
    21 OT LS       0.14E+00    7.1                    -8144.3460785852
    22 OT CG       0.11E+00   14.1     0.00002343     -8144.3461903649 -3.49E-04
    23 OT LS       0.16E+00    7.1                    -8144.3463263604
    24 OT LS       0.13E+00    7.2                    -8144.3463223212
    25 OT CG       0.10E+00   14.1     0.00001390     -8144.3463287634 -1.38E-04
    26 OT LS       0.14E+00    7.1                    -8144.3463863968
    27 OT LS       0.20E+00    7.1                    -8144.3463981531
    28 OT CG       0.16E+00   14.1     0.00000748     -8144.3464037982 -7.50E-05

  *** SCF run converged in    28 steps ***


  Electronic density on regular grids:      -1437.9999923201        0.0000076799
  Core density on regular grids:             1437.9999996443       -0.0000003557
  Total charge density on r-space grids:        0.0000073242
  Total charge density g-space grids:           0.0000073242

  Overlap energy of the core charge distribution:               0.00000975866798
  Self energy of the core charge distribution:             -14650.93922905635191
  Core Hamiltonian energy:                                   4107.30934981722748
  Hartree energy:                                            3440.84546818044146
  Exchange-correlation energy:                              -1042.43926212960787
  Dispersion energy:                                           -0.57632097269268

  DFT+U energy:                                                 1.45358060411995

  Total energy:                                             -8144.34640379819666

  outer SCF iter =    1 RMS gradient =   0.75E-05 energy =      -8144.3464037982
  outer SCF loop converged in   1 iterations or   28 steps


  Integrated absolute spin density  :                             235.0044065346
  Ideal and single determinant S**2 :                    0.000000     127.894227

 ENERGY| Total FORCE_EVAL ( QS ) energy (a.u.):            -8144.346420422565643


 --------  Informations at step =    27 ------------
  Optimization Method        =                 BFGS
  Total Energy               =     -8144.3464204226
  Real energy change         =         0.0060723359
  Predicted change in energy =        -0.0270275643
  Scaling factor             =         0.9796833658
  Step size                  =         0.2836680238
  Trust radius               =         0.4724315332
  Decrease in energy         =                   NO
  Used time                  =              301.027

  Convergence check :
  Max. step size             =         0.2836680238
  Conv. limit for step size  =         1.0000000000
  Convergence in step size   =                  YES
  RMS step size              =         0.0464416886
  Conv. limit for RMS step   =         1.0000000000
  Convergence in RMS step    =                  YES
  Max. gradient              =         0.0486168762
  Conv. limit for gradients  =         0.0100000000
  Conv. for gradients        =                   NO
  RMS gradient               =         0.0057200501
  Conv. limit for RMS grad.  =         1.0000000000
  Conv. in RMS gradients     =                  YES
 ---------------------------------------------------

 --------------------------
 OPTIMIZATION STEP:     28
 --------------------------

 Spin 1

 Number of electrons:                                                        719
 Number of occupied orbitals:                                                719
 Number of molecular orbitals:                                               719

 Spin 2

 Number of electrons:                                                        719
 Number of occupied orbitals:                                                719
 Number of molecular orbitals:                                               719

 Number of orbital functions:                                               2718
 Number of independent orbital functions:                                   2718

 Extrapolation method: PS Nth order


 SCF WAVEFUNCTION OPTIMIZATION

  ----------------------------------- OT ---------------------------------------
  Minimizer      : CG                  : conjugate gradient
  Preconditioner : FULL_ALL            : diagonalization, state selective
  Precond_solver : DEFAULT
  Line search    : 3PNT                : 3 energies
  stepsize       :    0.15000000                  energy_gap     :    0.08000000
  eps_taylor     :   0.10000E-15                  max_taylor     :             4
  ----------------------------------- OT ---------------------------------------

  Step     Update method      Time    Convergence         Total energy    Change
  ------------------------------------------------------------------------------
     1 OT CG       0.12E+00   11.8     0.00044968     -8144.2052439056 -8.14E+03
     2 OT LS       0.17E+00    7.1                    -8144.2767663286
     3 OT LS       0.24E+00    7.0                    -8144.2923507408
     4 OT CG       0.20E+00   14.1     0.00039615     -8144.3018704761 -9.66E-02
     5 OT LS       0.27E+00    7.2                    -8144.3531834946
     6 OT LS       0.17E+00    7.0                    -8144.3355058677
     7 OT CG       0.14E+00   14.1     0.00015494     -8144.3542594585 -5.24E-02
     8 OT LS       0.19E+00    7.0                    -8144.3578647876
     9 OT LS       0.95E-01    7.0                    -8144.3541550285
    10 OT CG       0.76E-01   14.1     0.00006014     -8144.3587187041 -4.46E-03
    11 OT LS       0.11E+00    7.1                    -8144.3594676655
    12 OT LS       0.12E+00    7.0                    -8144.3595826091
    13 OT CG       0.10E+00   14.1     0.00003485     -8144.3596008417 -8.82E-04
    14 OT LS       0.14E+00    7.1                    -8144.3599349152
    15 OT LS       0.17E+00    7.0                    -8144.3599902836
    16 OT CG       0.14E+00   14.1     0.00002148     -8144.3600024998 -4.02E-04
    17 OT LS       0.19E+00    7.1                    -8144.3601569386
    18 OT LS       0.18E+00    7.0                    -8144.3601682442
    19 OT CG       0.15E+00   14.0     0.00001588     -8144.3601684139 -1.66E-04
    20 OT LS       0.21E+00    7.0                    -8144.3602641501
    21 OT LS       0.22E+00    6.9                    -8144.3602750234
    22 OT CG       0.17E+00   14.0     0.00001724     -8144.3602753237 -1.07E-04
    23 OT LS       0.24E+00    7.0                    -8144.3603736886
    24 OT LS       0.17E+00    7.0                    -8144.3603545755
    25 OT CG       0.14E+00   14.1     0.00001165     -8144.3603737699 -9.84E-05
    26 OT LS       0.19E+00    7.0                    -8144.3604156547
    27 OT LS       0.16E+00    7.0                    -8144.3604157360
    28 OT CG       0.13E+00   14.0     0.00000716     -8144.3604168852 -4.31E-05

  *** SCF run converged in    28 steps ***


  Electronic density on regular grids:      -1437.9999923104        0.0000076896
  Core density on regular grids:             1437.9999996446       -0.0000003554
  Total charge density on r-space grids:        0.0000073342
  Total charge density g-space grids:           0.0000073342

  Overlap energy of the core charge distribution:               0.00000615097106
  Self energy of the core charge distribution:             -14650.93922905635191
  Core Hamiltonian energy:                                   4107.35296472564823
  Hartree energy:                                            3440.80216170031917
  Exchange-correlation energy:                              -1042.45168123437293
  Dispersion energy:                                           -0.57856465836829

  DFT+U energy:                                                 1.45392548696105

  Total energy:                                             -8144.36041688519344

  outer SCF iter =    1 RMS gradient =   0.72E-05 energy =      -8144.3604168852
  outer SCF loop converged in   1 iterations or   28 steps


  Integrated absolute spin density  :                             235.0131702909
  Ideal and single determinant S**2 :                    0.000000     127.895744

 ENERGY| Total FORCE_EVAL ( QS ) energy (a.u.):            -8144.360436387616573


 --------  Informations at step =    28 ------------
  Optimization Method        =                 BFGS
  Total Energy               =     -8144.3604363876
  Real energy change         =        -0.0140159651
  Predicted change in energy =        -0.0139649752
  Scaling factor             =         0.9796833658
  Step size                  =         0.1261805135
  Trust radius               =         0.4724315332
  Decrease in energy         =                   NO
  Used time                  =              298.709

  Convergence check :
  Max. step size             =         0.1261805135
  Conv. limit for step size  =         1.0000000000
  Convergence in step size   =                  YES
  RMS step size              =         0.0188523554
  Conv. limit for RMS step   =         1.0000000000
  Convergence in RMS step    =                  YES
  Max. gradient              =         0.0324357465
  Conv. limit for gradients  =         0.0100000000
  Conv. for gradients        =                   NO
  RMS gradient               =         0.0038339081
  Conv. limit for RMS grad.  =         1.0000000000
  Conv. in RMS gradients     =                  YES
 ---------------------------------------------------

 --------------------------
 OPTIMIZATION STEP:     29
 --------------------------

  Step is scaled; Scaling factor =  0.58385

 Spin 1

 Number of electrons:                                                        719
 Number of occupied orbitals:                                                719
 Number of molecular orbitals:                                               719

 Spin 2

 Number of electrons:                                                        719
 Number of occupied orbitals:                                                719
 Number of molecular orbitals:                                               719

 Number of orbital functions:                                               2718
 Number of independent orbital functions:                                   2718

 Extrapolation method: PS Nth order


 SCF WAVEFUNCTION OPTIMIZATION

  ----------------------------------- OT ---------------------------------------
  Minimizer      : CG                  : conjugate gradient
  Preconditioner : FULL_ALL            : diagonalization, state selective
  Precond_solver : DEFAULT
  Line search    : 3PNT                : 3 energies
  stepsize       :    0.15000000                  energy_gap     :    0.08000000
  eps_taylor     :   0.10000E-15                  max_taylor     :             4
  ----------------------------------- OT ---------------------------------------

  Step     Update method      Time    Convergence         Total energy    Change
  ------------------------------------------------------------------------------
     1 OT CG       0.12E+00   11.7     0.00017958     -8144.2417491280 -8.14E+03
     2 OT LS       0.17E+00    7.0                    -8144.2529306097
     3 OT LS       0.23E+00    6.9                    -8144.2552059359
     4 OT CG       0.18E+00   13.9     0.00015417     -8144.2563000164 -1.46E-02
     5 OT LS       0.26E+00    7.0                    -8144.2645544347
     6 OT LS       0.18E+00    6.9                    -8144.2628046008
     7 OT CG       0.14E+00   13.9     0.00006144     -8144.2645699953 -8.27E-03
     8 OT LS       0.20E+00    6.9                    -8144.2650050684
     9 OT LS       0.89E-01    6.9                    -8144.2642527885
    10 OT CG       0.72E-01   14.1     0.00002535     -8144.2652298379 -6.60E-04
    11 OT LS       0.10E+00    6.9                    -8144.2653674481
    12 OT LS       0.15E+00    6.9                    -8144.2653989620
    13 OT CG       0.12E+00   13.9     0.00001438     -8144.2654218153 -1.92E-04
    14 OT LS       0.17E+00    6.9                    -8144.2654785855
    15 OT LS       0.14E+00    6.9                    -8144.2654777460
    16 OT CG       0.11E+00   14.0     0.00000593     -8144.2654798738 -5.81E-05

  *** SCF run converged in    16 steps ***


  Electronic density on regular grids:      -1437.9999922963        0.0000077037
  Core density on regular grids:             1437.9999996445       -0.0000003555
  Total charge density on r-space grids:        0.0000073482
  Total charge density g-space grids:           0.0000073482

  Overlap energy of the core charge distribution:               0.00000273945459
  Self energy of the core charge distribution:             -14650.93922905635191
  Core Hamiltonian energy:                                   4107.51924010281255
  Hartree energy:                                            3440.71835221087395
  Exchange-correlation energy:                              -1042.45081631667836
  Dispersion energy:                                           -0.57662805788123

  DFT+U energy:                                                 1.46359850399761

  Total energy:                                             -8144.26547987377307

  outer SCF iter =    1 RMS gradient =   0.59E-05 energy =      -8144.2654798738
  outer SCF loop converged in   1 iterations or   16 steps


  Integrated absolute spin density  :                             235.0137018946
  Ideal and single determinant S**2 :                    0.000000     127.866742

 ENERGY| Total FORCE_EVAL ( QS ) energy (a.u.):            -8144.265490320889512


 --------  Informations at step =    29 ------------
  Optimization Method        =                 BFGS
  Total Energy               =     -8144.2654903209
  Real energy change         =         0.0949460667
  Predicted change in energy =        -0.0531962834
  Scaling factor             =         0.5838488333
  Step size                  =         0.4724315332
  Trust radius               =         0.4724315332
  Decrease in energy         =                   NO
  Used time                  =              184.971

  Convergence check :
  Max. step size             =         0.4724315332
  Conv. limit for step size  =         1.0000000000
  Convergence in step size   =                  YES
  RMS step size              =         0.0767982127
  Conv. limit for RMS step   =         1.0000000000
  Convergence in RMS step    =                  YES
  Max. gradient              =         0.0946809446
  Conv. limit for gradients  =         0.0100000000
  Conv. for gradients        =                   NO
  RMS gradient               =         0.0113030685
  Conv. limit for RMS grad.  =         1.0000000000
  Conv. in RMS gradients     =                  YES
 ---------------------------------------------------

 --------------------------
 OPTIMIZATION STEP:     30
 --------------------------

 Spin 1

 Number of electrons:                                                        719
 Number of occupied orbitals:                                                719
 Number of molecular orbitals:                                               719

 Spin 2

 Number of electrons:                                                        719
 Number of occupied orbitals:                                                719
 Number of molecular orbitals:                                               719

 Number of orbital functions:                                               2718
 Number of independent orbital functions:                                   2718

 Extrapolation method: PS Nth order


 SCF WAVEFUNCTION OPTIMIZATION

  ----------------------------------- OT ---------------------------------------
  Minimizer      : CG                  : conjugate gradient
  Preconditioner : FULL_ALL            : diagonalization, state selective
  Precond_solver : DEFAULT
  Line search    : 3PNT                : 3 energies
  stepsize       :    0.15000000                  energy_gap     :    0.08000000
  eps_taylor     :   0.10000E-15                  max_taylor     :             4
  ----------------------------------- OT ---------------------------------------

  Step     Update method      Time    Convergence         Total energy    Change
  ------------------------------------------------------------------------------
     1 OT CG       0.12E+00   11.8     0.00117905     -8143.3949713432 -8.14E+03
     2 OT LS       0.17E+00    7.1                    -8143.8597101297
     3 OT LS       0.21E+00    7.2                    -8143.9430116760
     4 OT CG       0.17E+00   14.2     0.00092599     -8143.9694746204 -5.75E-01
     5 OT LS       0.24E+00    7.2                    -8144.2990186557
     6 OT LS       0.20E+00    7.2                    -8144.2933962336
     7 OT CG       0.16E+00   14.2     0.00041883     -8144.3062270953 -3.37E-01
     8 OT LS       0.22E+00    7.1                    -8144.3327522884
     9 OT LS       0.10E+00    7.1                    -8144.2964805336
    10 OT CG       0.84E-01   14.3     0.00017184     -8144.3423846406 -3.62E-02
    11 OT LS       0.12E+00    7.2                    -8144.3488672109
    12 OT LS       0.13E+00    7.2                    -8144.3496589118
    13 OT CG       0.10E+00   14.3     0.00010363     -8144.3496963461 -7.31E-03
    14 OT LS       0.14E+00    7.2                    -8144.3526188498
    15 OT LS       0.16E+00    7.1                    -8144.3530499662
    16 OT CG       0.13E+00   14.3     0.00005648     -8144.3531078784 -3.41E-03
    17 OT LS       0.18E+00    7.2                    -8144.3540550709
    18 OT LS       0.16E+00    7.2                    -8144.3540543261
    19 OT CG       0.12E+00   14.2     0.00003247     -8144.3540818892 -9.74E-04
    20 OT LS       0.17E+00    7.2                    -8144.3544753657
    21 OT LS       0.27E+00    7.1                    -8144.3545652163
    22 OT CG       0.21E+00   14.1     0.00002882     -8144.3546295955 -5.48E-04
    23 OT LS       0.30E+00    7.2                    -8144.3547969762
    24 OT LS       0.14E+00    7.2                    -8144.3545718475
    25 OT CG       0.11E+00   14.2     0.00001778     -8144.3548572116 -2.28E-04
    26 OT LS       0.16E+00    7.3                    -8144.3549480843
    27 OT LS       0.16E+00    7.2                    -8144.3549575464
    28 OT CG       0.13E+00   14.2     0.00001443     -8144.3549576491 -1.00E-04
    29 OT LS       0.18E+00    7.2                    -8144.3550330397
    30 OT LS       0.23E+00    7.2                    -8144.3550461483
    31 OT CG       0.18E+00   14.2     0.00001066     -8144.3550496345 -9.20E-05
    32 OT LS       0.25E+00    7.2                    -8144.3550922313
    33 OT LS       0.19E+00    7.2                    -8144.3550880929
    34 OT CG       0.15E+00   14.2     0.00000748     -8144.3550923835 -4.27E-05

  *** SCF run converged in    34 steps ***


  Electronic density on regular grids:      -1437.9999923016        0.0000076984
  Core density on regular grids:             1437.9999996444       -0.0000003556
  Total charge density on r-space grids:        0.0000073428
  Total charge density g-space grids:           0.0000073428

  Overlap energy of the core charge distribution:               0.00000477651549
  Self energy of the core charge distribution:             -14650.93922905635191
  Core Hamiltonian energy:                                   4107.40644231332681
  Hartree energy:                                            3440.76158442662927
  Exchange-correlation energy:                              -1042.45907091441177
  Dispersion energy:                                           -0.58033918040185

  DFT+U energy:                                                 1.45551525114987

  Total energy:                                             -8144.35509238354553

  outer SCF iter =    1 RMS gradient =   0.75E-05 energy =      -8144.3550923835
  outer SCF loop converged in   1 iterations or   34 steps


  Integrated absolute spin density  :                             235.0148979558
  Ideal and single determinant S**2 :                    0.000000     127.894363

 ENERGY| Total FORCE_EVAL ( QS ) energy (a.u.):            -8144.355110394606527


 --------  Informations at step =    30 ------------
  Optimization Method        =                 BFGS
  Total Energy               =     -8144.3551103946
  Real energy change         =        -0.0896200737
  Predicted change in energy =        -0.0639653111
  Scaling factor             =         0.5838488333
  Step size                  =         0.3001349895
  Trust radius               =         0.4724315332
  Decrease in energy         =                   NO
  Used time                  =              359.969

  Convergence check :
  Max. step size             =         0.3001349895
  Conv. limit for step size  =         1.0000000000
  Convergence in step size   =                  YES
  RMS step size              =         0.0527941663
  Conv. limit for RMS step   =         1.0000000000
  Convergence in RMS step    =                  YES
  Max. gradient              =         0.0359915079
  Conv. limit for gradients  =         0.0100000000
  Conv. for gradients        =                   NO
  RMS gradient               =         0.0045743778
  Conv. limit for RMS grad.  =         1.0000000000
  Conv. in RMS gradients     =                  YES
 ---------------------------------------------------

 --------------------------
 OPTIMIZATION STEP:     31
 --------------------------

 Spin 1

 Number of electrons:                                                        719
 Number of occupied orbitals:                                                719
 Number of molecular orbitals:                                               719

 Spin 2

 Number of electrons:                                                        719
 Number of occupied orbitals:                                                719
 Number of molecular orbitals:                                               719

 Number of orbital functions:                                               2718
 Number of independent orbital functions:                                   2718

 Extrapolation method: PS Nth order


 SCF WAVEFUNCTION OPTIMIZATION

  ----------------------------------- OT ---------------------------------------
  Minimizer      : CG                  : conjugate gradient
  Preconditioner : FULL_ALL            : diagonalization, state selective
  Precond_solver : DEFAULT
  Line search    : 3PNT                : 3 energies
  stepsize       :    0.15000000                  energy_gap     :    0.08000000
  eps_taylor     :   0.10000E-15                  max_taylor     :             4
  ----------------------------------- OT ---------------------------------------

  Step     Update method      Time    Convergence         Total energy    Change
  ------------------------------------------------------------------------------
     1 OT CG       0.12E+00   11.8     0.00089999     -8143.8454528860 -8.14E+03
     2 OT LS       0.17E+00    6.9                    -8144.0839936991
     3 OT LS       0.16E+00    7.0                    -8144.1029931042
     4 OT CG       0.13E+00   14.0     0.00057733     -8144.1030360701 -2.58E-01
     5 OT LS       0.18E+00    7.1                    -8144.2305436421
     6 OT LS       0.25E+00    7.1                    -8144.2563334935
     7 OT CG       0.20E+00   14.2     0.00035203     -8144.2683689516 -1.65E-01
     8 OT LS       0.10E+00    7.1                    -8144.2584194884
     9 OT LS       0.92E-01    7.1                    -8144.2900992223
    10 OT CG       0.73E-01   14.1     0.00013793     -8144.2903584379 -2.20E-02
    11 OT LS       0.10E+00    7.1                    -8144.2942768185
    12 OT LS       0.13E+00    7.1                    -8144.2949971863
    13 OT CG       0.11E+00   14.1     0.00008123     -8144.2952299818 -4.87E-03
    14 OT LS       0.15E+00    7.1                    -8144.2970727591
    15 OT LS       0.17E+00    7.1                    -8144.2973266098
    16 OT CG       0.13E+00   14.1     0.00004051     -8144.2973512633 -2.12E-03
    17 OT LS       0.18E+00    7.1                    -8144.2978062161
    18 OT LS       0.14E+00    7.1                    -8144.2977675114
    19 OT CG       0.11E+00   14.1     0.00002705     -8144.2978085756 -4.57E-04
    20 OT LS       0.16E+00    7.1                    -8144.2980174691
    21 OT LS       0.16E+00    7.2                    -8144.2980356388
    22 OT CG       0.13E+00   14.3     0.00002174     -8144.2980356423 -2.27E-04
    23 OT LS       0.18E+00    7.2                    -8144.2981761456
    24 OT LS       0.16E+00    7.4                    -8144.2981795292
    25 OT CG       0.13E+00   14.3     0.00001057     -8144.2981818021 -1.46E-04
    26 OT LS       0.18E+00    7.2                    -8144.2982167789
    27 OT LS       0.17E+00    7.2                    -8144.2982194372
    28 OT CG       0.14E+00   14.3     0.00000651     -8144.2982194630 -3.77E-05

  *** SCF run converged in    28 steps ***


  Electronic density on regular grids:      -1437.9999923061        0.0000076939
  Core density on regular grids:             1437.9999996439       -0.0000003561
  Total charge density on r-space grids:        0.0000073378
  Total charge density g-space grids:           0.0000073378

  Overlap energy of the core charge distribution:               0.00001232141937
  Self energy of the core charge distribution:             -14650.93922905635191
  Core Hamiltonian energy:                                   4107.40251069228998
  Hartree energy:                                            3440.78960479526404
  Exchange-correlation energy:                              -1042.43414039762274
  Dispersion energy:                                           -0.57102046491886

  DFT+U energy:                                                 1.45404264691401

  Total energy:                                             -8144.29821946300763

  outer SCF iter =    1 RMS gradient =   0.65E-05 energy =      -8144.2982194630
  outer SCF loop converged in   1 iterations or   28 steps


  Integrated absolute spin density  :                             235.0225356678
  Ideal and single determinant S**2 :                    0.000000     127.885250

 ENERGY| Total FORCE_EVAL ( QS ) energy (a.u.):            -8144.298234688458251


 --------  Informations at step =    31 ------------
  Optimization Method        =                 BFGS
  Total Energy               =     -8144.2982346885
  Real energy change         =         0.0568757061
  Predicted change in energy =        -0.0457536199
  Scaling factor             =         0.5838488333
  Step size                  =         0.3881302281
  Trust radius               =         0.4724315332
  Decrease in energy         =                   NO
  Used time                  =              301.567

  Convergence check :
  Max. step size             =         0.3881302281
  Conv. limit for step size  =         1.0000000000
  Convergence in step size   =                  YES
  RMS step size              =         0.0692638534
  Conv. limit for RMS step   =         1.0000000000
  Convergence in RMS step    =                  YES
  Max. gradient              =         0.0807738901
  Conv. limit for gradients  =         0.0100000000
  Conv. for gradients        =                   NO
  RMS gradient               =         0.0095932608
  Conv. limit for RMS grad.  =         1.0000000000
  Conv. in RMS gradients     =                  YES
 ---------------------------------------------------

 --------------------------
 OPTIMIZATION STEP:     32
 --------------------------

 Spin 1

 Number of electrons:                                                        719
 Number of occupied orbitals:                                                719
 Number of molecular orbitals:                                               719

 Spin 2

 Number of electrons:                                                        719
 Number of occupied orbitals:                                                719
 Number of molecular orbitals:                                               719

 Number of orbital functions:                                               2718
 Number of independent orbital functions:                                   2718

 Extrapolation method: PS Nth order


 SCF WAVEFUNCTION OPTIMIZATION

  ----------------------------------- OT ---------------------------------------
  Minimizer      : CG                  : conjugate gradient
  Preconditioner : FULL_ALL            : diagonalization, state selective
  Precond_solver : DEFAULT
  Line search    : 3PNT                : 3 energies
  stepsize       :    0.15000000                  energy_gap     :    0.08000000
  eps_taylor     :   0.10000E-15                  max_taylor     :             4
  ----------------------------------- OT ---------------------------------------

  Step     Update method      Time    Convergence         Total energy    Change
  ------------------------------------------------------------------------------
     1 OT CG       0.12E+00   11.9     0.00082242     -8143.8582237018 -8.14E+03
     2 OT LS       0.17E+00    7.0                    -8144.0909558488
     3 OT LS       0.23E+00    7.0                    -8144.1368273132
     4 OT CG       0.18E+00   14.2     0.00076032     -8144.1564200771 -2.98E-01
     5 OT LS       0.25E+00    7.2                    -8144.3285953419
     6 OT LS       0.16E+00    7.2                    -8144.2760572456
     7 OT CG       0.13E+00   14.3     0.00034245     -8144.3315072058 -1.75E-01
     8 OT LS       0.18E+00    7.2                    -8144.3526381920
     9 OT LS       0.10E+00    7.2                    -8144.3399693695
    10 OT CG       0.81E-01   14.2     0.00011934     -8144.3544262915 -2.29E-02
    11 OT LS       0.11E+00    7.1                    -8144.3575902288
    12 OT LS       0.13E+00    7.2                    -8144.3580977989
    13 OT CG       0.11E+00   14.2     0.00007882     -8144.3581936102 -3.77E-03
    14 OT LS       0.15E+00    7.3                    -8144.3598299343
    15 OT LS       0.14E+00    7.2                    -8144.3599403254
    16 OT CG       0.12E+00   14.2     0.00004161     -8144.3599434840 -1.75E-03
    17 OT LS       0.16E+00    7.2                    -8144.3604283803
    18 OT LS       0.15E+00    7.2                    -8144.3604543933
    19 OT CG       0.12E+00   14.2     0.00002503     -8144.3604569212 -5.13E-04
    20 OT LS       0.17E+00    7.2                    -8144.3606657833
    21 OT LS       0.20E+00    7.1                    -8144.3607001564
    22 OT CG       0.16E+00   14.1     0.00002601     -8144.3607075566 -2.51E-04
    23 OT LS       0.23E+00    7.2                    -8144.3609509309
    24 OT LS       0.19E+00    7.1                    -8144.3609409687
    25 OT CG       0.15E+00   14.1     0.00001868     -8144.3609544566 -2.47E-04
    26 OT LS       0.21E+00    7.1                    -8144.3610659991
    27 OT LS       0.17E+00    7.1                    -8144.3610594239
    28 OT CG       0.13E+00   14.1     0.00001392     -8144.3610671034 -1.13E-04
    29 OT LS       0.19E+00    7.2                    -8144.3611381481
    30 OT LS       0.23E+00    7.1                    -8144.3611502517
    31 OT CG       0.18E+00   14.1     0.00001193     -8144.3611532069 -8.61E-05
    32 OT LS       0.25E+00    7.2                    -8144.3611968380
    33 OT LS       0.16E+00    7.1                    -8144.3611821760
    34 OT CG       0.13E+00   14.3     0.00000710     -8144.3611976590 -4.45E-05

  *** SCF run converged in    34 steps ***


  Electronic density on regular grids:      -1437.9999923005        0.0000076995
  Core density on regular grids:             1437.9999996444       -0.0000003556
  Total charge density on r-space grids:        0.0000073439
  Total charge density g-space grids:           0.0000073439

  Overlap energy of the core charge distribution:               0.00000611772556
  Self energy of the core charge distribution:             -14650.93922905635191
  Core Hamiltonian energy:                                   4107.32652416816381
  Hartree energy:                                            3440.81808084356453
  Exchange-correlation energy:                              -1042.44044433420436
  Dispersion energy:                                           -0.58132371381676

  DFT+U energy:                                                 1.45518831588365

  Total energy:                                             -8144.36119765903550

  outer SCF iter =    1 RMS gradient =   0.71E-05 energy =      -8144.3611976590
  outer SCF loop converged in   1 iterations or   34 steps


  Integrated absolute spin density  :                             235.0161735845
  Ideal and single determinant S**2 :                    0.000000     127.895013

 ENERGY| Total FORCE_EVAL ( QS ) energy (a.u.):            -8144.361212297924794


 --------  Informations at step =    32 ------------
  Optimization Method        =                 BFGS
  Total Energy               =     -8144.3612122979
  Real energy change         =        -0.0629776095
  Predicted change in energy =        -0.0533957219
  Scaling factor             =         0.5838488333
  Step size                  =         0.3102017347
  Trust radius               =         0.4724315332
  Decrease in energy         =                   NO
  Used time                  =              359.395

  Convergence check :
  Max. step size             =         0.3102017347
  Conv. limit for step size  =         1.0000000000
  Convergence in step size   =                  YES
  RMS step size              =         0.0449783958
  Conv. limit for RMS step   =         1.0000000000
  Convergence in RMS step    =                  YES
  Max. gradient              =         0.0284761025
  Conv. limit for gradients  =         0.0100000000
  Conv. for gradients        =                   NO
  RMS gradient               =         0.0037219950
  Conv. limit for RMS grad.  =         1.0000000000
  Conv. in RMS gradients     =                  YES
 ---------------------------------------------------

 --------------------------
 OPTIMIZATION STEP:     33
 --------------------------

 Spin 1

 Number of electrons:                                                        719
 Number of occupied orbitals:                                                719
 Number of molecular orbitals:                                               719

 Spin 2

 Number of electrons:                                                        719
 Number of occupied orbitals:                                                719
 Number of molecular orbitals:                                               719

 Number of orbital functions:                                               2718
 Number of independent orbital functions:                                   2718

 Extrapolation method: PS Nth order


 SCF WAVEFUNCTION OPTIMIZATION

  ----------------------------------- OT ---------------------------------------
  Minimizer      : CG                  : conjugate gradient
  Preconditioner : FULL_ALL            : diagonalization, state selective
  Precond_solver : DEFAULT
  Line search    : 3PNT                : 3 energies
  stepsize       :    0.15000000                  energy_gap     :    0.08000000
  eps_taylor     :   0.10000E-15                  max_taylor     :             4
  ----------------------------------- OT ---------------------------------------

  Step     Update method      Time    Convergence         Total energy    Change
  ------------------------------------------------------------------------------
     1 OT CG       0.12E+00   11.8     0.00075485     -8143.9521256593 -8.14E+03
     2 OT LS       0.17E+00    7.0                    -8144.1378711535
     3 OT LS       0.20E+00    6.9                    -8144.1676748520
     4 OT CG       0.16E+00   14.0     0.00056713     -8144.1738743768 -2.22E-01
     5 OT LS       0.22E+00    7.2                    -8144.3007143900
     6 OT LS       0.21E+00    7.1                    -8144.3079607731
     7 OT CG       0.17E+00   14.1     0.00027857     -8144.3085283416 -1.35E-01
     8 OT LS       0.24E+00    7.2                    -8144.3129615392
     9 OT LS       0.93E-01    7.1                    -8144.2891477045
    10 OT CG       0.74E-01   14.1     0.00011836     -8144.3224281986 -1.39E-02
    11 OT LS       0.10E+00    7.2                    -8144.3253876713
    12 OT LS       0.14E+00    7.1                    -8144.3259679706
    13 OT CG       0.11E+00   14.1     0.00006793     -8144.3262087000 -3.78E-03
    14 OT LS       0.16E+00    7.2                    -8144.3275729075
    15 OT LS       0.17E+00    7.2                    -8144.3277628685
    16 OT CG       0.14E+00   14.2     0.00003774     -8144.3277821590 -1.57E-03
    17 OT LS       0.20E+00    7.2                    -8144.3281580010
    18 OT LS       0.13E+00    7.2                    -8144.3280823584
    19 OT CG       0.11E+00   14.2     0.00002324     -8144.3281584645 -3.76E-04
    20 OT LS       0.15E+00    7.2                    -8144.3283180146
    21 OT LS       0.18E+00    7.1                    -8144.3283436297
    22 OT CG       0.14E+00   14.2     0.00002226     -8144.3283485949 -1.90E-04
    23 OT LS       0.20E+00    7.1                    -8144.3285198143
    24 OT LS       0.19E+00    7.2                    -8144.3285277598
    25 OT CG       0.15E+00   14.4     0.00001257     -8144.3285290285 -1.80E-04
    26 OT LS       0.21E+00    7.2                    -8144.3285843319
    27 OT LS       0.19E+00    7.2                    -8144.3285858841
    28 OT CG       0.15E+00   14.3     0.00000928     -8144.3285866791 -5.77E-05

  *** SCF run converged in    28 steps ***


  Electronic density on regular grids:      -1437.9999923016        0.0000076984
  Core density on regular grids:             1437.9999996443       -0.0000003557
  Total charge density on r-space grids:        0.0000073427
  Total charge density g-space grids:           0.0000073427

  Overlap energy of the core charge distribution:               0.00000415823519
  Self energy of the core charge distribution:             -14650.93922905635191
  Core Hamiltonian energy:                                   4107.32117204713632
  Hartree energy:                                            3440.83900586855680
  Exchange-correlation energy:                              -1042.43242963587022
  Dispersion energy:                                           -0.57583235206889

  DFT+U energy:                                                 1.45872229126460

  Total energy:                                             -8144.32858667909750

  outer SCF iter =    1 RMS gradient =   0.93E-05 energy =      -8144.3285866791
  outer SCF loop converged in   1 iterations or   28 steps


  Integrated absolute spin density  :                             235.0211378401
  Ideal and single determinant S**2 :                    0.000000     127.885639

 ENERGY| Total FORCE_EVAL ( QS ) energy (a.u.):            -8144.328623031497955


 --------  Informations at step =    33 ------------
  Optimization Method        =                 BFGS
  Total Energy               =     -8144.3286230315
  Real energy change         =         0.0325892664
  Predicted change in energy =        -0.0306572645
  Scaling factor             =         0.5838488333
  Step size                  =         0.2938993463
  Trust radius               =         0.4724315332
  Decrease in energy         =                   NO
  Used time                  =              302.055

  Convergence check :
  Max. step size             =         0.2938993463
  Conv. limit for step size  =         1.0000000000
  Convergence in step size   =                  YES
  RMS step size              =         0.0508702714
  Conv. limit for RMS step   =         1.0000000000
  Convergence in RMS step    =                  YES
  Max. gradient              =         0.0309216408
  Conv. limit for gradients  =         0.0100000000
  Conv. for gradients        =                   NO
  RMS gradient               =         0.0056387634
  Conv. limit for RMS grad.  =         1.0000000000
  Conv. in RMS gradients     =                  YES
 ---------------------------------------------------

 --------------------------
 OPTIMIZATION STEP:     34
 --------------------------

 Spin 1

 Number of electrons:                                                        719
 Number of occupied orbitals:                                                719
 Number of molecular orbitals:                                               719

 Spin 2

 Number of electrons:                                                        719
 Number of occupied orbitals:                                                719
 Number of molecular orbitals:                                               719

 Number of orbital functions:                                               2718
 Number of independent orbital functions:                                   2718

 Extrapolation method: PS Nth order


 SCF WAVEFUNCTION OPTIMIZATION

  ----------------------------------- OT ---------------------------------------
  Minimizer      : CG                  : conjugate gradient
  Preconditioner : FULL_ALL            : diagonalization, state selective
  Precond_solver : DEFAULT
  Line search    : 3PNT                : 3 energies
  stepsize       :    0.15000000                  energy_gap     :    0.08000000
  eps_taylor     :   0.10000E-15                  max_taylor     :             4
  ----------------------------------- OT ---------------------------------------

  Step     Update method      Time    Convergence         Total energy    Change
  ------------------------------------------------------------------------------
     1 OT CG       0.12E+00   11.8     0.00055354     -8144.1362075106 -8.14E+03
     2 OT LS       0.17E+00    6.9                    -8144.2412506375
     3 OT LS       0.22E+00    6.9                    -8144.2617765831
     4 OT CG       0.18E+00   14.2     0.00047000     -8144.2703675885 -1.34E-01
     5 OT LS       0.25E+00    7.1                    -8144.3503339395
     6 OT LS       0.18E+00    7.1                    -8144.3400775673
     7 OT CG       0.15E+00   14.2     0.00020380     -8144.3504011518 -8.00E-02
     8 OT LS       0.21E+00    7.1                    -8144.3563200776
     9 OT LS       0.98E-01    7.1                    -8144.3484410592
    10 OT CG       0.78E-01   14.2     0.00007563     -8144.3583873812 -7.99E-03
    11 OT LS       0.11E+00    7.1                    -8144.3595753536
    12 OT LS       0.12E+00    7.1                    -8144.3597336618
    13 OT CG       0.97E-01   14.1     0.00004381     -8144.3597463916 -1.36E-03
    14 OT LS       0.14E+00    7.1                    -8144.3602610432
    15 OT LS       0.17E+00    7.1                    -8144.3603474425
    16 OT CG       0.13E+00   14.1     0.00002387     -8144.3603674670 -6.21E-04
    17 OT LS       0.19E+00    7.1                    -8144.3605482385
    18 OT LS       0.17E+00    7.1                    -8144.3605565906
    19 OT CG       0.14E+00   14.1     0.00001539     -8144.3605579381 -1.90E-04
    20 OT LS       0.19E+00    7.1                    -8144.3606578371
    21 OT LS       0.32E+00    7.3                    -8144.3606827872
    22 OT CG       0.26E+00   14.2     0.00001563     -8144.3607076234 -1.50E-04
    23 OT LS       0.36E+00    7.1                    -8144.3607571261
    24 OT LS       0.16E+00    7.2                    -8144.3606666389
    25 OT CG       0.13E+00   14.3     0.00001062     -8144.3607847656 -7.71E-05
    26 OT LS       0.18E+00    7.1                    -8144.3608177419
    27 OT LS       0.15E+00    7.2                    -8144.3608174114
    28 OT CG       0.12E+00   14.1     0.00000877     -8144.3608185511 -3.38E-05

  *** SCF run converged in    28 steps ***


  Electronic density on regular grids:      -1437.9999923023        0.0000076977
  Core density on regular grids:             1437.9999996442       -0.0000003558
  Total charge density on r-space grids:        0.0000073419
  Total charge density g-space grids:           0.0000073419

  Overlap energy of the core charge distribution:               0.00000545437230
  Self energy of the core charge distribution:             -14650.93922905635191
  Core Hamiltonian energy:                                   4107.32907107075152
  Hartree energy:                                            3440.81701528998519
  Exchange-correlation energy:                              -1042.44001575513789
  Dispersion energy:                                           -0.58376229678365

  DFT+U energy:                                                 1.45609674203854

  Total energy:                                             -8144.36081855112570

  outer SCF iter =    1 RMS gradient =   0.88E-05 energy =      -8144.3608185511
  outer SCF loop converged in   1 iterations or   28 steps


  Integrated absolute spin density  :                             235.0120328921
  Ideal and single determinant S**2 :                    0.000000     127.891917

 ENERGY| Total FORCE_EVAL ( QS ) energy (a.u.):            -8144.360845225059165


 --------  Informations at step =    34 ------------
  Optimization Method        =                 BFGS
  Total Energy               =     -8144.3608452251
  Real energy change         =        -0.0322221936
  Predicted change in energy =        -0.0212997502
  Scaling factor             =         0.5838488333
  Step size                  =         0.1770556552
  Trust radius               =         0.4724315332
  Decrease in energy         =                   NO
  Used time                  =              301.298

  Convergence check :
  Max. step size             =         0.1770556552
  Conv. limit for step size  =         1.0000000000
  Convergence in step size   =                  YES
  RMS step size              =         0.0279356873
  Conv. limit for RMS step   =         1.0000000000
  Convergence in RMS step    =                  YES
  Max. gradient              =         0.0117378282
  Conv. limit for gradients  =         0.0100000000
  Conv. for gradients        =                   NO
  RMS gradient               =         0.0019583866
  Conv. limit for RMS grad.  =         1.0000000000
  Conv. in RMS gradients     =                  YES
 ---------------------------------------------------

 --------------------------
 OPTIMIZATION STEP:     35
 --------------------------

 Spin 1

 Number of electrons:                                                        719
 Number of occupied orbitals:                                                719
 Number of molecular orbitals:                                               719

 Spin 2

 Number of electrons:                                                        719
 Number of occupied orbitals:                                                719
 Number of molecular orbitals:                                               719

 Number of orbital functions:                                               2718
 Number of independent orbital functions:                                   2718

 Extrapolation method: PS Nth order


 SCF WAVEFUNCTION OPTIMIZATION

  ----------------------------------- OT ---------------------------------------
  Minimizer      : CG                  : conjugate gradient
  Preconditioner : FULL_ALL            : diagonalization, state selective
  Precond_solver : DEFAULT
  Line search    : 3PNT                : 3 energies
  stepsize       :    0.15000000                  energy_gap     :    0.08000000
  eps_taylor     :   0.10000E-15                  max_taylor     :             4
  ----------------------------------- OT ---------------------------------------

  Step     Update method      Time    Convergence         Total energy    Change
  ------------------------------------------------------------------------------
     1 OT CG       0.12E+00   11.8     0.00047595     -8144.2031358225 -8.14E+03
     2 OT LS       0.17E+00    7.0                    -8144.2777825900
     3 OT LS       0.20E+00    7.0                    -8144.2901478639
     4 OT CG       0.16E+00   14.1     0.00038384     -8144.2929537397 -8.98E-02
     5 OT LS       0.23E+00    7.0                    -8144.3492771456
     6 OT LS       0.20E+00    7.0                    -8144.3504996844
     7 OT CG       0.16E+00   14.0     0.00018804     -8144.3514805518 -5.85E-02
     8 OT LS       0.23E+00    6.9                    -8144.3540840235
     9 OT LS       0.92E-01    7.1                    -8144.3442239394
    10 OT CG       0.73E-01   14.0     0.00006852     -8144.3577710015 -6.29E-03
    11 OT LS       0.10E+00    6.9                    -8144.3587272213
    12 OT LS       0.13E+00    7.0                    -8144.3588945089
    13 OT CG       0.10E+00   14.0     0.00003828     -8144.3589398248 -1.17E-03
    14 OT LS       0.14E+00    6.9                    -8144.3593401919
    15 OT LS       0.16E+00    7.0                    -8144.3593972194
    16 OT CG       0.13E+00   14.0     0.00001914     -8144.3594036917 -4.64E-04
    17 OT LS       0.18E+00    6.9                    -8144.3595112236
    18 OT LS       0.15E+00    7.0                    -8144.3595104191
    19 OT CG       0.12E+00   14.0     0.00001247     -8144.3595139670 -1.10E-04
    20 OT LS       0.17E+00    6.9                    -8144.3595642167
    21 OT LS       0.19E+00    7.0                    -8144.3595705700
    22 OT CG       0.15E+00   14.0     0.00001283     -8144.3595709467 -5.70E-05
    23 OT LS       0.21E+00    6.9                    -8144.3596261515
    24 OT LS       0.18E+00    7.0                    -8144.3596250535
    25 OT CG       0.14E+00   14.0     0.00000756     -8144.3596273055 -5.64E-05

  *** SCF run converged in    25 steps ***


  Electronic density on regular grids:      -1437.9999922930        0.0000077070
  Core density on regular grids:             1437.9999996444       -0.0000003556
  Total charge density on r-space grids:        0.0000073513
  Total charge density g-space grids:           0.0000073513

  Overlap energy of the core charge distribution:               0.00000658639049
  Self energy of the core charge distribution:             -14650.93922905635191
  Core Hamiltonian energy:                                   4107.29108097105473
  Hartree energy:                                            3440.84709970332824
  Exchange-correlation energy:                              -1042.43470826324346
  Dispersion energy:                                           -0.57819145312670

  DFT+U energy:                                                 1.45431420646881

  Total energy:                                             -8144.35962730548090

  outer SCF iter =    1 RMS gradient =   0.76E-05 energy =      -8144.3596273055
  outer SCF loop converged in   1 iterations or   25 steps


  Integrated absolute spin density  :                             235.0182634392
  Ideal and single determinant S**2 :                    0.000000     127.897883

 ENERGY| Total FORCE_EVAL ( QS ) energy (a.u.):            -8144.359647601624602


 --------  Informations at step =    35 ------------
  Optimization Method        =                 BFGS
  Total Energy               =     -8144.3596476016
  Real energy change         =         0.0011976234
  Predicted change in energy =        -0.0102883378
  Scaling factor             =         0.5838488333
  Step size                  =         0.2442427523
  Trust radius               =         0.4724315332
  Decrease in energy         =                   NO
  Used time                  =              269.327

  Convergence check :
  Max. step size             =         0.2442427523
  Conv. limit for step size  =         1.0000000000
  Convergence in step size   =                  YES
  RMS step size              =         0.0351420257
  Conv. limit for RMS step   =         1.0000000000
  Convergence in RMS step    =                  YES
  Max. gradient              =         0.0306598713
  Conv. limit for gradients  =         0.0100000000
  Conv. for gradients        =                   NO
  RMS gradient               =         0.0053164656
  Conv. limit for RMS grad.  =         1.0000000000
  Conv. in RMS gradients     =                  YES
 ---------------------------------------------------

 --------------------------
 OPTIMIZATION STEP:     36
 --------------------------

 Spin 1

 Number of electrons:                                                        719
 Number of occupied orbitals:                                                719
 Number of molecular orbitals:                                               719

 Spin 2

 Number of electrons:                                                        719
 Number of occupied orbitals:                                                719
 Number of molecular orbitals:                                               719

 Number of orbital functions:                                               2718
 Number of independent orbital functions:                                   2718

 Extrapolation method: PS Nth order


 SCF WAVEFUNCTION OPTIMIZATION

  ----------------------------------- OT ---------------------------------------
  Minimizer      : CG                  : conjugate gradient
  Preconditioner : FULL_ALL            : diagonalization, state selective
  Precond_solver : DEFAULT
  Line search    : 3PNT                : 3 energies
  stepsize       :    0.15000000                  energy_gap     :    0.08000000
  eps_taylor     :   0.10000E-15                  max_taylor     :             4
  ----------------------------------- OT ---------------------------------------

  Step     Update method      Time    Convergence         Total energy    Change
  ------------------------------------------------------------------------------
     1 OT CG       0.12E+00   11.8     0.00033656     -8144.2787105932 -8.14E+03
     2 OT LS       0.17E+00    7.1                    -8144.3186560930
     3 OT LS       0.24E+00    6.9                    -8144.3272253541
     4 OT CG       0.19E+00   13.9     0.00030841     -8144.3321024053 -5.34E-02
     5 OT LS       0.27E+00    7.0                    -8144.3622976977
     6 OT LS       0.17E+00    6.9                    -8144.3516688637
     7 OT CG       0.13E+00   13.9     0.00011111     -8144.3629922243 -3.09E-02
     8 OT LS       0.19E+00    7.0                    -8144.3649799829
     9 OT LS       0.97E-01    7.0                    -8144.3632738925
    10 OT CG       0.78E-01   14.0     0.00004285     -8144.3653254829 -2.33E-03
    11 OT LS       0.11E+00    7.0                    -8144.3657048942
    12 OT LS       0.12E+00    6.9                    -8144.3657564826
    13 OT CG       0.97E-01   14.0     0.00002626     -8144.3657610615 -4.36E-04
    14 OT LS       0.14E+00    7.0                    -8144.3659523199
    15 OT LS       0.18E+00    6.9                    -8144.3659893473
    16 OT CG       0.14E+00   13.8     0.00001590     -8144.3660040806 -2.43E-04
    17 OT LS       0.20E+00    6.9                    -8144.3660883670
    18 OT LS       0.18E+00    6.9                    -8144.3660893718
    19 OT CG       0.14E+00   13.8     0.00001250     -8144.3660912355 -8.72E-05
    20 OT LS       0.20E+00    6.9                    -8144.3661528090
    21 OT LS       0.25E+00    6.9                    -8144.3661637424
    22 OT CG       0.20E+00   13.9     0.00001475     -8144.3661669076 -7.57E-05
    23 OT LS       0.28E+00    6.9                    -8144.3662306619
    24 OT LS       0.16E+00    6.9                    -8144.3661969909
    25 OT CG       0.13E+00   13.9     0.00000878     -8144.3662347742 -6.79E-05

  *** SCF run converged in    25 steps ***


  Electronic density on regular grids:      -1437.9999922865        0.0000077135
  Core density on regular grids:             1437.9999996441       -0.0000003559
  Total charge density on r-space grids:        0.0000073576
  Total charge density g-space grids:           0.0000073576

  Overlap energy of the core charge distribution:               0.00000625383209
  Self energy of the core charge distribution:             -14650.93922905635191
  Core Hamiltonian energy:                                   4107.37355839274005
  Hartree energy:                                            3440.77815643031727
  Exchange-correlation energy:                              -1042.45117385339790
  Dispersion energy:                                           -0.58281519423159

  DFT+U energy:                                                 1.45526225292736

  Total energy:                                             -8144.36623477416560

  outer SCF iter =    1 RMS gradient =   0.88E-05 energy =      -8144.3662347742
  outer SCF loop converged in   1 iterations or   25 steps


  Integrated absolute spin density  :                             235.0098380160
  Ideal and single determinant S**2 :                    0.000000     127.893452

 ENERGY| Total FORCE_EVAL ( QS ) energy (a.u.):            -8144.366258921429107


 --------  Informations at step =    36 ------------
  Optimization Method        =                 BFGS
  Total Energy               =     -8144.3662589214
  Real energy change         =        -0.0066113198
  Predicted change in energy =        -0.0135508207
  Scaling factor             =         0.5838488333
  Step size                  =         0.1147288603
  Trust radius               =         0.4724315332
  Decrease in energy         =                  YES
  Used time                  =              268.223

  Convergence check :
  Max. step size             =         0.1147288603
  Conv. limit for step size  =         1.0000000000
  Convergence in step size   =                  YES
  RMS step size              =         0.0187969802
  Conv. limit for RMS step   =         1.0000000000
  Convergence in RMS step    =                  YES
  Max. gradient              =         0.0288323492
  Conv. limit for gradients  =         0.0100000000
  Conv. for gradients        =                   NO
  RMS gradient               =         0.0034418718
  Conv. limit for RMS grad.  =         1.0000000000
  Conv. in RMS gradients     =                  YES
 ---------------------------------------------------

 --------------------------
 OPTIMIZATION STEP:     37
 --------------------------

 Spin 1

 Number of electrons:                                                        719
 Number of occupied orbitals:                                                719
 Number of molecular orbitals:                                               719

 Spin 2

 Number of electrons:                                                        719
 Number of occupied orbitals:                                                719
 Number of molecular orbitals:                                               719

 Number of orbital functions:                                               2718
 Number of independent orbital functions:                                   2718

 Extrapolation method: PS Nth order


 SCF WAVEFUNCTION OPTIMIZATION

  ----------------------------------- OT ---------------------------------------
  Minimizer      : CG                  : conjugate gradient
  Preconditioner : FULL_ALL            : diagonalization, state selective
  Precond_solver : DEFAULT
  Line search    : 3PNT                : 3 energies
  stepsize       :    0.15000000                  energy_gap     :    0.08000000
  eps_taylor     :   0.10000E-15                  max_taylor     :             4
  ----------------------------------- OT ---------------------------------------

  Step     Update method      Time    Convergence         Total energy    Change
  ------------------------------------------------------------------------------
     1 OT CG       0.12E+00   11.5     0.00040766     -8144.2353632040 -8.14E+03
     2 OT LS       0.17E+00    6.9                    -8144.2936944894
     3 OT LS       0.24E+00    6.9                    -8144.3060720837
     4 OT CG       0.19E+00   13.9     0.00035366     -8144.3129484859 -7.76E-02
     5 OT LS       0.27E+00    6.9                    -8144.3557118876
     6 OT LS       0.18E+00    6.9                    -8144.3444369414
     7 OT CG       0.14E+00   13.9     0.00014358     -8144.3560249126 -4.31E-02
     8 OT LS       0.20E+00    6.9                    -8144.3592749894
     9 OT LS       0.99E-01    6.9                    -8144.3560132646
    10 OT CG       0.79E-01   13.9     0.00005462     -8144.3600059760 -3.98E-03
    11 OT LS       0.11E+00    6.9                    -8144.3606273561
    12 OT LS       0.12E+00    6.9                    -8144.3607081776
    13 OT CG       0.97E-01   13.9     0.00003122     -8144.3607138305 -7.08E-04
    14 OT LS       0.14E+00    6.9                    -8144.3609770294
    15 OT LS       0.17E+00    6.9                    -8144.3610226692
    16 OT CG       0.13E+00   13.9     0.00001723     -8144.3610346695 -3.21E-04
    17 OT LS       0.19E+00    6.9                    -8144.3611258727
    18 OT LS       0.16E+00    6.9                    -8144.3611259401
    19 OT CG       0.13E+00   13.9     0.00001086     -8144.3611285074 -9.38E-05
    20 OT LS       0.18E+00    6.9                    -8144.3611757323
    21 OT LS       0.31E+00    6.9                    -8144.3611876266
    22 OT CG       0.25E+00   13.9     0.00001225     -8144.3611998360 -7.13E-05
    23 OT LS       0.35E+00    6.9                    -8144.3612096086
    24 OT LS       0.13E+00    6.9                    -8144.3611383655
    25 OT CG       0.11E+00   13.8     0.00000774     -8144.3612386006 -3.88E-05

  *** SCF run converged in    25 steps ***


  Electronic density on regular grids:      -1437.9999922969        0.0000077031
  Core density on regular grids:             1437.9999996445       -0.0000003555
  Total charge density on r-space grids:        0.0000073476
  Total charge density g-space grids:           0.0000073476

  Overlap energy of the core charge distribution:               0.00000713375669
  Self energy of the core charge distribution:             -14650.93922905635191
  Core Hamiltonian energy:                                   4107.36869461258721
  Hartree energy:                                            3440.79425343712046
  Exchange-correlation energy:                              -1042.45756510274782
  Dispersion energy:                                           -0.58149069988597

  DFT+U energy:                                                 1.45409107487260

  Total energy:                                             -8144.36123860064890

  outer SCF iter =    1 RMS gradient =   0.77E-05 energy =      -8144.3612386006
  outer SCF loop converged in   1 iterations or   25 steps


  Integrated absolute spin density  :                             234.9942713541
  Ideal and single determinant S**2 :                    0.000000     127.888488

 ENERGY| Total FORCE_EVAL ( QS ) energy (a.u.):            -8144.361255105674900


 --------  Informations at step =    37 ------------
  Optimization Method        =                 BFGS
  Total Energy               =     -8144.3612551057
  Real energy change         =         0.0050038158
  Predicted change in energy =        -0.0069651982
  Scaling factor             =         0.5838488333
  Step size                  =         0.1014782254
  Trust radius               =         0.4724315332
  Decrease in energy         =                   NO
  Used time                  =              267.244

  Convergence check :
  Max. step size             =         0.1014782254
  Conv. limit for step size  =         1.0000000000
  Convergence in step size   =                  YES
  RMS step size              =         0.0121030261
  Conv. limit for RMS step   =         1.0000000000
  Convergence in RMS step    =                  YES
  Max. gradient              =         0.0312771009
  Conv. limit for gradients  =         0.0100000000
  Conv. for gradients        =                   NO
  RMS gradient               =         0.0041411587
  Conv. limit for RMS grad.  =         1.0000000000
  Conv. in RMS gradients     =                  YES
 ---------------------------------------------------

 --------------------------
 OPTIMIZATION STEP:     38
 --------------------------

 Spin 1

 Number of electrons:                                                        719
 Number of occupied orbitals:                                                719
 Number of molecular orbitals:                                               719

 Spin 2

 Number of electrons:                                                        719
 Number of occupied orbitals:                                                719
 Number of molecular orbitals:                                               719

 Number of orbital functions:                                               2718
 Number of independent orbital functions:                                   2718

 Extrapolation method: PS Nth order


 SCF WAVEFUNCTION OPTIMIZATION

  ----------------------------------- OT ---------------------------------------
  Minimizer      : CG                  : conjugate gradient
  Preconditioner : FULL_ALL            : diagonalization, state selective
  Precond_solver : DEFAULT
  Line search    : 3PNT                : 3 energies
  stepsize       :    0.15000000                  energy_gap     :    0.08000000
  eps_taylor     :   0.10000E-15                  max_taylor     :             4
  ----------------------------------- OT ---------------------------------------

  Step     Update method      Time    Convergence         Total energy    Change
  ------------------------------------------------------------------------------
     1 OT CG       0.12E+00   11.5     0.00021028     -8144.3349792385 -8.14E+03
     2 OT LS       0.17E+00    6.9                    -8144.3500679449
     3 OT LS       0.22E+00    6.9                    -8144.3529448663
     4 OT CG       0.18E+00   13.8     0.00017215     -8144.3540302006 -1.91E-02
     5 OT LS       0.25E+00    6.9                    -8144.3651192069
     6 OT LS       0.19E+00    6.9                    -8144.3642931753
     7 OT CG       0.15E+00   13.9     0.00007393     -8144.3651961745 -1.12E-02
     8 OT LS       0.22E+00    6.9                    -8144.3660152351
     9 OT LS       0.10E+00    6.9                    -8144.3649564802
    10 OT CG       0.82E-01   13.9     0.00003049     -8144.3662915671 -1.10E-03
    11 OT LS       0.11E+00    6.9                    -8144.3664961299
    12 OT LS       0.13E+00    6.9                    -8144.3665257395
    13 OT CG       0.10E+00   13.9     0.00001821     -8144.3665293617 -2.38E-04
    14 OT LS       0.15E+00    6.9                    -8144.3666146271
    15 OT LS       0.14E+00    6.9                    -8144.3666205637
    16 OT CG       0.11E+00   13.9     0.00000830     -8144.3666207024 -9.13E-05

  *** SCF run converged in    16 steps ***


  Electronic density on regular grids:      -1437.9999923068        0.0000076932
  Core density on regular grids:             1437.9999996446       -0.0000003554
  Total charge density on r-space grids:        0.0000073378
  Total charge density g-space grids:           0.0000073378

  Overlap energy of the core charge distribution:               0.00000571235582
  Self energy of the core charge distribution:             -14650.93922905635191
  Core Hamiltonian energy:                                   4107.31551638444489
  Hartree energy:                                            3440.82718611008659
  Exchange-correlation energy:                              -1042.44085388300937
  Dispersion energy:                                           -0.58362873560998

  DFT+U energy:                                                 1.45438276571186

  Total energy:                                             -8144.36662070237253

  outer SCF iter =    1 RMS gradient =   0.83E-05 energy =      -8144.3666207024
  outer SCF loop converged in   1 iterations or   16 steps


  Integrated absolute spin density  :                             235.0032027352
  Ideal and single determinant S**2 :                    0.000000     127.892647

 ENERGY| Total FORCE_EVAL ( QS ) energy (a.u.):            -8144.366640906953762


 --------  Informations at step =    38 ------------
  Optimization Method        =                 BFGS
  Total Energy               =     -8144.3666409070
  Real energy change         =        -0.0053858013
  Predicted change in energy =        -0.0052120600
  Scaling factor             =         0.5838488333
  Step size                  =         0.0526384275
  Trust radius               =         0.4724315332
  Decrease in energy         =                  YES
  Used time                  =              183.785

  Convergence check :
  Max. step size             =         0.0526384275
  Conv. limit for step size  =         1.0000000000
  Convergence in step size   =                  YES
  RMS step size              =         0.0087399859
  Conv. limit for RMS step   =         1.0000000000
  Convergence in RMS step    =                  YES
  Max. gradient              =         0.0080791383
  Conv. limit for gradients  =         0.0100000000
  Conv. in gradients         =                  YES
  RMS gradient               =         0.0014996491
  Conv. limit for RMS grad.  =         1.0000000000
  Conv. in RMS gradients     =                  YES
 ---------------------------------------------------

 *******************************************************************************
 ***                    GEOMETRY OPTIMIZATION COMPLETED                      ***
 *******************************************************************************

                    Reevaluating energy at the minimum

 Spin 1

 Number of electrons:                                                        719
 Number of occupied orbitals:                                                719
 Number of molecular orbitals:                                               719

 Spin 2

 Number of electrons:                                                        719
 Number of occupied orbitals:                                                719
 Number of molecular orbitals:                                               719

 Number of orbital functions:                                               2718
 Number of independent orbital functions:                                   2718

 Extrapolation method: PS Nth order


 SCF WAVEFUNCTION OPTIMIZATION

  ----------------------------------- OT ---------------------------------------
  Minimizer      : CG                  : conjugate gradient
  Preconditioner : FULL_ALL            : diagonalization, state selective
  Precond_solver : DEFAULT
  Line search    : 3PNT                : 3 energies
  stepsize       :    0.15000000                  energy_gap     :    0.08000000
  eps_taylor     :   0.10000E-15                  max_taylor     :             4
  ----------------------------------- OT ---------------------------------------

  Step     Update method      Time    Convergence         Total energy    Change
  ------------------------------------------------------------------------------
     1 OT CG       0.12E+00   11.5     0.00016974     -8144.3458412237 -8.14E+03
     2 OT LS       0.17E+00    6.9                    -8144.3558121765
     3 OT LS       0.23E+00    6.9                    -8144.3578170589
     4 OT CG       0.18E+00   13.8     0.00013915     -8144.3587297627 -1.29E-02
     5 OT LS       0.26E+00    6.9                    -8144.3659397398
     6 OT LS       0.19E+00    6.9                    -8144.3651052301
     7 OT CG       0.15E+00   13.8     0.00005313     -8144.3659518658 -7.22E-03
     8 OT LS       0.21E+00    6.9                    -8144.3663467538
     9 OT LS       0.10E+00    6.9                    -8144.3657809982
    10 OT CG       0.80E-01   13.8     0.00002209     -8144.3665023432 -5.50E-04
    11 OT LS       0.11E+00    6.9                    -8144.3666067047
    12 OT LS       0.13E+00    6.9                    -8144.3666216110
    13 OT CG       0.10E+00   13.8     0.00001234     -8144.3666233192 -1.21E-04
    14 OT LS       0.14E+00    6.9                    -8144.3666614826
    15 OT LS       0.14E+00    6.9                    -8144.3666643261
    16 OT CG       0.11E+00   13.8     0.00000494     -8144.3666643611 -4.10E-05

  *** SCF run converged in    16 steps ***


  Electronic density on regular grids:      -1437.9999923068        0.0000076932
  Core density on regular grids:             1437.9999996446       -0.0000003554
  Total charge density on r-space grids:        0.0000073378
  Total charge density g-space grids:           0.0000073378

  Overlap energy of the core charge distribution:               0.00000571235582
  Self energy of the core charge distribution:             -14650.93922905635191
  Core Hamiltonian energy:                                   4107.32815862321695
  Hartree energy:                                            3440.81664665838480
  Exchange-correlation energy:                              -1042.44323787555186
  Dispersion energy:                                           -0.58362873560998

  DFT+U energy:                                                 1.45462031241769

  Total energy:                                             -8144.36666436113865

  outer SCF iter =    1 RMS gradient =   0.49E-05 energy =      -8144.3666643611
  outer SCF loop converged in   1 iterations or   16 steps


  Integrated absolute spin density  :                             235.0040476220
  Ideal and single determinant S**2 :                    0.000000     127.893025

 ENERGY| Total FORCE_EVAL ( QS ) energy (a.u.):            -8144.366664361138646


 -------------------------------------------------------------------------------
 -                                                                             -
 -                                DBCSR STATISTICS                             -
 -                                                                             -
 -------------------------------------------------------------------------------
 COUNTER                                    TOTAL       BLAS       SMM       ACC
 flops     5 x    15 x    15              3780000       0.0%    100.0%      0.0%
 flops    13 x    15 x    15             43524000       0.0%    100.0%      0.0%
 flops    26 x    15 x    15             50544000       0.0%    100.0%      0.0%
 flops     5 x    32 x    32            378470400       0.0%    100.0%      0.0%
 flops     5 x    15 x     5           1131165000       0.0%    100.0%      0.0%
 flops     5 x     5 x   160           3921456000       0.0%    100.0%      0.0%
 flops     5 x     5 x   175           4289092500       0.0%    100.0%      0.0%
 flops    13 x    32 x    32           4357816320       0.0%    100.0%      0.0%
 flops    26 x    32 x    32           5060689920       0.0%    100.0%      0.0%
 flops     5 x     5 x   192           9411494400       0.0%    100.0%      0.0%
 flops     5 x    15 x    13          13024557000       0.0%    100.0%      0.0%
 flops    13 x    15 x     5          13024557000       0.0%    100.0%      0.0%
 flops     5 x    15 x    26          15125292000       0.0%    100.0%      0.0%
 flops    26 x    15 x     5          15125292000       0.0%    100.0%      0.0%
 flops    13 x     5 x   160          43078297600       0.0%    100.0%      0.0%
 flops     5 x    13 x   160          43122435200       0.0%    100.0%      0.0%
 flops    13 x     5 x   175          47116888000       0.0%    100.0%      0.0%
 flops     5 x    13 x   175          47165163500       0.0%    100.0%      0.0%
 flops     5 x    26 x   160          49963763200       0.0%    100.0%      0.0%
 flops    26 x     5 x   160          50140313600       0.0%    100.0%      0.0%
 flops     5 x    32 x     5          53089344000       0.0%    100.0%      0.0%
 flops     5 x    26 x   175          54647866000       0.0%    100.0%      0.0%
 flops    26 x     5 x   175          54840968000       0.0%    100.0%      0.0%
 flops   160 x   160 x   160          67829760000     100.0%      0.0%      0.0%
 flops   160 x   160 x   175          74188800000     100.0%      0.0%      0.0%
 flops   160 x   175 x   160          74188800000     100.0%      0.0%      0.0%
 flops   175 x   160 x   160          74188800000     100.0%      0.0%      0.0%
 flops   160 x   175 x   175          81144000000     100.0%      0.0%      0.0%
 flops   175 x   160 x   175          81144000000     100.0%      0.0%      0.0%
 flops   175 x   175 x   160          81144000000     100.0%      0.0%      0.0%
 flops   175 x   175 x   175          88751250000     100.0%      0.0%      0.0%
 flops    13 x     5 x   192         103387914240       0.0%    100.0%      0.0%
 flops     5 x    13 x   192         103493844480       0.0%    100.0%      0.0%
 flops     5 x    26 x   192         119913031680       0.0%    100.0%      0.0%
 flops    26 x     5 x   192         120336752640       0.0%    100.0%      0.0%
 flops   160 x   160 x   678         144686284800     100.0%      0.0%      0.0%
 flops    13 x    15 x    13         149968470600       0.0%    100.0%      0.0%
 flops   160 x   175 x   678         158250624000     100.0%      0.0%      0.0%
 flops   175 x   160 x   678         158250624000     100.0%      0.0%      0.0%
 flops   160 x   160 x   192         162791424000     100.0%      0.0%      0.0%
 flops   160 x   192 x   160         162791424000     100.0%      0.0%      0.0%
 flops   192 x   160 x   160         162791424000     100.0%      0.0%      0.0%
 flops   175 x   175 x   678         173086620000     100.0%      0.0%      0.0%
 flops    26 x    15 x    13         174156933600       0.0%    100.0%      0.0%
 flops    13 x    15 x    26         174156933600       0.0%    100.0%      0.0%
 flops   160 x   175 x   192         178053120000     100.0%      0.0%      0.0%
 flops   160 x   192 x   175         178053120000     100.0%      0.0%      0.0%
 flops   175 x   160 x   192         178053120000     100.0%      0.0%      0.0%
 flops   175 x   192 x   160         178053120000     100.0%      0.0%      0.0%
 flops   192 x   160 x   175         178053120000     100.0%      0.0%      0.0%
 flops   192 x   175 x   160         178053120000     100.0%      0.0%      0.0%
 flops   175 x   175 x   192         194745600000     100.0%      0.0%      0.0%
 flops   175 x   192 x   175         194745600000     100.0%      0.0%      0.0%
 flops   192 x   175 x   175         194745600000     100.0%      0.0%      0.0%
 flops    26 x    15 x    26         202246761600       0.0%    100.0%      0.0%
 flops   678 x   160 x   160         210086707200     100.0%      0.0%      0.0%
 flops   678 x   160 x   175         229782336000     100.0%      0.0%      0.0%
 flops   678 x   175 x   160         229782336000     100.0%      0.0%      0.0%
 flops   678 x   160 x   678         231827834880     100.0%      0.0%      0.0%
 flops   678 x   175 x   175         251324430000     100.0%      0.0%      0.0%
 flops   678 x   175 x   678         253561694400     100.0%      0.0%      0.0%
 flops   160 x   192 x   678         347247083520     100.0%      0.0%      0.0%
 flops   192 x   160 x   678         347247083520     100.0%      0.0%      0.0%
 flops   175 x   192 x   678         379801497600     100.0%      0.0%      0.0%
 flops   192 x   175 x   678         379801497600     100.0%      0.0%      0.0%
 flops   192 x   192 x   160         390699417600     100.0%      0.0%      0.0%
 flops   160 x   192 x   192         390699417600     100.0%      0.0%      0.0%
 flops   192 x   160 x   192         390699417600     100.0%      0.0%      0.0%
 flops   192 x   192 x   175         427327488000     100.0%      0.0%      0.0%
 flops   175 x   192 x   192         427327488000     100.0%      0.0%      0.0%
 flops   192 x   175 x   192         427327488000     100.0%      0.0%      0.0%
 flops   160 x   160 x   680         435339264000     100.0%      0.0%      0.0%
 flops   160 x   175 x   680         476152320000     100.0%      0.0%      0.0%
 flops   175 x   160 x   680         476152320000     100.0%      0.0%      0.0%
 flops    13 x    13 x   160         501606168960       0.0%    100.0%      0.0%
 flops   678 x   160 x   192         504208097280     100.0%      0.0%      0.0%
 flops   678 x   192 x   160         504208097280     100.0%      0.0%      0.0%
 flops   175 x   175 x   680         520791600000     100.0%      0.0%      0.0%
 flops    13 x    13 x   175         548631747300       0.0%    100.0%      0.0%
 flops   678 x   175 x   192         551477606400     100.0%      0.0%      0.0%
 flops   678 x   192 x   175         551477606400     100.0%      0.0%      0.0%
 flops   678 x   192 x   678         556386803712     100.0%      0.0%      0.0%
 flops    26 x    13 x   160         575854439680       0.0%    100.0%      0.0%
 flops    13 x    26 x   160         576772501760       0.0%    100.0%      0.0%
 flops     5 x    32 x    13         611285875200       0.0%    100.0%      0.0%
 flops    13 x    32 x     5         611285875200       0.0%    100.0%      0.0%
 flops    26 x    13 x   175         629840793400       0.0%    100.0%      0.0%
 flops    13 x    26 x   175         630844923800       0.0%    100.0%      0.0%
 flops   680 x   160 x   160         632119296000     100.0%      0.0%      0.0%
 flops    26 x    26 x   160         681661094400       0.0%    100.0%      0.0%
 flops   680 x   160 x   175         691380480000     100.0%      0.0%      0.0%
 flops   680 x   175 x   160         691380480000     100.0%      0.0%      0.0%
 flops   678 x   160 x   680         697535078400     100.0%      0.0%      0.0%
 flops   680 x   160 x   678         697535078400     100.0%      0.0%      0.0%
 flops     5 x    32 x    26         709880371200       0.0%    100.0%      0.0%
 flops    26 x    32 x     5         709880371200       0.0%    100.0%      0.0%
 flops    26 x    26 x   175         745566822000       0.0%    100.0%      0.0%
 flops   680 x   175 x   175         756197400000     100.0%      0.0%      0.0%
 flops   678 x   175 x   680         762928992000     100.0%      0.0%      0.0%
 flops   680 x   175 x   678         762928992000     100.0%      0.0%      0.0%
 flops   192 x   192 x   678         833393000448     100.0%      0.0%      0.0%
 flops   192 x   192 x   192         937678602240     100.0%      0.0%      0.0%
 flops   160 x   192 x   680        1044814233600     100.0%      0.0%      0.0%
 flops   192 x   160 x   680        1044814233600     100.0%      0.0%      0.0%
 flops   175 x   192 x   680        1142765568000     100.0%      0.0%      0.0%
 flops   192 x   175 x   680        1142765568000     100.0%      0.0%      0.0%
 flops    13 x    13 x   192        1203854805504       0.0%    100.0%      0.0%
 flops   678 x   192 x   192        1210099433472     100.0%      0.0%      0.0%
 flops    26 x    13 x   192        1382050655232       0.0%    100.0%      0.0%
 flops    13 x    26 x   192        1384254004224       0.0%    100.0%      0.0%
 flops   680 x   192 x   160        1517086310400     100.0%      0.0%      0.0%
 flops   680 x   160 x   192        1517086310400     100.0%      0.0%      0.0%
 flops    26 x    26 x   192        1635986626560       0.0%    100.0%      0.0%
 flops   680 x   192 x   175        1659313152000     100.0%      0.0%      0.0%
 flops   680 x   175 x   192        1659313152000     100.0%      0.0%      0.0%
 flops   680 x   192 x   678        1674084188160     100.0%      0.0%      0.0%
 flops   678 x   192 x   680        1674084188160     100.0%      0.0%      0.0%
 flops   680 x   160 x   680        2098778112000     100.0%      0.0%      0.0%
 flops   680 x   175 x   680        2295538560000     100.0%      0.0%      0.0%
 flops   192 x   192 x   680        2507554160640     100.0%      0.0%      0.0%
 flops   680 x   192 x   192        3641007144960     100.0%      0.0%      0.0%
 flops   680 x   192 x   680        5037067468800     100.0%      0.0%      0.0%
 flops    13 x    32 x    13        7038520220160       0.0%    100.0%      0.0%
 flops    26 x    32 x    13        8173765416960       0.0%    100.0%      0.0%
 flops    13 x    32 x    26        8173765416960       0.0%    100.0%      0.0%
 flops    26 x    32 x    26        9492114677760       0.0%    100.0%      0.0%
 flops inhomo. stacks                           0       0.0%      0.0%      0.0%
 flops total                        99.310966E+12      52.0%     48.0%      0.0%
 flops max/rank                      6.688366E+12      52.8%     47.2%      0.0%
 matmuls inhomo. stacks                         0       0.0%      0.0%      0.0%
 matmuls total                         2342189472       0.1%     99.9%      0.0%
 number of processed stacks               6205536      20.7%     79.3%      0.0%
 average stack size                                     1.0     475.7       0.0
 marketing flops                   110.942235E+12
 -------------------------------------------------------------------------------
 # multiplications                          25778
 max memory usage/rank               1.112297E+09
 # max total images/rank                        1
 # max 3D layers                                1
 # MPI messages exchanged                 2474688
 MPI messages size (bytes):
  total size                         2.278399E+12
  min size                           0.000000E+00
  max size                           3.699200E+06
  average size                     920.681500E+03
 MPI breakdown and total messages size (bytes):
             size <=      128               10560                        0
       128 < size <=     8192                   0                        0
      8192 < size <=    32768                   0                        0
     32768 < size <=   131072                 960                 43685760
    131072 < size <=  4194304             2463168            2278290272928
   4194304 < size <= 16777216                   0                        0
  16777216 < size                               0                        0
 -------------------------------------------------------------------------------
 
 MEMORY| Estimated peak process memory [MiB]                                1063

 -------------------------------------------------------------------------------
 -                                                                             -
 -                         MESSAGE PASSING PERFORMANCE                         -
 -                                                                             -
 -------------------------------------------------------------------------------

 ROUTINE             CALLS      AVE VOLUME [Bytes]
 MP_Group             2358
 MP_Bcast            63506                  22013.
 MP_Allreduce       298550                    562.
 MP_Sync              1194
 MP_Alltoall        122052                3032209.
 MP_SendRecv         24964                 501992.
 MP_ISendRecv       127350                 105472.
 MP_Wait           1513671
 MP_comm_split        1189
 MP_ISend           538228                 471414.
 MP_IRecv           538228                 466933.
 MP_Recv              3384                 600339.
 MP_Memory         1123068
 -------------------------------------------------------------------------------


 -------------------------------------------------------------------------------
 -                                                                             -
 -                           R E F E R E N C E S                               -
 -                                                                             -
 -------------------------------------------------------------------------------
 
 CP2K version 6.1, the CP2K developers group (2018).
 CP2K is freely available from https://www.cp2k.org/ .

 Schuett, Ole; Messmer, Peter; Hutter, Juerg; VandeVondele, Joost. 
 Electronic Structure Calculations on Graphics Processing Units, John Wiley & Sons, Ltd, 173-190 (2016). 
 GPU-Accelerated Sparse Matrix-Matrix Multiplication for Linear Scaling Density Functional Theory.
 http://dx.doi.org/10.1002/9781118670712.ch8


 Borstnik, U; VandeVondele, J; Weber, V; Hutter, J. 
 PARALLEL COMPUTING, 40 (5-6), 47-58 (2014). 
 Sparse matrix multiplication: The distributed block-compressed sparse
 row library.
 http://dx.doi.org/10.1016/j.parco.2014.03.012


 Hutter, J; Iannuzzi, M; Schiffmann, F; VandeVondele, J. 
 WILEY INTERDISCIPLINARY REVIEWS-COMPUTATIONAL MOLECULAR SCIENCE, 4 (1), 15-25 (2014). 
 CP2K: atomistic simulations of condensed matter systems.
 http://dx.doi.org/10.1002/wcms.1159


 Grimme, S; Ehrlich, S; Goerigk, L. 
 JOURNAL OF COMPUTATIONAL CHEMISTRY, 32, 1456 (2011). 
 Effect of the damping function in dispersion corrected density functional theory.
 http://dx.doi.org/10.1002/jcc.21759


 Grimme, S; Antony, J; Ehrlich, S; Krieg, H. 
 JOURNAL OF CHEMICAL PHYSICS, 132 (15), 154104 (2010). 
 A consistent and accurate ab initio parametrization of density
 functional dispersion correction (DFT-D) for the 94 elements H-Pu.
 http://dx.doi.org/10.1063/1.3382344


 VandeVondele, J; Hutter, J. 
 JOURNAL OF CHEMICAL PHYSICS, 127 (11), 114105 (2007). 
 Gaussian basis sets for accurate calculations on molecular systems in
 gas and condensed phases.
 http://dx.doi.org/10.1063/1.2770708


 Krack, M. 
 THEORETICAL CHEMISTRY ACCOUNTS, 114 (1-3), 145-152 (2005). 
 Pseudopotentials for H to Kr optimized for gradient-corrected
 exchange-correlation functionals.
 http://dx.doi.org/10.1007/s00214-005-0655-y


 VandeVondele, J; Krack, M; Mohamed, F; Parrinello, M; Chassaing, T;
 Hutter, J. COMPUTER PHYSICS COMMUNICATIONS, 167 (2), 103-128 (2005). 
 QUICKSTEP: Fast and accurate density functional calculations using a
 mixed Gaussian and plane waves approach.
 http://dx.doi.org/10.1016/j.cpc.2004.12.014


 Frigo, M; Johnson, SG. 
 PROCEEDINGS OF THE IEEE, 93 (2), 216-231 (2005). 
 The design and implementation of FFTW3.
 http://dx.doi.org/10.1109/JPROC.2004.840301


 VandeVondele, J; Hutter, J. 
 JOURNAL OF CHEMICAL PHYSICS, 118 (10), 4365-4369 (2003). 
 An efficient orbital transformation method for electronic structure
 calculations.
 http://dx.doi.org/10.1063/1.1543154


 Hartwigsen, C; Goedecker, S; Hutter, J. 
 PHYSICAL REVIEW B, 58 (7), 3641-3662 (1998). 
 Relativistic separable dual-space Gaussian pseudopotentials from H to Rn.
 http://dx.doi.org/10.1103/PhysRevB.58.3641


 Dudarev, SL; Botton, GA; Savrasov, SY; Humphreys, CJ; Sutton, AP. 
 PHYSICAL REVIEW B, 57 (3), 1505-1509 (1998). 
 Electron-energy-loss spectra and the structural stability of
 nickel oxide: An LSDA+U study.
 http://dx.doi.org/10.1103/PhysRevB.57.1505


 Lippert, G; Hutter, J; Parrinello, M. 
 MOLECULAR PHYSICS, 92 (3), 477-487 (1997). 
 A hybrid Gaussian and plane wave density functional scheme.
 http://dx.doi.org/10.1080/002689797170220


 Dudarev, SL; Manh, DN; Sutton, AP. 
 PHILOSOPHICAL MAGAZINE B, 75 (5), 613-628 (1997). 
 Effect of Mott-Hubbard correlations on the electronic
 structure and structural stability of uranium dioxide.
 http://dx.doi.org/10.1080/13642819708202343


 Perdew, JP; Burke, K; Ernzerhof, M. 
 PHYSICAL REVIEW LETTERS, 77 (18), 3865-3868 (1996). 
 Generalized gradient approximation made simple.
 http://dx.doi.org/10.1103/PhysRevLett.77.3865


 Goedecker, S; Teter, M; Hutter, J. 
 PHYSICAL REVIEW B, 54 (3), 1703-1710 (1996). 
 Separable dual-space Gaussian pseudopotentials.
 http://dx.doi.org/10.1103/PhysRevB.54.1703


 -------------------------------------------------------------------------------
 -                                                                             -
 -                                T I M I N G                                  -
 -                                                                             -
 -------------------------------------------------------------------------------
 SUBROUTINE                       CALLS  ASD         SELF TIME        TOTAL TIME
                                MAXIMUM       AVERAGE  MAXIMUM  AVERAGE  MAXIMUM
 CP2K                                 1  1.0     0.04     0.07 10945.97 10946.71
 cp_geo_opt                           1  2.0     0.00     0.00 10944.94 10945.67
 geoopt_bfgs                          1  3.0     0.04     0.05 10944.94 10945.67
 cp_eval_at                          40  4.0     0.01     0.01 10941.38 10942.12
 qs_forces                           39  5.0     0.01     0.01 10778.21 10778.93
 qs_energies                         40  6.0     0.01     0.01 10296.20 10296.88
 scf_env_do_scf                      40  7.0     0.01     0.01  9823.24  9823.90
 scf_env_do_scf_inner_loop          982  8.0     0.08     0.29  9384.75  9385.63
 qs_rho_update_rho                 1022  9.0     0.02     0.02  6337.30  6338.13
 calculate_rho_elec                2044 10.0  4649.39  5023.65  6337.28  6338.11
 rebuild_ks_matrix                 1021  9.9     0.01     0.01  3520.51  3521.62
 qs_ks_build_kohn_sham_matrix      1021 10.9     0.25     0.30  3520.50  3521.61
 qs_ks_update_qs_env               1022  9.0     0.02     0.03  2946.95  2947.94
 sum_up_and_integrate               393 11.7    15.39    15.56  2431.51  2431.97
 integrate_v_rspace                 786 12.7  1800.18  2020.10  2416.11  2416.50
 density_rs2pw                     2044 11.0     0.17     0.18  1558.63  1782.33
 pw_transfer                      18669 12.7     2.14     2.22  1176.74  1183.79
 fft_wrap_pw1pw2                  16627 13.6     0.20     0.21  1139.67  1146.65
 fft_wrap_pw1pw2_200               5307 14.4   143.37   149.13  1064.54  1073.54
 rs_pw_transfer                   14229 12.7     0.20     0.23   818.68  1039.88
 fft3d_ps                         16627 15.6   466.31   470.61   809.03   816.60
 qs_vxc_create                     1021 11.9     0.03     0.03   780.01   782.17
 rs_pw_transfer_RS2PW_200          2084 13.0    92.74   119.57   560.64   778.86
 mp_waitany                      126100 14.7   513.01   726.84   513.01   726.84
 qs_scf_new_mos                     982  9.0     0.01     0.02   627.33   629.17
 qs_scf_loop_do_ot                  982 10.0     0.03     0.05   627.32   629.16
 dbcsr_multiply_generic           25778 13.7     1.59     1.69   620.37   625.94
 qs_ks_update_qs_env_forces          39  6.0     0.00     0.00   578.81   578.93
 ot_scf_mini                        982 11.0     0.13     0.16   555.72   556.75
 xc_rho_set_and_dset_create        1021 13.9    55.65    56.67   483.33   488.28
 xc_vxc_pw_create                   393 12.7   191.77   194.50   485.12   487.26
 multiply_cannon                  25778 14.7     3.66     4.60   420.66   446.08
 init_scf_loop                       40  8.0     0.00     0.01   437.48   437.52
 potential_pw2rs                    786 13.7     0.77     0.83   366.04   367.26
 rs_distribute_matrix              2908 11.7    24.23    36.10   292.91   364.78
 mp_alltoall_d11v                 26513 15.3   260.72   348.96   260.72   348.96
 multiply_cannon_multrec         103112 15.7   292.07   310.37   292.32   310.59
 xc_exc_calc                        628 13.0     1.96     1.97   294.87   294.89
 init_scf_run                        40  7.0     0.00     0.00   273.99   274.02
 scf_env_initial_rho_setup           40  8.0     0.00     0.01   273.99   274.01
 wfi_extrapolate                     40  9.0     0.01     0.02   265.69   265.71
 pw_nn_compose_r                  11312 14.5   192.17   199.98   216.67   228.69
 -------------------------------------------------------------------------------

 The number of warnings for this run is : 0
 
 -------------------------------------------------------------------------------
  **** **** ******  **  PROGRAM ENDED AT                 2020-10-07 20:15:12.582
 ***** ** ***  *** **   PROGRAM RAN ON                                 irene4961
 **    ****   ******    PROGRAM RAN BY                                  marticar
 ***** **    ** ** **   PROGRAM PROCESS ID                                101283
  **** **  *******  **  PROGRAM STOPPED IN /ccc/scratch/cont003/gen0609/marticar
                                           /684124
