     168
 i =        1, E =     -8144.3550630247
 Fe         5.0938794100       11.8196869300        0.3885799900
 Fe         7.6575796300        7.3792284900        0.3885799900
 Fe        10.2212798400        2.9387700600        0.3885799900
 Fe        -0.0335205200       11.8196869300        0.3885799900
 Fe         2.5301797000        7.3792284900        0.3885799900
 Fe         5.0938799200        2.9387700600        0.3885799900
 Fe        -5.1609204400       11.8196869300        0.3885799900
 Fe        -2.5972202200        7.3792284900        0.3885799900
 Fe        -0.0335200000        2.9387700600        0.3885799900
  O         8.4519195100        8.9577468800        1.1642700400
  O        11.0156197300        4.5172884400        1.1642700400
  O        13.5793199500        0.0768300000        1.1642700400
  O         3.3245195900        8.9577468800        1.1642700400
  O         5.8882198100        4.5172884400        1.1642700400
  O         8.4519200300        0.0768300000        1.1642700400
  O        -1.8028803300        8.9577468800        1.1642700400
  O         0.7608198900        4.5172884400        1.1642700400
  O         3.3245201100        0.0768300000        1.1642700400
  O         8.4568493000       11.7183869300        1.1650400200
  O        11.0205495200        7.2779284900        1.1650400200
  O        13.5842497300        2.8374700500        1.1650400200
  O         3.3294493700       11.7183869300        1.1650400200
  O         5.8931495900        7.2779284900        1.1650400200
  O         8.4568498100        2.8374700500        1.1650400200
  O        -1.7979505500       11.7183869300        1.1650400200
  O         0.7657496700        7.2779284900        1.1650400200
  O         3.3294498900        2.8374700500        1.1650400200
  O         6.0627194200       10.3425368500        1.1660399400
  O         8.6264196400        5.9020784100        1.1660399400
  O        11.1901198600        1.4616199700        1.1660399400
  O         0.9353195000       10.3425368500        1.1660399400
  O         3.4990197200        5.9020784100        1.1660399400
  O         6.0627199400        1.4616199700        1.1660399400
  O        -4.1920804200       10.3425368500        1.1660399400
  O        -1.6283802000        5.9020784100        1.1660399400
  O         0.9353200200        1.4616199700        1.1660399400
 Fe         7.6576695000       13.2997167500        1.9292099500
 Fe        10.2213697200        8.8592583200        1.9292099500
 Fe        12.7850699400        4.4187998800        1.9292099500
 Fe         2.5302695800       13.2997167500        1.9292099500
 Fe         5.0939698000        8.8592583200        1.9292099500
 Fe         7.6576700200        4.4187998800        1.9292099500
 Fe        -2.5971303400       13.2997167500        1.9292099500
 Fe        -0.0334301200        8.8592583200        1.9292099500
 Fe         2.5302701000        4.4187998800        1.9292099500
 Fe         7.6573893600       10.3392168700        2.7128999200
 Fe        10.2210895800        5.8987584300        2.7128999200
 Fe        12.7847898000        1.4582999900        2.7128999200
 Fe         2.5299894400       10.3392168700        2.7128999200
 Fe         5.0936896600        5.8987584300        2.7128999200
 Fe         7.6573898800        1.4582999900        2.7128999200
 Fe        -2.5974104800       10.3392168700        2.7128999200
 Fe        -0.0337102600        5.8987584300        2.7128999200
 Fe         2.5299899600        1.4582999900        2.7128999200
  O         4.0926484105       13.3154902277        3.5121332508
  O         6.6570442528        8.8763898055        3.5129024350
  O         9.2192145453        4.4340293652        3.5124251055
  O        -1.0335670022       13.3152579002        3.5138890640
  O         1.5327557174        8.8730964909        3.5115146402
  O         4.0926742234        4.4289624602        3.5036209129
  O        -6.1615243576       13.3154803002        3.5133327076
  O        -3.5984767357        8.8746890968        3.5124124381
  O        -1.0364160657        4.4339292957        3.5104470404
  O         6.8116492520       11.8716561767        3.4949224258
  O         9.3751830331        7.4312516625        3.4947062882
  O        11.9395002319        2.9913554065        3.4952556034
  O         1.6842996545       11.8730512716        3.4937750584
  O         4.2487872506        7.4346179589        3.4893504484
  O         6.8121368464        2.9906389967        3.4956003061
  O        -3.4436120566       11.8715972311        3.4952796193
  O        -0.8805650752        7.4324257337        3.4921963923
  O         1.6872635991        2.9883764234        3.4971439500
  O         9.4279510957       10.2239946756        3.4867574344
  O        11.9913433100        5.7835359690        3.4866502296
  O        14.5553716353        1.3434150515        3.4874128869
  O         4.3015922583       10.2246182265        3.4856630412
  O         6.8652182103        5.7832927675        3.4860834513
  O         9.4278786597        1.3432690833        3.4871225308
  O        -0.8289214497       10.2245566503        3.4869427354
  O         1.7367744260        5.7834885091        3.4809347482
  O         4.3005384555        1.3442519017        3.4891951042
 Fe         5.0345842912       11.8357522827        4.4207022336
 Fe         7.5990431917        7.3959392803        4.4192416914
 Fe        10.1628999293        2.9553695748        4.4196757833
 Fe        -0.0913209539       11.8340684644        4.4200819408
 Fe         2.4728205418        7.3935885147        4.4231886434
 Fe         5.0351338252        2.9589031060        4.4201343823
 Fe        -5.2198111738       11.8354071938        4.4197095573
 Fe        -2.6541377540        7.3950275927        4.4206620107
 Fe        -0.0906222014        2.9572544450        4.4186185880
 Fe         7.6080263488       13.1846043070        4.8057961572
 Fe        10.1722481101        8.7446005936        4.8061796181
 Fe        12.7369484092        4.3054553612        4.8079409446
 Fe         2.4817747405       13.1840681674        4.8068191557
 Fe         5.0451397067        8.7430249977        4.8064384851
 Fe         7.6065171665        4.3053787526        4.8073851427
 Fe        -2.6460008443       13.1846748079        4.8056159938
 Fe        -0.0816604005        8.7467966072        4.8045173723
 Fe         2.4806704118        4.3062203982        4.8059059412
  O         5.8557925168       10.3473244847        5.8707128171
  O         8.4197648866        5.9059607220        5.8715583962
  O        10.9822958657        1.4654941631        5.8709115365
  O         0.7279646891       10.3491779289        5.8699299571
  O         3.3011340579        5.9154991377        5.7892671681
  O         5.8568072199        1.4649412571        5.8712452196
  O        -4.3991267436       10.3468196072        5.8710390555
  O        -1.8315228909        5.9057013113        5.8713692154
  O         0.7279769414        1.4634647612        5.8724261929
  O         5.9255288347       13.1748188958        5.6861499311
  O         8.4893130884        8.7340315260        5.6861470093
  O        11.0521074251        4.2930178650        5.6856879431
  O         0.7972869179       13.1743563393        5.6850797683
  O         3.3632859577        8.7406454368        5.6797501542
  O         5.9250543131        4.2927853475        5.6910403367
  O        -4.3291336830       13.1741774250        5.6877598373
  O        -1.7656941350        8.7345700744        5.6845428143
  O         0.7960819141        4.2904147424        5.6858841313
  O         3.4657453107       11.7727913141        5.6694501215
  O         6.0356665088        7.3363215103        5.6680823112
  O         8.5936500997        2.8944776986        5.6691587223
  O        -1.6608454913       11.7748361117        5.6692226453
  O         0.8951054399        7.3351446074        5.6588489510
  O         3.4682501100        2.8922482935        5.6735490092
  O        -6.7876954692       11.7747457277        5.6695432802
  O        -4.2243049222        7.3338993037        5.6680641978
  O        -1.6598052595        2.8919639415        5.6674962590
 Fe         7.7818746969       10.2717750606        6.4329724903
 Fe        10.3470163756        5.8316224048        6.4330395249
 Fe        12.9092108338        1.3913446133        6.4329155489
 Fe         2.6538628891       10.2695024424        6.4374192042
 Fe         5.2007802982        5.8382765821        6.4068963961
 Fe         7.7844542084        1.3908107226        6.4328254255
 Fe        -2.4714636834       10.2710986516        6.4334152705
 Fe         0.0997799443        5.8333374268        6.4395824633
 Fe         2.6535329628        1.3905638399        6.4318413486
  O         7.8393183613       10.3827053908        8.2629808299
  H         7.8869068406        9.5550734184        8.7745771820
  H         5.3477801404       10.6128470522        6.6702540100
  O        10.4022737118        5.9419346649        8.2630308916
  H        10.4527574029        5.1145062295        8.7746146595
  H         7.9109994630        6.1750155652        6.6694679712
  O        12.9683705367        1.5014853452        8.2629573524
  H        13.0132880395        0.6740807632        8.7750716181
  H        10.4760350694        1.7320709036        6.6709495907
  O         2.7129327942       10.3851064832        8.2657584403
  H         2.7583238118        9.5519982981        8.7695728994
  H         0.2217358001       10.6120849779        6.6711749228
  O         5.4714815914        5.9519947316        8.2340295217
  H         5.3938657140        5.1263887846        8.7519841787
  H         2.8480539633        6.1629594743        6.6696625274
  O         7.8352141292        1.5029289033        8.2639969483
  H         7.8879788053        0.6748432743        8.7745664439
  H         5.3470801893        1.7301478221        6.6688878398
  O        -2.4175537505       10.3829810135        8.2632112430
  H        -2.3670465470        9.5554033750        8.7747403602
  H        -4.9068953558       10.6122407689        6.6705857282
  O         0.0745210957        5.9398930966        8.2684225252
  H         0.1934764492        5.1130957463        8.7729188077
  H        -2.3410199823        6.1728415912        6.6696315291
  O         2.7179034387        1.5064474207        8.2667581966
  H         2.7574626289        0.6742529400        8.7723171090
  H         0.2191776599        1.7331897340        6.6697749595
  C         3.6731935773        4.3074520541        9.7913286763
  C         3.1222014643        5.3420757479        8.9307272293
  H         4.2673422133        3.5718252872        9.2237709083
  H         4.3049404963        4.7627589458       10.5693133937
  H         2.8450620985        3.7560342611       10.2512762397
  N         2.6475449413        6.1729434750        8.2631220806
     168
 i =        2, E =     -8144.3613458928
 Fe         5.0938794100       11.8196869300        0.3885799900
 Fe         7.6575796300        7.3792284900        0.3885799900
 Fe        10.2212798400        2.9387700600        0.3885799900
 Fe        -0.0335205200       11.8196869300        0.3885799900
 Fe         2.5301797000        7.3792284900        0.3885799900
 Fe         5.0938799200        2.9387700600        0.3885799900
 Fe        -5.1609204400       11.8196869300        0.3885799900
 Fe        -2.5972202200        7.3792284900        0.3885799900
 Fe        -0.0335200000        2.9387700600        0.3885799900
  O         8.4519195100        8.9577468800        1.1642700400
  O        11.0156197300        4.5172884400        1.1642700400
  O        13.5793199500        0.0768300000        1.1642700400
  O         3.3245195900        8.9577468800        1.1642700400
  O         5.8882198100        4.5172884400        1.1642700400
  O         8.4519200300        0.0768300000        1.1642700400
  O        -1.8028803300        8.9577468800        1.1642700400
  O         0.7608198900        4.5172884400        1.1642700400
  O         3.3245201100        0.0768300000        1.1642700400
  O         8.4568493000       11.7183869300        1.1650400200
  O        11.0205495200        7.2779284900        1.1650400200
  O        13.5842497300        2.8374700500        1.1650400200
  O         3.3294493700       11.7183869300        1.1650400200
  O         5.8931495900        7.2779284900        1.1650400200
  O         8.4568498100        2.8374700500        1.1650400200
  O        -1.7979505500       11.7183869300        1.1650400200
  O         0.7657496700        7.2779284900        1.1650400200
  O         3.3294498900        2.8374700500        1.1650400200
  O         6.0627194200       10.3425368500        1.1660399400
  O         8.6264196400        5.9020784100        1.1660399400
  O        11.1901198600        1.4616199700        1.1660399400
  O         0.9353195000       10.3425368500        1.1660399400
  O         3.4990197200        5.9020784100        1.1660399400
  O         6.0627199400        1.4616199700        1.1660399400
  O        -4.1920804200       10.3425368500        1.1660399400
  O        -1.6283802000        5.9020784100        1.1660399400
  O         0.9353200200        1.4616199700        1.1660399400
 Fe         7.6576695000       13.2997167500        1.9292099500
 Fe        10.2213697200        8.8592583200        1.9292099500
 Fe        12.7850699400        4.4187998800        1.9292099500
 Fe         2.5302695800       13.2997167500        1.9292099500
 Fe         5.0939698000        8.8592583200        1.9292099500
 Fe         7.6576700200        4.4187998800        1.9292099500
 Fe        -2.5971303400       13.2997167500        1.9292099500
 Fe        -0.0334301200        8.8592583200        1.9292099500
 Fe         2.5302701000        4.4187998800        1.9292099500
 Fe         7.6573893600       10.3392168700        2.7128999200
 Fe        10.2210895800        5.8987584300        2.7128999200
 Fe        12.7847898000        1.4582999900        2.7128999200
 Fe         2.5299894400       10.3392168700        2.7128999200
 Fe         5.0936896600        5.8987584300        2.7128999200
 Fe         7.6573898800        1.4582999900        2.7128999200
 Fe        -2.5974104800       10.3392168700        2.7128999200
 Fe        -0.0337102600        5.8987584300        2.7128999200
 Fe         2.5299899600        1.4582999900        2.7128999200
  O         4.0934660870       13.3159325149        3.5141791851
  O         6.6672968003        8.8789435699        3.5262906420
  O         9.2195339406        4.4341350877        3.5126471941
  O        -1.0384989950       13.3130156606        3.5055484028
  O         1.5303039866        8.8751406628        3.5106128627
  O         4.1116112413        4.4299455985        3.5250816111
  O        -6.1630240003       13.3141666625        3.5111960012
  O        -3.5986018626        8.8745467497        3.5119924090
  O        -1.0352617711        4.4344109520        3.5125107407
  O         6.8125364517       11.8743284534        3.4917393041
  O         9.3761749646        7.4317478776        3.4932006312
  O        11.9395133703        2.9891553232        3.4987055403
  O         1.6838448874       11.8728197090        3.4949017670
  O         4.2527633034        7.4304755505        3.4966368825
  O         6.8136092683        2.9913626756        3.4978183716
  O        -3.4431045002       11.8770052430        3.4891580315
  O        -0.8826829667        7.4344727217        3.4868795617
  O         1.6856540391        2.9737125967        3.5235613649
  O         9.4284126040       10.2242978772        3.4868958775
  O        11.9887426226        5.7839764604        3.4904247673
  O        14.5579549686        1.3428447958        3.4842554871
  O         4.2941344318       10.2318442028        3.4962697875
  O         6.8635953958        5.7820788897        3.4893559170
  O         9.4270128928        1.3445234216        3.4890161334
  O        -0.8278743967       10.2260047814        3.4867181307
  O         1.7208337382        5.7889772105        3.5002627233
  O         4.3027122722        1.3380129215        3.4817073880
 Fe         5.0367059161       11.8373088220        4.4223028269
 Fe         7.6052161567        7.3923681311        4.4216762857
 Fe        10.1630201923        2.9565534158        4.4212042649
 Fe        -0.0924729905       11.8366134987        4.4197931953
 Fe         2.4745583486        7.3942308194        4.4276681032
 Fe         5.0361906390        2.9463196788        4.4211213326
 Fe        -5.2186743701       11.8357024652        4.4185845669
 Fe        -2.6525106927        7.3952776819        4.4209798452
 Fe        -0.0964246454        2.9580191780        4.4255518090
 Fe         7.6072731447       13.1845478648        4.8044927254
 Fe        10.1732358188        8.7433860178        4.8061784940
 Fe        12.7373261542        4.3064001083        4.8093434126
 Fe         2.4812936818       13.1841666103        4.8072223444
 Fe         5.0425960546        8.7494166606        4.8062204522
 Fe         7.6090485366        4.3069054547        4.8096826847
 Fe        -2.6457103313       13.1853336135        4.8019176569
 Fe        -0.0820493469        8.7449466959        4.8044554446
 Fe         2.4837171234        4.3164122866        4.8164756005
  O         5.8567808410       10.3476968494        5.8712626906
  O         8.4191732073        5.9074859827        5.8725290452
  O        10.9827850019        1.4648613549        5.8713237605
  O         0.7278549317       10.3501158948        5.8694263157
  O         3.3258354452        5.9224910439        5.7793949530
  O         5.8580262858        1.4630342337        5.8706986382
  O        -4.3993054180       10.3472268494        5.8705491407
  O        -1.8327625310        5.9070887364        5.8651127236
  O         0.7298674079        1.4616582466        5.8751106025
  O         5.9261045036       13.1751064727        5.6873881592
  O         8.4906050323        8.7356072567        5.6867884593
  O        11.0525076403        4.2940339253        5.6864430564
  O         0.7974216779       13.1757282752        5.6869938751
  O         3.3642569939        8.7429992739        5.6783573986
  O         5.9224550938        4.2846469928        5.6825158647
  O        -4.3278926262       13.1756493953        5.6903999502
  O        -1.7670610370        8.7359754869        5.6842332805
  O         0.7970448731        4.2915917809        5.6900718760
  O         3.4661842006       11.7740663191        5.6691323176
  O         6.0369994695        7.3445621293        5.6563230893
  O         8.5931998068        2.8932122701        5.6696667297
  O        -1.6628777862       11.7766125693        5.6692948818
  O         0.8923150041        7.3350624478        5.6530006508
  O         3.4688065488        2.8969537110        5.6833311509
  O        -6.7870859724       11.7751967434        5.6697545754
  O        -4.2240253209        7.3327388608        5.6682693615
  O        -1.6637577160        2.8913784681        5.6700935429
 Fe         7.7815268029       10.2721382735        6.4334886647
 Fe        10.3447235351        5.8318457839        6.4334470601
 Fe        12.9085403736        1.3905926042        6.4331905633
 Fe         2.6546021095       10.2693585215        6.4353783571
 Fe         5.2257874753        5.8425736976        6.3937841627
 Fe         7.7837380864        1.3915362534        6.4329309529
 Fe        -2.4717400022       10.2715227372        6.4333614907
 Fe         0.0987034618        5.8378326787        6.4393057878
 Fe         2.6537637182        1.3916134275        6.4309241828
  O         7.8401658915       10.3837947509        8.2640924367
  H         7.8866688537        9.5541130547        8.7725957018
  H         5.3472408612       10.6123625385        6.6697913673
  O        10.4023374090        5.9421240919        8.2635002698
  H        10.4532146692        5.1138355280        8.7733569186
  H         7.9066663652        6.1704159525        6.6711146183
  O        12.9705500278        1.5018266890        8.2636933189
  H        13.0121593641        0.6727775176        8.7732547702
  H        10.4760900366        1.7328422620        6.6705077643
  O         2.7140440698       10.3843413379        8.2649836533
  H         2.7560889923        9.5480319465        8.7644253018
  H         0.2214514742       10.6118568982        6.6710839848
  O         5.5905467893        5.9629685956        8.2139450814
  H         5.4835533069        5.1375001213        8.7183725099
  H         2.8649362655        6.1620393535        6.6656107472
  O         7.8284424942        1.5038285274        8.2658833154
  H         7.8896804708        0.6739220371        8.7724586249
  H         5.3471435463        1.7291611097        6.6665380395
  O        -2.4188225378       10.3839099400        8.2640661471
  H        -2.3663262539        9.5549604673        8.7732910986
  H        -4.9068836400       10.6118359475        6.6704549291
  O        -0.0362476886        5.9314707642        8.2699466192
  H         0.1828257825        5.1116723018        8.7701340810
  H        -2.3338190893        6.1704389261        6.6699586879
  O         2.7264443220        1.5138089313        8.2723716067
  H         2.7559214015        0.6739800366        8.7670590545
  H         0.2161147333        1.7343119506        6.6682771488
  C         3.6492003432        4.2982438305        9.8111436227
  C         3.0898415896        5.3389229819        8.9721778078
  H         4.2333760386        3.5753041269        9.2149465266
  H         4.2916513947        4.7646661796       10.5736020265
  H         2.8359600049        3.7282052381       10.2717778725
  N         2.6076122913        6.1649541630        8.3091026732
     168
 i =        3, E =     -8144.3597121145
 Fe         5.0938794100       11.8196869300        0.3885799900
 Fe         7.6575796300        7.3792284900        0.3885799900
 Fe        10.2212798400        2.9387700600        0.3885799900
 Fe        -0.0335205200       11.8196869300        0.3885799900
 Fe         2.5301797000        7.3792284900        0.3885799900
 Fe         5.0938799200        2.9387700600        0.3885799900
 Fe        -5.1609204400       11.8196869300        0.3885799900
 Fe        -2.5972202200        7.3792284900        0.3885799900
 Fe        -0.0335200000        2.9387700600        0.3885799900
  O         8.4519195100        8.9577468800        1.1642700400
  O        11.0156197300        4.5172884400        1.1642700400
  O        13.5793199500        0.0768300000        1.1642700400
  O         3.3245195900        8.9577468800        1.1642700400
  O         5.8882198100        4.5172884400        1.1642700400
  O         8.4519200300        0.0768300000        1.1642700400
  O        -1.8028803300        8.9577468800        1.1642700400
  O         0.7608198900        4.5172884400        1.1642700400
  O         3.3245201100        0.0768300000        1.1642700400
  O         8.4568493000       11.7183869300        1.1650400200
  O        11.0205495200        7.2779284900        1.1650400200
  O        13.5842497300        2.8374700500        1.1650400200
  O         3.3294493700       11.7183869300        1.1650400200
  O         5.8931495900        7.2779284900        1.1650400200
  O         8.4568498100        2.8374700500        1.1650400200
  O        -1.7979505500       11.7183869300        1.1650400200
  O         0.7657496700        7.2779284900        1.1650400200
  O         3.3294498900        2.8374700500        1.1650400200
  O         6.0627194200       10.3425368500        1.1660399400
  O         8.6264196400        5.9020784100        1.1660399400
  O        11.1901198600        1.4616199700        1.1660399400
  O         0.9353195000       10.3425368500        1.1660399400
  O         3.4990197200        5.9020784100        1.1660399400
  O         6.0627199400        1.4616199700        1.1660399400
  O        -4.1920804200       10.3425368500        1.1660399400
  O        -1.6283802000        5.9020784100        1.1660399400
  O         0.9353200200        1.4616199700        1.1660399400
 Fe         7.6576695000       13.2997167500        1.9292099500
 Fe        10.2213697200        8.8592583200        1.9292099500
 Fe        12.7850699400        4.4187998800        1.9292099500
 Fe         2.5302695800       13.2997167500        1.9292099500
 Fe         5.0939698000        8.8592583200        1.9292099500
 Fe         7.6576700200        4.4187998800        1.9292099500
 Fe        -2.5971303400       13.2997167500        1.9292099500
 Fe        -0.0334301200        8.8592583200        1.9292099500
 Fe         2.5302701000        4.4187998800        1.9292099500
 Fe         7.6573893600       10.3392168700        2.7128999200
 Fe        10.2210895800        5.8987584300        2.7128999200
 Fe        12.7847898000        1.4582999900        2.7128999200
 Fe         2.5299894400       10.3392168700        2.7128999200
 Fe         5.0936896600        5.8987584300        2.7128999200
 Fe         7.6573898800        1.4582999900        2.7128999200
 Fe        -2.5974104800       10.3392168700        2.7128999200
 Fe        -0.0337102600        5.8987584300        2.7128999200
 Fe         2.5299899600        1.4582999900        2.7128999200
  O         4.0926726000       13.3158898994        3.5138895468
  O         6.6780623811        8.8814769929        3.5363096886
  O         9.2183613643        4.4357554354        3.5109194258
  O        -1.0073583056       13.3265648938        3.5615772444
  O         1.5297285647        8.8799976280        3.5160181429
  O         4.1342988570        4.4291664800        3.5452222193
  O        -6.1581551549       13.3147162825        3.5194436780
  O        -3.5977582749        8.8752662693        3.5131872830
  O        -1.0369482847        4.4328995768        3.5099261270
  O         6.8128278159       11.8713841483        3.4986790280
  O         9.3786099279        7.4319118547        3.4923123975
  O        11.9400425703        2.9887388861        3.4994788749
  O         1.6844359958       11.8752640632        3.4919322838
  O         4.2610101218        7.4326222566        3.4960144577
  O         6.8168267970        2.9943282491        3.4972543846
  O        -3.4462782354       11.8437267377        3.5433162854
  O        -0.8863783790        7.4349164072        3.4834852214
  O         1.6858317300        2.9564973687        3.5594148088
  O         9.4281051035       10.2246628481        3.4876059726
  O        11.9877537004        5.7830710153        3.4899753292
  O        14.5547410039        1.3460811533        3.4939334071
  O         4.2864645415       10.2414205381        3.5039337726
  O         6.8633047674        5.7804277634        3.4924588200
  O         9.4272020521        1.3453286033        3.4887624297
  O        -0.8292631234       10.2285883855        3.4906323340
  O         1.6997082774        5.7923202520        3.5212222870
  O         4.2730124607        1.3501987210        3.5357294744
 Fe         5.0347432443       11.8380370761        4.4241186183
 Fe         7.6151085917        7.3910042402        4.4215188535
 Fe        10.1633280719        2.9593619570        4.4204417685
 Fe        -0.0806139157       11.8233853404        4.4341740429
 Fe         2.4810837823        7.3882546145        4.4336572814
 Fe         5.0429534986        2.9464893112        4.4286555243
 Fe        -5.2299226724       11.8312309739        4.4296602103
 Fe        -2.6512713518        7.3940097998        4.4216047484
 Fe        -0.1006400772        2.9658467724        4.4368940561
 Fe         7.6058906539       13.1853657619        4.8069169082
 Fe        10.1754108931        8.7422885586        4.8069487911
 Fe        12.7371006840        4.3080800109        4.8107014003
 Fe         2.4803201958       13.1841729288        4.8061465256
 Fe         5.0373438405        8.7632575239        4.8009042689
 Fe         7.6161820690        4.3087879999        4.8111521512
 Fe        -2.6452151301       13.1840621250        4.8236644148
 Fe        -0.0825172834        8.7409522384        4.8079119170
 Fe         2.4913182690        4.3359902724        4.8342497887
  O         5.8590930691       10.3492697925        5.8725842545
  O         8.4156478386        5.9109283109        5.8743148404
  O        10.9831979439        1.4633584614        5.8725578877
  O         0.7291394919       10.3486532392        5.8702276345
  O         3.3767612740        5.9324229201        5.7719744268
  O         5.8608425149        1.4629219488        5.8691813157
  O        -4.3985770067       10.3481101114        5.8696626629
  O        -1.8372032451        5.9116213604        5.8481345819
  O         0.7331773748        1.4594387038        5.8816889326
  O         5.9254260622       13.1738716847        5.6891484899
  O         8.4941111185        8.7374848056        5.6885618050
  O        11.0520437854        4.2948675601        5.6882617007
  O         0.7988120496       13.1795100974        5.6918612445
  O         3.3654637294        8.7468452914        5.6746478930
  O         5.9260788785        4.2718156246        5.6711713100
  O        -4.3332611014       13.1781435803        5.6989093508
  O        -1.7715058420        8.7387816087        5.6828074512
  O         0.8034868748        4.2974941509        5.7032963086
  O         3.4654540654       11.7778343413        5.6707833981
  O         6.0411375580        7.3640170565        5.6302664346
  O         8.5939850582        2.8905790171        5.6709763557
  O        -1.6615519336       11.7744587850        5.6718086750
  O         0.8890388742        7.3343540489        5.6424573864
  O         3.4712630522        2.9070218582        5.7057436392
  O        -6.7924415269       11.7763767105        5.6752423664
  O        -4.2247965753        7.3314538522        5.6690495182
  O        -1.6680622013        2.8898912401        5.6731234690
 Fe         7.7810799031       10.2706035268        6.4346337246
 Fe        10.3399733532        5.8325876240        6.4348686414
 Fe        12.9081098096        1.3891998366        6.4338473397
 Fe         2.6547982811       10.2693124910        6.4301245682
 Fe         5.2816942435        5.8540428595        6.3629494021
 Fe         7.7820883528        1.3936898606        6.4337671097
 Fe        -2.4731042153       10.2717122563        6.4334067007
 Fe         0.0924062911        5.8484930783        6.4393353819
 Fe         2.6528285118        1.3951795910        6.4304873685
  O         7.8420394057       10.3860696192        8.2656836984
  H         7.8860847432        9.5520699957        8.7675890151
  H         5.3462250578       10.6117076925        6.6692486959
  O        10.4023422871        5.9426576264        8.2650026849
  H        10.4544359312        5.1121578411        8.7707696551
  H         7.8973358053        6.1586888176        6.6769473750
  O        12.9754078009        1.5023471081        8.2658440104
  H        13.0096295196        0.6693727874        8.7695592018
  H        10.4757749704        1.7347680057        6.6700711865
  O         2.7165768269       10.3816579266        8.2621667653
  H         2.7508204036        9.5390675553        8.7529230798
  H         0.2211375207       10.6115186455        6.6700711988
  O         5.8405467893        5.9843059193        8.1660230312
  H         5.6875229198        5.1612414942        8.6444415927
  H         2.8944497195        6.1639952566        6.6562778962
  O         7.8129329023        1.5057530975        8.2704390332
  H         7.8933927967        0.6716719217        8.7680056066
  H         5.3472328179        1.7266723076        6.6621850128
  O        -2.4216035791       10.3855743981        8.2652252405
  H        -2.3647172266        9.5540360763        8.7699879061
  H        -4.9067024447       10.6108454553        6.6695443637
  O        -0.2803763534        5.9101200397        8.2723451926
  H         0.1498485460        5.1111513155        8.7635022841
  H        -2.3160081686        6.1636441804        6.6710670879
  O         2.7466529810        1.5306251395        8.2852691540
  H         2.7525431053        0.6738038071        8.7554115667
  H         0.2092010947        1.7362780538        6.6665381748
  C         3.5970891192        4.2789076918        9.8544697415
  C         3.0186762365        5.3285636937        9.0593255504
  H         4.1584577540        3.5851706586        9.1950965308
  H         4.2622328884        4.7613290381       10.5873393222
  H         2.8175557690        3.6684814244       10.3216592925
  N         2.5327709259        6.1499377203        8.4028689342
     168
 i =        4, E =     -8144.3687155742
 Fe         5.0938794100       11.8196869300        0.3885799900
 Fe         7.6575796300        7.3792284900        0.3885799900
 Fe        10.2212798400        2.9387700600        0.3885799900
 Fe        -0.0335205200       11.8196869300        0.3885799900
 Fe         2.5301797000        7.3792284900        0.3885799900
 Fe         5.0938799200        2.9387700600        0.3885799900
 Fe        -5.1609204400       11.8196869300        0.3885799900
 Fe        -2.5972202200        7.3792284900        0.3885799900
 Fe        -0.0335200000        2.9387700600        0.3885799900
  O         8.4519195100        8.9577468800        1.1642700400
  O        11.0156197300        4.5172884400        1.1642700400
  O        13.5793199500        0.0768300000        1.1642700400
  O         3.3245195900        8.9577468800        1.1642700400
  O         5.8882198100        4.5172884400        1.1642700400
  O         8.4519200300        0.0768300000        1.1642700400
  O        -1.8028803300        8.9577468800        1.1642700400
  O         0.7608198900        4.5172884400        1.1642700400
  O         3.3245201100        0.0768300000        1.1642700400
  O         8.4568493000       11.7183869300        1.1650400200
  O        11.0205495200        7.2779284900        1.1650400200
  O        13.5842497300        2.8374700500        1.1650400200
  O         3.3294493700       11.7183869300        1.1650400200
  O         5.8931495900        7.2779284900        1.1650400200
  O         8.4568498100        2.8374700500        1.1650400200
  O        -1.7979505500       11.7183869300        1.1650400200
  O         0.7657496700        7.2779284900        1.1650400200
  O         3.3294498900        2.8374700500        1.1650400200
  O         6.0627194200       10.3425368500        1.1660399400
  O         8.6264196400        5.9020784100        1.1660399400
  O        11.1901198600        1.4616199700        1.1660399400
  O         0.9353195000       10.3425368500        1.1660399400
  O         3.4990197200        5.9020784100        1.1660399400
  O         6.0627199400        1.4616199700        1.1660399400
  O        -4.1920804200       10.3425368500        1.1660399400
  O        -1.6283802000        5.9020784100        1.1660399400
  O         0.9353200200        1.4616199700        1.1660399400
 Fe         7.6576695000       13.2997167500        1.9292099500
 Fe        10.2213697200        8.8592583200        1.9292099500
 Fe        12.7850699400        4.4187998800        1.9292099500
 Fe         2.5302695800       13.2997167500        1.9292099500
 Fe         5.0939698000        8.8592583200        1.9292099500
 Fe         7.6576700200        4.4187998800        1.9292099500
 Fe        -2.5971303400       13.2997167500        1.9292099500
 Fe        -0.0334301200        8.8592583200        1.9292099500
 Fe         2.5302701000        4.4187998800        1.9292099500
 Fe         7.6573893600       10.3392168700        2.7128999200
 Fe        10.2210895800        5.8987584300        2.7128999200
 Fe        12.7847898000        1.4582999900        2.7128999200
 Fe         2.5299894400       10.3392168700        2.7128999200
 Fe         5.0936896600        5.8987584300        2.7128999200
 Fe         7.6573898800        1.4582999900        2.7128999200
 Fe        -2.5974104800       10.3392168700        2.7128999200
 Fe        -0.0337102600        5.8987584300        2.7128999200
 Fe         2.5299899600        1.4582999900        2.7128999200
  O         4.0917327130       13.3155977329        3.5110133859
  O         6.6635335904        8.8793294420        3.5107782477
  O         9.2195878088        4.4342347935        3.5093499162
  O        -1.0207832520       13.3251863040        3.5437663416
  O         1.5281796873        8.8784441627        3.5103714322
  O         4.1090664273        4.4260476917        3.5153517592
  O        -6.1629091405       13.3099713277        3.5088105211
  O        -3.5972890444        8.8733456802        3.5108716399
  O        -1.0386789125        4.4303670905        3.5064818929
  O         6.8131546992       11.8760029833        3.4918470391
  O         9.3797933478        7.4319285929        3.4928672734
  O        11.9414863720        2.9926519656        3.4929016142
  O         1.6852323385       11.8755199547        3.4924888860
  O         4.2572138511        7.4449309914        3.4768426139
  O         6.8146728116        2.9936763639        3.4915205686
  O        -3.4451222497       11.8535100110        3.5270791104
  O        -0.8864205289        7.4365667942        3.4809470566
  O         1.6890782548        2.9768886311        3.5283882750
  O         9.4276301039       10.2255032240        3.4872266568
  O        11.9922168338        5.7807405813        3.4804670255
  O        14.5577496832        1.3446032636        3.4876063928
  O         4.2984095705       10.2348897536        3.4850383396
  O         6.8667003101        5.7832023539        3.4887136368
  O         9.4293981540        1.3450894800        3.4844833147
  O        -0.8248399640       10.2278888425        3.4845535922
  O         1.7216193233        5.7816203378        3.4965923050
  O         4.2850687808        1.3475663899        3.5197675333
 Fe         5.0341689458       11.8366891736        4.4188383373
 Fe         7.6116567737        7.4016555415        4.4129931477
 Fe        10.1657946183        2.9575437052        4.4180625184
 Fe        -0.0859244272       11.8303178092        4.4259284241
 Fe         2.4798368614        7.3863699498        4.4248989417
 Fe         5.0363163503        2.9553702872        4.4179379554
 Fe        -5.2255505298       11.8339497158        4.4247984617
 Fe        -2.6528244676        7.3925401419        4.4195496656
 Fe        -0.0900758131        2.9661096050        4.4290636355
 Fe         7.6064549896       13.1858672129        4.8049235888
 Fe        10.1763038125        8.7444153586        4.8066215097
 Fe        12.7348210957        4.3071533941        4.8091363912
 Fe         2.4805852753       13.1859877243        4.8058976058
 Fe         5.0392450604        8.7619110423        4.7950491258
 Fe         7.6160675292        4.3055516676        4.8070890190
 Fe        -2.6455734279       13.1793158945        4.8266460047
 Fe        -0.0802358756        8.7386305173        4.8063152246
 Fe         2.4906010791        4.3254146166        4.8350094276
  O         5.8569711987       10.3506744860        5.8729779015
  O         8.4118575314        5.9120280785        5.8742744359
  O        10.9829151822        1.4645413631        5.8726621230
  O         0.7274363426       10.3497783940        5.8701567909
  O         3.3690590541        5.9258447155        5.7968075159
  O         5.8585851722        1.4650748434        5.8709457517
  O        -4.4009803512       10.3486983749        5.8707695953
  O        -1.8427671222        5.9151628153        5.8398157133
  O         0.7290557588        1.4607867842        5.8827457289
  O         5.9244863916       13.1734725090        5.6884956927
  O         8.4968147665        8.7347814984        5.6913266858
  O        11.0496828751        4.2936923993        5.6880813953
  O         0.8014992485       13.1740831534        5.6961028701
  O         3.3650938602        8.7427075434        5.6770942880
  O         5.9293320107        4.2689804425        5.6756280536
  O        -4.3342775571       13.1779200860        5.7033050019
  O        -1.7687612612        8.7371164167        5.6823510203
  O         0.8037289344        4.3027175065        5.7104211477
  O         3.4667545098       11.7791764031        5.6717249258
  O         6.0453605012        7.3658799527        5.6330255098
  O         8.5974054243        2.8917403984        5.6715782722
  O        -1.6555057998       11.7723617463        5.6791623957
  O         0.8948830945        7.3311215728        5.6528313324
  O         3.4780977193        2.9076705919        5.7130852132
  O        -6.7898935692       11.7762776734        5.6730673367
  O        -4.2256719513        7.3330943804        5.6679091607
  O        -1.6609466485        2.8911197259        5.6692656609
 Fe         7.7824005042       10.2701293663        6.4340115840
 Fe        10.3414214935        5.8338368940        6.4359311238
 Fe        12.9089044137        1.3916791262        6.4337415899
 Fe         2.6556035915       10.2709268320        6.4324155971
 Fe         5.2873436113        5.8541880142        6.3658384931
 Fe         7.7845712562        1.3923111440        6.4338618960
 Fe        -2.4750160855       10.2696047097        6.4341924423
 Fe         0.0784430063        5.8482428002        6.4443222651
 Fe         2.6505314283        1.3973345152        6.4326674022
  O         7.8416740520       10.3852569026        8.2654117257
  H         7.8861308055        9.5514552911        8.7679054554
  H         5.3461591443       10.6130473909        6.6714554862
  O        10.4014814534        5.9425672080        8.2655460098
  H        10.4552143112        5.1119186078        8.7713592668
  H         7.8985008465        6.1544042422        6.6827916525
  O        12.9754726169        1.5011516402        8.2660797711
  H        13.0096291108        0.6683581655        8.7704156046
  H        10.4752324069        1.7349415907        6.6703781186
  O         2.7168535758       10.3806663091        8.2643166987
  H         2.7501845767        9.5375126976        8.7535200371
  H         0.2207449733       10.6117095575        6.6717903324
  O         5.8199835341        5.9798965615        8.1617930901
  H         5.6993053554        5.1573505548        8.6474583668
  H         2.8834383567        6.1732172328        6.6574081611
  O         7.8124948309        1.5055059655        8.2704803028
  H         7.8930294228        0.6716528673        8.7684421295
  H         5.3459311236        1.7276560790        6.6663971052
  O        -2.4211465108       10.3853023137        8.2656502396
  H        -2.3648735904        9.5534614488        8.7700948732
  H        -4.9074083503       10.6101497613        6.6719832215
  O        -0.2236055200        5.9000540118        8.2673796862
  H         0.0872604462        5.1213924912        8.7623130306
  H        -2.3121607075        6.1590788472        6.6714222100
  O         2.7478306245        1.5304744075        8.2853033214
  H         2.7531577168        0.6753181032        8.7563693909
  H         0.2094632092        1.7354934843        6.6708480321
  C         3.6005643380        4.2813838063        9.8510628603
  C         3.0113276860        5.3205109219        9.0481179046
  H         4.1612326310        3.5866857649        9.1995842658
  H         4.2638912506        4.7408621169       10.5968516920
  H         2.8221676584        3.6753402775       10.3297445204
  N         2.5437086600        6.1590455517        8.3926660595
     168
 i =        5, E =     -8144.3579590168
 Fe         5.0938794100       11.8196869300        0.3885799900
 Fe         7.6575796300        7.3792284900        0.3885799900
 Fe        10.2212798400        2.9387700600        0.3885799900
 Fe        -0.0335205200       11.8196869300        0.3885799900
 Fe         2.5301797000        7.3792284900        0.3885799900
 Fe         5.0938799200        2.9387700600        0.3885799900
 Fe        -5.1609204400       11.8196869300        0.3885799900
 Fe        -2.5972202200        7.3792284900        0.3885799900
 Fe        -0.0335200000        2.9387700600        0.3885799900
  O         8.4519195100        8.9577468800        1.1642700400
  O        11.0156197300        4.5172884400        1.1642700400
  O        13.5793199500        0.0768300000        1.1642700400
  O         3.3245195900        8.9577468800        1.1642700400
  O         5.8882198100        4.5172884400        1.1642700400
  O         8.4519200300        0.0768300000        1.1642700400
  O        -1.8028803300        8.9577468800        1.1642700400
  O         0.7608198900        4.5172884400        1.1642700400
  O         3.3245201100        0.0768300000        1.1642700400
  O         8.4568493000       11.7183869300        1.1650400200
  O        11.0205495200        7.2779284900        1.1650400200
  O        13.5842497300        2.8374700500        1.1650400200
  O         3.3294493700       11.7183869300        1.1650400200
  O         5.8931495900        7.2779284900        1.1650400200
  O         8.4568498100        2.8374700500        1.1650400200
  O        -1.7979505500       11.7183869300        1.1650400200
  O         0.7657496700        7.2779284900        1.1650400200
  O         3.3294498900        2.8374700500        1.1650400200
  O         6.0627194200       10.3425368500        1.1660399400
  O         8.6264196400        5.9020784100        1.1660399400
  O        11.1901198600        1.4616199700        1.1660399400
  O         0.9353195000       10.3425368500        1.1660399400
  O         3.4990197200        5.9020784100        1.1660399400
  O         6.0627199400        1.4616199700        1.1660399400
  O        -4.1920804200       10.3425368500        1.1660399400
  O        -1.6283802000        5.9020784100        1.1660399400
  O         0.9353200200        1.4616199700        1.1660399400
 Fe         7.6576695000       13.2997167500        1.9292099500
 Fe        10.2213697200        8.8592583200        1.9292099500
 Fe        12.7850699400        4.4187998800        1.9292099500
 Fe         2.5302695800       13.2997167500        1.9292099500
 Fe         5.0939698000        8.8592583200        1.9292099500
 Fe         7.6576700200        4.4187998800        1.9292099500
 Fe        -2.5971303400       13.2997167500        1.9292099500
 Fe        -0.0334301200        8.8592583200        1.9292099500
 Fe         2.5302701000        4.4187998800        1.9292099500
 Fe         7.6573893600       10.3392168700        2.7128999200
 Fe        10.2210895800        5.8987584300        2.7128999200
 Fe        12.7847898000        1.4582999900        2.7128999200
 Fe         2.5299894400       10.3392168700        2.7128999200
 Fe         5.0936896600        5.8987584300        2.7128999200
 Fe         7.6573898800        1.4582999900        2.7128999200
 Fe        -2.5974104800       10.3392168700        2.7128999200
 Fe        -0.0337102600        5.8987584300        2.7128999200
 Fe         2.5299899600        1.4582999900        2.7128999200
  O         4.0954842384       13.3222675279        3.5185324923
  O         6.6833064607        8.8949288177        3.5464404870
  O         9.2296623850        4.4353839201        3.5203986877
  O        -1.0452690816       13.3211487037        3.5112286326
  O         1.5436524193        8.8828810757        3.5309756742
  O         4.0530670796        4.4185091186        3.4501067310
  O        -6.1557089617       13.3130732110        3.5208035823
  O        -3.5970163613        8.8738186618        3.5101957496
  O        -1.0142561243        4.4403344380        3.5480631604
  O         6.8132671437       11.8686584503        3.5043304221
  O         9.3830219146        7.4316237988        3.4957083866
  O        11.9406941657        2.9721995871        3.5232288160
  O         1.6867733169       11.8686707901        3.5060514681
  O         4.2458048876        7.4142342490        3.5238585899
  O         6.8109273643        2.9844883306        3.4948868869
  O        -3.4411181799       11.8725871762        3.4999446454
  O        -0.8849951743        7.4201791919        3.5090268911
  O         1.7005111075        3.0237712078        3.4616484300
  O         9.4240067863       10.2257217910        3.4905371838
  O        11.9773143560        5.7907652727        3.5072155698
  O        14.5496996801        1.3480428841        3.4998129175
  O         4.2814877160       10.2487578955        3.5284784896
  O         6.8636988704        5.7899161782        3.4952529924
  O         9.4254785256        1.3476362671        3.4920213715
  O        -0.8349069370       10.2360226685        3.5046070337
  O         1.7693244361        5.7551865112        3.4402850630
  O         4.3052211414        1.3440492395        3.4935655410
 Fe         5.0379032559       11.8524760232        4.4306282679
 Fe         7.6209562464        7.4010763582        4.4215217937
 Fe        10.1638386077        2.9529988631        4.4276669533
 Fe        -0.0946087303       11.8478300585        4.4189113540
 Fe         2.4627888235        7.3714936220        4.4242562180
 Fe         5.0211492322        2.9748915174        4.4022293156
 Fe        -5.2140569481       11.8323856737        4.4215597842
 Fe        -2.6582646376        7.3999635184        4.4287507477
 Fe        -0.0584360397        2.9592526690        4.4223365825
 Fe         7.6094103876       13.1877792938        4.8103497582
 Fe        10.1786315292        8.7493324052        4.8080513755
 Fe        12.7325527467        4.3048087840        4.8230575249
 Fe         2.4830020511       13.1896172381        4.8110021452
 Fe         5.0428753066        8.7582690429        4.8196831307
 Fe         7.6162473813        4.3008990232        4.8039526012
 Fe        -2.6460838344       13.1738670077        4.8358096138
 Fe        -0.0752195489        8.7392967440        4.8134575744
 Fe         2.4900349852        4.3059758705        4.8327530011
  O         5.8556710494       10.3559028106        5.8737935668
  O         8.4074170998        5.9076756699        5.8779036148
  O        10.9844634487        1.4666301908        5.8726861704
  O         0.7267078717       10.3509346403        5.8709696662
  O         3.3484128384        5.9119728615        5.8408754351
  O         5.8557684004        1.4679575045        5.8753371110
  O        -4.4024672705       10.3483055148        5.8743511962
  O        -1.8470510216        5.9223964184        5.8281156729
  O         0.7246016029        1.4631859988        5.8847883974
  O         5.9286693814       13.1817219412        5.6928447542
  O         8.5020522352        8.7370973423        5.6935197056
  O        11.0437836223        4.2947664682        5.6878249073
  O         0.8078442768       13.1698927256        5.7012310270
  O         3.3533736882        8.7343660125        5.6818203322
  O         5.9341488415        4.2704159782        5.6815058077
  O        -4.3374453251       13.1794509542        5.7088970376
  O        -1.7611133835        8.7369504681        5.6846248352
  O         0.8084475546        4.3119072973        5.7193653743
  O         3.4656362708       11.7787551678        5.6742697669
  O         6.0552760299        7.3616863000        5.6414833963
  O         8.5971404107        2.8934953898        5.6737958933
  O        -1.6477183721       11.7685890394        5.6911614708
  O         0.8983800847        7.3256193997        5.6759876916
  O         3.4846300650        2.9080287970        5.7207031663
  O        -6.7860325443       11.7745459607        5.6680976462
  O        -4.2321084147        7.3354291240        5.6665141702
  O        -1.6439726710        2.8902330410        5.6612504427
 Fe         7.7832264072       10.2715230686        6.4331866765
 Fe        10.3413502707        5.8364675428        6.4359515205
 Fe        12.9089893080        1.3987996021        6.4331437491
 Fe         2.6549000575       10.2741113498        6.4379513673
 Fe         5.2864177143        5.8542086924        6.3709850710
 Fe         7.7875705561        1.3898268977        6.4344413476
 Fe        -2.4771521534       10.2661542373        6.4353655673
 Fe         0.0593617702        5.8428281509        6.4494702051
 Fe         2.6470469806        1.4019978560        6.4375438626
  O         7.8410569925       10.3827224138        8.2638193563
  H         7.8861089415        9.5502673575        8.7685464708
  H         5.3471976690       10.6158567056        6.6743693612
  O        10.3998622347        5.9408295469        8.2630627371
  H        10.4568277657        5.1123273517        8.7724752398
  H         7.9024048205        6.1444995637        6.6937888832
  O        12.9759002799        1.4975052006        8.2642902008
  H        13.0096154901        0.6666850717        8.7719668042
  H        10.4750839443        1.7354048830        6.6694947602
  O         2.7177076346       10.3776205205        8.2676653488
  H         2.7485610812        9.5340325700        8.7543012770
  H         0.2203592127       10.6121915020        6.6732877503
  O         5.7777382781        5.9693668096        8.1496491732
  H         5.7256502133        5.1461457887        8.6572371952
  H         2.8678862536        6.1897379471        6.6614175788
  O         7.8122646298        1.5044429200        8.2689437726
  H         7.8917850072        0.6721996479        8.7691931262
  H         5.3442035489        1.7305619753        6.6740114854
  O        -2.4206847373       10.3830938514        8.2648316172
  H        -2.3652936044        9.5523585262        8.7708975366
  H        -4.9087423110       10.6086600797        6.6756700700
  O        -0.1650033270        5.8846447456        8.2520500774
  H         0.0007271521        5.1389775299        8.7628578020
  H        -2.3079132153        6.1494357084        6.6698102045
  O         2.7496907411        1.5288313743        8.2833943566
  H         2.7548982263        0.6792258171        8.7594241283
  H         0.2109038242        1.7336055302        6.6775053103
  C         3.6062839840        4.2818002519        9.8432403204
  C         3.0018539768        5.3111448657        9.0313325161
  H         4.1684875707        3.5856918686        9.2103706616
  H         4.2674596465        4.7002444501       10.6124753759
  H         2.8287773364        3.6887265459       10.3464412192
  N         2.5668741860        6.1764947076        8.3717894792
     168
 i =        6, E =     -8144.3679227494
 Fe         5.0938794100       11.8196869300        0.3885799900
 Fe         7.6575796300        7.3792284900        0.3885799900
 Fe        10.2212798400        2.9387700600        0.3885799900
 Fe        -0.0335205200       11.8196869300        0.3885799900
 Fe         2.5301797000        7.3792284900        0.3885799900
 Fe         5.0938799200        2.9387700600        0.3885799900
 Fe        -5.1609204400       11.8196869300        0.3885799900
 Fe        -2.5972202200        7.3792284900        0.3885799900
 Fe        -0.0335200000        2.9387700600        0.3885799900
  O         8.4519195100        8.9577468800        1.1642700400
  O        11.0156197300        4.5172884400        1.1642700400
  O        13.5793199500        0.0768300000        1.1642700400
  O         3.3245195900        8.9577468800        1.1642700400
  O         5.8882198100        4.5172884400        1.1642700400
  O         8.4519200300        0.0768300000        1.1642700400
  O        -1.8028803300        8.9577468800        1.1642700400
  O         0.7608198900        4.5172884400        1.1642700400
  O         3.3245201100        0.0768300000        1.1642700400
  O         8.4568493000       11.7183869300        1.1650400200
  O        11.0205495200        7.2779284900        1.1650400200
  O        13.5842497300        2.8374700500        1.1650400200
  O         3.3294493700       11.7183869300        1.1650400200
  O         5.8931495900        7.2779284900        1.1650400200
  O         8.4568498100        2.8374700500        1.1650400200
  O        -1.7979505500       11.7183869300        1.1650400200
  O         0.7657496700        7.2779284900        1.1650400200
  O         3.3294498900        2.8374700500        1.1650400200
  O         6.0627194200       10.3425368500        1.1660399400
  O         8.6264196400        5.9020784100        1.1660399400
  O        11.1901198600        1.4616199700        1.1660399400
  O         0.9353195000       10.3425368500        1.1660399400
  O         3.4990197200        5.9020784100        1.1660399400
  O         6.0627199400        1.4616199700        1.1660399400
  O        -4.1920804200       10.3425368500        1.1660399400
  O        -1.6283802000        5.9020784100        1.1660399400
  O         0.9353200200        1.4616199700        1.1660399400
 Fe         7.6576695000       13.2997167500        1.9292099500
 Fe        10.2213697200        8.8592583200        1.9292099500
 Fe        12.7850699400        4.4187998800        1.9292099500
 Fe         2.5302695800       13.2997167500        1.9292099500
 Fe         5.0939698000        8.8592583200        1.9292099500
 Fe         7.6576700200        4.4187998800        1.9292099500
 Fe        -2.5971303400       13.2997167500        1.9292099500
 Fe        -0.0334301200        8.8592583200        1.9292099500
 Fe         2.5302701000        4.4187998800        1.9292099500
 Fe         7.6573893600       10.3392168700        2.7128999200
 Fe        10.2210895800        5.8987584300        2.7128999200
 Fe        12.7847898000        1.4582999900        2.7128999200
 Fe         2.5299894400       10.3392168700        2.7128999200
 Fe         5.0936896600        5.8987584300        2.7128999200
 Fe         7.6573898800        1.4582999900        2.7128999200
 Fe        -2.5974104800       10.3392168700        2.7128999200
 Fe        -0.0337102600        5.8987584300        2.7128999200
 Fe         2.5299899600        1.4582999900        2.7128999200
  O         4.0910287716       13.3184591383        3.5107756413
  O         6.6754107720        8.8908970283        3.5335685867
  O         9.2217494610        4.4334471492        3.5105286624
  O        -1.0372551144       13.3176724130        3.5185799307
  O         1.5356925097        8.8757223375        3.5181709803
  O         4.0763067692        4.4160247607        3.4725293914
  O        -6.1600882511       13.3154907436        3.5163384000
  O        -3.5988924586        8.8748924527        3.5099467221
  O        -1.0236804387        4.4382330805        3.5289081698
  O         6.8117272836       11.8744162002        3.4961548822
  O         9.3803715121        7.4339682520        3.4915990331
  O        11.9404743919        2.9816069164        3.5096933372
  O         1.6843043494       11.8755875873        3.4942787058
  O         4.2521074712        7.4233702482        3.5091017724
  O         6.8120897906        2.9916093620        3.4879293441
  O        -3.4397788634       11.8699161099        3.5091331251
  O        -0.8812981692        7.4287670645        3.4982564679
  O         1.6983003013        3.0087194031        3.4865983110
  O         9.4282803169       10.2259004800        3.4855102055
  O        11.9841399085        5.7839928695        3.4937313347
  O        14.5567009678        1.3456924712        3.4900991402
  O         4.2887047032       10.2437051032        3.5115747443
  O         6.8668581127        5.7852571014        3.4885293272
  O         9.4283587352        1.3438026327        3.4864840079
  O        -0.8304076672       10.2323105446        3.4930829592
  O         1.7531399688        5.7656086068        3.4595033325
  O         4.2965644221        1.3440232689        3.4998833336
 Fe         5.0349065501       11.8477203305        4.4253549444
 Fe         7.6170060908        7.4019893630        4.4183329413
 Fe        10.1641866046        2.9553608107        4.4211119811
 Fe        -0.0909932354       11.8385517453        4.4219439093
 Fe         2.4733558040        7.3789711329        4.4225405329
 Fe         5.0297802175        2.9612882887        4.4110548748
 Fe        -5.2189743236       11.8341246211        4.4199148656
 Fe        -2.6565677067        7.3955286741        4.4217050110
 Fe        -0.0740252283        2.9632516953        4.4199450457
 Fe         7.6086127249       13.1869106534        4.8085837919
 Fe        10.1775454905        8.7482012431        4.8077746817
 Fe        12.7358437322        4.3043128834        4.8195128871
 Fe         2.4819725619       13.1866141613        4.8087112193
 Fe         5.0406479686        8.7599524697        4.8146907278
 Fe         7.6167696473        4.3013514152        4.8041157714
 Fe        -2.6459513274       13.1810415310        4.8338153754
 Fe        -0.0778548359        8.7428184424        4.8119010566
 Fe         2.4919668120        4.3174572554        4.8276237761
  O         5.8553452229       10.3543390243        5.8753546727
  O         8.4077519084        5.9083680436        5.8788345649
  O        10.9839279428        1.4669708738        5.8734417870
  O         0.7275916739       10.3491211789        5.8723530911
  O         3.3524722178        5.9162837477        5.8235946326
  O         5.8570752449        1.4639044116        5.8751904091
  O        -4.3995524774       10.3501639681        5.8739488747
  O        -1.8436661011        5.9205186361        5.8356712465
  O         0.7297087431        1.4661698426        5.8838017946
  O         5.9277593810       13.1776349463        5.6918951854
  O         8.5008413427        8.7368895143        5.6931961412
  O        11.0479776899        4.2933412942        5.6895914629
  O         0.8037362258       13.1744034348        5.6966628157
  O         3.3580159855        8.7361703866        5.6854016636
  O         5.9288508826        4.2737831751        5.6722244381
  O        -4.3362131755       13.1788854329        5.7058727854
  O        -1.7654466436        8.7336373978        5.6850833810
  O         0.8134552957        4.3036089218        5.7119273800
  O         3.4672613606       11.7814067577        5.6777208535
  O         6.0521678860        7.3639836871        5.6401902810
  O         8.5980276349        2.8916340528        5.6724512703
  O        -1.6531740402       11.7741662764        5.6857342090
  O         0.9000017586        7.3275503742        5.6625441135
  O         3.4762100410        2.9099117001        5.7090164342
  O        -6.7863556103       11.7756582907        5.6711271126
  O        -4.2284485812        7.3367518469        5.6686082340
  O        -1.6476508043        2.8922395045        5.6702074425
 Fe         7.7827891375       10.2713046719        6.4338687364
 Fe        10.3417281841        5.8360746727        6.4353122374
 Fe        12.9102447560        1.3956465822        6.4339622110
 Fe         2.6544650870       10.2739120419        6.4347544886
 Fe         5.2813494828        5.8553943278        6.3670144930
 Fe         7.7836731566        1.3917187641        6.4348782293
 Fe        -2.4720424494       10.2680500483        6.4351400256
 Fe         0.0741066406        5.8405355041        6.4388421549
 Fe         2.6533199897        1.4016283557        6.4366205358
  O         7.8415581530       10.3834259405        8.2647812706
  H         7.8859637302        9.5498351101        8.7675844926
  H         5.3470321017       10.6165640802        6.6753185824
  O        10.4003212176        5.9410296760        8.2638669389
  H        10.4568291798        5.1119293313        8.7721439885
  H         7.9001680849        6.1428186812        6.6939342010
  O        12.9767566566        1.4989252697        8.2655724331
  H        13.0092146370        0.6663195461        8.7703643950
  H        10.4748535807        1.7356976183        6.6708165451
  O         2.7182071929       10.3765865828        8.2655008502
  H         2.7477250245        9.5327279748        8.7525199098
  H         0.2197685837       10.6127990897        6.6723966567
  O         5.8118371694        5.9723677281        8.1461683915
  H         5.7525294226        5.1473131661        8.6491608060
  H         2.8790926642        6.1838329347        6.6630295030
  O         7.8108442061        1.5047661755        8.2696564124
  H         7.8920613049        0.6719436358        8.7687722828
  H         5.3456345554        1.7309054572        6.6710331471
  O        -2.4218121120       10.3827614955        8.2657042530
  H        -2.3651004676        9.5517763806        8.7712582087
  H        -4.9090490563       10.6086845184        6.6746299743
  O        -0.2447461784        5.8913248992        8.2472060214
  H         0.0317914624        5.1301831313        8.7763175983
  H        -2.3124064492        6.1512599305        6.6706736151
  O         2.7515839977        1.5303652291        8.2841776935
  H         2.7546375286        0.6789486813        8.7588461855
  H         0.2093981786        1.7346458361        6.6743336400
  C         3.5961871648        4.2725678965        9.8524951852
  C         3.0090055366        5.3212024335        9.0549144115
  H         4.1569867503        3.5827580224        9.2051342052
  H         4.2637368298        4.7127827667       10.6057776458
  H         2.8198917851        3.6755288259       10.3488574177
  N         2.5569125264        6.1668719122        8.3896488750
     168
 i =        7, E =     -8144.3679085357
 Fe         5.0938794100       11.8196869300        0.3885799900
 Fe         7.6575796300        7.3792284900        0.3885799900
 Fe        10.2212798400        2.9387700600        0.3885799900
 Fe        -0.0335205200       11.8196869300        0.3885799900
 Fe         2.5301797000        7.3792284900        0.3885799900
 Fe         5.0938799200        2.9387700600        0.3885799900
 Fe        -5.1609204400       11.8196869300        0.3885799900
 Fe        -2.5972202200        7.3792284900        0.3885799900
 Fe        -0.0335200000        2.9387700600        0.3885799900
  O         8.4519195100        8.9577468800        1.1642700400
  O        11.0156197300        4.5172884400        1.1642700400
  O        13.5793199500        0.0768300000        1.1642700400
  O         3.3245195900        8.9577468800        1.1642700400
  O         5.8882198100        4.5172884400        1.1642700400
  O         8.4519200300        0.0768300000        1.1642700400
  O        -1.8028803300        8.9577468800        1.1642700400
  O         0.7608198900        4.5172884400        1.1642700400
  O         3.3245201100        0.0768300000        1.1642700400
  O         8.4568493000       11.7183869300        1.1650400200
  O        11.0205495200        7.2779284900        1.1650400200
  O        13.5842497300        2.8374700500        1.1650400200
  O         3.3294493700       11.7183869300        1.1650400200
  O         5.8931495900        7.2779284900        1.1650400200
  O         8.4568498100        2.8374700500        1.1650400200
  O        -1.7979505500       11.7183869300        1.1650400200
  O         0.7657496700        7.2779284900        1.1650400200
  O         3.3294498900        2.8374700500        1.1650400200
  O         6.0627194200       10.3425368500        1.1660399400
  O         8.6264196400        5.9020784100        1.1660399400
  O        11.1901198600        1.4616199700        1.1660399400
  O         0.9353195000       10.3425368500        1.1660399400
  O         3.4990197200        5.9020784100        1.1660399400
  O         6.0627199400        1.4616199700        1.1660399400
  O        -4.1920804200       10.3425368500        1.1660399400
  O        -1.6283802000        5.9020784100        1.1660399400
  O         0.9353200200        1.4616199700        1.1660399400
 Fe         7.6576695000       13.2997167500        1.9292099500
 Fe        10.2213697200        8.8592583200        1.9292099500
 Fe        12.7850699400        4.4187998800        1.9292099500
 Fe         2.5302695800       13.2997167500        1.9292099500
 Fe         5.0939698000        8.8592583200        1.9292099500
 Fe         7.6576700200        4.4187998800        1.9292099500
 Fe        -2.5971303400       13.2997167500        1.9292099500
 Fe        -0.0334301200        8.8592583200        1.9292099500
 Fe         2.5302701000        4.4187998800        1.9292099500
 Fe         7.6573893600       10.3392168700        2.7128999200
 Fe        10.2210895800        5.8987584300        2.7128999200
 Fe        12.7847898000        1.4582999900        2.7128999200
 Fe         2.5299894400       10.3392168700        2.7128999200
 Fe         5.0936896600        5.8987584300        2.7128999200
 Fe         7.6573898800        1.4582999900        2.7128999200
 Fe        -2.5974104800       10.3392168700        2.7128999200
 Fe        -0.0337102600        5.8987584300        2.7128999200
 Fe         2.5299899600        1.4582999900        2.7128999200
  O         4.0910287716       13.3184591383        3.5107756413
  O         6.6754107720        8.8908970283        3.5335685867
  O         9.2217494610        4.4334471492        3.5105286624
  O        -1.0372551144       13.3176724130        3.5185799307
  O         1.5356925097        8.8757223375        3.5181709803
  O         4.0763067692        4.4160247607        3.4725293914
  O        -6.1600882511       13.3154907436        3.5163384000
  O        -3.5988924586        8.8748924527        3.5099467221
  O        -1.0236804387        4.4382330805        3.5289081698
  O         6.8117272836       11.8744162002        3.4961548822
  O         9.3803715121        7.4339682520        3.4915990331
  O        11.9404743919        2.9816069164        3.5096933372
  O         1.6843043494       11.8755875873        3.4942787058
  O         4.2521074712        7.4233702482        3.5091017724
  O         6.8120897906        2.9916093620        3.4879293441
  O        -3.4397788634       11.8699161099        3.5091331251
  O        -0.8812981692        7.4287670645        3.4982564679
  O         1.6983003013        3.0087194031        3.4865983110
  O         9.4282803169       10.2259004800        3.4855102055
  O        11.9841399085        5.7839928695        3.4937313347
  O        14.5567009678        1.3456924712        3.4900991402
  O         4.2887047032       10.2437051032        3.5115747443
  O         6.8668581127        5.7852571014        3.4885293272
  O         9.4283587352        1.3438026327        3.4864840079
  O        -0.8304076672       10.2323105446        3.4930829592
  O         1.7531399688        5.7656086068        3.4595033325
  O         4.2965644221        1.3440232689        3.4998833336
 Fe         5.0349065501       11.8477203305        4.4253549444
 Fe         7.6170060908        7.4019893630        4.4183329413
 Fe        10.1641866046        2.9553608107        4.4211119811
 Fe        -0.0909932354       11.8385517453        4.4219439093
 Fe         2.4733558040        7.3789711329        4.4225405329
 Fe         5.0297802175        2.9612882887        4.4110548748
 Fe        -5.2189743236       11.8341246211        4.4199148656
 Fe        -2.6565677067        7.3955286741        4.4217050110
 Fe        -0.0740252283        2.9632516953        4.4199450457
 Fe         7.6086127249       13.1869106534        4.8085837919
 Fe        10.1775454905        8.7482012431        4.8077746817
 Fe        12.7358437322        4.3043128834        4.8195128871
 Fe         2.4819725619       13.1866141613        4.8087112193
 Fe         5.0406479686        8.7599524697        4.8146907278
 Fe         7.6167696473        4.3013514152        4.8041157714
 Fe        -2.6459513274       13.1810415310        4.8338153754
 Fe        -0.0778548359        8.7428184424        4.8119010566
 Fe         2.4919668120        4.3174572554        4.8276237761
  O         5.8553452229       10.3543390243        5.8753546727
  O         8.4077519084        5.9083680436        5.8788345649
  O        10.9839279428        1.4669708738        5.8734417870
  O         0.7275916739       10.3491211789        5.8723530911
  O         3.3524722178        5.9162837477        5.8235946326
  O         5.8570752449        1.4639044116        5.8751904091
  O        -4.3995524774       10.3501639681        5.8739488747
  O        -1.8436661011        5.9205186361        5.8356712465
  O         0.7297087431        1.4661698426        5.8838017946
  O         5.9277593810       13.1776349463        5.6918951854
  O         8.5008413427        8.7368895143        5.6931961412
  O        11.0479776899        4.2933412942        5.6895914629
  O         0.8037362258       13.1744034348        5.6966628157
  O         3.3580159855        8.7361703866        5.6854016636
  O         5.9288508826        4.2737831751        5.6722244381
  O        -4.3362131755       13.1788854329        5.7058727854
  O        -1.7654466436        8.7336373978        5.6850833810
  O         0.8134552957        4.3036089218        5.7119273800
  O         3.4672613606       11.7814067577        5.6777208535
  O         6.0521678860        7.3639836871        5.6401902810
  O         8.5980276349        2.8916340528        5.6724512703
  O        -1.6531740402       11.7741662764        5.6857342090
  O         0.9000017586        7.3275503742        5.6625441135
  O         3.4762100410        2.9099117001        5.7090164342
  O        -6.7863556103       11.7756582907        5.6711271126
  O        -4.2284485812        7.3367518469        5.6686082340
  O        -1.6476508043        2.8922395045        5.6702074425
 Fe         7.7827891375       10.2713046719        6.4338687364
 Fe        10.3417281841        5.8360746727        6.4353122374
 Fe        12.9102447560        1.3956465822        6.4339622110
 Fe         2.6544650870       10.2739120419        6.4347544886
 Fe         5.2813494828        5.8553943278        6.3670144930
 Fe         7.7836731566        1.3917187641        6.4348782293
 Fe        -2.4720424494       10.2680500483        6.4351400256
 Fe         0.0741066406        5.8405355041        6.4388421549
 Fe         2.6533199897        1.4016283557        6.4366205358
  O         7.8415581530       10.3834259405        8.2647812706
  H         7.8859637302        9.5498351101        8.7675844926
  H         5.3470321017       10.6165640802        6.6753185824
  O        10.4003212176        5.9410296760        8.2638669389
  H        10.4568291798        5.1119293313        8.7721439885
  H         7.9001680849        6.1428186812        6.6939342010
  O        12.9767566566        1.4989252697        8.2655724331
  H        13.0092146370        0.6663195461        8.7703643950
  H        10.4748535807        1.7356976183        6.6708165451
  O         2.7182071929       10.3765865828        8.2655008502
  H         2.7477250245        9.5327279748        8.7525199098
  H         0.2197685837       10.6127990897        6.6723966567
  O         5.8118371694        5.9723677281        8.1461683915
  H         5.7525294226        5.1473131661        8.6491608060
  H         2.8790926642        6.1838329347        6.6630295030
  O         7.8108442061        1.5047661755        8.2696564124
  H         7.8920613049        0.6719436358        8.7687722828
  H         5.3456345554        1.7309054572        6.6710331471
  O        -2.4218121120       10.3827614955        8.2657042530
  H        -2.3651004676        9.5517763806        8.7712582087
  H        -4.9090490563       10.6086845184        6.6746299743
  O        -0.2447461784        5.8913248992        8.2472060214
  H         0.0317914624        5.1301831313        8.7763175983
  H        -2.3124064492        6.1512599305        6.6706736151
  O         2.7515839977        1.5303652291        8.2841776935
  H         2.7546375286        0.6789486813        8.7588461855
  H         0.2093981786        1.7346458361        6.6743336400
  C         3.5961871648        4.2725678965        9.8524951852
  C         3.0090055366        5.3212024335        9.0549144115
  H         4.1569867503        3.5827580224        9.2051342052
  H         4.2637368298        4.7127827667       10.6057776458
  H         2.8198917851        3.6755288259       10.3488574177
  N         2.5569125264        6.1668719122        8.3896488750
