33
Lattice="7.668573041968109 0.0 0.0 3.8342865209840546 6.641179065120891 0.0 0.0 0.0 34.174242446240996" Properties=species:S:1:pos:R:3:tags:I:1:forces:R:3 energy=-132.25228881835938 free_energy=-132.25228881835938 stress="0.0002933685318566859 -1.607856603413893e-07 -7.770398013917656e-08 -1.607856603413893e-07 0.00029549485770985484 8.596715161957036e-08 -7.770398013917656e-08 8.596715161957036e-08 2.976246094021917e-07" pbc="T T F"
Cu       1.27809551       0.73790879      15.00000000        3      -0.00025946       0.00000411      -0.01000817
Cu       3.83428652       0.73790879      15.00000000        3      -0.00025301      -0.00001488      -0.01161180
Cu       6.39047753       0.73790879      15.00000000        3       0.00051124      -0.00029055      -0.01067699
Cu       2.55619101       2.95163514      15.00000000        3      -0.00011405       0.00000811      -0.01128293
Cu       5.11238203       2.95163514      15.00000000        3      -0.00010171       0.00040931      -0.01092960
Cu       7.66857304       2.95163514      15.00000000        3       0.00021829       0.00009219      -0.01121480
Cu       3.83428652       5.16536150      15.00000000        3       0.00010156       0.00016427      -0.00955715
Cu       6.39047753       5.16536150      15.00000000        3      -0.00009587      -0.00015201      -0.01042604
Cu       8.94666855       5.16536150      15.00000000        3      -0.00001031      -0.00022198      -0.01139057
Cu      -0.00000000       1.47581757      17.08712122        2       0.00039156      -0.00903766       0.01962783
Cu       2.55619101       1.47581757      17.08712122        2       0.00068352       0.00061840       0.00840469
Cu       5.11238203       1.47581757      17.08712122        2      -0.00135110       0.00062097       0.01205389
Cu       1.27809551       3.68954393      17.08712122        2       0.00022136      -0.00013654       0.00569588
Cu       3.83428652       3.68954393      17.08712122        2       0.00582090       0.00311166       0.01873830
Cu       6.39047753       3.68954393      17.08712122        2      -0.00599138       0.00458447       0.01805097
Cu       2.55619101       5.90327028      17.08712122        2       0.00867604       0.00343139       0.01972535
Cu       5.11238203       5.90327028      17.08712122        2      -0.00803494      -0.00035712       0.03105910
Cu       7.66857304       5.90327028      17.08712122        2      -0.00086133      -0.00129634       0.00863905
Cu      -0.00146590       0.00067315      19.18659721        1       0.00138552      -0.00026636      -0.00715353
Cu       2.55709333       0.00056439      19.17523349        1      -0.00138498      -0.00051056      -0.00035210
Cu       5.11280938      -0.00022682      19.17565275        1      -0.00048005       0.00021881      -0.00043849
Cu       1.27795771       2.21313750      19.17470333        1       0.00004760      -0.00001288      -0.00007654
Cu       3.83443889       2.21421770      19.17752480        1       0.00011944       0.00029233      -0.00215456
Cu       6.39012006       2.21378314      19.17535598        1      -0.00031577       0.00063361      -0.00040168
Cu       2.55636198       4.42759852      19.17630638        1       0.00001200       0.00000829      -0.00095262
Cu       5.11193057       4.42823283      19.18131503        1       0.00037887       0.00132968      -0.00331328
Cu       7.66881814       4.42685814      19.17572194        1      -0.00037347       0.00035463      -0.00102355
O       -0.01594981      -0.00221752      23.16960292        0      -0.02248251       0.01269996      -0.03243719
C        1.01735420      -0.98948667      23.15723312        0      -0.00595975      -0.00099027      -0.00531525
H        1.82874276      -0.74096455      23.85962358        0       0.00994787       0.00846057       0.00268367
H        1.44165514      -1.15883439      22.14990395        0       0.00491278       0.00005251      -0.00623700
H        0.53049617      -1.90799100      23.50192236        0      -0.00031368       0.00329325      -0.01503679
H        0.38057983       0.83944406      22.89775968        0       0.01495473      -0.02710138       0.02731196
