33
Lattice="7.668573041968109 0.0 0.0 3.8342865209840546 6.641179065120891 0.0 0.0 0.0 34.174242446240996" Properties=species:S:1:pos:R:3:tags:I:1:forces:R:3 energy=-132.25164794921875 free_energy=-132.25164794921875 stress="0.0002946703170891851 2.176178526269723e-07 -3.58036871261902e-08 2.176178526269723e-07 0.00029373899451456964 1.2911877433907648e-07 -3.58036871261902e-08 1.2911877433907648e-07 5.039645429860684e-07" pbc="T T F"
Cu       1.27809551       0.73790879      15.00000000        3      -0.00047777      -0.00035905      -0.01064656
Cu       3.83428652       0.73790879      15.00000000        3       0.00015548      -0.00008826      -0.01171773
Cu       6.39047753       0.73790879      15.00000000        3       0.00032142      -0.00003127      -0.01026013
Cu       2.55619101       2.95163514      15.00000000        3       0.00006429       0.00049200      -0.01092777
Cu       5.11238203       2.95163514      15.00000000        3       0.00015714       0.00004605      -0.01144700
Cu       7.66857304       2.95163514      15.00000000        3      -0.00021504       0.00012223      -0.01131259
Cu       3.83428652       5.16536150      15.00000000        3      -0.00017400       0.00018718      -0.00933610
Cu       6.39047753       5.16536150      15.00000000        3       0.00002603      -0.00015897      -0.01117613
Cu       8.94666855       5.16536150      15.00000000        3       0.00014399      -0.00021427      -0.01031845
Cu      -0.00000000       1.47581757      17.08712122        2      -0.00132070      -0.00868965       0.01848376
Cu       2.55619101       1.47581757      17.08712122        2       0.00022615       0.00081421       0.01012284
Cu       5.11238203       1.47581757      17.08712122        2       0.00109263       0.00130085       0.00867473
Cu       1.27809551       3.68954393      17.08712122        2       0.00726360       0.00541958       0.01834445
Cu       3.83428652       3.68954393      17.08712122        2      -0.00865254       0.00419977       0.01866119
Cu       6.39047753       3.68954393      17.08712122        2       0.00206731      -0.00224826       0.00691019
Cu       2.55619101       5.90327028      17.08712122        2       0.00828162      -0.00212280       0.03139897
Cu       5.11238203       5.90327028      17.08712122        2      -0.00940381       0.00438334       0.02117680
Cu       7.66857304       5.90327028      17.08712122        2       0.00122426      -0.00225457       0.00947989
Cu       0.00082029       0.00117347      19.18663087        1       0.00000199      -0.00172845      -0.00716650
Cu       2.55641685      -0.00030998      19.17558910        1      -0.00032295      -0.00019421      -0.00072332
Cu       5.11189155       0.00071366      19.17626281        1       0.00095501      -0.00074918      -0.00116578
Cu       1.27811299       2.21340344      19.17456977        1       0.00076169       0.00096386       0.00029489
Cu       3.83405207       2.21369988      19.17655300        1      -0.00022032       0.00079532      -0.00143080
Cu       6.39074001       2.21219971      19.17657923        1       0.00015200       0.00078067      -0.00113516
Cu       2.55616282       4.42861874      19.18144679        1       0.00087881       0.00058505      -0.00299127
Cu       5.11313561       4.42672050      19.17459363        1      -0.00081714       0.00041198       0.00006109
Cu       7.66860318       4.42735530      19.17632164        1       0.00052661      -0.00052733      -0.00143854
O       -0.00229792       0.01577344      23.16996260        0       0.01436818       0.02314496      -0.03293192
C       -0.98944696      -1.01724822      23.15712036        0      -0.00223172       0.00492346      -0.00677916
H       -0.74061860      -1.82857087      23.85933247        0       0.00840470      -0.01064885       0.00354980
H       -1.15891583      -1.44226939      22.14966027        0       0.00004317      -0.00450903      -0.00567678
H       -1.90748660      -0.52958315      23.50186443        0       0.00270262       0.00047021      -0.01524550
H        0.83909078      -0.38081743      22.89754526        0      -0.02598269      -0.01451656       0.02666856
