33
Lattice="7.668573041968109 0.0 0.0 3.8342865209840546 6.641179065120891 0.0 0.0 0.0 34.174242446240996" Properties=species:S:1:pos:R:3:tags:I:1:forces:R:3 energy=-132.25192260742188 free_energy=-132.25192260742188 stress="0.00029444642132148147 -7.529048957621853e-07 1.9723115940450953e-07 -7.529048957621853e-07 0.00029346448718570173 1.5147845999763376e-07 1.9723115940450953e-07 1.5147845999763376e-07 8.207553747752172e-08" pbc="T T F"
Cu       1.27809551       0.73790879      15.00000000        3       0.00006875      -0.00027636      -0.00930341
Cu       3.83428652       0.73790879      15.00000000        3      -0.00051528      -0.00027301      -0.01068354
Cu       6.39047753       0.73790879      15.00000000        3       0.00042986      -0.00017594      -0.01081991
Cu       2.55619101       2.95163514      15.00000000        3      -0.00014623       0.00007332      -0.01142710
Cu       5.11238203       2.95163514      15.00000000        3       0.00006939       0.00012947      -0.01182193
Cu       7.66857304       2.95163514      15.00000000        3       0.00007368       0.00015392      -0.01136459
Cu       3.83428652       5.16536150      15.00000000        3      -0.00011113       0.00029298      -0.01042705
Cu       6.39047753       5.16536150      15.00000000        3       0.00019325       0.00029211      -0.01017275
Cu       8.94666855       5.16536150      15.00000000        3      -0.00006415      -0.00021512      -0.01135192
Cu      -0.00000000       1.47581757      17.08712122        2       0.00011190      -0.00906108       0.02104922
Cu       2.55619101       1.47581757      17.08712122        2      -0.00117900      -0.01011036       0.02021732
Cu       5.11238203       1.47581757      17.08712122        2       0.00035740       0.00056074       0.01125484
Cu       1.27809551       3.68954393      17.08712122        2      -0.00037024       0.00103890       0.00478862
Cu       3.83428652       3.68954393      17.08712122        2      -0.00235772      -0.00005162       0.00673618
Cu       6.39047753       3.68954393      17.08712122        2       0.00233997      -0.00086126       0.00589743
Cu       2.55619101       5.90327028      17.08712122        2       0.00914606       0.00467974       0.02007191
Cu       5.11238203       5.90327028      17.08712122        2       0.00187833       0.00947718       0.03200653
Cu       7.66857304       5.90327028      17.08712122        2      -0.00830605       0.00378888       0.01834673
Cu       0.00129450       0.00029159      19.18271343        1       0.00103129      -0.00073442      -0.00349943
Cu       2.55754757       0.00046575      19.18661753        1      -0.00125922      -0.00081931      -0.00710729
Cu       5.11227564       0.00020166      19.17471310        1       0.00119641       0.00008217       0.00006989
Cu       1.27832783       2.21437753      19.17591227        1      -0.00001668      -0.00059391      -0.00084548
Cu       3.83337823       2.21325942      19.17631801        1       0.00060101       0.00022050      -0.00089400
Cu       6.39079295       2.21334526      19.17703392        1       0.00010814      -0.00053973      -0.00191718
Cu       2.55589518       4.42786545      19.17546975        1       0.00058456       0.00057860      -0.00082032
Cu       5.11239452       4.42595064      19.17423674        1       0.00019219       0.00149869       0.00022782
Cu       7.66823084       4.42772407      19.17471094        1      -0.00010457       0.00011561      -0.00019860
O        2.56551718       0.01293119      23.16986181        0       0.02627695       0.00681368      -0.03287114
C        1.13707987      -0.01983782      23.15729629        0       0.00155926       0.00461195      -0.00608253
H        0.73954570      -0.76948263      23.85966970        0      -0.00123200      -0.01419863       0.00358370
H        0.71656678      -0.20029746      22.14983329        0      -0.00394398      -0.00295142      -0.00482397
H        0.83266070       0.97385937      23.50269501        0       0.00210410      -0.00193454      -0.01438577
H        2.88041997      -0.86234053      22.89751953        0      -0.02871597       0.00838836       0.02656778
