33
Lattice="7.668573041968109 0.0 0.0 3.8342865209840546 6.641179065120891 0.0 0.0 0.0 34.174242446240996" Properties=species:S:1:pos:R:3:tags:I:1:forces:R:3 energy=-132.25238037109375 free_energy=-132.25238037109375 stress="0.0002948337059933692 7.402756523333665e-07 5.038151584813022e-08 7.402756523333665e-07 0.0002945077430922538 -1.315646045441099e-07 5.038151584813022e-08 -1.315646045441099e-07 1.1254078344791196e-06" pbc="T T F"
Cu       1.27809551       0.73790879      15.00000000        3      -0.00046312      -0.00008864      -0.01023108
Cu       3.83428652       0.73790879      15.00000000        3      -0.00003211      -0.00000856      -0.01176634
Cu       6.39047753       0.73790879      15.00000000        3       0.00049257      -0.00020552      -0.01050840
Cu       2.55619101       2.95163514      15.00000000        3      -0.00023101       0.00011589      -0.01110777
Cu       5.11238203       2.95163514      15.00000000        3       0.00014425       0.00022877      -0.01120942
Cu       7.66857304       2.95163514      15.00000000        3       0.00008632       0.00005814      -0.01119935
Cu       3.83428652       5.16536150      15.00000000        3       0.00002944       0.00034234      -0.00933357
Cu       6.39047753       5.16536150      15.00000000        3      -0.00009357      -0.00022492      -0.01071605
Cu       8.94666855       5.16536150      15.00000000        3       0.00007091      -0.00021829      -0.01088322
Cu      -0.00000000       1.47581757      17.08712122        2       0.00124216      -0.00822253       0.01876304
Cu       2.55619101       1.47581757      17.08712122        2      -0.00254167       0.00168117       0.00838219
Cu       5.11238203       1.47581757      17.08712122        2       0.00131447       0.00002430       0.00993108
Cu       1.27809551       3.68954393      17.08712122        2       0.00115200       0.00147148       0.01230165
Cu       3.83428652       3.68954393      17.08712122        2       0.00034587       0.00387630       0.01877212
Cu       6.39047753       3.68954393      17.08712122        2      -0.00174924       0.00328815       0.01517895
Cu       2.55619101       5.90327028      17.08712122        2       0.00959795       0.00111054       0.02547423
Cu       5.11238203       5.90327028      17.08712122        2      -0.01014023       0.00027637       0.02747837
Cu       7.66857304       5.90327028      17.08712122        2       0.00143758      -0.00338677       0.01124822
Cu      -0.00036529       0.00158902      19.18658134        1       0.00108540      -0.00118161      -0.00719877
Cu       2.55636624      -0.00031149      19.17502339        1      -0.00021659      -0.00022561      -0.00018776
Cu       5.11351829      -0.00047649      19.17682512        1      -0.00042428       0.00044131      -0.00126880
Cu       1.27829332       2.21397505      19.17568065        1       0.00022520      -0.00017336      -0.00072331
Cu       3.83407054       2.21321481      19.17623149        1       0.00053081       0.00013594      -0.00131813
Cu       6.39065968       2.21360482      19.17502399        1      -0.00023076       0.00080011       0.00001204
Cu       2.55590668       4.42767382      19.17823779        1       0.00152894       0.00033163      -0.00214186
Cu       5.11222132       4.42742351      19.17843080        1      -0.00060222       0.00084731      -0.00186959
Cu       7.66904051       4.42745253      19.17734984        1      -0.00042751       0.00001294      -0.00196702
O       -0.01273424       0.00991372      23.16976747        0      -0.00611541       0.02550399      -0.03222962
C        0.01956411      -1.41887268      23.15673735        0      -0.00547422       0.00401759      -0.00659958
H        0.76901668      -1.81720088      23.85894897        0       0.01267497      -0.00170591       0.00165267
H        0.19999017      -1.83800858      22.14911609        0       0.00368273      -0.00205711      -0.00756709
H       -0.97438443      -1.72404645      23.50099164        0       0.00174285       0.00246915      -0.01646977
H        0.86283787       0.32436018      22.89768575        0      -0.00864242      -0.02933444       0.02730200
