33
Lattice="7.668573041968109 0.0 0.0 3.8342865209840546 6.641179065120891 0.0 0.0 0.0 34.174242446240996" Properties=species:S:1:pos:R:3:tags:I:1:forces:R:3 energy=-132.25192260742188 free_energy=-132.25192260742188 stress="0.00029444656684063375 -7.526685408265621e-07 1.9665709771743423e-07 -7.526685408265621e-07 0.0002934651856776327 1.5100060579698038e-07 1.9665709771743423e-07 1.5100060579698038e-07 8.221206826419802e-08" pbc="T T F"
Cu       1.27809551       0.73790879      15.00000000        3      -0.00051605      -0.00027300      -0.01068364
Cu       3.83428652       0.73790879      15.00000000        3       0.00043161      -0.00017568      -0.01081964
Cu       6.39047753       0.73790879      15.00000000        3       0.00006777      -0.00027640      -0.00930380
Cu       2.55619101       2.95163514      15.00000000        3       0.00006935       0.00012895      -0.01182199
Cu       5.11238203       2.95163514      15.00000000        3       0.00007295       0.00015397      -0.01136439
Cu       7.66857304       2.95163514      15.00000000        3      -0.00014534       0.00007360      -0.01142752
Cu       3.83428652       5.16536150      15.00000000        3       0.00019511       0.00029207      -0.01017260
Cu       6.39047753       5.16536150      15.00000000        3      -0.00006485      -0.00021555      -0.01135194
Cu       8.94666855       5.16536150      15.00000000        3      -0.00011236       0.00029330      -0.01042724
Cu      -0.00000000       1.47581757      17.08712122        2      -0.00117837      -0.01011122       0.02021768
Cu       2.55619101       1.47581757      17.08712122        2       0.00035755       0.00056052       0.01125498
Cu       5.11238203       1.47581757      17.08712122        2       0.00011137      -0.00906232       0.02105115
Cu       1.27809551       3.68954393      17.08712122        2      -0.00235822      -0.00005124       0.00673629
Cu       3.83428652       3.68954393      17.08712122        2       0.00234163      -0.00086188       0.00589691
Cu       6.39047753       3.68954393      17.08712122        2      -0.00037167       0.00103920       0.00478946
Cu       2.55619101       5.90327028      17.08712122        2       0.00187689       0.00947832       0.03200893
Cu       5.11238203       5.90327028      17.08712122        2      -0.00830639       0.00378850       0.01834670
Cu       7.66857304       5.90327028      17.08712122        2       0.00914791       0.00468077       0.02007424
Cu       0.00135662       0.00046566      19.18661764        1      -0.00125953      -0.00081810      -0.00710747
Cu       2.55608461       0.00020164      19.17471312        1       0.00119664       0.00008136       0.00006995
Cu       5.11367645       0.00029168      19.18271354        1       0.00103155      -0.00073413      -0.00350654
Cu       1.27718728       2.21325936      19.17631795        1       0.00060082       0.00022045      -0.00089389
Cu       3.83460196       2.21334529      19.17703388        1       0.00010818      -0.00053988      -0.00191674
Cu       6.39070981       2.21437758      19.17591230        1      -0.00001666      -0.00059425      -0.00084490
Cu       2.55620369       4.42595065      19.17423686        1       0.00019122       0.00149876       0.00022812
Cu       5.11203977       4.42772403      19.17471070        1      -0.00010110       0.00011573      -0.00019912
Cu       7.66827706       4.42786545      19.17546967        1       0.00058221       0.00057901      -0.00082048
O        0.00932610       0.01293117      23.16986164        0       0.02626812       0.00684276      -0.03286482
C       -1.41911113      -0.01983801      23.15729528        0       0.00154960       0.00462517      -0.00600337
H       -1.81664550      -0.76948292      23.85966982        0      -0.00121790      -0.01417474       0.00355829
H       -1.83962447      -0.20029756      22.14983361        0      -0.00395784      -0.00295680      -0.00486054
H       -1.72352997       0.97385983      23.50269518        0       0.00211179      -0.00196514      -0.01440059
H        0.32422919      -0.86234034      22.89751979        0      -0.02870570       0.00835780       0.02655831
