     161
 i =        1, E =     -8104.5019038835
 Fe         5.0938794100       11.8196869300        0.3885799900
 Fe         7.6575796300        7.3792284900        0.3885799900
 Fe        10.2212798400        2.9387700600        0.3885799900
 Fe        -0.0335205200       11.8196869300        0.3885799900
 Fe         2.5301797000        7.3792284900        0.3885799900
 Fe         5.0938799200        2.9387700600        0.3885799900
 Fe        -5.1609204400       11.8196869300        0.3885799900
 Fe        -2.5972202200        7.3792284900        0.3885799900
 Fe        -0.0335200000        2.9387700600        0.3885799900
  O         8.4519195100        8.9577468800        1.1642700400
  O        11.0156197300        4.5172884400        1.1642700400
  O        13.5793199500        0.0768300000        1.1642700400
  O         3.3245195900        8.9577468800        1.1642700400
  O         5.8882198100        4.5172884400        1.1642700400
  O         8.4519200300        0.0768300000        1.1642700400
  O        -1.8028803300        8.9577468800        1.1642700400
  O         0.7608198900        4.5172884400        1.1642700400
  O         3.3245201100        0.0768300000        1.1642700400
  O         8.4568493000       11.7183869300        1.1650400200
  O        11.0205495200        7.2779284900        1.1650400200
  O        13.5842497300        2.8374700500        1.1650400200
  O         3.3294493700       11.7183869300        1.1650400200
  O         5.8931495900        7.2779284900        1.1650400200
  O         8.4568498100        2.8374700500        1.1650400200
  O        -1.7979505500       11.7183869300        1.1650400200
  O         0.7657496700        7.2779284900        1.1650400200
  O         3.3294498900        2.8374700500        1.1650400200
  O         6.0627194200       10.3425368500        1.1660399400
  O         8.6264196400        5.9020784100        1.1660399400
  O        11.1901198600        1.4616199700        1.1660399400
  O         0.9353195000       10.3425368500        1.1660399400
  O         3.4990197200        5.9020784100        1.1660399400
  O         6.0627199400        1.4616199700        1.1660399400
  O        -4.1920804200       10.3425368500        1.1660399400
  O        -1.6283802000        5.9020784100        1.1660399400
  O         0.9353200200        1.4616199700        1.1660399400
 Fe         7.6576695000       13.2997167500        1.9292099500
 Fe        10.2213697200        8.8592583200        1.9292099500
 Fe        12.7850699400        4.4187998800        1.9292099500
 Fe         2.5302695800       13.2997167500        1.9292099500
 Fe         5.0939698000        8.8592583200        1.9292099500
 Fe         7.6576700200        4.4187998800        1.9292099500
 Fe        -2.5971303400       13.2997167500        1.9292099500
 Fe        -0.0334301200        8.8592583200        1.9292099500
 Fe         2.5302701000        4.4187998800        1.9292099500
 Fe         7.6573893600       10.3392168700        2.7128999200
 Fe        10.2210895800        5.8987584300        2.7128999200
 Fe        12.7847898000        1.4582999900        2.7128999200
 Fe         2.5299894400       10.3392168700        2.7128999200
 Fe         5.0936896600        5.8987584300        2.7128999200
 Fe         7.6573898800        1.4582999900        2.7128999200
 Fe        -2.5974104800       10.3392168700        2.7128999200
 Fe        -0.0337102600        5.8987584300        2.7128999200
 Fe         2.5299899600        1.4582999900        2.7128999200
  O         4.1334280040       13.3031011042        3.4994556414
  O         6.6969084204        8.8637333593        3.4968772461
  O         9.2621727830        4.4253756510        3.5015474598
  O        -0.9944975186       13.3036289558        3.4991381355
  O         1.5694298442        8.8638082925        3.4991318404
  O         4.1321111463        4.4221034345        3.4966828626
  O        -6.1221785848       13.3033799279        3.4987869092
  O        -3.5562253744        8.8651711473        3.5000387937
  O        -0.9950393734        4.4226767855        3.4988270934
  O         6.8606475465       11.9097268728        3.5010071109
  O         9.4309402114        7.4696246025        3.4987169148
  O        11.9875330770        3.0296650064        3.5007506570
  O         1.7332750958       11.9105747594        3.5002714967
  O         4.2971531728        7.4693121185        3.4991239447
  O         6.8603082504        3.0274540471        3.4979972277
  O        -3.3940124477       11.9095800262        3.5005913877
  O        -0.8304768585        7.4697896497        3.5002884770
  O         1.7342870787        3.0291666894        3.5011355633
  O         9.4164528206       10.2455351598        3.4993897945
  O        11.9787513215        5.8044296470        3.5022462809
  O        14.5421244390        1.3636107212        3.5015737758
  O         4.2857319658       10.2485201216        3.4994284427
  O         6.8518275649        5.8053075708        3.4997307354
  O         9.4153473240        1.3638139576        3.5012885864
  O        -0.8394060402       10.2448066547        3.5010096123
  O         1.7238235551        5.8038519735        3.5000085989
  O         4.2883454507        1.3645903599        3.5007017554
 Fe         5.0948772662       11.8179318137        4.4877166287
 Fe         7.6651504757        7.3772499874        4.4712607135
 Fe        10.2209803351        2.9378821158        4.4860959773
 Fe        -0.0329377118       11.8188433323        4.4865044318
 Fe         2.5304880581        7.3791977834        4.4851552483
 Fe         5.0941500704        2.9384626058        4.4856133668
 Fe        -5.1598254353       11.8191637617        4.4860893517
 Fe        -2.5959556917        7.3793113973        4.4857577726
 Fe        -0.0325644319        2.9379195256        4.4860843947
 Fe         7.6586386007       13.2999133112        4.8223105578
 Fe        10.2288597919        8.8595026155        4.8178246146
 Fe        12.7872308218        4.4185322519        4.8228354645
 Fe         2.5315533549       13.2996242768        4.8229103459
 Fe         5.0904630459        8.8642119352        4.8111682540
 Fe         7.6591715128        4.4150065840        4.8151103236
 Fe        -2.5965420890       13.2993548132        4.8221396388
 Fe        -0.0319090375        8.8590939379        4.8223528557
 Fe         2.5319205255        4.4184309552        4.8235407563
  O         5.8673543638       10.3835092482        5.7261128251
  O         8.4301018095        5.9442660042        5.7247994507
  O        10.9935798999        1.5089272709        5.7264552555
  O         0.7403483741       10.3884706313        5.7268357853
  O         3.3031319282        5.9508214536        5.7090849314
  O         5.8661285164        1.5067848263        5.7270007186
  O        -4.3889212749       10.3880220600        5.7267236108
  O        -1.8249758290        5.9490331960        5.7272743889
  O         0.7384887799        1.5075893405        5.7263910012
  O         5.9476027910       13.2030665705        5.7254229721
  O         8.5085652496        8.7765636798        5.6836638288
  O        11.0757168654        4.3218740092        5.7293155200
  O         0.8204536563       13.2036546022        5.7276530711
  O         3.3879869434        8.7620869243        5.7305633800
  O         5.9543015993        4.3184536086        5.7112755055
  O        -4.3068355340       13.2033136550        5.7274173551
  O        -1.7429274728        8.7629306208        5.7279879877
  O         0.8194565263        4.3219238529        5.7264494085
  O         3.4688558904       11.8652743001        5.7274988803
  O         6.0147136740        7.3954043331        5.6662817077
  O         8.5970795878        2.9871947548        5.7325095584
  O        -1.6580388317       11.8657958922        5.7294199224
  O         0.9053699449        7.4258490829        5.7291232695
  O         3.4694388928        2.9828900249        5.7269020236
  O        -6.7823206268       11.8696622607        5.7281349829
  O        -4.2195158823        7.4265266771        5.7314340675
  O        -1.6585567517        2.9841586288        5.7293538627
 Fe         7.6596892697       10.3458969807        5.9671478658
 Fe        10.2248426818        5.8999253103        5.9718100280
 Fe        12.7852500560        1.4571470255        5.9820926064
 Fe         2.5321501867       10.3383873575        5.9849913920
 Fe         5.0811315739        5.8701090251        6.0454755711
 Fe         7.6577159584        1.4589831436        5.9790770278
 Fe        -2.5973876549       10.3393816460        5.9794794332
 Fe        -0.0323297671        5.8986088545        5.9812353365
 Fe         2.5300703823        1.4582583279        5.9821747812
  C         8.5131002588        7.9373402114       11.4591188725
  C         8.9935222277        6.7940573695       10.5562232534
  H         9.2953175613        8.1190599425       12.2203131168
  O         8.2758150422        9.1638757333       10.7577930817
  H         7.6000464932        7.6228330059       11.9913613342
  C         7.9274097799        6.1086261396        9.6805138669
  C         7.3341428171        6.8964580602        8.4699079956
  O         6.8494790481        5.6284754526       10.5189290770
  H         8.4459566966        5.2291456064        9.2595500889
  C         5.8128012576        7.1609389816        8.5108000174
  H         7.5492306711        6.3029312003        7.5651647222
  O         8.0355068476        8.1602502624        8.3166260332
  C         5.2588170139        8.1067914967        9.5720224496
  O         5.1022561877        5.9178027742        8.4482555628
  H         5.6081176825        7.6225561320        7.5272939042
  H         5.4847344100        7.6953263187       10.5649037548
  O         5.8277633601        9.4219800579        9.3829428496
  H         4.1717387217        8.1558133625        9.4135334216
  H         8.4544460225        8.9525815348        9.8056319115
  H         7.2758266313        5.0529241118       11.1836913141
  H         7.3129861979        8.8253981479        8.2094833489
  H         5.3857194572        5.4111193545        9.2435300711
  H         6.5191415940        9.5147914685       10.0794667945
  O         9.4687668838        5.7043166535       11.3818550757
  H         9.8020390490        7.1630385327        9.8973902324
  H        10.1408710556        6.0537826486       11.9928060080
     161
 i =        2, E =     -8104.5053357914
 Fe         5.0938794100       11.8196869300        0.3885799900
 Fe         7.6575796300        7.3792284900        0.3885799900
 Fe        10.2212798400        2.9387700600        0.3885799900
 Fe        -0.0335205200       11.8196869300        0.3885799900
 Fe         2.5301797000        7.3792284900        0.3885799900
 Fe         5.0938799200        2.9387700600        0.3885799900
 Fe        -5.1609204400       11.8196869300        0.3885799900
 Fe        -2.5972202200        7.3792284900        0.3885799900
 Fe        -0.0335200000        2.9387700600        0.3885799900
  O         8.4519195100        8.9577468800        1.1642700400
  O        11.0156197300        4.5172884400        1.1642700400
  O        13.5793199500        0.0768300000        1.1642700400
  O         3.3245195900        8.9577468800        1.1642700400
  O         5.8882198100        4.5172884400        1.1642700400
  O         8.4519200300        0.0768300000        1.1642700400
  O        -1.8028803300        8.9577468800        1.1642700400
  O         0.7608198900        4.5172884400        1.1642700400
  O         3.3245201100        0.0768300000        1.1642700400
  O         8.4568493000       11.7183869300        1.1650400200
  O        11.0205495200        7.2779284900        1.1650400200
  O        13.5842497300        2.8374700500        1.1650400200
  O         3.3294493700       11.7183869300        1.1650400200
  O         5.8931495900        7.2779284900        1.1650400200
  O         8.4568498100        2.8374700500        1.1650400200
  O        -1.7979505500       11.7183869300        1.1650400200
  O         0.7657496700        7.2779284900        1.1650400200
  O         3.3294498900        2.8374700500        1.1650400200
  O         6.0627194200       10.3425368500        1.1660399400
  O         8.6264196400        5.9020784100        1.1660399400
  O        11.1901198600        1.4616199700        1.1660399400
  O         0.9353195000       10.3425368500        1.1660399400
  O         3.4990197200        5.9020784100        1.1660399400
  O         6.0627199400        1.4616199700        1.1660399400
  O        -4.1920804200       10.3425368500        1.1660399400
  O        -1.6283802000        5.9020784100        1.1660399400
  O         0.9353200200        1.4616199700        1.1660399400
 Fe         7.6576695000       13.2997167500        1.9292099500
 Fe        10.2213697200        8.8592583200        1.9292099500
 Fe        12.7850699400        4.4187998800        1.9292099500
 Fe         2.5302695800       13.2997167500        1.9292099500
 Fe         5.0939698000        8.8592583200        1.9292099500
 Fe         7.6576700200        4.4187998800        1.9292099500
 Fe        -2.5971303400       13.2997167500        1.9292099500
 Fe        -0.0334301200        8.8592583200        1.9292099500
 Fe         2.5302701000        4.4187998800        1.9292099500
 Fe         7.6573893600       10.3392168700        2.7128999200
 Fe        10.2210895800        5.8987584300        2.7128999200
 Fe        12.7847898000        1.4582999900        2.7128999200
 Fe         2.5299894400       10.3392168700        2.7128999200
 Fe         5.0936896600        5.8987584300        2.7128999200
 Fe         7.6573898800        1.4582999900        2.7128999200
 Fe        -2.5974104800       10.3392168700        2.7128999200
 Fe        -0.0337102600        5.8987584300        2.7128999200
 Fe         2.5299899600        1.4582999900        2.7128999200
  O         4.1347014172       13.2996109921        3.4979426291
  O         6.7000312931        8.8626308253        3.4851794650
  O         9.2689012110        4.4226133681        3.5048207852
  O        -0.9922375498       13.2993300830        3.4981081979
  O         1.5734493808        8.8591659483        3.4998688941
  O         4.1307673068        4.4124696152        3.4838669527
  O        -6.1209890158       13.2993557079        3.4961964753
  O        -3.5496652101        8.8610982333        3.5014174125
  O        -0.9942626955        4.4182430748        3.4968696763
  O         6.8583901324       11.9093886849        3.5029136039
  O         9.4291053034        7.4658451263        3.4997854022
  O        11.9842886826        3.0317614064        3.4994595763
  O         1.7301130045       11.9128699184        3.4978313882
  O         4.2805724648        7.4784239557        3.4701448020
  O         6.8587839882        3.0244146957        3.4931252936
  O        -3.3961023200       11.9103695951        3.4996233523
  O        -0.8332311771        7.4719685153        3.4984786704
  O         1.7307886327        3.0288737607        3.5009743218
  O         9.4246376004       10.2544317744        3.4895101097
  O        11.9812243700        5.8075528902        3.5036178902
  O        14.5455968033        1.3668606126        3.4988526467
  O         4.2872927137       10.2552092436        3.4998586870
  O         6.8697029202        5.8039101691        3.4712675767
  O         9.4189710579        1.3672031963        3.5003798846
  O        -0.8359729234       10.2475152159        3.4997386673
  O         1.7242055877        5.8068425200        3.4961261171
  O         4.2925765643        1.3666193837        3.4979730065
 Fe         5.0956443748       11.8185569701        4.5001612910
 Fe         7.6578165709        7.3699070776        4.4626679646
 Fe        10.2222710052        2.9361528004        4.4982452929
 Fe        -0.0316289109       11.8186557495        4.4970900504
 Fe         2.5367792628        7.3759863690        4.4949079761
 Fe         5.0934788877        2.9409591525        4.4925357697
 Fe        -5.1582401794       11.8208093980        4.4955663194
 Fe        -2.5918972878        7.3784906826        4.4977223294
 Fe        -0.0316536627        2.9380154254        4.4968098477
 Fe         7.6597834597       13.3027792671        4.8179888224
 Fe        10.2345589217        8.8634862040        4.8060982748
 Fe        12.7899749429        4.4183292381        4.8198768303
 Fe         2.5324864936       13.2994829877        4.8199975738
 Fe         5.0889422297        8.8545089709        4.7842058989
 Fe         7.6550350385        4.4131969090        4.7965978921
 Fe        -2.5958750469       13.3001893297        4.8183953745
 Fe        -0.0297221253        8.8598710660        4.8192962622
 Fe         2.5347730319        4.4204660563        4.8183228919
  O         5.8670836061       10.3645772404        5.7262798304
  O         8.4317018586        5.9359374587        5.7300715424
  O        10.9947547990        1.5058000339        5.7319301906
  O         0.7440201270       10.3853506010        5.7322620287
  O         3.3084224498        5.9479689310        5.6901890384
  O         5.8666898171        1.5032522033        5.7321923534
  O        -4.3884502036       10.3851828695        5.7325701909
  O        -1.8234910867        5.9450637374        5.7344599423
  O         0.7394987564        1.5049791816        5.7315076038
  O         5.9508756586       13.2054411487        5.7281870746
  O         8.4982727262        8.7943288158        5.6229952949
  O        11.0797282766        4.3242098811        5.7381567725
  O         0.8228973324       13.2075025615        5.7325888314
  O         3.4004681039        8.7647974174        5.7392049223
  O         5.9620347059        4.3147301955        5.6938577538
  O        -4.3037966835       13.2063946749        5.7317937727
  O        -1.7398168014        8.7665147932        5.7336796861
  O         0.8215247709        4.3244190837        5.7297875174
  O         3.4650056037       11.8657912162        5.7308709975
  O         5.9798030645        7.3396164235        5.5944000756
  O         8.5923902142        2.9937758503        5.7416544576
  O        -1.6611223339       11.8673253721        5.7353508987
  O         0.9033809608        7.4281030833        5.7336035374
  O         3.4663751433        2.9843320308        5.7313559312
  O        -6.7811558452       11.8780362621        5.7338511632
  O        -4.2218591453        7.4321686887        5.7400752266
  O        -1.6628952557        2.9846619307        5.7356882606
 Fe         7.6604435888       10.3565432929        5.9646870595
 Fe        10.2309103854        5.9020860646        5.9784507678
 Fe        12.7854362449        1.4557484087        5.9990814350
 Fe         2.5352437238       10.3367894091        6.0044012009
 Fe         5.0578130134        5.8193670847        6.2226993527
 Fe         7.6570370339        1.4607341423        5.9939933767
 Fe        -2.5978760129       10.3404286007        5.9961278121
 Fe        -0.0302685599        5.8993555529        5.9970505788
 Fe         2.5303579181        1.4593039129        5.9974745749
  C         8.5118116956        7.9388477932       11.4584986970
  C         8.9891851331        6.7942822680       10.5535838154
  H         9.2966417362        8.1174191967       12.2190682878
  O         8.2808939433        9.1694264231       10.7661823958
  H         7.5991838765        7.6214048262       11.9905752460
  C         7.9316718607        6.0840319637        9.6898838218
  C         7.3458359177        6.9112629073        8.5213009396
  O         6.8362508542        5.6258205243       10.5218871442
  H         8.4485971259        5.2123486822        9.2536749863
  C         5.8359988032        7.1795735026        8.5279981419
  H         7.5319754495        6.3553768421        7.5751943437
  O         8.0493512311        8.1714873447        8.3962440170
  C         5.2632391945        8.0903099166        9.5889055368
  O         5.0863208191        5.9425100184        8.4158318875
  H         5.6425890474        7.7084301593        7.5808332663
  H         5.4629961491        7.7286233893       10.6044294960
  O         5.8086428237        9.4140906811        9.4125723359
  H         4.1761111766        8.1666536670        9.4297168682
  H         8.4401523850        8.9413035282        9.8095940227
  H         7.2700454001        5.0487221453       11.1800237164
  H         7.2976665650        8.7948451307        8.2208048945
  H         5.3895759267        5.3654714715        9.1680026039
  H         6.5254551579        9.5188728082       10.0808672932
  O         9.4640141825        5.7056271654       11.3835092789
  H         9.8018128170        7.1590351850        9.8967143799
  H        10.1410489739        6.0539779690       11.9892138822
     161
 i =        3, E =     -8104.4996211281
 Fe         5.0938794100       11.8196869300        0.3885799900
 Fe         7.6575796300        7.3792284900        0.3885799900
 Fe        10.2212798400        2.9387700600        0.3885799900
 Fe        -0.0335205200       11.8196869300        0.3885799900
 Fe         2.5301797000        7.3792284900        0.3885799900
 Fe         5.0938799200        2.9387700600        0.3885799900
 Fe        -5.1609204400       11.8196869300        0.3885799900
 Fe        -2.5972202200        7.3792284900        0.3885799900
 Fe        -0.0335200000        2.9387700600        0.3885799900
  O         8.4519195100        8.9577468800        1.1642700400
  O        11.0156197300        4.5172884400        1.1642700400
  O        13.5793199500        0.0768300000        1.1642700400
  O         3.3245195900        8.9577468800        1.1642700400
  O         5.8882198100        4.5172884400        1.1642700400
  O         8.4519200300        0.0768300000        1.1642700400
  O        -1.8028803300        8.9577468800        1.1642700400
  O         0.7608198900        4.5172884400        1.1642700400
  O         3.3245201100        0.0768300000        1.1642700400
  O         8.4568493000       11.7183869300        1.1650400200
  O        11.0205495200        7.2779284900        1.1650400200
  O        13.5842497300        2.8374700500        1.1650400200
  O         3.3294493700       11.7183869300        1.1650400200
  O         5.8931495900        7.2779284900        1.1650400200
  O         8.4568498100        2.8374700500        1.1650400200
  O        -1.7979505500       11.7183869300        1.1650400200
  O         0.7657496700        7.2779284900        1.1650400200
  O         3.3294498900        2.8374700500        1.1650400200
  O         6.0627194200       10.3425368500        1.1660399400
  O         8.6264196400        5.9020784100        1.1660399400
  O        11.1901198600        1.4616199700        1.1660399400
  O         0.9353195000       10.3425368500        1.1660399400
  O         3.4990197200        5.9020784100        1.1660399400
  O         6.0627199400        1.4616199700        1.1660399400
  O        -4.1920804200       10.3425368500        1.1660399400
  O        -1.6283802000        5.9020784100        1.1660399400
  O         0.9353200200        1.4616199700        1.1660399400
 Fe         7.6576695000       13.2997167500        1.9292099500
 Fe        10.2213697200        8.8592583200        1.9292099500
 Fe        12.7850699400        4.4187998800        1.9292099500
 Fe         2.5302695800       13.2997167500        1.9292099500
 Fe         5.0939698000        8.8592583200        1.9292099500
 Fe         7.6576700200        4.4187998800        1.9292099500
 Fe        -2.5971303400       13.2997167500        1.9292099500
 Fe        -0.0334301200        8.8592583200        1.9292099500
 Fe         2.5302701000        4.4187998800        1.9292099500
 Fe         7.6573893600       10.3392168700        2.7128999200
 Fe        10.2210895800        5.8987584300        2.7128999200
 Fe        12.7847898000        1.4582999900        2.7128999200
 Fe         2.5299894400       10.3392168700        2.7128999200
 Fe         5.0936896600        5.8987584300        2.7128999200
 Fe         7.6573898800        1.4582999900        2.7128999200
 Fe        -2.5974104800       10.3392168700        2.7128999200
 Fe        -0.0337102600        5.8987584300        2.7128999200
 Fe         2.5299899600        1.4582999900        2.7128999200
  O         4.1334390463       13.3016901913        3.4979041144
  O         6.7396643644        8.8841464030        3.5482978244
  O         9.2905410569        4.4298704982        3.5411390353
  O        -0.9912908104       13.2987158517        3.4991453449
  O         1.5753558729        8.8583114988        3.5023632796
  O         4.1287548984        4.4068982990        3.4740558831
  O        -6.1211044508       13.3011518363        3.4970296910
  O        -3.5470085181        8.8596526820        3.5045842756
  O        -0.9952817844        4.4181791278        3.4975131931
  O         6.8609591214       11.9086336650        3.5064090983
  O         9.4262070948        7.4609832018        3.5020132905
  O        11.9861972269        3.0325574993        3.5000061006
  O         1.7308544559       11.9135264551        3.4978983562
  O         4.2617395887        7.4435287119        3.5133098769
  O         6.8609440751        3.0008512438        3.5263970830
  O        -3.3945461260       11.9107697618        3.5007396600
  O        -0.8325169103        7.4731505650        3.4989260466
  O         1.7296309207        3.0249454949        3.5052973010
  O         9.4307929893       10.2610650933        3.4814922303
  O        11.9815007528        5.8077032156        3.5067990197
  O        14.5469220375        1.3679000332        3.4980641191
  O         4.2516745428       10.2795794063        3.5773293631
  O         6.8707537435        5.8066007429        3.4736634257
  O         9.4197690823        1.3678052360        3.5016871443
  O        -0.8360164674       10.2471117935        3.5016299896
  O         1.7189647144        5.8067699246        3.4970990382
  O         4.2937556143        1.3652393037        3.4979485866
 Fe         5.1034062071       11.8359915963        4.5128371891
 Fe         7.6555233082        7.3543485278        4.4735987070
 Fe        10.2290956920        2.9283012764        4.5056842246
 Fe        -0.0302022284       11.8185560335        4.4973807399
 Fe         2.5264771056        7.3688010477        4.5075601301
 Fe         5.0846090937        2.9441147197        4.4958279074
 Fe        -5.1571425000       11.8230985485        4.4947990442
 Fe        -2.5884711066        7.3775055749        4.5002485712
 Fe        -0.0315131104        2.9389553087        4.4980430755
 Fe         7.6621958497       13.3057516475        4.8125546391
 Fe        10.2332006746        8.8660829731        4.7976241076
 Fe        12.7916809704        4.4176726108        4.8168552626
 Fe         2.5326583512       13.2982564495        4.8159614755
 Fe         5.0914760687        8.8343254651        4.8070650101
 Fe         7.6479013998        4.4137803345        4.8011268809
 Fe        -2.5944546458       13.3011000273        4.8149864737
 Fe        -0.0277516418        8.8612389814        4.8155418316
 Fe         2.5373793822        4.4232824944        4.8100642469
  O         5.8665313435       10.3590456924        5.7294563768
  O         8.4336791662        5.9299808416        5.7455457323
  O        10.9948809628        1.5004990134        5.7372316543
  O         0.7453308705       10.3852285060        5.7350507705
  O         3.3092633743        5.9430524519        5.6869521953
  O         5.8656213389        1.5033380740        5.7351453197
  O        -4.3900408339       10.3847223113        5.7352074088
  O        -1.8233506851        5.9429895298        5.7380748144
  O         0.7389737635        1.5051554087        5.7341809921
  O         5.9588411665       13.2107938048        5.7353506760
  O         8.4886749188        8.8007048944        5.5988475886
  O        11.0824806576        4.3241223483        5.7435871027
  O         0.8241733691       13.2081204434        5.7346387651
  O         3.3985246868        8.7610870975        5.7493253019
  O         5.9575315490        4.3084799395        5.6934187714
  O        -4.3019837907       13.2069948130        5.7335788766
  O        -1.7373286129        8.7672378567        5.7366259577
  O         0.8244582892        4.3243265429        5.7309751560
  O         3.4647416091       11.8673116808        5.7333291793
  O         5.9700532663        7.2951676122        5.5803224564
  O         8.5935459762        2.9956921805        5.7470691435
  O        -1.6606562212       11.8684464885        5.7386706015
  O         0.8976692320        7.4316149964        5.7417525162
  O         3.4626835068        2.9897298061        5.7392710295
  O        -6.7783398796       11.8844602611        5.7379359704
  O        -4.2227942117        7.4375648670        5.7449008125
  O        -1.6633698562        2.9853831009        5.7386775542
 Fe         7.6609417162       10.3641132361        5.9586132085
 Fe        10.2364370538        5.9032978257        5.9760000773
 Fe        12.7855124000        1.4563881624        5.9986168767
 Fe         2.5371017525       10.3365624690        6.0042629802
 Fe         5.0403870908        5.7862688080        6.3134970981
 Fe         7.6567412257        1.4613946827        5.9924934694
 Fe        -2.5980702546       10.3408885519        5.9960309462
 Fe        -0.0291396854        5.8984965846        5.9948606442
 Fe         2.5306807355        1.4601047334        5.9944805617
  C         8.5096867340        7.9384173269       11.4587644409
  C         8.9891697386        6.7890437489       10.5573864226
  H         9.2973732971        8.1131948192       12.2176599882
  O         8.2866654083        9.1757749607       10.7787124181
  H         7.5977871709        7.6200761333       11.9917592308
  C         7.9339066561        6.0772184334        9.6934007363
  C         7.3505802769        6.9204622982        8.5485699658
  O         6.8349637842        5.6131634397       10.5191112539
  H         8.4445252744        5.2011869186        9.2564415870
  C         5.8485410907        7.2037143979        8.5435007531
  H         7.5261912069        6.3897268739        7.5794933786
  O         8.0491294417        8.1805343108        8.4331187021
  C         5.2664143056        8.0890382611        9.6120423104
  O         5.0835142916        5.9627268033        8.3842684936
  H         5.6716456655        7.7714309953        7.6153878821
  H         5.4418405186        7.7485536845       10.6400635611
  O         5.7967456330        9.4174522616        9.4350886382
  H         4.1792384924        8.1672559429        9.4449300109
  H         8.4248533344        8.9358318736        9.8163467352
  H         7.2593569520        5.0395149141       11.1854310044
  H         7.2977543380        8.7930531440        8.2288838932
  H         5.3934411561        5.3335554651        9.1037633653
  H         6.5313266544        9.5211815818       10.0854222517
  O         9.4634390145        5.7015371741       11.3896489767
  H         9.7987463201        7.1532738565        9.8957625132
  H        10.1435584555        6.0544034608       11.9888730604
     161
 i =        4, E =     -8104.5073416351
 Fe         5.0938794100       11.8196869300        0.3885799900
 Fe         7.6575796300        7.3792284900        0.3885799900
 Fe        10.2212798400        2.9387700600        0.3885799900
 Fe        -0.0335205200       11.8196869300        0.3885799900
 Fe         2.5301797000        7.3792284900        0.3885799900
 Fe         5.0938799200        2.9387700600        0.3885799900
 Fe        -5.1609204400       11.8196869300        0.3885799900
 Fe        -2.5972202200        7.3792284900        0.3885799900
 Fe        -0.0335200000        2.9387700600        0.3885799900
  O         8.4519195100        8.9577468800        1.1642700400
  O        11.0156197300        4.5172884400        1.1642700400
  O        13.5793199500        0.0768300000        1.1642700400
  O         3.3245195900        8.9577468800        1.1642700400
  O         5.8882198100        4.5172884400        1.1642700400
  O         8.4519200300        0.0768300000        1.1642700400
  O        -1.8028803300        8.9577468800        1.1642700400
  O         0.7608198900        4.5172884400        1.1642700400
  O         3.3245201100        0.0768300000        1.1642700400
  O         8.4568493000       11.7183869300        1.1650400200
  O        11.0205495200        7.2779284900        1.1650400200
  O        13.5842497300        2.8374700500        1.1650400200
  O         3.3294493700       11.7183869300        1.1650400200
  O         5.8931495900        7.2779284900        1.1650400200
  O         8.4568498100        2.8374700500        1.1650400200
  O        -1.7979505500       11.7183869300        1.1650400200
  O         0.7657496700        7.2779284900        1.1650400200
  O         3.3294498900        2.8374700500        1.1650400200
  O         6.0627194200       10.3425368500        1.1660399400
  O         8.6264196400        5.9020784100        1.1660399400
  O        11.1901198600        1.4616199700        1.1660399400
  O         0.9353195000       10.3425368500        1.1660399400
  O         3.4990197200        5.9020784100        1.1660399400
  O         6.0627199400        1.4616199700        1.1660399400
  O        -4.1920804200       10.3425368500        1.1660399400
  O        -1.6283802000        5.9020784100        1.1660399400
  O         0.9353200200        1.4616199700        1.1660399400
 Fe         7.6576695000       13.2997167500        1.9292099500
 Fe        10.2213697200        8.8592583200        1.9292099500
 Fe        12.7850699400        4.4187998800        1.9292099500
 Fe         2.5302695800       13.2997167500        1.9292099500
 Fe         5.0939698000        8.8592583200        1.9292099500
 Fe         7.6576700200        4.4187998800        1.9292099500
 Fe        -2.5971303400       13.2997167500        1.9292099500
 Fe        -0.0334301200        8.8592583200        1.9292099500
 Fe         2.5302701000        4.4187998800        1.9292099500
 Fe         7.6573893600       10.3392168700        2.7128999200
 Fe        10.2210895800        5.8987584300        2.7128999200
 Fe        12.7847898000        1.4582999900        2.7128999200
 Fe         2.5299894400       10.3392168700        2.7128999200
 Fe         5.0936896600        5.8987584300        2.7128999200
 Fe         7.6573898800        1.4582999900        2.7128999200
 Fe        -2.5974104800       10.3392168700        2.7128999200
 Fe        -0.0337102600        5.8987584300        2.7128999200
 Fe         2.5299899600        1.4582999900        2.7128999200
  O         4.1325386526       13.3079663256        3.5026891687
  O         6.7268762919        8.8832546212        3.5448683222
  O         9.2812759200        4.4311660674        3.5368005905
  O        -0.9935964167       13.3031398939        3.5002222481
  O         1.5717923337        8.8617558708        3.5043027875
  O         4.1300573528        4.4118018139        3.4824989540
  O        -6.1231333025       13.3062284071        3.4986619925
  O        -3.5551347223        8.8625686122        3.5040884158
  O        -0.9976521675        4.4238375524        3.4997144554
  O         6.8634908401       11.9089672511        3.5087873209
  O         9.4224011496        7.4598376085        3.5054071428
  O        11.9921902432        3.0299878260        3.5027365971
  O         1.7330215396       11.9133292761        3.4977542900
  O         4.2698632864        7.4505274653        3.5094842240
  O         6.8665893463        3.0057549144        3.5286945714
  O        -3.3890204045       11.9105570831        3.5026969670
  O        -0.8272271942        7.4719237327        3.5016240571
  O         1.7331012375        3.0193888014        3.5120867699
  O         9.4290426039       10.2561587589        3.4840807845
  O        11.9799138770        5.8043936459        3.5064976627
  O        14.5436595374        1.3640026813        3.5006487292
  O         4.2530503147       10.2635386529        3.5770254371
  O         6.8716285315        5.7955494782        3.4761145774
  O         9.4169741887        1.3647360199        3.5040413720
  O        -0.8381249517       10.2433366625        3.5024318653
  O         1.7117148037        5.8049424603        3.5076380996
  O         4.2886245655        1.3608393764        3.5024144582
 Fe         5.0976069020       11.8284681916        4.4985548056
 Fe         7.6419555093        7.3585048217        4.4837323380
 Fe        10.2282762158        2.9324728577        4.4909359751
 Fe        -0.0307978378       11.8190363438        4.4835536006
 Fe         2.5346972228        7.3671648575        4.4945513914
 Fe         5.0875931609        2.9437447413        4.4843517582
 Fe        -5.1569580944       11.8231738007        4.4807216596
 Fe        -2.5903658473        7.3780296822        4.4858718280
 Fe        -0.0328582347        2.9401598911        4.4842585292
 Fe         7.6629438952       13.3060026494        4.8136113220
 Fe        10.2217628855        8.8630365352        4.8073560681
 Fe        12.7896462467        4.4176684185        4.8168980144
 Fe         2.5312567740       13.2968197721        4.8162003967
 Fe         5.0955184451        8.8231156426        4.8366433652
 Fe         7.6463788122        4.4163614148        4.8211407710
 Fe        -2.5929374153       13.3011589535        4.8159675359
 Fe        -0.0275338754        8.8608991447        4.8170242873
 Fe         2.5368441065        4.4227622290        4.8094702943
  O         5.8626405275       10.3685049763        5.7387231215
  O         8.4282288789        5.9421003838        5.7517451716
  O        10.9928840911        1.5045302612        5.7322763876
  O         0.7427131428       10.3900361707        5.7306160194
  O         3.2985641014        5.9385086401        5.7183336714
  O         5.8615114758        1.5070984443        5.7346630667
  O        -4.3925795959       10.3889950772        5.7307122695
  O        -1.8256938339        5.9468965092        5.7328756388
  O         0.7372756307        1.5110559632        5.7312935810
  O         5.9546820980       13.2045041474        5.7314109443
  O         8.4913932648        8.7768804701        5.6640457773
  O        11.0822900062        4.3188939277        5.7416273535
  O         0.8214253080       13.2034758183        5.7304665494
  O         3.3877916557        8.7518203806        5.7550646818
  O         5.9439470179        4.3051286735        5.7218958118
  O        -4.3038357552       13.2040954688        5.7291992876
  O        -1.7397729766        8.7626047339        5.7320918571
  O         0.8234688757        4.3209445525        5.7283973219
  O         3.4700127691       11.8731263525        5.7399180734
  O         6.0018528074        7.3329414832        5.6748986829
  O         8.6010493416        2.9896704498        5.7436514940
  O        -1.6559868846       11.8676153420        5.7343031293
  O         0.9063191476        7.4289140202        5.7365864084
  O         3.4691941769        2.9927538367        5.7401573217
  O        -6.7755310649       11.8805950986        5.7348499804
  O        -4.2204779381        7.4343929126        5.7395099266
  O        -1.6573777877        2.9857176405        5.7341907682
 Fe         7.6604551405       10.3562523757        5.9478770692
 Fe        10.2317827141        5.8996411643        5.9622259537
 Fe        12.7861137887        1.4575216483        5.9765171224
 Fe         2.5381079193       10.3383666857        5.9711973507
 Fe         5.0521749550        5.8199205390        6.1362845654
 Fe         7.6560853937        1.4600999477        5.9688804774
 Fe        -2.5975881812       10.3400017521        5.9733247011
 Fe        -0.0302159690        5.8985923599        5.9722243548
 Fe         2.5315175745        1.4606723681        5.9712053018
  C         8.5106137962        7.9338407559       11.4636299892
  C         8.9924843267        6.7822355287       10.5639322403
  H         9.2977017647        8.1089582736       12.2211300869
  O         8.2867305106        9.1720387798       10.7832176828
  H         7.5966125046        7.6200846415       11.9950024613
  C         7.9264382254        6.1032652024        9.6837631614
  C         7.3406208479        6.9113621245        8.5037641239
  O         6.8479812524        5.6009080925       10.5112252898
  H         8.4367976085        5.2142874269        9.2663303723
  C         5.8320683861        7.2097719838        8.5470211330
  H         7.5470859231        6.3540372012        7.5708638042
  O         8.0309589681        8.1776706805        8.3666555501
  C         5.2575280352        8.1156888055        9.6216039468
  O         5.1032823663        5.9557939404        8.3985382003
  H         5.6594223123        7.7233931017        7.5877479383
  H         5.4490412119        7.7232029854       10.6280449667
  O         5.8095650265        9.4349554051        9.4253088226
  H         4.1714198839        8.1511988569        9.4414026208
  H         8.4254133724        8.9483476437        9.8190509988
  H         7.2543056251        5.0340215227       11.1951716113
  H         7.3232524389        8.8376076458        8.2223434680
  H         5.3956439724        5.3645079624        9.1347808952
  H         6.5306521199        9.5198359641       10.0924226379
  O         9.4698114273        5.6978563382       11.3949783172
  H         9.7960275449        7.1503474358        9.8971667949
  H        10.1478728214        6.0535984122       11.9950190121
     161
 i =        5, E =     -8104.5108137500
 Fe         5.0938794100       11.8196869300        0.3885799900
 Fe         7.6575796300        7.3792284900        0.3885799900
 Fe        10.2212798400        2.9387700600        0.3885799900
 Fe        -0.0335205200       11.8196869300        0.3885799900
 Fe         2.5301797000        7.3792284900        0.3885799900
 Fe         5.0938799200        2.9387700600        0.3885799900
 Fe        -5.1609204400       11.8196869300        0.3885799900
 Fe        -2.5972202200        7.3792284900        0.3885799900
 Fe        -0.0335200000        2.9387700600        0.3885799900
  O         8.4519195100        8.9577468800        1.1642700400
  O        11.0156197300        4.5172884400        1.1642700400
  O        13.5793199500        0.0768300000        1.1642700400
  O         3.3245195900        8.9577468800        1.1642700400
  O         5.8882198100        4.5172884400        1.1642700400
  O         8.4519200300        0.0768300000        1.1642700400
  O        -1.8028803300        8.9577468800        1.1642700400
  O         0.7608198900        4.5172884400        1.1642700400
  O         3.3245201100        0.0768300000        1.1642700400
  O         8.4568493000       11.7183869300        1.1650400200
  O        11.0205495200        7.2779284900        1.1650400200
  O        13.5842497300        2.8374700500        1.1650400200
  O         3.3294493700       11.7183869300        1.1650400200
  O         5.8931495900        7.2779284900        1.1650400200
  O         8.4568498100        2.8374700500        1.1650400200
  O        -1.7979505500       11.7183869300        1.1650400200
  O         0.7657496700        7.2779284900        1.1650400200
  O         3.3294498900        2.8374700500        1.1650400200
  O         6.0627194200       10.3425368500        1.1660399400
  O         8.6264196400        5.9020784100        1.1660399400
  O        11.1901198600        1.4616199700        1.1660399400
  O         0.9353195000       10.3425368500        1.1660399400
  O         3.4990197200        5.9020784100        1.1660399400
  O         6.0627199400        1.4616199700        1.1660399400
  O        -4.1920804200       10.3425368500        1.1660399400
  O        -1.6283802000        5.9020784100        1.1660399400
  O         0.9353200200        1.4616199700        1.1660399400
 Fe         7.6576695000       13.2997167500        1.9292099500
 Fe        10.2213697200        8.8592583200        1.9292099500
 Fe        12.7850699400        4.4187998800        1.9292099500
 Fe         2.5302695800       13.2997167500        1.9292099500
 Fe         5.0939698000        8.8592583200        1.9292099500
 Fe         7.6576700200        4.4187998800        1.9292099500
 Fe        -2.5971303400       13.2997167500        1.9292099500
 Fe        -0.0334301200        8.8592583200        1.9292099500
 Fe         2.5302701000        4.4187998800        1.9292099500
 Fe         7.6573893600       10.3392168700        2.7128999200
 Fe        10.2210895800        5.8987584300        2.7128999200
 Fe        12.7847898000        1.4582999900        2.7128999200
 Fe         2.5299894400       10.3392168700        2.7128999200
 Fe         5.0936896600        5.8987584300        2.7128999200
 Fe         7.6573898800        1.4582999900        2.7128999200
 Fe        -2.5974104800       10.3392168700        2.7128999200
 Fe        -0.0337102600        5.8987584300        2.7128999200
 Fe         2.5299899600        1.4582999900        2.7128999200
  O         4.1347988302       13.3061720749        3.5032878332
  O         6.7128181842        8.8747401224        3.5314334765
  O         9.2795425875        4.4286522309        3.5288475476
  O        -0.9923915287       13.3017527184        3.4997906043
  O         1.5707563725        8.8626291359        3.5026872559
  O         4.1293129523        4.4106030304        3.4831583979
  O        -6.1217122344       13.3036831123        3.4973941220
  O        -3.5554854663        8.8617594877        3.5017896851
  O        -0.9961444803        4.4222640658        3.4992597325
  O         6.8619477078       11.9082618341        3.5093701274
  O         9.4257953109        7.4603291632        3.5028361339
  O        11.9907659647        3.0295494241        3.5031789048
  O         1.7305769785       11.9143536515        3.4968016399
  O         4.2780873276        7.4589246961        3.5059381875
  O         6.8643056856        3.0104894409        3.5218700293
  O        -3.3899866730       11.9103113993        3.5023424415
  O        -0.8289514781        7.4716231137        3.5013881351
  O         1.7310061467        3.0209107943        3.5070300507
  O         9.4290197453       10.2560894407        3.4857049749
  O        11.9812550844        5.8062527422        3.5058174202
  O        14.5440561392        1.3650819779        3.5004144734
  O         4.2583195322       10.2575317163        3.5625388490
  O         6.8715556027        5.7909128032        3.4796538020
  O         9.4180068707        1.3660441023        3.5029923164
  O        -0.8365291827       10.2445050631        3.5007743312
  O         1.7148047346        5.8032636937        3.5040433530
  O         4.2884651899        1.3613967684        3.5019766569
 Fe         5.0935134914       11.8193387734        4.4986274025
 Fe         7.6436740462        7.3615373692        4.4815490987
 Fe        10.2255258293        2.9354578093        4.4930817085
 Fe        -0.0312779140       11.8187056560        4.4888641659
 Fe         2.5374427155        7.3682417849        4.4908664840
 Fe         5.0893797330        2.9413747773        4.4875695541
 Fe        -5.1556251080       11.8226156202        4.4861404735
 Fe        -2.5913498329        7.3795447089        4.4898073982
 Fe        -0.0315435754        2.9400142199        4.4887477954
 Fe         7.6629247002       13.3069586270        4.8129341146
 Fe        10.2213834069        8.8606265559        4.8059796971
 Fe        12.7900344164        4.4181042533        4.8166897365
 Fe         2.5314507616       13.2972873270        4.8164522408
 Fe         5.0899533177        8.8281895684        4.8478407434
 Fe         7.6515913532        4.4130918257        4.8229010803
 Fe        -2.5921872286       13.3012081931        4.8156108309
 Fe        -0.0258773345        8.8607465967        4.8169507271
 Fe         2.5342715825        4.4199684789        4.8082618240
  O         5.8624524417       10.3689999615        5.7492036702
  O         8.4245946656        5.9432652533        5.7543632551
  O        10.9943266782        1.5065178956        5.7302976048
  O         0.7463338239       10.3892283887        5.7292700924
  O         3.2987433448        5.9365024972        5.7122760776
  O         5.8611495480        1.5044150402        5.7372861657
  O        -4.3923893240       10.3855333459        5.7287513006
  O        -1.8247148141        5.9473879488        5.7318326465
  O         0.7383434630        1.5100723110        5.7315962642
  O         5.9516475628       13.2024736087        5.7270619053
  O         8.4931545685        8.7759434743        5.6651426677
  O        11.0842072839        4.3191430566        5.7433611174
  O         0.8212081583       13.2052616867        5.7290534571
  O         3.3828992848        8.7451316955        5.7656542069
  O         5.9457213327        4.3085843911        5.7157509060
  O        -4.3033921533       13.2072759687        5.7278955436
  O        -1.7387926419        8.7648025513        5.7305644712
  O         0.8218206996        4.3224604756        5.7284803814
  O         3.4689428065       11.8762880608        5.7447719342
  O         5.9961062131        7.3255406084        5.6661522567
  O         8.6015283719        2.9878720139        5.7492859725
  O        -1.6584238645       11.8662983466        5.7339976996
  O         0.9076002102        7.4273697492        5.7358888744
  O         3.4696576244        2.9920032457        5.7394467911
  O        -6.7754800723       11.8821235755        5.7331325782
  O        -4.2224150358        7.4335263694        5.7398934928
  O        -1.6583730930        2.9846635799        5.7336896926
 Fe         7.6617051266       10.3565637455        5.9337563713
 Fe        10.2300268247        5.8986037103        5.9597880406
 Fe        12.7863239974        1.4565710124        5.9864970058
 Fe         2.5413445425       10.3382555592        5.9777629911
 Fe         5.0477855472        5.8151982246        6.1745086002
 Fe         7.6550233869        1.4599375771        5.9757444367
 Fe        -2.5988915315       10.3393652662        5.9812806301
 Fe        -0.0305947158        5.8991553504        5.9825571900
 Fe         2.5311477662        1.4616168877        5.9814026716
  C         8.5126485055        7.9330230352       11.4702459028
  C         8.9874643152        6.7856471396       10.5611545061
  H         9.2995581627        8.1052530880       12.2280610851
  O         8.2867868231        9.1672022760       10.7835052641
  H         7.5961439570        7.6181833310       11.9971688136
  C         7.9249778622        6.0890262854        9.6903432898
  C         7.3500089711        6.9222998615        8.5186435344
  O         6.8324353854        5.6035715127       10.5110033021
  H         8.4436195940        5.2143183797        9.2567056835
  C         5.8410389427        7.2041377759        8.5491681029
  H         7.5400662478        6.3649007541        7.5807895676
  O         8.0472480379        8.1873494330        8.3890763370
  C         5.2566207991        8.1090580524        9.6206594713
  O         5.0936175838        5.9612150590        8.3811767412
  H         5.6615427788        7.7378943041        7.6014586481
  H         5.4476118562        7.7313032853       10.6338143015
  O         5.8016332886        9.4337947308        9.4454189750
  H         4.1702756398        8.1559327228        9.4493091323
  H         8.4228327654        8.9491614335        9.8192759243
  H         7.2552313717        5.0365757509       11.1854349552
  H         7.3234081860        8.8323717180        8.2192002468
  H         5.3990473944        5.3665820208        9.1082679545
  H         6.5334262026        9.5254966192       10.1003365845
  O         9.4676144381        5.7033905484       11.3932201937
  H         9.7979097886        7.1477211256        9.8997319920
  H        10.1485266547        6.0520197108       11.9945822806
     161
 i =        6, E =     -8104.5108060082
 Fe         5.0938794100       11.8196869300        0.3885799900
 Fe         7.6575796300        7.3792284900        0.3885799900
 Fe        10.2212798400        2.9387700600        0.3885799900
 Fe        -0.0335205200       11.8196869300        0.3885799900
 Fe         2.5301797000        7.3792284900        0.3885799900
 Fe         5.0938799200        2.9387700600        0.3885799900
 Fe        -5.1609204400       11.8196869300        0.3885799900
 Fe        -2.5972202200        7.3792284900        0.3885799900
 Fe        -0.0335200000        2.9387700600        0.3885799900
  O         8.4519195100        8.9577468800        1.1642700400
  O        11.0156197300        4.5172884400        1.1642700400
  O        13.5793199500        0.0768300000        1.1642700400
  O         3.3245195900        8.9577468800        1.1642700400
  O         5.8882198100        4.5172884400        1.1642700400
  O         8.4519200300        0.0768300000        1.1642700400
  O        -1.8028803300        8.9577468800        1.1642700400
  O         0.7608198900        4.5172884400        1.1642700400
  O         3.3245201100        0.0768300000        1.1642700400
  O         8.4568493000       11.7183869300        1.1650400200
  O        11.0205495200        7.2779284900        1.1650400200
  O        13.5842497300        2.8374700500        1.1650400200
  O         3.3294493700       11.7183869300        1.1650400200
  O         5.8931495900        7.2779284900        1.1650400200
  O         8.4568498100        2.8374700500        1.1650400200
  O        -1.7979505500       11.7183869300        1.1650400200
  O         0.7657496700        7.2779284900        1.1650400200
  O         3.3294498900        2.8374700500        1.1650400200
  O         6.0627194200       10.3425368500        1.1660399400
  O         8.6264196400        5.9020784100        1.1660399400
  O        11.1901198600        1.4616199700        1.1660399400
  O         0.9353195000       10.3425368500        1.1660399400
  O         3.4990197200        5.9020784100        1.1660399400
  O         6.0627199400        1.4616199700        1.1660399400
  O        -4.1920804200       10.3425368500        1.1660399400
  O        -1.6283802000        5.9020784100        1.1660399400
  O         0.9353200200        1.4616199700        1.1660399400
 Fe         7.6576695000       13.2997167500        1.9292099500
 Fe        10.2213697200        8.8592583200        1.9292099500
 Fe        12.7850699400        4.4187998800        1.9292099500
 Fe         2.5302695800       13.2997167500        1.9292099500
 Fe         5.0939698000        8.8592583200        1.9292099500
 Fe         7.6576700200        4.4187998800        1.9292099500
 Fe        -2.5971303400       13.2997167500        1.9292099500
 Fe        -0.0334301200        8.8592583200        1.9292099500
 Fe         2.5302701000        4.4187998800        1.9292099500
 Fe         7.6573893600       10.3392168700        2.7128999200
 Fe        10.2210895800        5.8987584300        2.7128999200
 Fe        12.7847898000        1.4582999900        2.7128999200
 Fe         2.5299894400       10.3392168700        2.7128999200
 Fe         5.0936896600        5.8987584300        2.7128999200
 Fe         7.6573898800        1.4582999900        2.7128999200
 Fe        -2.5974104800       10.3392168700        2.7128999200
 Fe        -0.0337102600        5.8987584300        2.7128999200
 Fe         2.5299899600        1.4582999900        2.7128999200
  O         4.1347988302       13.3061720749        3.5032878332
  O         6.7128181842        8.8747401224        3.5314334765
  O         9.2795425875        4.4286522309        3.5288475476
  O        -0.9923915287       13.3017527184        3.4997906043
  O         1.5707563725        8.8626291359        3.5026872559
  O         4.1293129523        4.4106030304        3.4831583979
  O        -6.1217122344       13.3036831123        3.4973941220
  O        -3.5554854663        8.8617594877        3.5017896851
  O        -0.9961444803        4.4222640658        3.4992597325
  O         6.8619477078       11.9082618341        3.5093701274
  O         9.4257953109        7.4603291632        3.5028361339
  O        11.9907659647        3.0295494241        3.5031789048
  O         1.7305769785       11.9143536515        3.4968016399
  O         4.2780873276        7.4589246961        3.5059381875
  O         6.8643056856        3.0104894409        3.5218700293
  O        -3.3899866730       11.9103113993        3.5023424415
  O        -0.8289514781        7.4716231137        3.5013881351
  O         1.7310061467        3.0209107943        3.5070300507
  O         9.4290197453       10.2560894407        3.4857049749
  O        11.9812550844        5.8062527422        3.5058174202
  O        14.5440561392        1.3650819779        3.5004144734
  O         4.2583195322       10.2575317163        3.5625388490
  O         6.8715556027        5.7909128032        3.4796538020
  O         9.4180068707        1.3660441023        3.5029923164
  O        -0.8365291827       10.2445050631        3.5007743312
  O         1.7148047346        5.8032636937        3.5040433530
  O         4.2884651899        1.3613967684        3.5019766569
 Fe         5.0935134914       11.8193387734        4.4986274025
 Fe         7.6436740462        7.3615373692        4.4815490987
 Fe        10.2255258293        2.9354578093        4.4930817085
 Fe        -0.0312779140       11.8187056560        4.4888641659
 Fe         2.5374427155        7.3682417849        4.4908664840
 Fe         5.0893797330        2.9413747773        4.4875695541
 Fe        -5.1556251080       11.8226156202        4.4861404735
 Fe        -2.5913498329        7.3795447089        4.4898073982
 Fe        -0.0315435754        2.9400142199        4.4887477954
 Fe         7.6629247002       13.3069586270        4.8129341146
 Fe        10.2213834069        8.8606265559        4.8059796971
 Fe        12.7900344164        4.4181042533        4.8166897365
 Fe         2.5314507616       13.2972873270        4.8164522408
 Fe         5.0899533177        8.8281895684        4.8478407434
 Fe         7.6515913532        4.4130918257        4.8229010803
 Fe        -2.5921872286       13.3012081931        4.8156108309
 Fe        -0.0258773345        8.8607465967        4.8169507271
 Fe         2.5342715825        4.4199684789        4.8082618240
  O         5.8624524417       10.3689999615        5.7492036702
  O         8.4245946656        5.9432652533        5.7543632551
  O        10.9943266782        1.5065178956        5.7302976048
  O         0.7463338239       10.3892283887        5.7292700924
  O         3.2987433448        5.9365024972        5.7122760776
  O         5.8611495480        1.5044150402        5.7372861657
  O        -4.3923893240       10.3855333459        5.7287513006
  O        -1.8247148141        5.9473879488        5.7318326465
  O         0.7383434630        1.5100723110        5.7315962642
  O         5.9516475628       13.2024736087        5.7270619053
  O         8.4931545685        8.7759434743        5.6651426677
  O        11.0842072839        4.3191430566        5.7433611174
  O         0.8212081583       13.2052616867        5.7290534571
  O         3.3828992848        8.7451316955        5.7656542069
  O         5.9457213327        4.3085843911        5.7157509060
  O        -4.3033921533       13.2072759687        5.7278955436
  O        -1.7387926419        8.7648025513        5.7305644712
  O         0.8218206996        4.3224604756        5.7284803814
  O         3.4689428065       11.8762880608        5.7447719342
  O         5.9961062131        7.3255406084        5.6661522567
  O         8.6015283719        2.9878720139        5.7492859725
  O        -1.6584238645       11.8662983466        5.7339976996
  O         0.9076002102        7.4273697492        5.7358888744
  O         3.4696576244        2.9920032457        5.7394467911
  O        -6.7754800723       11.8821235755        5.7331325782
  O        -4.2224150358        7.4335263694        5.7398934928
  O        -1.6583730930        2.9846635799        5.7336896926
 Fe         7.6617051266       10.3565637455        5.9337563713
 Fe        10.2300268247        5.8986037103        5.9597880406
 Fe        12.7863239974        1.4565710124        5.9864970058
 Fe         2.5413445425       10.3382555592        5.9777629911
 Fe         5.0477855472        5.8151982246        6.1745086002
 Fe         7.6550233869        1.4599375771        5.9757444367
 Fe        -2.5988915315       10.3393652662        5.9812806301
 Fe        -0.0305947158        5.8991553504        5.9825571900
 Fe         2.5311477662        1.4616168877        5.9814026716
  C         8.5126485055        7.9330230352       11.4702459028
  C         8.9874643152        6.7856471396       10.5611545061
  H         9.2995581627        8.1052530880       12.2280610851
  O         8.2867868231        9.1672022760       10.7835052641
  H         7.5961439570        7.6181833310       11.9971688136
  C         7.9249778622        6.0890262854        9.6903432898
  C         7.3500089711        6.9222998615        8.5186435344
  O         6.8324353854        5.6035715127       10.5110033021
  H         8.4436195940        5.2143183797        9.2567056835
  C         5.8410389427        7.2041377759        8.5491681029
  H         7.5400662478        6.3649007541        7.5807895676
  O         8.0472480379        8.1873494330        8.3890763370
  C         5.2566207991        8.1090580524        9.6206594713
  O         5.0936175838        5.9612150590        8.3811767412
  H         5.6615427788        7.7378943041        7.6014586481
  H         5.4476118562        7.7313032853       10.6338143015
  O         5.8016332886        9.4337947308        9.4454189750
  H         4.1702756398        8.1559327228        9.4493091323
  H         8.4228327654        8.9491614335        9.8192759243
  H         7.2552313717        5.0365757509       11.1854349552
  H         7.3234081860        8.8323717180        8.2192002468
  H         5.3990473944        5.3665820208        9.1082679545
  H         6.5334262026        9.5254966192       10.1003365845
  O         9.4676144381        5.7033905484       11.3932201937
  H         9.7979097886        7.1477211256        9.8997319920
  H        10.1485266547        6.0520197108       11.9945822806
