     161
 i =        1, E =     -8104.4934634299
 Fe         5.0938794100       11.8196869300        0.3885799900
 Fe         7.6575796300        7.3792284900        0.3885799900
 Fe        10.2212798400        2.9387700600        0.3885799900
 Fe        -0.0335205200       11.8196869300        0.3885799900
 Fe         2.5301797000        7.3792284900        0.3885799900
 Fe         5.0938799200        2.9387700600        0.3885799900
 Fe        -5.1609204400       11.8196869300        0.3885799900
 Fe        -2.5972202200        7.3792284900        0.3885799900
 Fe        -0.0335200000        2.9387700600        0.3885799900
  O         8.4519195100        8.9577468800        1.1642700400
  O        11.0156197300        4.5172884400        1.1642700400
  O        13.5793199500        0.0768300000        1.1642700400
  O         3.3245195900        8.9577468800        1.1642700400
  O         5.8882198100        4.5172884400        1.1642700400
  O         8.4519200300        0.0768300000        1.1642700400
  O        -1.8028803300        8.9577468800        1.1642700400
  O         0.7608198900        4.5172884400        1.1642700400
  O         3.3245201100        0.0768300000        1.1642700400
  O         8.4568493000       11.7183869300        1.1650400200
  O        11.0205495200        7.2779284900        1.1650400200
  O        13.5842497300        2.8374700500        1.1650400200
  O         3.3294493700       11.7183869300        1.1650400200
  O         5.8931495900        7.2779284900        1.1650400200
  O         8.4568498100        2.8374700500        1.1650400200
  O        -1.7979505500       11.7183869300        1.1650400200
  O         0.7657496700        7.2779284900        1.1650400200
  O         3.3294498900        2.8374700500        1.1650400200
  O         6.0627194200       10.3425368500        1.1660399400
  O         8.6264196400        5.9020784100        1.1660399400
  O        11.1901198600        1.4616199700        1.1660399400
  O         0.9353195000       10.3425368500        1.1660399400
  O         3.4990197200        5.9020784100        1.1660399400
  O         6.0627199400        1.4616199700        1.1660399400
  O        -4.1920804200       10.3425368500        1.1660399400
  O        -1.6283802000        5.9020784100        1.1660399400
  O         0.9353200200        1.4616199700        1.1660399400
 Fe         7.6576695000       13.2997167500        1.9292099500
 Fe        10.2213697200        8.8592583200        1.9292099500
 Fe        12.7850699400        4.4187998800        1.9292099500
 Fe         2.5302695800       13.2997167500        1.9292099500
 Fe         5.0939698000        8.8592583200        1.9292099500
 Fe         7.6576700200        4.4187998800        1.9292099500
 Fe        -2.5971303400       13.2997167500        1.9292099500
 Fe        -0.0334301200        8.8592583200        1.9292099500
 Fe         2.5302701000        4.4187998800        1.9292099500
 Fe         7.6573893600       10.3392168700        2.7128999200
 Fe        10.2210895800        5.8987584300        2.7128999200
 Fe        12.7847898000        1.4582999900        2.7128999200
 Fe         2.5299894400       10.3392168700        2.7128999200
 Fe         5.0936896600        5.8987584300        2.7128999200
 Fe         7.6573898800        1.4582999900        2.7128999200
 Fe        -2.5974104800       10.3392168700        2.7128999200
 Fe        -0.0337102600        5.8987584300        2.7128999200
 Fe         2.5299899600        1.4582999900        2.7128999200
  O         4.1327754585       13.3043172052        3.5003548739
  O         6.6976354755        8.8635433804        3.5002450883
  O         9.2586022350        4.4226292183        3.4986862288
  O        -0.9948562175       13.3034052258        3.4992978889
  O         1.5687780326        8.8673768276        3.4944684925
  O         4.1284137149        4.4225005386        3.5077753077
  O        -6.1221400683       13.3024218013        3.4992350585
  O        -3.5537351958        8.8607435350        3.5061507182
  O        -1.0055717140        4.4048371690        3.4701860799
  O         6.8605799554       11.9087339963        3.5022632470
  O         9.4222529196        7.4718345932        3.5006868331
  O        11.9904750991        3.0310408148        3.5097684602
  O         1.7331569313       11.9119624555        3.4998542488
  O         4.2913815978        7.4677040711        3.5063330197
  O         6.8610752179        3.0293349440        3.4998359721
  O        -3.3938996354       11.9089516460        3.5032635884
  O        -0.8392208129        7.4899593218        3.4722577907
  O         1.7379816115        3.0278361283        3.4964965494
  O         9.4150082072       10.2461369637        3.5031374453
  O        11.9755830074        5.8017656785        3.4958171241
  O        14.5436904891        1.3685191737        3.5060728864
  O         4.2905373471       10.2448094846        3.5008423061
  O         6.8516608486        5.8044821404        3.5017831156
  O         9.4151940384        1.3633485590        3.5018374555
  O        -0.8385009715       10.2419932679        3.5110142364
  O         1.7466452645        5.8032063057        3.4750813595
  O         4.2893796975        1.3631989013        3.5009170538
 Fe         5.0933740755       11.8198701551        4.4865594796
 Fe         7.6555896024        7.3769525388        4.4886669026
 Fe        10.2201538159        2.9382867468        4.4856813575
 Fe        -0.0316290126       11.8209396091        4.4870599498
 Fe         2.5166693485        7.3768274854        4.4918534786
 Fe         5.0959858355        2.9359550913        4.4865454348
 Fe        -5.1598049358       11.8202564974        4.4864107614
 Fe        -2.5878362441        7.3668059861        4.4897884024
 Fe        -0.0282975400        2.9520498166        4.4894323258
 Fe         7.6578332989       13.2997102337        4.8208483571
 Fe        10.2229677475        8.8593701992        4.8211531304
 Fe        12.7954742223        4.4284580225        4.8269637881
 Fe         2.5328780122       13.2987168648        4.8225213116
 Fe         5.0981731721        8.8554269024        4.8228540699
 Fe         7.6592928267        4.4203662320        4.8224278465
 Fe        -2.5966061657       13.2988863900        4.8221308234
 Fe        -0.0281901830        8.8451680753        4.8243942460
 Fe         2.5192783849        4.4222001811        4.8245659147
  O         5.8648625912       10.3878456721        5.7279584273
  O         8.4340868748        5.9488853186        5.7289866380
  O        10.9917805977        1.5076966539        5.7255921105
  O         0.7376265599       10.3890225508        5.7216587253
  O         3.3100282154        5.9470652510        5.7139505417
  O         5.8651362141        1.5056064288        5.7280802386
  O        -4.3897617110       10.3886270421        5.7260150537
  O        -1.8537326186        5.9534206464        5.7152486720
  O         0.7372831075        1.5044546822        5.7251498031
  O         5.9488622476       13.2029257358        5.7279674885
  O         8.5131227677        8.7623002528        5.7284947357
  O        11.0724560619        4.3187797927        5.7193245604
  O         0.8221849690       13.2041804524        5.7271982601
  O         3.3891970393        8.7629479830        5.7240422742
  O         5.9477561656        4.3218428026        5.7128813981
  O        -4.3074257124       13.2050971273        5.7274190163
  O        -1.7439908934        8.7657094521        5.7230977595
  O         0.8376843822        4.2973836670        5.7266293362
  O         3.4679055511       11.8626078415        5.7286541886
  O         6.0278353820        7.4155368950        5.7310839579
  O         8.5960802322        2.9855662859        5.7288369973
  O        -1.6577328716       11.8665831946        5.7281755631
  O         0.9217788655        7.4511273269        5.7278284986
  O         3.4708856581        2.9865797029        5.7256343131
  O        -6.7847998859       11.8669754545        5.7290385048
  O        -4.2248679452        7.4290474631        5.7260668611
  O        -1.6587383792        2.9812248774        5.7241466989
 Fe         7.6576199142       10.3396056191        5.9763150397
 Fe        10.2285178166        5.8974016442        5.9898379036
 Fe        12.7836835882        1.4581253794        5.9841817425
 Fe         2.5285088031       10.3349296933        5.9870462258
 Fe         5.0929561669        5.8875329653        6.0561453216
 Fe         7.6574635383        1.4584543177        5.9811215944
 Fe        -2.5970768598       10.3401965383        5.9854874950
 Fe        -0.0352417205        5.8995095206        6.0089234177
 Fe         2.5288524786        1.4616683928        5.9806992033
  C        -0.9597670730        5.6061899123        9.9781571800
  C         0.3854803798        6.1971722991        9.5695069005
  H        -0.9266685360        4.5031757892        9.9736194245
  O        -1.9982489028        5.9791094511        9.0814059906
  H        -1.1880965329        5.9389427058       11.0116757187
  C         1.5287950405        5.7299398914       10.4908077832
  C         2.7740852939        6.6476239896       10.3801604067
  O         1.9093857439        4.3589830336       10.1909021965
  H         1.1974117942        5.7762772438       11.5459433353
  C         4.1148330650        5.9646400810       10.7556542903
  H         2.6031137946        7.4494087862       11.1178690761
  O         2.8706569339        7.3181020892        9.1135694661
  C         4.7539736369        5.1131223060        9.6361358237
  O         3.9793116556        5.1627114061       11.9327382287
  H         4.8234298319        6.7654643820       11.0331895674
  H         5.6572178527        4.6375811527       10.0513426878
  O         5.1088145336        5.9046328363        8.4640366101
  H         4.0618218804        4.3401437640        9.2873746580
  H        -1.8765873641        6.9347903156        8.9111880682
  H         1.1027978028        3.8136919992       10.2110545779
  H         3.5572919656        6.8808390816        8.5578536675
  H         3.3358279088        4.4595690466       11.7010927610
  H         5.8600830967        6.4884725888        8.6776002510
  O         0.2095849717        7.6200876081        9.6170188177
  H         0.6345368460        5.8643670052        8.5439227497
  H         0.9888231492        7.9817991532        9.1420502238
     161
 i =        2, E =     -8104.4974631379
 Fe         5.0938794100       11.8196869300        0.3885799900
 Fe         7.6575796300        7.3792284900        0.3885799900
 Fe        10.2212798400        2.9387700600        0.3885799900
 Fe        -0.0335205200       11.8196869300        0.3885799900
 Fe         2.5301797000        7.3792284900        0.3885799900
 Fe         5.0938799200        2.9387700600        0.3885799900
 Fe        -5.1609204400       11.8196869300        0.3885799900
 Fe        -2.5972202200        7.3792284900        0.3885799900
 Fe        -0.0335200000        2.9387700600        0.3885799900
  O         8.4519195100        8.9577468800        1.1642700400
  O        11.0156197300        4.5172884400        1.1642700400
  O        13.5793199500        0.0768300000        1.1642700400
  O         3.3245195900        8.9577468800        1.1642700400
  O         5.8882198100        4.5172884400        1.1642700400
  O         8.4519200300        0.0768300000        1.1642700400
  O        -1.8028803300        8.9577468800        1.1642700400
  O         0.7608198900        4.5172884400        1.1642700400
  O         3.3245201100        0.0768300000        1.1642700400
  O         8.4568493000       11.7183869300        1.1650400200
  O        11.0205495200        7.2779284900        1.1650400200
  O        13.5842497300        2.8374700500        1.1650400200
  O         3.3294493700       11.7183869300        1.1650400200
  O         5.8931495900        7.2779284900        1.1650400200
  O         8.4568498100        2.8374700500        1.1650400200
  O        -1.7979505500       11.7183869300        1.1650400200
  O         0.7657496700        7.2779284900        1.1650400200
  O         3.3294498900        2.8374700500        1.1650400200
  O         6.0627194200       10.3425368500        1.1660399400
  O         8.6264196400        5.9020784100        1.1660399400
  O        11.1901198600        1.4616199700        1.1660399400
  O         0.9353195000       10.3425368500        1.1660399400
  O         3.4990197200        5.9020784100        1.1660399400
  O         6.0627199400        1.4616199700        1.1660399400
  O        -4.1920804200       10.3425368500        1.1660399400
  O        -1.6283802000        5.9020784100        1.1660399400
  O         0.9353200200        1.4616199700        1.1660399400
 Fe         7.6576695000       13.2997167500        1.9292099500
 Fe        10.2213697200        8.8592583200        1.9292099500
 Fe        12.7850699400        4.4187998800        1.9292099500
 Fe         2.5302695800       13.2997167500        1.9292099500
 Fe         5.0939698000        8.8592583200        1.9292099500
 Fe         7.6576700200        4.4187998800        1.9292099500
 Fe        -2.5971303400       13.2997167500        1.9292099500
 Fe        -0.0334301200        8.8592583200        1.9292099500
 Fe         2.5302701000        4.4187998800        1.9292099500
 Fe         7.6573893600       10.3392168700        2.7128999200
 Fe        10.2210895800        5.8987584300        2.7128999200
 Fe        12.7847898000        1.4582999900        2.7128999200
 Fe         2.5299894400       10.3392168700        2.7128999200
 Fe         5.0936896600        5.8987584300        2.7128999200
 Fe         7.6573898800        1.4582999900        2.7128999200
 Fe        -2.5974104800       10.3392168700        2.7128999200
 Fe        -0.0337102600        5.8987584300        2.7128999200
 Fe         2.5299899600        1.4582999900        2.7128999200
  O         4.1355918422       13.3016977239        3.5067033455
  O         6.7014712249        8.8613697699        3.5063782978
  O         9.2560702778        4.4174003619        3.4964617235
  O        -0.9919230824       13.3002616364        3.5032513686
  O         1.5907690695        8.8784845345        3.5214259444
  O         4.1446125118        4.4207377422        3.5374569284
  O        -6.1215992364       13.2955730706        3.4965146601
  O        -3.5528898890        8.8590105869        3.5100004849
  O        -0.9994680081        4.3978518178        3.4781315575
  O         6.8572862103       11.9080003603        3.5058734124
  O         9.4156622598        7.4769379936        3.4972889448
  O        11.9861366547        3.0133417938        3.5471622780
  O         1.7317650622       11.9172431577        3.4977401348
  O         4.2897523481        7.4742348863        3.5004648351
  O         6.8596046747        3.0266160791        3.5021763071
  O        -3.3961522355       11.9091102773        3.5082517050
  O        -0.8468722300        7.4865322782        3.4846595442
  O         1.7389036916        3.0044174890        3.5223331718
  O         9.4168406317       10.2500360175        3.5053815177
  O        11.9583938876        5.8098920073        3.5130244007
  O        14.5467302217        1.3697614540        3.5094007493
  O         4.2997627188       10.2459773362        3.4968545919
  O         6.8595393425        5.8067672062        3.4953879116
  O         9.4173176109        1.3669306610        3.5046600471
  O        -0.8526096867       10.2585041649        3.5528562197
  O         1.7468715971        5.8122226452        3.4861125223
  O         4.2958103241        1.3637303317        3.4997337458
 Fe         5.0915322617       11.8167638553        4.4963461324
 Fe         7.6514407537        7.3702246968        4.4991183681
 Fe        10.2142130835        2.9402130964        4.4997566437
 Fe        -0.0252352285       11.8258113704        4.5015097743
 Fe         2.5171642909        7.3717487410        4.5115136355
 Fe         5.0991607617        2.9340638229        4.4996700670
 Fe        -5.1593803070       11.8218614284        4.4956891466
 Fe        -2.5854660276        7.3608754766        4.5069234898
 Fe        -0.0264404906        2.9602253139        4.5094240324
 Fe         7.6560974140       13.3026689967        4.8122955153
 Fe        10.2250610524        8.8602415028        4.8130656133
 Fe        12.8044318404        4.4402465691        4.8410448467
 Fe         2.5353449545       13.2984199565        4.8181103909
 Fe         5.1000613103        8.8415759765        4.8182002720
 Fe         7.6561081586        4.4262156965        4.8161394986
 Fe        -2.5976916338       13.2974636877        4.8172582707
 Fe        -0.0233468827        8.8312834514        4.8388526048
 Fe         2.5100690182        4.4288265753        4.8371781031
  O         5.8633902008       10.3760972926        5.7311721768
  O         8.4389328291        5.9450535542        5.7379017404
  O        10.9908117687        1.5023282000        5.7297549219
  O         0.7395952927       10.3929859414        5.7222564102
  O         3.3224024781        5.9441842092        5.7150637118
  O         5.8645410573        1.4982447614        5.7322455638
  O        -4.3901324793       10.3860968923        5.7299094580
  O        -1.8963027102        5.9629514584        5.6835105242
  O         0.7372673311        1.4905627898        5.7308927951
  O         5.9512986590       13.2033009202        5.7307136499
  O         8.5163718158        8.7633253397        5.7317366948
  O        11.0665558859        4.3153650795        5.7142619439
  O         0.8282861789       13.2088092724        5.7309676696
  O         3.4028852969        8.7673514046        5.7307110294
  O         5.9496925171        4.3253984715        5.7014120419
  O        -4.3062797550       13.2108813593        5.7301095222
  O        -1.7438937773        8.7678258188        5.7304158363
  O         0.8595028783        4.2589939799        5.7144940874
  O         3.4616503950       11.8603582631        5.7311435385
  O         6.0162034742        7.3968940536        5.7424815805
  O         8.5871026855        2.9912395356        5.7332264058
  O        -1.6598922553       11.8719269667        5.7336569721
  O         0.9495282482        7.4870519860        5.7145909818
  O         3.4752611372        2.9870988504        5.7306461440
  O        -6.7902500856       11.8729097771        5.7326400229
  O        -4.2384283576        7.4377127790        5.7302061676
  O        -1.6613005941        2.9806583576        5.7276884793
 Fe         7.6576306097       10.3409455948        5.9850988638
 Fe        10.2369857876        5.8956873456        6.0045660882
 Fe        12.7843117710        1.4597526677        5.9929674739
 Fe         2.5271030372       10.3281741703        6.0027401302
 Fe         5.0885386131        5.8691329326        6.2070560603
 Fe         7.6572040181        1.4592885000        5.9920498905
 Fe        -2.5950510366       10.3410034914        5.9944512507
 Fe        -0.0380835333        5.9000453896        6.0476596007
 Fe         2.5274674633        1.4679715229        5.9919035521
  C        -0.9638733866        5.6115947174        9.9770224498
  C         0.3899040085        6.1918429002        9.5796489877
  H        -0.9252595161        4.5080707060        9.9686113377
  O        -2.0095346178        5.9785378494        9.0906764331
  H        -1.1807176473        5.9356758284       11.0169183066
  C         1.5407930488        5.7314477711       10.4946958364
  C         2.7810523417        6.6564768781       10.3708476794
  O         1.9112535007        4.3564201523       10.2016958946
  H         1.1924985456        5.7794172971       11.5450936755
  C         4.1090126307        5.9574707370       10.7497477393
  H         2.6016660344        7.4428476212       11.1230952833
  O         2.8660851487        7.3483977623        9.1195319515
  C         4.7604377160        5.1250507186        9.6178378628
  O         3.9931343126        5.1510199601       11.9276524902
  H         4.8204094801        6.7585851559       11.0195245060
  H         5.6529262920        4.6335617817       10.0331730013
  O         5.1270754446        5.9140904981        8.4322844009
  H         4.0675745325        4.3528999120        9.2684797275
  H        -1.8724384922        6.9259684227        8.8795582387
  H         1.1024543131        3.8127184162       10.1957285984
  H         3.5098893746        6.8921273049        8.5313317209
  H         3.3314184209        4.4651248749       11.6915918022
  H         5.8715295344        6.4986835962        8.6745508417
  O         0.2186101913        7.6131864985        9.6256953192
  H         0.6332359305        5.8722341620        8.5456881679
  H         0.9754430851        7.9782041769        9.1138880157
     161
 i =        3, E =     -8104.4974553068
 Fe         5.0938794100       11.8196869300        0.3885799900
 Fe         7.6575796300        7.3792284900        0.3885799900
 Fe        10.2212798400        2.9387700600        0.3885799900
 Fe        -0.0335205200       11.8196869300        0.3885799900
 Fe         2.5301797000        7.3792284900        0.3885799900
 Fe         5.0938799200        2.9387700600        0.3885799900
 Fe        -5.1609204400       11.8196869300        0.3885799900
 Fe        -2.5972202200        7.3792284900        0.3885799900
 Fe        -0.0335200000        2.9387700600        0.3885799900
  O         8.4519195100        8.9577468800        1.1642700400
  O        11.0156197300        4.5172884400        1.1642700400
  O        13.5793199500        0.0768300000        1.1642700400
  O         3.3245195900        8.9577468800        1.1642700400
  O         5.8882198100        4.5172884400        1.1642700400
  O         8.4519200300        0.0768300000        1.1642700400
  O        -1.8028803300        8.9577468800        1.1642700400
  O         0.7608198900        4.5172884400        1.1642700400
  O         3.3245201100        0.0768300000        1.1642700400
  O         8.4568493000       11.7183869300        1.1650400200
  O        11.0205495200        7.2779284900        1.1650400200
  O        13.5842497300        2.8374700500        1.1650400200
  O         3.3294493700       11.7183869300        1.1650400200
  O         5.8931495900        7.2779284900        1.1650400200
  O         8.4568498100        2.8374700500        1.1650400200
  O        -1.7979505500       11.7183869300        1.1650400200
  O         0.7657496700        7.2779284900        1.1650400200
  O         3.3294498900        2.8374700500        1.1650400200
  O         6.0627194200       10.3425368500        1.1660399400
  O         8.6264196400        5.9020784100        1.1660399400
  O        11.1901198600        1.4616199700        1.1660399400
  O         0.9353195000       10.3425368500        1.1660399400
  O         3.4990197200        5.9020784100        1.1660399400
  O         6.0627199400        1.4616199700        1.1660399400
  O        -4.1920804200       10.3425368500        1.1660399400
  O        -1.6283802000        5.9020784100        1.1660399400
  O         0.9353200200        1.4616199700        1.1660399400
 Fe         7.6576695000       13.2997167500        1.9292099500
 Fe        10.2213697200        8.8592583200        1.9292099500
 Fe        12.7850699400        4.4187998800        1.9292099500
 Fe         2.5302695800       13.2997167500        1.9292099500
 Fe         5.0939698000        8.8592583200        1.9292099500
 Fe         7.6576700200        4.4187998800        1.9292099500
 Fe        -2.5971303400       13.2997167500        1.9292099500
 Fe        -0.0334301200        8.8592583200        1.9292099500
 Fe         2.5302701000        4.4187998800        1.9292099500
 Fe         7.6573893600       10.3392168700        2.7128999200
 Fe        10.2210895800        5.8987584300        2.7128999200
 Fe        12.7847898000        1.4582999900        2.7128999200
 Fe         2.5299894400       10.3392168700        2.7128999200
 Fe         5.0936896600        5.8987584300        2.7128999200
 Fe         7.6573898800        1.4582999900        2.7128999200
 Fe        -2.5974104800       10.3392168700        2.7128999200
 Fe        -0.0337102600        5.8987584300        2.7128999200
 Fe         2.5299899600        1.4582999900        2.7128999200
  O         4.1355918422       13.3016977239        3.5067033455
  O         6.7014712249        8.8613697699        3.5063782978
  O         9.2560702778        4.4174003619        3.4964617235
  O        -0.9919230824       13.3002616364        3.5032513686
  O         1.5907690695        8.8784845345        3.5214259444
  O         4.1446125118        4.4207377422        3.5374569284
  O        -6.1215992364       13.2955730706        3.4965146601
  O        -3.5528898890        8.8590105869        3.5100004849
  O        -0.9994680081        4.3978518178        3.4781315575
  O         6.8572862103       11.9080003603        3.5058734124
  O         9.4156622598        7.4769379936        3.4972889448
  O        11.9861366547        3.0133417938        3.5471622780
  O         1.7317650622       11.9172431577        3.4977401348
  O         4.2897523481        7.4742348863        3.5004648351
  O         6.8596046747        3.0266160791        3.5021763071
  O        -3.3961522355       11.9091102773        3.5082517050
  O        -0.8468722300        7.4865322782        3.4846595442
  O         1.7389036916        3.0044174890        3.5223331718
  O         9.4168406317       10.2500360175        3.5053815177
  O        11.9583938876        5.8098920073        3.5130244007
  O        14.5467302217        1.3697614540        3.5094007493
  O         4.2997627188       10.2459773362        3.4968545919
  O         6.8595393425        5.8067672062        3.4953879116
  O         9.4173176109        1.3669306610        3.5046600471
  O        -0.8526096867       10.2585041649        3.5528562197
  O         1.7468715971        5.8122226452        3.4861125223
  O         4.2958103241        1.3637303317        3.4997337458
 Fe         5.0915322617       11.8167638553        4.4963461324
 Fe         7.6514407537        7.3702246968        4.4991183681
 Fe        10.2142130835        2.9402130964        4.4997566437
 Fe        -0.0252352285       11.8258113704        4.5015097743
 Fe         2.5171642909        7.3717487410        4.5115136355
 Fe         5.0991607617        2.9340638229        4.4996700670
 Fe        -5.1593803070       11.8218614284        4.4956891466
 Fe        -2.5854660276        7.3608754766        4.5069234898
 Fe        -0.0264404906        2.9602253139        4.5094240324
 Fe         7.6560974140       13.3026689967        4.8122955153
 Fe        10.2250610524        8.8602415028        4.8130656133
 Fe        12.8044318404        4.4402465691        4.8410448467
 Fe         2.5353449545       13.2984199565        4.8181103909
 Fe         5.1000613103        8.8415759765        4.8182002720
 Fe         7.6561081586        4.4262156965        4.8161394986
 Fe        -2.5976916338       13.2974636877        4.8172582707
 Fe        -0.0233468827        8.8312834514        4.8388526048
 Fe         2.5100690182        4.4288265753        4.8371781031
  O         5.8633902008       10.3760972926        5.7311721768
  O         8.4389328291        5.9450535542        5.7379017404
  O        10.9908117687        1.5023282000        5.7297549219
  O         0.7395952927       10.3929859414        5.7222564102
  O         3.3224024781        5.9441842092        5.7150637118
  O         5.8645410573        1.4982447614        5.7322455638
  O        -4.3901324793       10.3860968923        5.7299094580
  O        -1.8963027102        5.9629514584        5.6835105242
  O         0.7372673311        1.4905627898        5.7308927951
  O         5.9512986590       13.2033009202        5.7307136499
  O         8.5163718158        8.7633253397        5.7317366948
  O        11.0665558859        4.3153650795        5.7142619439
  O         0.8282861789       13.2088092724        5.7309676696
  O         3.4028852969        8.7673514046        5.7307110294
  O         5.9496925171        4.3253984715        5.7014120419
  O        -4.3062797550       13.2108813593        5.7301095222
  O        -1.7438937773        8.7678258188        5.7304158363
  O         0.8595028783        4.2589939799        5.7144940874
  O         3.4616503950       11.8603582631        5.7311435385
  O         6.0162034742        7.3968940536        5.7424815805
  O         8.5871026855        2.9912395356        5.7332264058
  O        -1.6598922553       11.8719269667        5.7336569721
  O         0.9495282482        7.4870519860        5.7145909818
  O         3.4752611372        2.9870988504        5.7306461440
  O        -6.7902500856       11.8729097771        5.7326400229
  O        -4.2384283576        7.4377127790        5.7302061676
  O        -1.6613005941        2.9806583576        5.7276884793
 Fe         7.6576306097       10.3409455948        5.9850988638
 Fe        10.2369857876        5.8956873456        6.0045660882
 Fe        12.7843117710        1.4597526677        5.9929674739
 Fe         2.5271030372       10.3281741703        6.0027401302
 Fe         5.0885386131        5.8691329326        6.2070560603
 Fe         7.6572040181        1.4592885000        5.9920498905
 Fe        -2.5950510366       10.3410034914        5.9944512507
 Fe        -0.0380835333        5.9000453896        6.0476596007
 Fe         2.5274674633        1.4679715229        5.9919035521
  C        -0.9638733866        5.6115947174        9.9770224498
  C         0.3899040085        6.1918429002        9.5796489877
  H        -0.9252595161        4.5080707060        9.9686113377
  O        -2.0095346178        5.9785378494        9.0906764331
  H        -1.1807176473        5.9356758284       11.0169183066
  C         1.5407930488        5.7314477711       10.4946958364
  C         2.7810523417        6.6564768781       10.3708476794
  O         1.9112535007        4.3564201523       10.2016958946
  H         1.1924985456        5.7794172971       11.5450936755
  C         4.1090126307        5.9574707370       10.7497477393
  H         2.6016660344        7.4428476212       11.1230952833
  O         2.8660851487        7.3483977623        9.1195319515
  C         4.7604377160        5.1250507186        9.6178378628
  O         3.9931343126        5.1510199601       11.9276524902
  H         4.8204094801        6.7585851559       11.0195245060
  H         5.6529262920        4.6335617817       10.0331730013
  O         5.1270754446        5.9140904981        8.4322844009
  H         4.0675745325        4.3528999120        9.2684797275
  H        -1.8724384922        6.9259684227        8.8795582387
  H         1.1024543131        3.8127184162       10.1957285984
  H         3.5098893746        6.8921273049        8.5313317209
  H         3.3314184209        4.4651248749       11.6915918022
  H         5.8715295344        6.4986835962        8.6745508417
  O         0.2186101913        7.6131864985        9.6256953192
  H         0.6332359305        5.8722341620        8.5456881679
  H         0.9754430851        7.9782041769        9.1138880157
