     161
 i =        1, E =     -8104.4911809681
 Fe         5.0938794100       11.8196869300        0.3885799900
 Fe         7.6575796300        7.3792284900        0.3885799900
 Fe        10.2212798400        2.9387700600        0.3885799900
 Fe        -0.0335205200       11.8196869300        0.3885799900
 Fe         2.5301797000        7.3792284900        0.3885799900
 Fe         5.0938799200        2.9387700600        0.3885799900
 Fe        -5.1609204400       11.8196869300        0.3885799900
 Fe        -2.5972202200        7.3792284900        0.3885799900
 Fe        -0.0335200000        2.9387700600        0.3885799900
  O         8.4519195100        8.9577468800        1.1642700400
  O        11.0156197300        4.5172884400        1.1642700400
  O        13.5793199500        0.0768300000        1.1642700400
  O         3.3245195900        8.9577468800        1.1642700400
  O         5.8882198100        4.5172884400        1.1642700400
  O         8.4519200300        0.0768300000        1.1642700400
  O        -1.8028803300        8.9577468800        1.1642700400
  O         0.7608198900        4.5172884400        1.1642700400
  O         3.3245201100        0.0768300000        1.1642700400
  O         8.4568493000       11.7183869300        1.1650400200
  O        11.0205495200        7.2779284900        1.1650400200
  O        13.5842497300        2.8374700500        1.1650400200
  O         3.3294493700       11.7183869300        1.1650400200
  O         5.8931495900        7.2779284900        1.1650400200
  O         8.4568498100        2.8374700500        1.1650400200
  O        -1.7979505500       11.7183869300        1.1650400200
  O         0.7657496700        7.2779284900        1.1650400200
  O         3.3294498900        2.8374700500        1.1650400200
  O         6.0627194200       10.3425368500        1.1660399400
  O         8.6264196400        5.9020784100        1.1660399400
  O        11.1901198600        1.4616199700        1.1660399400
  O         0.9353195000       10.3425368500        1.1660399400
  O         3.4990197200        5.9020784100        1.1660399400
  O         6.0627199400        1.4616199700        1.1660399400
  O        -4.1920804200       10.3425368500        1.1660399400
  O        -1.6283802000        5.9020784100        1.1660399400
  O         0.9353200200        1.4616199700        1.1660399400
 Fe         7.6576695000       13.2997167500        1.9292099500
 Fe        10.2213697200        8.8592583200        1.9292099500
 Fe        12.7850699400        4.4187998800        1.9292099500
 Fe         2.5302695800       13.2997167500        1.9292099500
 Fe         5.0939698000        8.8592583200        1.9292099500
 Fe         7.6576700200        4.4187998800        1.9292099500
 Fe        -2.5971303400       13.2997167500        1.9292099500
 Fe        -0.0334301200        8.8592583200        1.9292099500
 Fe         2.5302701000        4.4187998800        1.9292099500
 Fe         7.6573893600       10.3392168700        2.7128999200
 Fe        10.2210895800        5.8987584300        2.7128999200
 Fe        12.7847898000        1.4582999900        2.7128999200
 Fe         2.5299894400       10.3392168700        2.7128999200
 Fe         5.0936896600        5.8987584300        2.7128999200
 Fe         7.6573898800        1.4582999900        2.7128999200
 Fe        -2.5974104800       10.3392168700        2.7128999200
 Fe        -0.0337102600        5.8987584300        2.7128999200
 Fe         2.5299899600        1.4582999900        2.7128999200
  O         4.1328075418       13.3028454102        3.4991547781
  O         6.6953589521        8.8636170261        3.4959561357
  O         9.2598923101        4.4228131065        3.4985843736
  O        -0.9948942023       13.3018800377        3.4976884951
  O         1.5690891923        8.8603120808        3.5104881386
  O         4.1316402678        4.4200350483        3.4920277030
  O        -6.1225216675       13.3038077736        3.4983916974
  O        -3.5614063953        8.8675133078        3.4971683585
  O        -0.9947744826        4.4243111626        3.5005029853
  O         6.8608467146       11.9109394109        3.4997292589
  O         9.4247945727        7.4700823856        3.4997883495
  O        11.9836044069        3.0263315879        3.4944469801
  O         1.7330917253       11.9080657506        3.5017247018
  O         4.3300490900        7.4805782851        3.4770412734
  O         6.8617128588        3.0286606377        3.4980657731
  O        -3.3931162406       11.9084010310        3.5021412738
  O        -0.8215378129        7.4656193899        3.5171202539
  O         1.7320069256        3.0300827112        3.4994961302
  O         9.4165955860       10.2449124358        3.5004175596
  O        11.9806468352        5.8035144819        3.4996659300
  O        14.5426522858        1.3601512713        3.4983136887
  O         4.2869734142       10.2439831230        3.5017521042
  O         6.8538450456        5.8044298838        3.4963659434
  O         9.4158412430        1.3630064571        3.5001845660
  O        -0.8447155865       10.2607212541        3.4918458422
  O         1.7179671961        5.8081797545        3.5093761184
  O         4.2885287834        1.3645766953        3.5008728416
 Fe         5.0952348392       11.8183849390        4.4867964061
 Fe         7.6562651958        7.3783816671        4.4868697127
 Fe        10.2206491933        2.9379394235        4.4858265328
 Fe        -0.0321720261       11.8225227839        4.4876425216
 Fe         2.5965599872        7.3760653452        4.4309469720
 Fe         5.0965473860        2.9406769253        4.4876494784
 Fe        -5.1615370603       11.8198511796        4.4861558759
 Fe        -2.6044364266        7.3824515530        4.4785442221
 Fe        -0.0356476594        2.9324503080        4.4809224236
 Fe         7.6590559464       13.2989587503        4.8234671587
 Fe        10.2208131976        8.8578659567        4.8231777781
 Fe        12.7786432874        4.4057739030        4.8154437019
 Fe         2.5306683681       13.2999154857        4.8229707720
 Fe         5.0963341303        8.8542643516        4.8247626106
 Fe         7.6557330757        4.4187976854        4.8250406815
 Fe        -2.5965100869       13.2997790408        4.8226318157
 Fe        -0.0591776206        8.9007605211        4.7907653868
 Fe         2.5374117957        4.4172523753        4.8209232191
  O         5.8652009915       10.3859830171        5.7217782964
  O         8.4338136670        5.9484278289        5.7239303931
  O        10.9946083536        1.5073596908        5.7253225005
  O         0.7403245033       10.3851924968        5.7288234901
  O         3.3083774967        5.9534236635        5.7036611134
  O         5.8669171020        1.5056704585        5.7249622622
  O        -4.3878355004       10.3884435494        5.7248454764
  O        -1.8338438397        5.9393016971        5.7031651547
  O         0.7389475537        1.5086479355        5.7258418007
  O         5.9473316813       13.2046457299        5.7262995300
  O         8.5117221416        8.7648415259        5.7260750509
  O        11.0730252389        4.3230340324        5.7254251745
  O         0.8188991960       13.2033144684        5.7260322041
  O         3.3753629214        8.7605807626        5.7177233670
  O         5.9387693365        4.3372861801        5.7074541787
  O        -4.3071773586       13.2028154456        5.7269915971
  O        -1.7433037909        8.7598187595        5.7281942614
  O         0.8244482897        4.3069666672        5.7232481011
  O         3.4677222511       11.8641461649        5.7278208711
  O         6.0277217985        7.4124835904        5.7111767199
  O         8.5984300941        2.9828645553        5.7266171214
  O        -1.6583086344       11.8632112482        5.7284535924
  O         0.8831541416        7.3726149173        5.5464751486
  O         3.4683858568        2.9828170520        5.7275453361
  O        -6.7863023604       11.8637604887        5.7279615464
  O        -4.2194888785        7.4247125793        5.7258892011
  O        -1.6559066626        2.9843583008        5.7279142712
 Fe         7.6551930232       10.3383914865        5.9853244115
 Fe        10.2228894714        5.8997468552        5.9929073762
 Fe        12.7855059284        1.4593202021        5.9854398232
 Fe         2.5323890534       10.3380718592        5.9951081483
 Fe         5.0899422279        5.9010291207        6.1177291415
 Fe         7.6575583126        1.4593491159        5.9850800722
 Fe        -2.5985132935       10.3386057063        5.9832500191
 Fe        -0.0523581407        5.8536438267        6.0281552633
 Fe         2.5304062333        1.4576911299        5.9844350662
  C        -0.8972433450        7.1947135440        8.5434406684
  C         0.5344343471        6.8222311535        8.9595188813
  H        -1.1513271406        6.7128388873        7.5784735878
  O        -1.9420440257        6.7381047883        9.4017158456
  H        -0.9727630309        8.2726895315        8.3067807843
  C         1.0291676994        7.6940445151       10.1143401751
  C         2.3594590836        7.2622969441       10.7608507957
  O         0.0327545960        7.7982682632       11.1764335955
  H         1.1591804202        8.7153629936        9.7181344040
  C         3.6358089340        7.2561352708        9.8788404653
  H         2.2174158259        6.2495241485       11.2011795753
  O         2.6145475478        8.1911957819       11.8337546532
  C         3.8879675488        5.8873758182        9.2507288175
  O         4.8027023579        7.5354256205       10.6743055466
  H         3.5290156429        8.0049953983        9.0745691254
  H         4.0046376646        5.1488040499       10.0697778915
  O         5.0838355279        5.8981178230        8.4594110645
  H         3.0735957618        5.6022801860        8.5762681960
  H        -1.8449750922        7.3136989887       10.1828613238
  H        -0.0821810637        6.8768866537       11.4887494814
  H         1.7333550211        8.4175967547       12.1948983727
  H         4.5193425864        8.1841585474       11.3487638597
  H         5.7917002317        6.3089979745        8.9940964367
  O         1.4487079110        7.0064751450        7.8994568515
  H         0.5531061603        5.7401441927        9.2093764243
  H         1.1445812650        7.0734060051        6.5804067552
     161
 i =        2, E =     -8104.4967887509
 Fe         5.0938794100       11.8196869300        0.3885799900
 Fe         7.6575796300        7.3792284900        0.3885799900
 Fe        10.2212798400        2.9387700600        0.3885799900
 Fe        -0.0335205200       11.8196869300        0.3885799900
 Fe         2.5301797000        7.3792284900        0.3885799900
 Fe         5.0938799200        2.9387700600        0.3885799900
 Fe        -5.1609204400       11.8196869300        0.3885799900
 Fe        -2.5972202200        7.3792284900        0.3885799900
 Fe        -0.0335200000        2.9387700600        0.3885799900
  O         8.4519195100        8.9577468800        1.1642700400
  O        11.0156197300        4.5172884400        1.1642700400
  O        13.5793199500        0.0768300000        1.1642700400
  O         3.3245195900        8.9577468800        1.1642700400
  O         5.8882198100        4.5172884400        1.1642700400
  O         8.4519200300        0.0768300000        1.1642700400
  O        -1.8028803300        8.9577468800        1.1642700400
  O         0.7608198900        4.5172884400        1.1642700400
  O         3.3245201100        0.0768300000        1.1642700400
  O         8.4568493000       11.7183869300        1.1650400200
  O        11.0205495200        7.2779284900        1.1650400200
  O        13.5842497300        2.8374700500        1.1650400200
  O         3.3294493700       11.7183869300        1.1650400200
  O         5.8931495900        7.2779284900        1.1650400200
  O         8.4568498100        2.8374700500        1.1650400200
  O        -1.7979505500       11.7183869300        1.1650400200
  O         0.7657496700        7.2779284900        1.1650400200
  O         3.3294498900        2.8374700500        1.1650400200
  O         6.0627194200       10.3425368500        1.1660399400
  O         8.6264196400        5.9020784100        1.1660399400
  O        11.1901198600        1.4616199700        1.1660399400
  O         0.9353195000       10.3425368500        1.1660399400
  O         3.4990197200        5.9020784100        1.1660399400
  O         6.0627199400        1.4616199700        1.1660399400
  O        -4.1920804200       10.3425368500        1.1660399400
  O        -1.6283802000        5.9020784100        1.1660399400
  O         0.9353200200        1.4616199700        1.1660399400
 Fe         7.6576695000       13.2997167500        1.9292099500
 Fe        10.2213697200        8.8592583200        1.9292099500
 Fe        12.7850699400        4.4187998800        1.9292099500
 Fe         2.5302695800       13.2997167500        1.9292099500
 Fe         5.0939698000        8.8592583200        1.9292099500
 Fe         7.6576700200        4.4187998800        1.9292099500
 Fe        -2.5971303400       13.2997167500        1.9292099500
 Fe        -0.0334301200        8.8592583200        1.9292099500
 Fe         2.5302701000        4.4187998800        1.9292099500
 Fe         7.6573893600       10.3392168700        2.7128999200
 Fe        10.2210895800        5.8987584300        2.7128999200
 Fe        12.7847898000        1.4582999900        2.7128999200
 Fe         2.5299894400       10.3392168700        2.7128999200
 Fe         5.0936896600        5.8987584300        2.7128999200
 Fe         7.6573898800        1.4582999900        2.7128999200
 Fe        -2.5974104800       10.3392168700        2.7128999200
 Fe        -0.0337102600        5.8987584300        2.7128999200
 Fe         2.5299899600        1.4582999900        2.7128999200
  O         4.1318544653       13.3015982041        3.4964377184
  O         6.7504822018        8.8875385272        3.5808602969
  O         9.2603694495        4.4201794686        3.4986201463
  O        -0.9963631614       13.2991493934        3.4952865353
  O         1.5665974494        8.8654582503        3.4953003598
  O         4.1229632969        4.4135408487        3.4727687576
  O        -6.1205767886       13.3031695495        3.5007846085
  O        -3.5535503071        8.8627108404        3.5018443213
  O        -0.9926658322        4.4164159373        3.4954301400
  O         6.8603460014       11.9113005380        3.4996654841
  O         9.4234180413        7.4713036675        3.5001202811
  O        11.9789874922        3.0228270774        3.4954599928
  O         1.7305722533       11.9078490848        3.5016161900
  O         4.3217675096        7.4402383336        3.5388926287
  O         6.8641242568        3.0251144599        3.5000569786
  O        -3.3943848402       11.9083490991        3.5022864178
  O        -0.8433861596        7.4821187182        3.4867757855
  O         1.7304409691        3.0320776282        3.4981936749
  O         9.4186295365       10.2473199240        3.5001429673
  O        11.9824822722        5.8073829098        3.4948233930
  O        14.5438850433        1.3620061396        3.4983278109
  O         4.2430946680       10.2742708444        3.5878733735
  O         6.8655534974        5.8018368373        3.4732841326
  O         9.4189088764        1.3615400855        3.4979124019
  O        -0.8481970871       10.2635074949        3.5019561793
  O         1.7362821487        5.7930729651        3.4677203557
  O         4.2923245138        1.3675877010        3.5010945632
 Fe         5.1034714144       11.8372201150        4.5042527213
 Fe         7.6585613084        7.3514537428        4.5046862284
 Fe        10.2149782444        2.9375039949        4.4919055461
 Fe        -0.0290392767       11.8328796782        4.4949883777
 Fe         2.5944792728        7.3613205785        4.3821505552
 Fe         5.0976127086        2.9541390546        4.4922196587
 Fe        -5.1623592180       11.8200217673        4.4916487102
 Fe        -2.6032466269        7.3753904768        4.4881359076
 Fe        -0.0343443901        2.9285204285        4.4854474113
 Fe         7.6601892107       13.2978850747        4.8204512472
 Fe        10.2171818950        8.8578763689        4.8208160267
 Fe        12.7735124389        4.3994192934        4.8009838284
 Fe         2.5327975100       13.3000951212        4.8200400235
 Fe         5.1066808271        8.8505893797        4.8638257104
 Fe         7.6444020403        4.4241455160        4.8233334918
 Fe        -2.5966858586       13.3016095798        4.8209481967
 Fe        -0.0703452972        8.9172039793        4.7521124455
 Fe         2.5457779880        4.4259465897        4.8137562443
  O         5.8692041707       10.3973041046        5.7335146958
  O         8.4402371659        5.9372880039        5.7357101955
  O        10.9961032329        1.5053174973        5.7271377600
  O         0.7356271925       10.3708882907        5.7335383189
  O         3.3311790458        5.9679751183        5.6691866123
  O         5.8672733505        1.5063993799        5.7255122151
  O        -4.3873859752       10.3858948635        5.7284596685
  O        -1.8243620728        5.9204686470        5.6913695772
  O         0.7393513544        1.5034251513        5.7290778285
  O         5.9543318151       13.2120512803        5.7353065152
  O         8.5104449626        8.7609222563        5.7281248433
  O        11.0742206386        4.3232176844        5.7237309340
  O         0.8227942461       13.2060091142        5.7318109331
  O         3.3561301391        8.7432317722        5.7002475055
  O         5.9264315550        4.3601075034        5.6959785041
  O        -4.3062577719       13.2030187259        5.7303409423
  O        -1.7296479114        8.7652499656        5.7265748575
  O         0.8349424771        4.2882020044        5.7264709856
  O         3.4625126072       11.8615486302        5.7342213622
  O         6.0194523127        7.3853877561        5.7051936515
  O         8.5924534124        2.9873393109        5.7289839281
  O        -1.6594732852       11.8604133744        5.7313999943
  O         0.8564850498        7.3326569311        5.4450759399
  O         3.4644489400        2.9861787158        5.7311521966
  O        -6.7874036032       11.8654318661        5.7324327095
  O        -4.2195500993        7.4273606990        5.7244851260
  O        -1.6597131829        2.9868817742        5.7278178470
 Fe         7.6600608682       10.3368547807        5.9925985794
 Fe        10.2275706598        5.9001569086        6.0011765418
 Fe        12.7854992565        1.4608701014        5.9959300522
 Fe         2.5327044213       10.3298715743        5.9934905416
 Fe         5.0870246050        5.8999713770        6.3505200198
 Fe         7.6573986585        1.4617498735        5.9932544239
 Fe        -2.6008486113       10.3381295308        5.9936328348
 Fe        -0.0576145754        5.7981139140        6.1153436625
 Fe         2.5310982419        1.4584724404        5.9911908815
  C        -0.8968678058        7.1914199884        8.5409902050
  C         0.5301003855        6.7945136210        8.9514984101
  H        -1.1719162670        6.7138020093        7.5785857281
  O        -1.9305779515        6.7614587266        9.4275048181
  H        -0.9670339475        8.2723739933        8.3191090045
  C         1.0338843518        7.6751235068       10.0960042840
  C         2.3531800027        7.2704286836       10.7806555024
  O         0.0710405047        7.7952771807       11.1964625081
  H         1.1421214490        8.7102258775        9.7268173710
  C         3.6115697852        7.2528869074        9.8691990946
  H         2.2203409745        6.2467363897       11.1970077256
  O         2.6320802770        8.1932157364       11.8556915188
  C         3.8878589755        5.8902373926        9.2413082742
  O         4.7870682459        7.5276528425       10.6591540132
  H         3.5294563215        8.0057010299        9.0674642480
  H         4.0123564763        5.1478549575       10.0518296723
  O         5.0771598146        5.9007120704        8.4137430166
  H         3.0637233048        5.6226359144        8.5726879960
  H        -1.8700844617        7.3185840425       10.2219487878
  H        -0.1001726616        6.8799345304       11.4999240484
  H         1.7378930514        8.4206672842       12.1871334722
  H         4.5214363703        8.1766863605       11.3421732626
  H         5.7852800974        6.3124091835        8.9501720176
  O         1.4729586415        6.9315764873        7.9396704602
  H         0.5113141210        5.7318104407        9.2915300847
  H         1.2106485912        7.2958849858        6.6516411553
     161
 i =        3, E =     -8104.5042312822
 Fe         5.0938794100       11.8196869300        0.3885799900
 Fe         7.6575796300        7.3792284900        0.3885799900
 Fe        10.2212798400        2.9387700600        0.3885799900
 Fe        -0.0335205200       11.8196869300        0.3885799900
 Fe         2.5301797000        7.3792284900        0.3885799900
 Fe         5.0938799200        2.9387700600        0.3885799900
 Fe        -5.1609204400       11.8196869300        0.3885799900
 Fe        -2.5972202200        7.3792284900        0.3885799900
 Fe        -0.0335200000        2.9387700600        0.3885799900
  O         8.4519195100        8.9577468800        1.1642700400
  O        11.0156197300        4.5172884400        1.1642700400
  O        13.5793199500        0.0768300000        1.1642700400
  O         3.3245195900        8.9577468800        1.1642700400
  O         5.8882198100        4.5172884400        1.1642700400
  O         8.4519200300        0.0768300000        1.1642700400
  O        -1.8028803300        8.9577468800        1.1642700400
  O         0.7608198900        4.5172884400        1.1642700400
  O         3.3245201100        0.0768300000        1.1642700400
  O         8.4568493000       11.7183869300        1.1650400200
  O        11.0205495200        7.2779284900        1.1650400200
  O        13.5842497300        2.8374700500        1.1650400200
  O         3.3294493700       11.7183869300        1.1650400200
  O         5.8931495900        7.2779284900        1.1650400200
  O         8.4568498100        2.8374700500        1.1650400200
  O        -1.7979505500       11.7183869300        1.1650400200
  O         0.7657496700        7.2779284900        1.1650400200
  O         3.3294498900        2.8374700500        1.1650400200
  O         6.0627194200       10.3425368500        1.1660399400
  O         8.6264196400        5.9020784100        1.1660399400
  O        11.1901198600        1.4616199700        1.1660399400
  O         0.9353195000       10.3425368500        1.1660399400
  O         3.4990197200        5.9020784100        1.1660399400
  O         6.0627199400        1.4616199700        1.1660399400
  O        -4.1920804200       10.3425368500        1.1660399400
  O        -1.6283802000        5.9020784100        1.1660399400
  O         0.9353200200        1.4616199700        1.1660399400
 Fe         7.6576695000       13.2997167500        1.9292099500
 Fe        10.2213697200        8.8592583200        1.9292099500
 Fe        12.7850699400        4.4187998800        1.9292099500
 Fe         2.5302695800       13.2997167500        1.9292099500
 Fe         5.0939698000        8.8592583200        1.9292099500
 Fe         7.6576700200        4.4187998800        1.9292099500
 Fe        -2.5971303400       13.2997167500        1.9292099500
 Fe        -0.0334301200        8.8592583200        1.9292099500
 Fe         2.5302701000        4.4187998800        1.9292099500
 Fe         7.6573893600       10.3392168700        2.7128999200
 Fe        10.2210895800        5.8987584300        2.7128999200
 Fe        12.7847898000        1.4582999900        2.7128999200
 Fe         2.5299894400       10.3392168700        2.7128999200
 Fe         5.0936896600        5.8987584300        2.7128999200
 Fe         7.6573898800        1.4582999900        2.7128999200
 Fe        -2.5974104800       10.3392168700        2.7128999200
 Fe        -0.0337102600        5.8987584300        2.7128999200
 Fe         2.5299899600        1.4582999900        2.7128999200
  O         4.1323389523       13.3057490705        3.5004235077
  O         6.7506539103        8.8941964770        3.5891200605
  O         9.2646243184        4.4249465055        3.5120142420
  O        -0.9978344945       13.3017422045        3.4955766618
  O         1.6165984759        8.8902984001        3.5687717929
  O         4.1561844530        4.4250962347        3.5219009325
  O        -6.1203417286       13.3026386992        3.5016385345
  O        -3.5501383008        8.8614869708        3.5047382259
  O        -0.9913988262        4.4136430766        3.4929042571
  O         6.8586428982       11.9120126001        3.5012469920
  O         9.4232292963        7.4699958395        3.5030603764
  O        11.9798331598        3.0197827305        3.5028500849
  O         1.7292179395       11.9096143451        3.5003541833
  O         4.3059201903        7.4514218245        3.5255285129
  O         6.8654693060        3.0169343596        3.5119742386
  O        -3.3921759992       11.9078652955        3.5037036250
  O        -0.8647379626        7.4382901253        3.5463277508
  O         1.7305219918        2.9891687309        3.5642363936
  O         9.4203561104       10.2480116259        3.4993885242
  O        11.9780755082        5.8059684896        3.4969928254
  O        14.5432295322        1.3619126849        3.5003512404
  O         4.2420666202       10.2704880018        3.5926756755
  O         6.8687909219        5.8034145804        3.4710915835
  O         9.4181910025        1.3591522008        3.4995655746
  O        -0.8902650593       10.2915684819        3.5954046392
  O         1.7168810304        5.8053703947        3.5014304061
  O         4.2920474965        1.3682021856        3.5032347121
 Fe         5.0983674736       11.8330258153        4.5019663849
 Fe         7.6497043594        7.3523464414        4.5050876790
 Fe        10.2112679240        2.9361131622        4.4923738773
 Fe        -0.0183615473       11.8596350909        4.5094629951
 Fe         2.5997570772        7.3460789060        4.4034208403
 Fe         5.1035912478        2.9518924516        4.5036143883
 Fe        -5.1612380774       11.8197123024        4.4898304959
 Fe        -2.6204914734        7.3678928595        4.5027870960
 Fe        -0.0465978889        2.9276841186        4.4943440092
 Fe         7.6609307336       13.2969980802        4.8193176102
 Fe        10.2143700882        8.8582004629        4.8174144651
 Fe        12.7745444477        4.4009176452        4.7946277724
 Fe         2.5357774782       13.2992427900        4.8170443377
 Fe         5.1120713393        8.8459987361        4.8808070267
 Fe         7.6344402586        4.4276523019        4.8271361316
 Fe        -2.5975354139       13.3031409444        4.8177208431
 Fe        -0.0672756095        8.9061231802        4.7865775589
 Fe         2.5528672888        4.4325677619        4.8313517438
  O         5.8667125011       10.4032404233        5.7514538573
  O         8.4387212307        5.9393272955        5.7384282404
  O        10.9953535601        1.5046883913        5.7282533058
  O         0.7339307170       10.3726682964        5.7386112083
  O         3.3392904224        5.9626836677        5.6870168490
  O         5.8669976788        1.5028771278        5.7300543046
  O        -4.3889516036       10.3847564540        5.7306647905
  O        -1.8120127050        5.9142299827        5.6915978297
  O         0.7384830053        1.5019009246        5.7313904246
  O         5.9522309950       13.2095347190        5.7340161784
  O         8.5148763430        8.7538547432        5.7391467925
  O        11.0769312106        4.3211429819        5.7222344172
  O         0.8319726630       13.2141836993        5.7411277334
  O         3.3550978791        8.7378714663        5.7115538190
  O         5.9218897954        4.3644240232        5.7060767017
  O        -4.3053459937       13.2022254998        5.7315257354
  O        -1.7348856569        8.7622509796        5.7336641777
  O         0.8366606085        4.2825456017        5.7302977464
  O         3.4622052304       11.8675737808        5.7453890329
  O         6.0203035609        7.3792246351        5.7263903833
  O         8.5897440377        2.9906100741        5.7306745396
  O        -1.6599341376       11.8622997596        5.7329280041
  O         0.8680764563        7.3411658989        5.4976811103
  O         3.4670601439        2.9869850241        5.7387525575
  O        -6.7853603927       11.8660100206        5.7347441812
  O        -4.2260002569        7.4297716328        5.7315285963
  O        -1.6660551083        2.9903710678        5.7330532146
 Fe         7.6632055206       10.3334481964        5.9796953669
 Fe        10.2277541886        5.8973988013        5.9917922767
 Fe        12.7849814436        1.4600998936        5.9903810246
 Fe         2.5348838196       10.3302823276        5.9711543084
 Fe         5.0868101831        5.8994442641        6.3624059667
 Fe         7.6565400869        1.4644963820        5.9863912161
 Fe        -2.6021881723       10.3393981217        5.9876877756
 Fe        -0.0505643876        5.7856538994        6.1258123388
 Fe         2.5316755191        1.4588299246        5.9828947190
  C        -0.8959375180        7.1892919541        8.5439204707
  C         0.5356027656        6.8012329740        8.9550088354
  H        -1.1832043813        6.7167026883        7.5819326809
  O        -1.9234876699        6.7661844607        9.4418497405
  H        -0.9560372663        8.2712880865        8.3276380295
  C         1.0370554912        7.6768226080       10.1065816796
  C         2.3630328527        7.2577935636       10.7666387806
  O         0.0697356520        7.7934344360       11.2048402379
  H         1.1342813419        8.7076625883        9.7240539124
  C         3.6274532043        7.2607209963        9.8638296804
  H         2.2202272178        6.2447045402       11.2025425903
  O         2.6245016191        8.1822489919       11.8444548484
  C         3.8654033716        5.8895057834        9.2418719540
  O         4.8026859506        7.5248380156       10.6579465923
  H         3.5210207779        8.0095139461        9.0614198295
  H         4.0203867108        5.1421748636       10.0414563505
  O         5.0691219861        5.9075398773        8.4213456755
  H         3.0482369374        5.6232905451        8.5630255457
  H        -1.8755184567        7.3266542351       10.2346368483
  H        -0.1086251530        6.8805026149       11.5085049150
  H         1.7403326932        8.4274994385       12.1902904374
  H         4.5205467557        8.1720961797       11.3364628950
  H         5.7957806793        6.3218650476        8.9341687426
  O         1.4576028625        6.9083972420        7.9252168414
  H         0.4836366946        5.7432877295        9.3261968532
  H         1.2331988021        7.3272202800        6.6955765498
     161
 i =        4, E =     -8104.5159231262
 Fe         5.0938794100       11.8196869300        0.3885799900
 Fe         7.6575796300        7.3792284900        0.3885799900
 Fe        10.2212798400        2.9387700600        0.3885799900
 Fe        -0.0335205200       11.8196869300        0.3885799900
 Fe         2.5301797000        7.3792284900        0.3885799900
 Fe         5.0938799200        2.9387700600        0.3885799900
 Fe        -5.1609204400       11.8196869300        0.3885799900
 Fe        -2.5972202200        7.3792284900        0.3885799900
 Fe        -0.0335200000        2.9387700600        0.3885799900
  O         8.4519195100        8.9577468800        1.1642700400
  O        11.0156197300        4.5172884400        1.1642700400
  O        13.5793199500        0.0768300000        1.1642700400
  O         3.3245195900        8.9577468800        1.1642700400
  O         5.8882198100        4.5172884400        1.1642700400
  O         8.4519200300        0.0768300000        1.1642700400
  O        -1.8028803300        8.9577468800        1.1642700400
  O         0.7608198900        4.5172884400        1.1642700400
  O         3.3245201100        0.0768300000        1.1642700400
  O         8.4568493000       11.7183869300        1.1650400200
  O        11.0205495200        7.2779284900        1.1650400200
  O        13.5842497300        2.8374700500        1.1650400200
  O         3.3294493700       11.7183869300        1.1650400200
  O         5.8931495900        7.2779284900        1.1650400200
  O         8.4568498100        2.8374700500        1.1650400200
  O        -1.7979505500       11.7183869300        1.1650400200
  O         0.7657496700        7.2779284900        1.1650400200
  O         3.3294498900        2.8374700500        1.1650400200
  O         6.0627194200       10.3425368500        1.1660399400
  O         8.6264196400        5.9020784100        1.1660399400
  O        11.1901198600        1.4616199700        1.1660399400
  O         0.9353195000       10.3425368500        1.1660399400
  O         3.4990197200        5.9020784100        1.1660399400
  O         6.0627199400        1.4616199700        1.1660399400
  O        -4.1920804200       10.3425368500        1.1660399400
  O        -1.6283802000        5.9020784100        1.1660399400
  O         0.9353200200        1.4616199700        1.1660399400
 Fe         7.6576695000       13.2997167500        1.9292099500
 Fe        10.2213697200        8.8592583200        1.9292099500
 Fe        12.7850699400        4.4187998800        1.9292099500
 Fe         2.5302695800       13.2997167500        1.9292099500
 Fe         5.0939698000        8.8592583200        1.9292099500
 Fe         7.6576700200        4.4187998800        1.9292099500
 Fe        -2.5971303400       13.2997167500        1.9292099500
 Fe        -0.0334301200        8.8592583200        1.9292099500
 Fe         2.5302701000        4.4187998800        1.9292099500
 Fe         7.6573893600       10.3392168700        2.7128999200
 Fe        10.2210895800        5.8987584300        2.7128999200
 Fe        12.7847898000        1.4582999900        2.7128999200
 Fe         2.5299894400       10.3392168700        2.7128999200
 Fe         5.0936896600        5.8987584300        2.7128999200
 Fe         7.6573898800        1.4582999900        2.7128999200
 Fe        -2.5974104800       10.3392168700        2.7128999200
 Fe        -0.0337102600        5.8987584300        2.7128999200
 Fe         2.5299899600        1.4582999900        2.7128999200
  O         4.1335586479       13.3053871019        3.5021380319
  O         6.7065144825        8.8791116218        3.5294734573
  O         9.2603175678        4.4275624350        3.5112556471
  O        -0.9961003208       13.3059573063        3.5001326244
  O         1.6072497989        8.8813712122        3.5500855105
  O         4.1471422380        4.4207483041        3.5079651889
  O        -6.1231516725       13.2981998355        3.4954214881
  O        -3.5541782539        8.8602983418        3.5022728154
  O        -0.9930723824        4.4080410287        3.4875719064
  O         6.8575146270       11.9132748821        3.5006807461
  O         9.4247157784        7.4697252010        3.5033901394
  O        11.9839350015        3.0218457127        3.5063528061
  O         1.7234087239       11.9139019463        3.5010548191
  O         4.2928282868        7.4982280163        3.4576125419
  O         6.8647442395        3.0194222517        3.5118589763
  O        -3.3948936028       11.9129237220        3.4963006825
  O        -0.8624111597        7.4539856005        3.5174247206
  O         1.7380195280        2.9927491238        3.5590895566
  O         9.4254263376       10.2469350762        3.4944199916
  O        11.9750481849        5.8002960795        3.5014599467
  O        14.5417774648        1.3594408885        3.5016165276
  O         4.2770664330       10.2475932659        3.5275866453
  O         6.8741649401        5.8027916067        3.4696017704
  O         9.4159232695        1.3575994725        3.5021380199
  O        -0.8768427670       10.2775177687        3.5787345329
  O         1.7325991736        5.7993577014        3.4926144262
  O         4.2918062825        1.3677002315        3.5034797743
 Fe         5.0881818416       11.8113367901        4.4881324124
 Fe         7.6353582549        7.3705544789        4.4903821155
 Fe        10.2082456944        2.9399596617        4.4860459450
 Fe        -0.0294429793       11.8482634484        4.5047804240
 Fe         2.5845448088        7.3494956803        4.4406408742
 Fe         5.0994700789        2.9628141309        4.4971498232
 Fe        -5.1592054573       11.8198214969        4.4857302102
 Fe        -2.6035346263        7.3664321560        4.4890501649
 Fe        -0.0358125287        2.9279865352        4.4861363873
 Fe         7.6615000016       13.2958737250        4.8199089845
 Fe        10.2135909947        8.8557452834        4.8181261211
 Fe        12.7805935306        4.4039876672        4.8020318700
 Fe         2.5380148846       13.3002357753        4.8187207907
 Fe         5.1061931900        8.8441152437        4.8711838081
 Fe         7.6286039980        4.4294021008        4.8318399503
 Fe        -2.5989004374       13.3049101390        4.8161559986
 Fe        -0.0599513721        8.8826139130        4.8216568576
 Fe         2.5601061197        4.4300814076        4.8466212671
  O         5.8587374788       10.3983210556        5.7696671467
  O         8.4287105396        5.9508411295        5.7374988970
  O        10.9923617761        1.5114619961        5.7300972056
  O         0.7331062612       10.3763991642        5.7537470269
  O         3.3289433906        5.9537300513        5.7306540873
  O         5.8640378835        1.5106438749        5.7305409825
  O        -4.3886007098       10.3847605922        5.7307278571
  O        -1.8061992425        5.9182033009        5.7069472632
  O         0.7303239929        1.4999792909        5.7412972146
  O         5.9437516047       13.2018731759        5.7259958638
  O         8.5183358129        8.7471809950        5.7533068128
  O        11.0769911639        4.3187920385        5.7259854377
  O         0.8260311614       13.2091842801        5.7354423405
  O         3.3697407704        8.7331849398        5.7534848892
  O         5.9272566823        4.3541467537        5.7347644632
  O        -4.3060521966       13.2023555334        5.7320419604
  O        -1.7457804497        8.7504763223        5.7583461477
  O         0.8346699346        4.2877695387        5.7382457770
  O         3.4663118721       11.8778162567        5.7564067129
  O         6.0239763576        7.3924091167        5.7557223931
  O         8.5909169824        2.9927579323        5.7352572975
  O        -1.6595674333       11.8767681407        5.7488399031
  O         0.9001175509        7.3943604593        5.6572676428
  O         3.4800285148        2.9859335017        5.7587487647
  O        -6.7828714907       11.8638920384        5.7342438532
  O        -4.2143518279        7.4239851708        5.7300156711
  O        -1.6560299735        2.9878078058        5.7344201776
 Fe         7.6618983047       10.3302198050        5.9675566790
 Fe        10.2234298350        5.8965109304        5.9788358217
 Fe        12.7846918920        1.4598591555        5.9814341784
 Fe         2.5398429515       10.3330403024        5.9483287346
 Fe         5.0858838387        5.8996780332        6.2125492196
 Fe         7.6557039623        1.4646561265        5.9792810305
 Fe        -2.5963113274       10.3433795149        5.9739218199
 Fe        -0.0385204510        5.8092828329        6.0752776050
 Fe         2.5278488655        1.4605432710        5.9668670428
  C        -0.9065973300        7.2004268380        8.5593618419
  C         0.5290356868        6.8202287715        8.9671871131
  H        -1.1862723550        6.7238916811        7.5980333183
  O        -1.9294657805        6.7490615096        9.4481885732
  H        -0.9474574969        8.2794005673        8.3278805657
  C         1.0348171522        7.6928289223       10.1212245899
  C         2.3650153703        7.2530999139       10.7553970957
  O         0.0501350357        7.7923215008       11.2006600739
  H         1.1403064291        8.7134196556        9.7204084166
  C         3.6376360101        7.2585312904        9.8699138303
  H         2.2248318194        6.2438799819       11.2012288026
  O         2.6225301846        8.1786486091       11.8308092289
  C         3.8581948782        5.8895634086        9.2432048661
  O         4.8152945431        7.5292996999       10.6528878467
  H         3.5181119422        8.0077544114        9.0667734369
  H         4.0143083467        5.1396690516       10.0370635142
  O         5.0753771984        5.9095220227        8.4405350183
  H         3.0423672302        5.6175773118        8.5629926724
  H        -1.8595655041        7.3397426733       10.2192219585
  H        -0.1070152686        6.8788817453       11.5100453890
  H         1.7444810272        8.4271377411       12.1893224321
  H         4.5230820033        8.1690986921       11.3339881471
  H         5.8014413384        6.3332035151        8.9454631824
  O         1.4222530151        6.9019340851        7.8899770460
  H         0.4810907601        5.7579650311        9.3150250207
  H         1.2179196265        7.2277973788        6.7254466742
     161
 i =        5, E =     -8104.5253004985
 Fe         5.0938794100       11.8196869300        0.3885799900
 Fe         7.6575796300        7.3792284900        0.3885799900
 Fe        10.2212798400        2.9387700600        0.3885799900
 Fe        -0.0335205200       11.8196869300        0.3885799900
 Fe         2.5301797000        7.3792284900        0.3885799900
 Fe         5.0938799200        2.9387700600        0.3885799900
 Fe        -5.1609204400       11.8196869300        0.3885799900
 Fe        -2.5972202200        7.3792284900        0.3885799900
 Fe        -0.0335200000        2.9387700600        0.3885799900
  O         8.4519195100        8.9577468800        1.1642700400
  O        11.0156197300        4.5172884400        1.1642700400
  O        13.5793199500        0.0768300000        1.1642700400
  O         3.3245195900        8.9577468800        1.1642700400
  O         5.8882198100        4.5172884400        1.1642700400
  O         8.4519200300        0.0768300000        1.1642700400
  O        -1.8028803300        8.9577468800        1.1642700400
  O         0.7608198900        4.5172884400        1.1642700400
  O         3.3245201100        0.0768300000        1.1642700400
  O         8.4568493000       11.7183869300        1.1650400200
  O        11.0205495200        7.2779284900        1.1650400200
  O        13.5842497300        2.8374700500        1.1650400200
  O         3.3294493700       11.7183869300        1.1650400200
  O         5.8931495900        7.2779284900        1.1650400200
  O         8.4568498100        2.8374700500        1.1650400200
  O        -1.7979505500       11.7183869300        1.1650400200
  O         0.7657496700        7.2779284900        1.1650400200
  O         3.3294498900        2.8374700500        1.1650400200
  O         6.0627194200       10.3425368500        1.1660399400
  O         8.6264196400        5.9020784100        1.1660399400
  O        11.1901198600        1.4616199700        1.1660399400
  O         0.9353195000       10.3425368500        1.1660399400
  O         3.4990197200        5.9020784100        1.1660399400
  O         6.0627199400        1.4616199700        1.1660399400
  O        -4.1920804200       10.3425368500        1.1660399400
  O        -1.6283802000        5.9020784100        1.1660399400
  O         0.9353200200        1.4616199700        1.1660399400
 Fe         7.6576695000       13.2997167500        1.9292099500
 Fe        10.2213697200        8.8592583200        1.9292099500
 Fe        12.7850699400        4.4187998800        1.9292099500
 Fe         2.5302695800       13.2997167500        1.9292099500
 Fe         5.0939698000        8.8592583200        1.9292099500
 Fe         7.6576700200        4.4187998800        1.9292099500
 Fe        -2.5971303400       13.2997167500        1.9292099500
 Fe        -0.0334301200        8.8592583200        1.9292099500
 Fe         2.5302701000        4.4187998800        1.9292099500
 Fe         7.6573893600       10.3392168700        2.7128999200
 Fe        10.2210895800        5.8987584300        2.7128999200
 Fe        12.7847898000        1.4582999900        2.7128999200
 Fe         2.5299894400       10.3392168700        2.7128999200
 Fe         5.0936896600        5.8987584300        2.7128999200
 Fe         7.6573898800        1.4582999900        2.7128999200
 Fe        -2.5974104800       10.3392168700        2.7128999200
 Fe        -0.0337102600        5.8987584300        2.7128999200
 Fe         2.5299899600        1.4582999900        2.7128999200
  O         4.1333092101       13.3020203446        3.5008020374
  O         6.7016237701        8.8749998650        3.5234607703
  O         9.2613688836        4.4263210420        3.5099192827
  O        -0.9952058823       13.3061493436        3.5015101878
  O         1.5982811875        8.8819145108        3.5421802983
  O         4.1432691955        4.4213587088        3.5069141354
  O        -6.1230361805       13.2981552142        3.4974985901
  O        -3.5537620054        8.8605316312        3.5025224655
  O        -0.9904016819        4.4073365546        3.4896283268
  O         6.8583317096       11.9093067231        3.5036929596
  O         9.4257937072        7.4707715919        3.5023360895
  O        11.9822274541        3.0211879610        3.5056426618
  O         1.7252216842       11.9119981311        3.5061322409
  O         4.3036505883        7.5022013472        3.4516639268
  O         6.8640727921        3.0214406636        3.5132693757
  O        -3.3947261805       11.9132974184        3.4975920522
  O        -0.8525933007        7.4580232691        3.5190905061
  O         1.7388243280        2.9951695246        3.5540527783
  O         9.4234101560       10.2446505650        3.4982762866
  O        11.9760797218        5.8001942710        3.5023497544
  O        14.5420930637        1.3593793985        3.5013547293
  O         4.2815371937       10.2487232356        3.5209897816
  O         6.8706841689        5.8020231248        3.4753793723
  O         9.4162853331        1.3590330492        3.5021085372
  O        -0.8748973989       10.2730341990        3.5727849652
  O         1.7332036163        5.7968324952        3.4977402196
  O         4.2903225908        1.3666438047        3.5036998892
 Fe         5.0894402202       11.8098339812        4.4904261203
 Fe         7.6360920303        7.3699043904        4.4897379382
 Fe        10.2064145322        2.9419330305        4.4895773685
 Fe        -0.0328257238       11.8454276005        4.5033469832
 Fe         2.5926176497        7.3565382805        4.4245488016
 Fe         5.0973793293        2.9640761085        4.4959457705
 Fe        -5.1588967990       11.8193211088        4.4873559123
 Fe        -2.5987709483        7.3668365019        4.4878472329
 Fe        -0.0314945279        2.9247575048        4.4865707606
 Fe         7.6599217559       13.2941732413        4.8199150225
 Fe        10.2140346475        8.8526959455        4.8187725865
 Fe        12.7803947130        4.4006159381        4.8013513731
 Fe         2.5382772467       13.3023461674        4.8195521194
 Fe         5.1029771445        8.8435321206        4.8658991018
 Fe         7.6287995511        4.4316360091        4.8352501986
 Fe        -2.5993618253       13.3078007155        4.8162582026
 Fe        -0.0631336508        8.8885779261        4.8246655710
 Fe         2.5622850510        4.4273666921        4.8531602109
  O         5.8572536863       10.3907174010        5.7666223431
  O         8.4269954424        5.9524995222        5.7402937135
  O        10.9923397027        1.5125225164        5.7304192696
  O         0.7320266286       10.3768533857        5.7598940199
  O         3.3354258004        5.9578280428        5.7175873252
  O         5.8647176803        1.5131311299        5.7311859843
  O        -4.3873678064       10.3833746162        5.7282532753
  O        -1.7970344692        5.9141849092        5.7009805327
  O         0.7291257505        1.4948673404        5.7441441899
  O         5.9428544743       13.2030698423        5.7257631549
  O         8.5161299712        8.7505808029        5.7505637550
  O        11.0773187315        4.3209632236        5.7266924860
  O         0.8226252061       13.2080344948        5.7331033738
  O         3.3730337170        8.7301756234        5.7579577457
  O         5.9233957096        4.3630274756        5.7263592026
  O        -4.3076525733       13.2043811076        5.7301327161
  O        -1.7465115583        8.7484610806        5.7652429258
  O         0.8363784887        4.2845424860        5.7383138137
  O         3.4647946752       11.8762816318        5.7526082134
  O         6.0169381684        7.3884664853        5.7429771678
  O         8.5891980513        2.9935117158        5.7372815124
  O        -1.6613926556       11.8799086453        5.7519035491
  O         0.9033641683        7.3898932785        5.6422724237
  O         3.4819904369        2.9863129493        5.7634714577
  O        -6.7843329690       11.8611918047        5.7320614981
  O        -4.2114701460        7.4200131530        5.7282053927
  O        -1.6533827437        2.9862784722        5.7346814372
 Fe         7.6587091322       10.3309249573        5.9764195289
 Fe        10.2215512973        5.8965118326        5.9856359434
 Fe        12.7842013521        1.4601406345        5.9854291571
 Fe         2.5396321059       10.3307632783        5.9385110709
 Fe         5.0842567142        5.9014402662        6.2775639403
 Fe         7.6554278225        1.4649879615        5.9854833489
 Fe        -2.5955145277       10.3439810006        5.9759136119
 Fe        -0.0325348867        5.8021133057        6.0965306650
 Fe         2.5265962081        1.4620864810        5.9705446983
  C        -0.9142151326        7.2050644090        8.5565388553
  C         0.5120172917        6.8026545089        8.9716532927
  H        -1.1919554993        6.7238691110        7.5986024671
  O        -1.9279567389        6.7625321230        9.4605683077
  H        -0.9548406370        8.2866652365        8.3387007736
  C         1.0381810828        7.6867472640       10.1099434303
  C         2.3612274705        7.2639012480       10.7700036366
  O         0.0638027283        7.7938608761       11.1997860005
  H         1.1393495384        8.7162869029        9.7308308288
  C         3.6199056956        7.2493848455        9.8644210869
  H         2.2266908621        6.2439537377       11.1938196246
  O         2.6367025642        8.1859600407       11.8442886080
  C         3.8777849717        5.8904075262        9.2348777059
  O         4.7989136041        7.5271810728       10.6429250786
  H         3.5206045973        8.0070039525        9.0667352056
  H         4.0066315852        5.1406064925       10.0300814646
  O         5.0802488977        5.9072739264        8.4044882572
  H         3.0482811436        5.6274011985        8.5681381255
  H        -1.8655512323        7.3484978856       10.2349566327
  H        -0.1091798590        6.8816795656       11.5090192625
  H         1.7491072499        8.4259404379       12.1846978073
  H         4.5288715172        8.1664617950       11.3334052758
  H         5.7840070101        6.3357349130        8.9332870211
  O         1.4290936189        6.8421434866        7.9093384626
  H         0.4691081707        5.7489101192        9.3413230026
  H         1.2119697084        7.3060655760        6.7657056265
     161
 i =        6, E =     -8104.5296559121
 Fe         5.0938794100       11.8196869300        0.3885799900
 Fe         7.6575796300        7.3792284900        0.3885799900
 Fe        10.2212798400        2.9387700600        0.3885799900
 Fe        -0.0335205200       11.8196869300        0.3885799900
 Fe         2.5301797000        7.3792284900        0.3885799900
 Fe         5.0938799200        2.9387700600        0.3885799900
 Fe        -5.1609204400       11.8196869300        0.3885799900
 Fe        -2.5972202200        7.3792284900        0.3885799900
 Fe        -0.0335200000        2.9387700600        0.3885799900
  O         8.4519195100        8.9577468800        1.1642700400
  O        11.0156197300        4.5172884400        1.1642700400
  O        13.5793199500        0.0768300000        1.1642700400
  O         3.3245195900        8.9577468800        1.1642700400
  O         5.8882198100        4.5172884400        1.1642700400
  O         8.4519200300        0.0768300000        1.1642700400
  O        -1.8028803300        8.9577468800        1.1642700400
  O         0.7608198900        4.5172884400        1.1642700400
  O         3.3245201100        0.0768300000        1.1642700400
  O         8.4568493000       11.7183869300        1.1650400200
  O        11.0205495200        7.2779284900        1.1650400200
  O        13.5842497300        2.8374700500        1.1650400200
  O         3.3294493700       11.7183869300        1.1650400200
  O         5.8931495900        7.2779284900        1.1650400200
  O         8.4568498100        2.8374700500        1.1650400200
  O        -1.7979505500       11.7183869300        1.1650400200
  O         0.7657496700        7.2779284900        1.1650400200
  O         3.3294498900        2.8374700500        1.1650400200
  O         6.0627194200       10.3425368500        1.1660399400
  O         8.6264196400        5.9020784100        1.1660399400
  O        11.1901198600        1.4616199700        1.1660399400
  O         0.9353195000       10.3425368500        1.1660399400
  O         3.4990197200        5.9020784100        1.1660399400
  O         6.0627199400        1.4616199700        1.1660399400
  O        -4.1920804200       10.3425368500        1.1660399400
  O        -1.6283802000        5.9020784100        1.1660399400
  O         0.9353200200        1.4616199700        1.1660399400
 Fe         7.6576695000       13.2997167500        1.9292099500
 Fe        10.2213697200        8.8592583200        1.9292099500
 Fe        12.7850699400        4.4187998800        1.9292099500
 Fe         2.5302695800       13.2997167500        1.9292099500
 Fe         5.0939698000        8.8592583200        1.9292099500
 Fe         7.6576700200        4.4187998800        1.9292099500
 Fe        -2.5971303400       13.2997167500        1.9292099500
 Fe        -0.0334301200        8.8592583200        1.9292099500
 Fe         2.5302701000        4.4187998800        1.9292099500
 Fe         7.6573893600       10.3392168700        2.7128999200
 Fe        10.2210895800        5.8987584300        2.7128999200
 Fe        12.7847898000        1.4582999900        2.7128999200
 Fe         2.5299894400       10.3392168700        2.7128999200
 Fe         5.0936896600        5.8987584300        2.7128999200
 Fe         7.6573898800        1.4582999900        2.7128999200
 Fe        -2.5974104800       10.3392168700        2.7128999200
 Fe        -0.0337102600        5.8987584300        2.7128999200
 Fe         2.5299899600        1.4582999900        2.7128999200
  O         4.1303006405       13.2973940527        3.4965101381
  O         6.6978701240        8.8696740378        3.5183169377
  O         9.2603315230        4.4257758459        3.5077165725
  O        -0.9948444660       13.3048694649        3.5017771578
  O         1.5807363337        8.8795483959        3.5201460423
  O         4.1311158004        4.4181949982        3.4932999093
  O        -6.1244852483       13.2982574224        3.4996903006
  O        -3.5491262856        8.8593169826        3.5050247631
  O        -0.9877011529        4.4054448563        3.4882641112
  O         6.8603922474       11.9029700958        3.5067148116
  O         9.4252186886        7.4719988025        3.5018771708
  O        11.9820970637        3.0216422818        3.5039345602
  O         1.7298477766       11.9067551777        3.5150844470
  O         4.3104221867        7.5043521954        3.4507163487
  O         6.8629499026        3.0273403119        3.5130004254
  O        -3.3929274576       11.9136615793        3.5011150097
  O        -0.8354771278        7.4716899896        3.5109718676
  O         1.7417143500        3.0037959021        3.5391894385
  O         9.4192098088       10.2393577407        3.5040795766
  O        11.9814650142        5.8001820879        3.4998916942
  O        14.5442878466        1.3585379330        3.4993389202
  O         4.2826030824       10.2493365546        3.5215363307
  O         6.8680727136        5.7989247123        3.4778393531
  O         9.4174454121        1.3607035983        3.5007290211
  O        -0.8674387306       10.2623898433        3.5562183507
  O         1.7366346353        5.7917302669        3.4959471912
  O         4.2885650718        1.3668939213        3.5047311359
 Fe         5.0936501846       11.8115114702        4.4911309104
 Fe         7.6345591246        7.3636901891        4.4898410013
 Fe        10.2036346436        2.9460875365        4.4923326105
 Fe        -0.0375848380       11.8410480210        4.4992955023
 Fe         2.5889839615        7.3630185305        4.4048643767
 Fe         5.0933090683        2.9705705342        4.4940267177
 Fe        -5.1593507340       11.8179705952        4.4885164132
 Fe        -2.5866680634        7.3646289184        4.4882630661
 Fe        -0.0234230003        2.9212495176        4.4848011372
 Fe         7.6568216563       13.2904361852        4.8197022113
 Fe        10.2155829642        8.8472318084        4.8193134007
 Fe        12.7828905952        4.3963939824        4.8001696629
 Fe         2.5384044428       13.3062769613        4.8206490461
 Fe         5.1013034478        8.8403565333        4.8568824671
 Fe         7.6268584189        4.4368369196        4.8427188084
 Fe        -2.6002408063       13.3137184187        4.8172473448
 Fe        -0.0668415736        8.8947721555        4.8229019293
 Fe         2.5656552167        4.4281489854        4.8581445924
  O         5.8553190067       10.3806031816        5.7574744292
  O         8.4254982343        5.9546601879        5.7473611164
  O        10.9923168201        1.5144855208        5.7303421268
  O         0.7267582349       10.3740548076        5.7681453572
  O         3.3503287792        5.9643565713        5.6952025330
  O         5.8649776301        1.5191032489        5.7316741315
  O        -4.3859121804       10.3816573382        5.7238636725
  O        -1.7740274387        5.9068018269        5.6915885623
  O         0.7284698948        1.4867136222        5.7465036413
  O         5.9421341570       13.2039826336        5.7267194165
  O         8.5101925909        8.7554873220        5.7413306134
  O        11.0796300041        4.3234093346        5.7270678382
  O         0.8174347290       13.2067307288        5.7295940945
  O         3.3775929514        8.7273762897        5.7529265420
  O         5.9188856433        4.3736048194        5.7180039211
  O        -4.3115465323       13.2069453337        5.7267696214
  O        -1.7437138453        8.7479075379        5.7728034786
  O         0.8428242455        4.2770347608        5.7368462551
  O         3.4650886667       11.8725257185        5.7412242906
  O         6.0057039819        7.3826274909        5.7223279612
  O         8.5873585307        2.9961417900        5.7404550428
  O        -1.6645692942       11.8825656271        5.7532714058
  O         0.9053723829        7.4005587320        5.6495654011
  O         3.4802421598        2.9921122335        5.7726885807
  O        -6.7867656436       11.8562069498        5.7291193447
  O        -4.2062639548        7.4136544079        5.7246447037
  O        -1.6483235935        2.9835221290        5.7356087552
 Fe         7.6535621035       10.3319717433        5.9918714170
 Fe        10.2206257219        5.8958763148        5.9915403560
 Fe        12.7843993815        1.4601882670        5.9886558648
 Fe         2.5371616625       10.3282642172        5.9036985574
 Fe         5.0858782456        5.9021459403        6.3600170363
 Fe         7.6547702072        1.4662723407        5.9897247462
 Fe        -2.5954001740       10.3441333115        5.9790161620
 Fe        -0.0143595313        5.7921078397        6.1293807479
 Fe         2.5254219903        1.4649113064        5.9792145988
  C        -0.9098511396        7.2034792056        8.5726783264
  C         0.5079350291        6.7832228914        8.9967348884
  H        -1.2109480495        6.7358485594        7.6133946717
  O        -1.9346350346        6.7889479224        9.4782455692
  H        -0.9669287009        8.2863638181        8.3583941884
  C         1.0377225400        7.6871202904       10.1194692297
  C         2.3723322522        7.2532295157       10.7530849807
  O         0.0680931332        7.8065243941       11.2145031896
  H         1.1388818753        8.7169083946        9.7378995797
  C         3.6377839844        7.2597165852        9.8533112555
  H         2.2237601385        6.2438354597       11.1969961423
  O         2.6344936153        8.1746324668       11.8314266929
  C         3.8552308351        5.8917532498        9.2260639596
  O         4.8138982123        7.5209692257       10.6424231971
  H         3.5102053875        8.0101625901        9.0533991922
  H         4.0178529218        5.1357928905       10.0132465228
  O         5.0648213954        5.9150751353        8.3991154016
  H         3.0361455463        5.6280402867        8.5482206109
  H        -1.8712178457        7.3682077140       10.2566476890
  H        -0.1101025625        6.8866025825       11.5048413898
  H         1.7578874598        8.4328121315       12.1872256362
  H         4.5323461206        8.1618884171       11.3262517384
  H         5.7838315575        6.3503153441        8.9042559985
  O         1.4063650669        6.7494350074        7.9137502394
  H         0.4273850631        5.7409541270        9.3921166046
  H         1.2179740752        7.4109815383        6.8244767769
     161
 i =        7, E =     -8104.5346595190
 Fe         5.0938794100       11.8196869300        0.3885799900
 Fe         7.6575796300        7.3792284900        0.3885799900
 Fe        10.2212798400        2.9387700600        0.3885799900
 Fe        -0.0335205200       11.8196869300        0.3885799900
 Fe         2.5301797000        7.3792284900        0.3885799900
 Fe         5.0938799200        2.9387700600        0.3885799900
 Fe        -5.1609204400       11.8196869300        0.3885799900
 Fe        -2.5972202200        7.3792284900        0.3885799900
 Fe        -0.0335200000        2.9387700600        0.3885799900
  O         8.4519195100        8.9577468800        1.1642700400
  O        11.0156197300        4.5172884400        1.1642700400
  O        13.5793199500        0.0768300000        1.1642700400
  O         3.3245195900        8.9577468800        1.1642700400
  O         5.8882198100        4.5172884400        1.1642700400
  O         8.4519200300        0.0768300000        1.1642700400
  O        -1.8028803300        8.9577468800        1.1642700400
  O         0.7608198900        4.5172884400        1.1642700400
  O         3.3245201100        0.0768300000        1.1642700400
  O         8.4568493000       11.7183869300        1.1650400200
  O        11.0205495200        7.2779284900        1.1650400200
  O        13.5842497300        2.8374700500        1.1650400200
  O         3.3294493700       11.7183869300        1.1650400200
  O         5.8931495900        7.2779284900        1.1650400200
  O         8.4568498100        2.8374700500        1.1650400200
  O        -1.7979505500       11.7183869300        1.1650400200
  O         0.7657496700        7.2779284900        1.1650400200
  O         3.3294498900        2.8374700500        1.1650400200
  O         6.0627194200       10.3425368500        1.1660399400
  O         8.6264196400        5.9020784100        1.1660399400
  O        11.1901198600        1.4616199700        1.1660399400
  O         0.9353195000       10.3425368500        1.1660399400
  O         3.4990197200        5.9020784100        1.1660399400
  O         6.0627199400        1.4616199700        1.1660399400
  O        -4.1920804200       10.3425368500        1.1660399400
  O        -1.6283802000        5.9020784100        1.1660399400
  O         0.9353200200        1.4616199700        1.1660399400
 Fe         7.6576695000       13.2997167500        1.9292099500
 Fe        10.2213697200        8.8592583200        1.9292099500
 Fe        12.7850699400        4.4187998800        1.9292099500
 Fe         2.5302695800       13.2997167500        1.9292099500
 Fe         5.0939698000        8.8592583200        1.9292099500
 Fe         7.6576700200        4.4187998800        1.9292099500
 Fe        -2.5971303400       13.2997167500        1.9292099500
 Fe        -0.0334301200        8.8592583200        1.9292099500
 Fe         2.5302701000        4.4187998800        1.9292099500
 Fe         7.6573893600       10.3392168700        2.7128999200
 Fe        10.2210895800        5.8987584300        2.7128999200
 Fe        12.7847898000        1.4582999900        2.7128999200
 Fe         2.5299894400       10.3392168700        2.7128999200
 Fe         5.0936896600        5.8987584300        2.7128999200
 Fe         7.6573898800        1.4582999900        2.7128999200
 Fe        -2.5974104800       10.3392168700        2.7128999200
 Fe        -0.0337102600        5.8987584300        2.7128999200
 Fe         2.5299899600        1.4582999900        2.7128999200
  O         4.1280749610       13.2966156954        3.4943660365
  O         6.6910349309        8.8653041836        3.5083787485
  O         9.2587634501        4.4277292078        3.5089953203
  O        -0.9953191797       13.3037568492        3.5009127441
  O         1.5763548350        8.8753262813        3.5127707565
  O         4.1245147826        4.4137310281        3.4818179113
  O        -6.1257392653       13.2980342485        3.4997771104
  O        -3.5451483855        8.8589451513        3.5069542371
  O        -0.9852876401        4.4057078002        3.4876817324
  O         6.8604373334       11.9001678240        3.5073357444
  O         9.4238534301        7.4711592198        3.5028470789
  O        11.9843676009        3.0217917497        3.5056541961
  O         1.7323576864       11.9013666585        3.5208401200
  O         4.3060413644        7.5073043963        3.4473987785
  O         6.8628793621        3.0310517672        3.5119387019
  O        -3.3910229398       11.9134908787        3.5035993971
  O        -0.8226226622        7.4787087246        3.5071284465
  O         1.7436017183        3.0082848631        3.5299023672
  O         9.4182284418       10.2358716392        3.5041228515
  O        11.9848772499        5.8004316526        3.5001471834
  O        14.5457406908        1.3574183383        3.4987442216
  O         4.2830854461       10.2443763424        3.5207430494
  O         6.8671413462        5.7974772276        3.4788787289
  O         9.4176011723        1.3613381456        3.5001354816
  O        -0.8591862019       10.2577697172        3.5412661265
  O         1.7343874050        5.7951074190        3.4996372044
  O         4.2875111022        1.3686832466        3.5065035660
 Fe         5.0951198605       11.8119678120        4.4889669646
 Fe         7.6312671670        7.3623074450        4.4889518235
 Fe        10.2026594531        2.9489588905        4.4918442222
 Fe        -0.0398318935       11.8397521637        4.4971940997
 Fe         2.5809350346        7.3637639514        4.4142212337
 Fe         5.0934511552        2.9749078006        4.4926187438
 Fe        -5.1600109102       11.8163658368        4.4883032537
 Fe        -2.5787653487        7.3631250126        4.4887878798
 Fe        -0.0189112369        2.9211035843        4.4833888804
 Fe         7.6555836137       13.2879449666        4.8199261887
 Fe        10.2174047596        8.8435447729        4.8184371074
 Fe        12.7881940595        4.3965168693        4.8025621109
 Fe         2.5383690129       13.3082255406        4.8210063146
 Fe         5.1012223315        8.8355159180        4.8504834434
 Fe         7.6244683967        4.4387135282        4.8487656341
 Fe        -2.6011638738       13.3173199031        4.8181608572
 Fe        -0.0662969454        8.8933433637        4.8201775833
 Fe         2.5666556525        4.4303036625        4.8547112297
  O         5.8543543151       10.3753896399        5.7495548524
  O         8.4235509477        5.9563891975        5.7505873149
  O        10.9918766922        1.5154753921        5.7297106626
  O         0.7238605691       10.3710983248        5.7679012429
  O         3.3534464897        5.9614627072        5.6913777727
  O         5.8641214037        1.5226047876        5.7317964103
  O        -4.3860317971       10.3804434594        5.7215626990
  O        -1.7571725670        5.9070180460        5.6880207830
  O         0.7299519814        1.4836846356        5.7452395804
  O         5.9415091369       13.2031041454        5.7264217485
  O         8.5077052631        8.7565452856        5.7352249978
  O        11.0824006520        4.3248404122        5.7263645684
  O         0.8158391391       13.2074032198        5.7276551397
  O         3.3802722554        8.7331115351        5.7472780817
  O         5.9179546174        4.3752936209        5.7199152716
  O        -4.3142692450       13.2077112038        5.7249809256
  O        -1.7410217152        8.7490366955        5.7721042723
  O         0.8476638496        4.2772456164        5.7322865188
  O         3.4669028025       11.8708261929        5.7332101685
  O         6.0052350827        7.3850237097        5.7186908031
  O         8.5875864284        2.9973683214        5.7419281059
  O        -1.6671419204       11.8817943051        5.7501493495
  O         0.9088950879        7.4239913445        5.6897187798
  O         3.4779767506        2.9959635432        5.7710599524
  O        -6.7876300743       11.8534268167        5.7283644561
  O        -4.2033153903        7.4096047286        5.7228837578
  O        -1.6451530910        2.9811474072        5.7366033265
 Fe         7.6512162853       10.3315426388        5.9907465600
 Fe        10.2198796002        5.8951790423        5.9898346482
 Fe        12.7845786219        1.4597224040        5.9874960317
 Fe         2.5340223247       10.3309374004        5.8881674047
 Fe         5.0865075669        5.9050370561        6.3234363215
 Fe         7.6537745508        1.4668593830        5.9867512047
 Fe        -2.5963626414       10.3429620477        5.9789210376
 Fe         0.0005052730        5.7958723647        6.1451627993
 Fe         2.5259939759        1.4664748036        5.9817575927
  C        -0.9270645009        7.2086648189        8.5875714906
  C         0.4862487374        6.7708280630        9.0056694884
  H        -1.2168670356        6.7411406863        7.6275276147
  O        -1.9487247793        6.7950507322        9.4967069086
  H        -0.9649933179        8.2922582654        8.3703573749
  C         1.0419776217        7.6846810882       10.1094777452
  C         2.3664983149        7.2600675199       10.7670687725
  O         0.0805150261        7.8065467398       11.2113289240
  H         1.1425423175        8.7185497262        9.7382281635
  C         3.6212567823        7.2534465275        9.8535266193
  H         2.2285454413        6.2403042656       11.1896562855
  O         2.6513194493        8.1830197762       11.8375645061
  C         3.8570545720        5.8929350318        9.2205131990
  O         4.8054282937        7.5196547683       10.6273850095
  H         3.5157447964        8.0086062189        9.0540976880
  H         4.0149754179        5.1348749366       10.0049628630
  O         5.0701826132        5.9147056241        8.3984438181
  H         3.0341364204        5.6326797555        8.5453255145
  H        -1.8701479262        7.3858658724       10.2654947055
  H        -0.1119278358        6.8907285542       11.5057955726
  H         1.7669568304        8.4295898111       12.1811165196
  H         4.5385394257        8.1569280040       11.3211470165
  H         5.7827176609        6.3631562091        8.9000588887
  O         1.3604666660        6.7088998347        7.9022596691
  H         0.4042437310        5.7397691055        9.4232867299
  H         1.2319959111        7.4248345250        6.8465498777
     161
 i =        8, E =     -8104.5346606862
 Fe         5.0938794100       11.8196869300        0.3885799900
 Fe         7.6575796300        7.3792284900        0.3885799900
 Fe        10.2212798400        2.9387700600        0.3885799900
 Fe        -0.0335205200       11.8196869300        0.3885799900
 Fe         2.5301797000        7.3792284900        0.3885799900
 Fe         5.0938799200        2.9387700600        0.3885799900
 Fe        -5.1609204400       11.8196869300        0.3885799900
 Fe        -2.5972202200        7.3792284900        0.3885799900
 Fe        -0.0335200000        2.9387700600        0.3885799900
  O         8.4519195100        8.9577468800        1.1642700400
  O        11.0156197300        4.5172884400        1.1642700400
  O        13.5793199500        0.0768300000        1.1642700400
  O         3.3245195900        8.9577468800        1.1642700400
  O         5.8882198100        4.5172884400        1.1642700400
  O         8.4519200300        0.0768300000        1.1642700400
  O        -1.8028803300        8.9577468800        1.1642700400
  O         0.7608198900        4.5172884400        1.1642700400
  O         3.3245201100        0.0768300000        1.1642700400
  O         8.4568493000       11.7183869300        1.1650400200
  O        11.0205495200        7.2779284900        1.1650400200
  O        13.5842497300        2.8374700500        1.1650400200
  O         3.3294493700       11.7183869300        1.1650400200
  O         5.8931495900        7.2779284900        1.1650400200
  O         8.4568498100        2.8374700500        1.1650400200
  O        -1.7979505500       11.7183869300        1.1650400200
  O         0.7657496700        7.2779284900        1.1650400200
  O         3.3294498900        2.8374700500        1.1650400200
  O         6.0627194200       10.3425368500        1.1660399400
  O         8.6264196400        5.9020784100        1.1660399400
  O        11.1901198600        1.4616199700        1.1660399400
  O         0.9353195000       10.3425368500        1.1660399400
  O         3.4990197200        5.9020784100        1.1660399400
  O         6.0627199400        1.4616199700        1.1660399400
  O        -4.1920804200       10.3425368500        1.1660399400
  O        -1.6283802000        5.9020784100        1.1660399400
  O         0.9353200200        1.4616199700        1.1660399400
 Fe         7.6576695000       13.2997167500        1.9292099500
 Fe        10.2213697200        8.8592583200        1.9292099500
 Fe        12.7850699400        4.4187998800        1.9292099500
 Fe         2.5302695800       13.2997167500        1.9292099500
 Fe         5.0939698000        8.8592583200        1.9292099500
 Fe         7.6576700200        4.4187998800        1.9292099500
 Fe        -2.5971303400       13.2997167500        1.9292099500
 Fe        -0.0334301200        8.8592583200        1.9292099500
 Fe         2.5302701000        4.4187998800        1.9292099500
 Fe         7.6573893600       10.3392168700        2.7128999200
 Fe        10.2210895800        5.8987584300        2.7128999200
 Fe        12.7847898000        1.4582999900        2.7128999200
 Fe         2.5299894400       10.3392168700        2.7128999200
 Fe         5.0936896600        5.8987584300        2.7128999200
 Fe         7.6573898800        1.4582999900        2.7128999200
 Fe        -2.5974104800       10.3392168700        2.7128999200
 Fe        -0.0337102600        5.8987584300        2.7128999200
 Fe         2.5299899600        1.4582999900        2.7128999200
  O         4.1280749610       13.2966156954        3.4943660365
  O         6.6910349309        8.8653041836        3.5083787485
  O         9.2587634501        4.4277292078        3.5089953203
  O        -0.9953191797       13.3037568492        3.5009127441
  O         1.5763548350        8.8753262813        3.5127707565
  O         4.1245147826        4.4137310281        3.4818179113
  O        -6.1257392653       13.2980342485        3.4997771104
  O        -3.5451483855        8.8589451513        3.5069542371
  O        -0.9852876401        4.4057078002        3.4876817324
  O         6.8604373334       11.9001678240        3.5073357444
  O         9.4238534301        7.4711592198        3.5028470789
  O        11.9843676009        3.0217917497        3.5056541961
  O         1.7323576864       11.9013666585        3.5208401200
  O         4.3060413644        7.5073043963        3.4473987785
  O         6.8628793621        3.0310517672        3.5119387019
  O        -3.3910229398       11.9134908787        3.5035993971
  O        -0.8226226622        7.4787087246        3.5071284465
  O         1.7436017183        3.0082848631        3.5299023672
  O         9.4182284418       10.2358716392        3.5041228515
  O        11.9848772499        5.8004316526        3.5001471834
  O        14.5457406908        1.3574183383        3.4987442216
  O         4.2830854461       10.2443763424        3.5207430494
  O         6.8671413462        5.7974772276        3.4788787289
  O         9.4176011723        1.3613381456        3.5001354816
  O        -0.8591862019       10.2577697172        3.5412661265
  O         1.7343874050        5.7951074190        3.4996372044
  O         4.2875111022        1.3686832466        3.5065035660
 Fe         5.0951198605       11.8119678120        4.4889669646
 Fe         7.6312671670        7.3623074450        4.4889518235
 Fe        10.2026594531        2.9489588905        4.4918442222
 Fe        -0.0398318935       11.8397521637        4.4971940997
 Fe         2.5809350346        7.3637639514        4.4142212337
 Fe         5.0934511552        2.9749078006        4.4926187438
 Fe        -5.1600109102       11.8163658368        4.4883032537
 Fe        -2.5787653487        7.3631250126        4.4887878798
 Fe        -0.0189112369        2.9211035843        4.4833888804
 Fe         7.6555836137       13.2879449666        4.8199261887
 Fe        10.2174047596        8.8435447729        4.8184371074
 Fe        12.7881940595        4.3965168693        4.8025621109
 Fe         2.5383690129       13.3082255406        4.8210063146
 Fe         5.1012223315        8.8355159180        4.8504834434
 Fe         7.6244683967        4.4387135282        4.8487656341
 Fe        -2.6011638738       13.3173199031        4.8181608572
 Fe        -0.0662969454        8.8933433637        4.8201775833
 Fe         2.5666556525        4.4303036625        4.8547112297
  O         5.8543543151       10.3753896399        5.7495548524
  O         8.4235509477        5.9563891975        5.7505873149
  O        10.9918766922        1.5154753921        5.7297106626
  O         0.7238605691       10.3710983248        5.7679012429
  O         3.3534464897        5.9614627072        5.6913777727
  O         5.8641214037        1.5226047876        5.7317964103
  O        -4.3860317971       10.3804434594        5.7215626990
  O        -1.7571725670        5.9070180460        5.6880207830
  O         0.7299519814        1.4836846356        5.7452395804
  O         5.9415091369       13.2031041454        5.7264217485
  O         8.5077052631        8.7565452856        5.7352249978
  O        11.0824006520        4.3248404122        5.7263645684
  O         0.8158391391       13.2074032198        5.7276551397
  O         3.3802722554        8.7331115351        5.7472780817
  O         5.9179546174        4.3752936209        5.7199152716
  O        -4.3142692450       13.2077112038        5.7249809256
  O        -1.7410217152        8.7490366955        5.7721042723
  O         0.8476638496        4.2772456164        5.7322865188
  O         3.4669028025       11.8708261929        5.7332101685
  O         6.0052350827        7.3850237097        5.7186908031
  O         8.5875864284        2.9973683214        5.7419281059
  O        -1.6671419204       11.8817943051        5.7501493495
  O         0.9088950879        7.4239913445        5.6897187798
  O         3.4779767506        2.9959635432        5.7710599524
  O        -6.7876300743       11.8534268167        5.7283644561
  O        -4.2033153903        7.4096047286        5.7228837578
  O        -1.6451530910        2.9811474072        5.7366033265
 Fe         7.6512162853       10.3315426388        5.9907465600
 Fe        10.2198796002        5.8951790423        5.9898346482
 Fe        12.7845786219        1.4597224040        5.9874960317
 Fe         2.5340223247       10.3309374004        5.8881674047
 Fe         5.0865075669        5.9050370561        6.3234363215
 Fe         7.6537745508        1.4668593830        5.9867512047
 Fe        -2.5963626414       10.3429620477        5.9789210376
 Fe         0.0005052730        5.7958723647        6.1451627993
 Fe         2.5259939759        1.4664748036        5.9817575927
  C        -0.9270645009        7.2086648189        8.5875714906
  C         0.4862487374        6.7708280630        9.0056694884
  H        -1.2168670356        6.7411406863        7.6275276147
  O        -1.9487247793        6.7950507322        9.4967069086
  H        -0.9649933179        8.2922582654        8.3703573749
  C         1.0419776217        7.6846810882       10.1094777452
  C         2.3664983149        7.2600675199       10.7670687725
  O         0.0805150261        7.8065467398       11.2113289240
  H         1.1425423175        8.7185497262        9.7382281635
  C         3.6212567823        7.2534465275        9.8535266193
  H         2.2285454413        6.2403042656       11.1896562855
  O         2.6513194493        8.1830197762       11.8375645061
  C         3.8570545720        5.8929350318        9.2205131990
  O         4.8054282937        7.5196547683       10.6273850095
  H         3.5157447964        8.0086062189        9.0540976880
  H         4.0149754179        5.1348749366       10.0049628630
  O         5.0701826132        5.9147056241        8.3984438181
  H         3.0341364204        5.6326797555        8.5453255145
  H        -1.8701479262        7.3858658724       10.2654947055
  H        -0.1119278358        6.8907285542       11.5057955726
  H         1.7669568304        8.4295898111       12.1811165196
  H         4.5385394257        8.1569280040       11.3211470165
  H         5.7827176609        6.3631562091        8.9000588887
  O         1.3604666660        6.7088998347        7.9022596691
  H         0.4042437310        5.7397691055        9.4232867299
  H         1.2319959111        7.4248345250        6.8465498777
