      26
 i =        1, E =      -138.5657106762
  C         1.7583023785        1.1086726772       -1.1291782105
  C         2.0423132440       -0.2275975002       -0.4454500023
  H         1.1537838178        1.7497617591       -0.4698713993
  O         1.0204643175        0.9806663242       -2.3499583977
  H         2.7211344011        1.6261651761       -1.2834189019
  C         0.8160739026       -1.1023640429       -0.1121407751
  C        -0.2483450230       -0.3720123286        0.7340488511
  O         1.3659606183       -2.2210289092        0.6086429455
  H         0.3464555838       -1.4577589333       -1.0465290650
  C        -1.3682354667        0.2504813880       -0.1310888240
  H         0.2407673613        0.4016780539        1.3512981714
  O        -0.8431794382       -1.3664374282        1.6075080864
  C        -2.1616702578        1.2948748909        0.6525338641
  O        -2.2083130143       -0.7762539318       -0.6620071931
  H        -0.9225857363        0.7582436058       -1.0018509460
  H        -3.0597388522        1.5614318829        0.0732790860
  O        -2.5292509730        0.7485167494        1.9426103567
  H        -1.5394511582        2.1983981371        0.7912592278
  H         1.5553825127        0.4604581574       -2.9752365901
  H         0.6776130492       -2.4669507910        1.2625415096
  H        -1.4491918870       -0.8677281305        2.1971115434
  H        -2.2658838348       -1.4542820247        0.0427986978
  H        -3.2134095255        1.3088602223        2.3432447475
  O         2.7685760127        0.0805690157        0.7453652751
  H         2.6750855358       -0.8408287229       -1.1229611133
  H         2.7866450674       -0.7638502533        1.2429767454
      26
 i =        2, E =      -138.5657106762
  C         1.7583023785        1.1086726772       -1.1291782105
  C         2.0423132440       -0.2275975002       -0.4454500023
  H         1.1537838178        1.7497617591       -0.4698713993
  O         1.0204643175        0.9806663242       -2.3499583977
  H         2.7211344011        1.6261651761       -1.2834189019
  C         0.8160739026       -1.1023640429       -0.1121407751
  C        -0.2483450230       -0.3720123286        0.7340488511
  O         1.3659606183       -2.2210289092        0.6086429455
  H         0.3464555838       -1.4577589333       -1.0465290650
  C        -1.3682354667        0.2504813880       -0.1310888240
  H         0.2407673613        0.4016780539        1.3512981714
  O        -0.8431794382       -1.3664374282        1.6075080864
  C        -2.1616702578        1.2948748909        0.6525338641
  O        -2.2083130143       -0.7762539318       -0.6620071931
  H        -0.9225857363        0.7582436058       -1.0018509460
  H        -3.0597388522        1.5614318829        0.0732790860
  O        -2.5292509730        0.7485167494        1.9426103567
  H        -1.5394511582        2.1983981371        0.7912592278
  H         1.5553825127        0.4604581574       -2.9752365901
  H         0.6776130492       -2.4669507910        1.2625415096
  H        -1.4491918870       -0.8677281305        2.1971115434
  H        -2.2658838348       -1.4542820247        0.0427986978
  H        -3.2134095255        1.3088602223        2.3432447475
  O         2.7685760127        0.0805690157        0.7453652751
  H         2.6750855358       -0.8408287229       -1.1229611133
  H         2.7866450674       -0.7638502533        1.2429767454
