8

Cu     -0.000000000000000      1.475817570000000     15.000000000000000
Cu      2.556191010000000      1.475817570000000     15.000000000000000
Cu      1.278095510000000      3.689543930000000     15.000000000000000
Cu      3.834286520000000      3.689543930000000     15.000000000000000
Cu      0.000000000000000      0.000000000000000     17.087121220000000
Cu      2.556191010000000      0.000000000000000     17.087121220000000
Cu      1.278095510000000      2.213726360000000     17.087121220000000
Cu      3.834286520000000      2.213726360000000     17.087121220000000
8

Cu      0.004940854756868      1.492833024496182     14.987733982840604
Cu      2.562231338206471      1.470596874035498     15.022153876598930
Cu      1.271522896671906      3.682447465443163     14.997567061357037
Cu      3.827088337982155      3.687663255744979     14.973935396103217
Cu     -0.011513960981592      0.019852024067694     17.110401311142336
Cu      2.549083520012051     -0.004969848659220     17.090311287627710
Cu      1.271709640327044      2.201580119815678     17.032248941162585
Cu      3.857688849535191      2.207469177141830     17.108410592860530
8

Cu      0.008508781121576      1.508743866085613     14.977477237173572
Cu      2.570331204825689      1.463664868317981     15.041406367785296
Cu      1.266092999514633      3.672268172528480     14.994004144080808
Cu      3.818921275637506      3.689847409209932     14.949051874441443
Cu     -0.021235634061440      0.040274034643266     17.132861630650716
Cu      2.540467824891882     -0.011353687103667     17.093564723515772
Cu      1.268265253932261      2.189711333407645     16.981500455546740
Cu      3.877048122690224      2.203619344770318     17.127425012898069
8

Cu      0.008480900473109      1.520238343879997     14.965858284574388
Cu      2.578479701695004      1.459626105493403     15.056420491913626
Cu      1.262431536674336      3.664289300213499     14.989479290307793
Cu      3.808378863403294      3.695463097387304     14.926840624377139
Cu     -0.027680389268742      0.054172816312819     17.151070798767794
Cu      2.529965182527579     -0.018941890672057     17.098459262061528
Cu      1.269489791197436      2.179152269236543     16.938442644629362
Cu      3.894545129551141      2.202085360243064     17.145498014968936
8

Cu      0.000025803478789      1.525823988473310     14.951694330757409
Cu      2.588097727025738      1.460576404127279     15.061591725962190
Cu      1.265159077229578      3.661490956532768     14.988830375495560
Cu      3.795691788771906      3.700616033786253     14.910200673563933
Cu     -0.033954997729391      0.057948009822485     17.167802809981236
Cu      2.522041441293173     -0.024574166384651     17.100054029867632
Cu      1.276158283820907      2.168635819541713     16.906461108016384
Cu      3.906604599952435      2.204885160322072     17.160458858997156
8

Cu     -0.011111792603571      1.523905762732923     14.934174631005600
Cu      2.597939878667982      1.461949736369585     15.055613087549986
Cu      1.271435950962162      3.664827788735597     14.990412669598202
Cu      3.783366111898189      3.706036647041584     14.901787447810912
Cu     -0.037847453478039      0.052618351086288     17.179626895072555
Cu      2.515883251260129     -0.028063039166158     17.100539331728871
Cu      1.282269583377698      2.162770983071233     16.887689540882292
Cu      3.913662909532266      2.210679458449586     17.172518935778427
8

Cu     -0.025569749528780      1.515507173320214     14.914822907512637
Cu      2.611245572817678      1.460599958697757     15.043220607142349
Cu      1.282181620815041      3.672948732787959     14.989874587922827
Cu      3.771221571545631      3.710646677120781     14.896978520593793
Cu     -0.042602951276645      0.044816679344042     17.184141129415206
Cu      2.510199429686816     -0.031123314183961     17.101081727724573
Cu      1.286913742861057      2.164128679650490     16.886137562849100
Cu      3.917825218972192      2.216531196380920     17.181615862562417
8

Cu     -0.041842378382287      1.504081650454783     14.897153416902770
Cu      2.627959435247989      1.458428864981865     15.026964464506333
Cu      1.292473209141032      3.685877207296874     14.987155222858423
Cu      3.760400792039614      3.712814291798477     14.898022581517992
Cu     -0.047402289991075      0.033060295691202     17.183206266142339
Cu      2.507572907267642     -0.033705711143353     17.098170683122458
Cu      1.290344577857239      2.170467845198301     16.895101032479126
Cu      3.917765115795239      2.222367981699236     17.187848981090919
8

Cu     -0.056063820553530      1.495118453569688     14.881366412090397
Cu      2.640929068732277      1.455613671436928     15.007529693580572
Cu      1.297672919388314      3.701951738518638     14.984334642189010
Cu      3.754061958740717      3.713993228772768     14.906547370363370
Cu     -0.047898225343571      0.015733002899208     17.177350742725071
Cu      2.507868309350773     -0.035111457932601     17.093263722742776
Cu      1.294338186896211      2.180078112513272     16.912348315716638
Cu      3.912260381902534      2.225358803115543     17.186868528898579
8

Cu     -0.066232591505823      1.487155142349939     14.869492451181832
Cu      2.647517161269992      1.448871311205480     14.990793879344729
Cu      1.294976706912581      3.715817477889833     14.978494605675973
Cu      3.752071323455143      3.718849696230718     14.920959412496128
Cu     -0.044246671952811     -0.002329026690611     17.165849142099795
Cu      2.510972423454629     -0.034762743561179     17.086475410801320
Cu      1.300173217203092      2.189776922809727     16.936394871168414
Cu      3.903874721628287      2.228706320253353     17.177371155070894
8

Cu     -0.070699071541343      1.481775464899330     14.864465358465926
Cu      2.644576632370478      1.444306851505786     14.971667694176249
Cu      1.288960594348229      3.722359398746356     14.971855462290744
Cu      3.754808268122605      3.719372112687066     14.942004578220129
Cu     -0.039994568865374     -0.015419487075564     17.147947266146801
Cu      2.518653384534200     -0.030793774174958     17.076206403304280
Cu      1.309271351143556      2.198744883572438     16.968156402511870
Cu      3.889506920943452      2.231095555838758     17.159981687807619
