9
Properties=species:S:1:pos:R:3:momenta:R:3:forces:R:3:charge:R:1 energy=-310.0211782286187 free_energy=-310.0211782286187 dipole="0.30259881620159906 0.02167839838737206 0.2915919707942048" pbc="F F F"
O       -1.17120000       0.29970000       0.00000000       0.51743501       0.45067456      -0.46831766      -0.08698561      -0.17059462       0.83958655      -0.44628466
C       -0.04630000      -0.56650000       0.00000000       0.80607483       0.03849013       0.55946093      -0.28675215       0.43694903      -0.50040985       0.08324373
C        1.21750000       0.26680000       0.00000000       0.77919250       0.01378600       0.43894492       0.65146335       0.17206461      -0.14451900      -0.11386421
H       -0.09580000      -1.21200000       0.88190000       0.06718230       0.08908213       0.17184511       0.11382431      -0.15361218       0.08555539       0.01923411
H       -0.09520000      -1.19380000      -0.89460000       0.16921832       0.13204845       0.10685647      -0.18046292       0.17295052       0.03130591       0.04799398
H        2.10500000      -0.37200000      -0.01770000      -0.28566813      -0.02720199      -0.12632654      -0.14539299       0.13740026       0.00822050       0.03752872
H        1.24260000       0.93070000      -0.87040000       0.06981304       0.12332435       0.06961424      -0.04625178      -0.22846841       0.11275886       0.05059077
H        1.26160000       0.90520000       0.88860000      -0.11220215       0.02491827       0.04425826       0.00695220      -0.17724722      -0.06408730       0.03573738
H       -1.12910000       0.83640000       0.80990000      -0.36835890      -0.03456827       0.09591433      -0.02639441      -0.18944200      -0.36841105       0.28582018
