9
Properties=species:S:1:pos:R:3:momenta:R:3:forces:R:3:charge:R:1 energy=-309.8843540243856 free_energy=-309.8843540243856 dipole="0.17064849040801325 -0.04284465861202737 0.3434236995911036" pbc="F F F"
O       -1.12479268       0.32257989      -0.07202385       0.13639006       0.16699136      -0.27925236       0.11621073       0.17029894      -0.46989564      -0.44460364
C        0.02829960      -0.46564286       0.10748273       0.68269956       0.09593435       0.33132818       0.35773958       0.53779227       0.93356059       0.08006094
C        1.39034773       0.29244420       0.12090641       0.70680616       0.36713666       0.62504063      -1.89394861       1.16821323      -0.18623170      -0.12465319
H       -0.11654170      -1.01127168       1.05209654       0.02789471       0.12284967       0.13805181       0.39714712      -0.27155926      -0.20143750       0.01466727
H        0.06524061      -1.13418716      -0.72491759       0.15017703       0.03078792       0.06191076      -0.12497467      -0.60241120      -0.52495630       0.04942021
H        2.13748512      -0.42061365      -0.07169238      -0.10012435      -0.13995839      -0.09756782       1.02090928      -0.59704279       0.15122745       0.04947222
H        1.37027652       1.01912136      -0.70205285       0.07973037       0.00589590       0.13129666       0.04640027      -0.23724354       0.07759601       0.04996709
H        1.52805348       0.88551447       1.02900463      -0.02263583       0.02005639       0.04489100       0.13310239      -0.44652343      -0.03427268       0.03854805
H       -1.42593821       0.63307644       0.77852911      -0.05809864       0.12119762      -0.08509271      -0.05258610       0.27847578       0.25440978       0.28712105
