9

O      -1.171200000000000      0.299700000000000      0.000000000000000
C      -0.046300000000000     -0.566500000000000      0.000000000000000
C       1.217500000000000      0.266800000000000      0.000000000000000
H      -0.095800000000000     -1.212000000000000      0.881900000000000
H      -0.095200000000000     -1.193800000000000     -0.894600000000000
H       2.105000000000000     -0.372000000000000     -0.017700000000000
H       1.242600000000000      0.930700000000000     -0.870400000000000
H       1.261600000000000      0.905200000000000      0.888600000000000
H      -1.129100000000000      0.836400000000000      0.809900000000000
9

O      -1.156726218503634      0.312624724135042     -0.014155747443524
C      -0.017595813246078     -0.557140542504979      0.026992745035947
C       1.246489536863271      0.273280789279993      0.018465676150541
H      -0.055080248755349     -1.172879878269413      0.947430663885821
H      -0.052217581390888     -1.152595332403525     -0.871926693300579
H       2.062817889286432     -0.423797327548868     -0.061193179657795
H       1.270146309392209      0.960558154908042     -0.815624373605133
H       1.234619634569143      0.897346137731328      0.906504641748405
H      -1.289403699487597      0.788504343787473      0.807145940574943
9

O      -1.145141064218164      0.318741608633373     -0.034305635721305
C      -0.004437880205369     -0.529193377664485      0.058629798004326
C       1.273942122072466      0.279023416419032      0.038652568161944
H      -0.015150868313401     -1.158714948924680      0.941601418464170
H      -0.069867740668998     -1.161791876627951     -0.849392811185204
H       2.134992475247234     -0.420939702043715     -0.029981408681008
H       1.291544343223770      0.966639131549863     -0.806028614475372
H       1.328760694607128      0.853290908793899      0.964543967732615
H      -1.375135133529659      0.710166815493503      0.825679583215612
9

O      -1.136644851914303      0.319307955255823     -0.051214144997978
C      -0.003425418779982     -0.494416208914669      0.076078745689352
C       1.310577507396843      0.280530465899430      0.063727822177269
H      -0.022282846462191     -1.166214916923603      0.963101576778849
H      -0.067739809283442     -1.153416143702848     -0.772010462292874
H       2.172349717635659     -0.340830409569680      0.015130026919323
H       1.321981504710931      0.956174757925887     -0.786761744733188
H       1.482640558859157      0.816836651002717      0.999289092956270
H      -1.382842677216450      0.625536668470147      0.816804309642640
9

O      -1.129806782153129      0.319037804711556     -0.064454057629060
C       0.005006958876535     -0.471056482870953      0.095656158535763
C       1.349027126493974      0.288096606532849      0.093214926528118
H      -0.083438515043448     -1.092224489483615      0.991071390351400
H      -0.012162454288560     -1.175694595507898     -0.776385968276718
H       2.238562359207484     -0.395307772253828     -0.018775837006716
H       1.341121822694420      0.979418584996558     -0.739313637799144
H       1.542603035550828      0.843267822080449      1.005235922126037
H      -1.402218225634852      0.600467038413256      0.825542095719117
9

O      -1.124792684604802      0.322579892034770     -0.072023850276059
C       0.028299599052862     -0.465642856520666      0.107482733636183
C       1.390347727805478      0.292444197427833      0.120906411293467
H      -0.116541695942797     -1.011271682506739      1.052096535962546
H       0.065240605754788     -1.134187163034049     -0.724917585831097
H       2.137485115731014     -0.420613653449931     -0.071692379205726
H       1.370276523933750      1.019121359844573     -0.702052851884032
H       1.528053480945119      0.885514465606511      1.029004634018129
H      -1.425938206147639      0.633076441947746      0.778529109452291
