9
Properties=species:S:1:pos:R:3:momenta:R:3:forces:R:3:charge:R:1 energy=-310.0211782286187 dipole="0.30259881620159906 0.02167839838737206 0.2915919707942048" pbc="F F F"
O       -1.17120000       0.29970000       0.00000000       0.51743501       0.45067456      -0.46831766      -0.08698561      -0.17059462       0.83958655      -0.44628466
C       -0.04630000      -0.56650000       0.00000000       0.80607483       0.03849013       0.55946093      -0.28675215       0.43694903      -0.50040985       0.08324373
C        1.21750000       0.26680000       0.00000000       0.77919250       0.01378600       0.43894492       0.65146335       0.17206461      -0.14451900      -0.11386421
H       -0.09580000      -1.21200000       0.88190000       0.06718230       0.08908213       0.17184511       0.11382431      -0.15361218       0.08555539       0.01923411
H       -0.09520000      -1.19380000      -0.89460000       0.16921832       0.13204845       0.10685647      -0.18046292       0.17295052       0.03130591       0.04799398
H        2.10500000      -0.37200000      -0.01770000      -0.28566813      -0.02720199      -0.12632654      -0.14539299       0.13740026       0.00822050       0.03752872
H        1.24260000       0.93070000      -0.87040000       0.06981304       0.12332435       0.06961424      -0.04625178      -0.22846841       0.11275886       0.05059077
H        1.26160000       0.90520000       0.88860000      -0.11220215       0.02491827       0.04425826       0.00695220      -0.17724722      -0.06408730       0.03573738
H       -1.12910000       0.83640000       0.80990000      -0.36835890      -0.03456827       0.09591433      -0.02639441      -0.18944200      -0.36841105       0.28582018
9
Properties=species:S:1:pos:R:3:momenta:R:3:forces:R:3:charge:R:1 energy=-309.934358850312 dipole="0.24659720361280804 -0.004583922944544087 0.30903500761358493" pbc="F F F"
O       -1.15672622       0.31262472      -0.01415575       0.42294390       0.38229985      -0.48961684      -0.09820354      -0.69125802      -0.53620758      -0.45300377
C       -0.01759581      -0.55714054       0.02699275       0.54776155       0.48188659       0.85498940      -0.74899321       1.00439467       0.59129765       0.08057877
C        1.24648954       0.27328079       0.01846568       0.56478816       0.28952615       0.46658619      -0.16397142       0.10650746       0.11498617      -0.11945899
H       -0.05508025      -1.17287988       0.94743066       0.09644816       0.06901365       0.02121921      -0.00356254      -0.02062763      -0.45565616       0.01926063
H       -0.05221758      -1.15259533      -0.87192669      -0.00195861      -0.02178003      -0.04438345      -0.29576623      -0.32933532      -0.14246048       0.05297465
H        2.06281789      -0.42379733      -0.06119318       0.17675467      -0.18841339      -0.02234153       0.55248851       0.18094492       0.31072225       0.04408875
H        1.27014631       0.96055815      -0.81562437       0.03581032       0.01598278       0.09861277      -0.07365035      -0.05034841      -0.36129235       0.05192135
H        1.23461963       0.89734614       0.90650464       0.05389555      -0.06501589       0.05800369       0.53190067      -0.16043918       0.25051946       0.04088176
H       -1.28940370       0.78850434       0.80714594      -0.26180489      -0.15691724      -0.05519081       0.29975810      -0.03983850       0.22809105       0.28275684
9
Properties=species:S:1:pos:R:3:momenta:R:3:forces:R:3:charge:R:1 energy=-309.98037020197773 dipole="0.200930092649268 -0.03229907701998031 0.34541348618658657" pbc="F F F"
O       -1.14514106       0.31874161      -0.03430564       0.34066311       0.06560161      -0.70838480      -0.12175692      -0.24628575       0.39982751      -0.44534442
C       -0.00443788      -0.52919338       0.05862980       0.11402449       0.83916525       0.56962763      -0.51975025       0.28248163      -0.91231766       0.08312060
C        1.27394212       0.27902342       0.03865257       0.85318138      -0.02751931       0.51321804       0.72274451      -0.30045483       0.12310984      -0.11384234
H       -0.01515087      -1.15871495       0.94160142       0.04825433      -0.03563478       0.00898780      -0.23816392      -0.20985163       0.23658804       0.02084720
H       -0.06986774      -1.16179188      -0.84939281      -0.03969165       0.02409138       0.17136298       0.04133475       0.17246184       0.41167410       0.04525300
H        2.13499248      -0.42093970      -0.02998141       0.02702118       0.22094123       0.13706008      -0.46395769       0.60830283       0.09275814       0.03537935
H        1.29154434       0.96663913      -0.80602861       0.05894888      -0.00430090      -0.02723792       0.00371213      -0.12707954       0.07380236       0.05401674
H        1.32876069       0.85329091       0.96454397       0.31195710      -0.10412909       0.15230445       0.23690191       0.01365131      -0.10633262       0.03943937
H       -1.37513513       0.71016682       0.82567958      -0.08772861      -0.17558461       0.06659041       0.33893549      -0.19322586      -0.31910971       0.28113051
9
Properties=species:S:1:pos:R:3:momenta:R:3:forces:R:3:charge:R:1 energy=-309.9218227184843 dipole="0.18848948948893765 -0.050645415893124136 0.35174396051575607" pbc="F F F"
O       -1.13664485       0.31930796      -0.05121414       0.21665381      -0.03208088      -0.44718838      -0.04713965      -0.11677482       0.08991304      -0.43774312
C       -0.00342542      -0.49441621       0.07607875       0.08701193       0.81878034       0.46150663       0.38259772      -0.51740732       0.35752740       0.08673814
C        1.31057751       0.28053047       0.06372782       0.80303735       0.19625099       0.68375634      -0.16220153       0.54035911       0.36821624      -0.12015791
H       -0.02228285      -1.16621492       0.96310158      -0.08263332       0.06670141       0.04821857      -0.22871015       0.44974947      -0.11352175       0.00811623
H       -0.06773981      -1.15341614      -0.77201046       0.05279874      -0.04413472       0.03083373       0.23281417      -0.32371313      -0.65398306       0.04626891
H        2.17234972      -0.34083041       0.01513003       0.22865424      -0.03935728       0.00795597       0.44817782      -0.90084424      -0.41342355       0.04012258
H        1.32198150       0.95617476      -0.78676174       0.05541710      -0.03114452       0.10669049      -0.01225494       0.13355098       0.13098489       0.05405710
H        1.48264056       0.81683665       0.99928909       0.25729834      -0.01470763       0.01371477      -0.47956468       0.36675999      -0.11443987       0.03563998
H       -1.38284268       0.62553667       0.81680431       0.00042264      -0.12160926      -0.02628814      -0.13371875       0.36831996       0.34872666       0.28695809
9
Properties=species:S:1:pos:R:3:momenta:R:3:forces:R:3:charge:R:1 energy=-309.9140909414412 dipole="0.16479590547253742 -0.04006304965100206 0.3639968065217243" pbc="F F F"
O       -1.12980678       0.31903780      -0.06445406       0.13749668       0.03006526      -0.32251853      -0.30252348       0.46928610       0.68306037      -0.43376840
C        0.00500696      -0.47105648       0.09565616       0.39230656       0.28323717       0.39305916       0.81029899      -1.06640554      -0.69824269       0.08887315
C        1.34902713       0.28809661       0.09321493       1.13046469       0.09547265       0.77126205       0.59008748      -0.61417918      -0.08227110      -0.11659822
H       -0.08343852      -1.09222449       0.99107139      -0.12276255       0.18872832       0.07709816       0.09963582      -0.05613929       0.15521686       0.01224706
H       -0.01216245      -1.17569460      -0.77638597       0.15706854       0.03835085       0.04460921       0.15811906       0.46833411       0.45167770       0.03763927
H        2.23856236      -0.39530777      -0.01877584      -0.10065310      -0.06435044      -0.11771652      -1.11706207       0.43580712      -0.03960466       0.03135103
H        1.34112182       0.97941858      -0.73931364       0.04499737       0.11722691       0.05175460       0.07991257       0.09749213      -0.11264289       0.05484599
H        1.54260304       0.84326782       1.00523592       0.01071740       0.09681944       0.01299130      -0.32266290       0.09468507       0.14008398       0.03757945
H       -1.40221823       0.60046704       0.82554210      -0.03890507       0.00923521      -0.03564692       0.00419453       0.17111948      -0.49727757       0.28783068
9
Properties=species:S:1:pos:R:3:momenta:R:3:forces:R:3:charge:R:1 energy=-309.8843540243856 dipole="0.17064849040801325 -0.04284465861202737 0.3434236995911036" pbc="F F F"
O       -1.12479268       0.32257989      -0.07202385       0.13639006       0.16699136      -0.27925236       0.11621073       0.17029894      -0.46989564      -0.44460364
C        0.02829960      -0.46564286       0.10748273       0.68269956       0.09593435       0.33132818       0.35773958       0.53779227       0.93356059       0.08006094
C        1.39034773       0.29244420       0.12090641       0.70680616       0.36713666       0.62504063      -1.89394861       1.16821323      -0.18623170      -0.12465319
H       -0.11654170      -1.01127168       1.05209654       0.02789471       0.12284967       0.13805181       0.39714712      -0.27155926      -0.20143750       0.01466727
H        0.06524061      -1.13418716      -0.72491759       0.15017703       0.03078792       0.06191076      -0.12497467      -0.60241120      -0.52495630       0.04942021
H        2.13748512      -0.42061365      -0.07169238      -0.10012435      -0.13995839      -0.09756782       1.02090928      -0.59704279       0.15122745       0.04947222
H        1.37027652       1.01912136      -0.70205285       0.07973037       0.00589590       0.13129666       0.04640027      -0.23724354       0.07759601       0.04996709
H        1.52805348       0.88551447       1.02900463      -0.02263583       0.02005639       0.04489100       0.13310239      -0.44652343      -0.03427268       0.03854805
H       -1.42593821       0.63307644       0.77852911      -0.05809864       0.12119762      -0.08509271      -0.05258610       0.27847578       0.25440978       0.28712105
