8
Lattice="5.1123820279787395 0.0 0.0 2.5561910139893698 4.427452710080594 0.0 0.0 0.0 32.0871212231205" Properties=species:S:1:pos:R:3:tags:I:1:momenta:R:3:forces:R:3 energy=-28.85732710873691 free_energy=-28.85732710873691 stress="0.00040051536501506944 -7.61970877523176e-20 -4.689893878979238e-20 -7.61970877523176e-20 0.0004005153650013006 1.1624082462932744e-14 -4.689893878979238e-20 1.1624082462932744e-14 3.090935506820892e-05" pbc="T T F"
Cu      -0.00000000       1.47581757      15.00000000        2      -0.71777837      -2.68322783      -0.57311263      -0.00000001       0.00000003       0.04547265
Cu       2.55619101       1.47581757      15.00000000        2       0.80962727      -0.10656799      -0.71324760       0.00000002       0.00000002       0.04547265
Cu       1.27809551       3.68954393      15.00000000        2      -1.43954386       1.25201313      -0.40413759      -0.00000002      -0.00000002       0.04547264
Cu       3.83428652       3.68954393      15.00000000        2      -0.74414152       1.19009429       0.64604843       0.00000001      -0.00000003       0.04547264
Cu       0.00000000       0.00000000      17.08712122        1      -0.48688481      -2.94987284       0.92679375      -0.00000001       0.00000003      -0.04547264
Cu       2.55619101       0.00000000      17.08712122        1      -1.70609297      -0.70276150      -0.81949915       0.00000002       0.00000002      -0.04547264
Cu       1.27809551       2.21372636      17.08712122        1       0.35055967       2.11446463       1.09342310      -0.00000002      -0.00000002      -0.04547265
Cu       3.83428652       2.21372636      17.08712122        1       0.18523412      -0.08727000      -1.65389246       0.00000001      -0.00000003      -0.04547265
