8
Lattice="5.1123820279787395 0.0 0.0 2.5561910139893698 4.427452710080594 0.0 0.0 0.0 32.0871212231205" Properties=species:S:1:pos:R:3:tags:I:1:momenta:R:3:forces:R:3 energy=-28.714595675607473 free_energy=-28.714595675607473 stress="0.00032879988786234024 1.3180460608135457e-05 1.5733105256696408e-05 1.3180460608135457e-05 0.00034894494933902385 -2.1655667273052952e-05 1.5733105256696408e-05 -2.1655667273052952e-05 -4.454287736163689e-06" pbc="T T F"
Cu       0.01164831       1.48466855      14.99844915        2       0.18568201       1.31336595      -0.56758997      -0.32151518      -0.41261216      -0.29381951
Cu       2.48211600       1.48009684      14.92924352        2      -1.48639635      -0.15332531      -0.19750070       0.19146154      -0.17718573       0.10149652
Cu       1.16005118       3.63807332      15.02025824        2       0.06931898      -1.12053886       0.73785057       0.18745501       0.39596485       0.05161545
Cu       3.72248134       3.66316837      14.95833897        2      -0.52596691      -1.21262327      -0.65343952       0.06582918       0.05151459       0.08657770
Cu      -0.08881896      -0.05432994      17.11468338        1      -0.73409566       1.40147486      -0.53913030       0.04407230      -0.34055812      -0.19450975
Cu       2.41836031       0.02359257      17.03508300        1       0.55293159      -0.08178000       0.11600728       0.25108188      -0.40597029      -0.01592795
Cu       1.20830439       2.14573133      17.11081701        1      -0.84721667      -1.46193558      -0.55824304       0.23245260       0.33766266      -0.07368126
Cu       3.87104670       2.08667706      16.96112099        1      -0.61253098      -0.47316630       0.30453449      -0.65083733       0.55118419       0.33824880
