8
Lattice="5.1123820279787395 0.0 0.0 2.5561910139893698 4.427452710080594 0.0 0.0 0.0 32.0871212231205" Properties=species:S:1:pos:R:3:tags:I:1:momenta:R:3:forces:R:3 energy=-28.85732710873691 stress="0.00040051536501506944 -7.61970877523176e-20 -4.689893878979238e-20 -7.61970877523176e-20 0.0004005153650013006 1.1624082462932744e-14 -4.689893878979238e-20 1.1624082462932744e-14 3.090935506820892e-05" free_energy=-28.85732710873691 pbc="T T F"
Cu      -0.00000000       1.47581757      15.00000000        2      -0.71777837      -2.68322783      -0.57311263      -0.00000001       0.00000003       0.04547265
Cu       2.55619101       1.47581757      15.00000000        2       0.80962727      -0.10656799      -0.71324760       0.00000002       0.00000002       0.04547265
Cu       1.27809551       3.68954393      15.00000000        2      -1.43954386       1.25201313      -0.40413759      -0.00000002      -0.00000002       0.04547264
Cu       3.83428652       3.68954393      15.00000000        2      -0.74414152       1.19009429       0.64604843       0.00000001      -0.00000003       0.04547264
Cu       0.00000000       0.00000000      17.08712122        1      -0.48688481      -2.94987284       0.92679375      -0.00000001       0.00000003      -0.04547264
Cu       2.55619101       0.00000000      17.08712122        1      -1.70609297      -0.70276150      -0.81949915       0.00000002       0.00000002      -0.04547264
Cu       1.27809551       2.21372636      17.08712122        1       0.35055967       2.11446463       1.09342310      -0.00000002      -0.00000002      -0.04547265
Cu       3.83428652       2.21372636      17.08712122        1       0.18523412      -0.08727000      -1.65389246       0.00000001      -0.00000003      -0.04547265
8
Lattice="5.1123820279787395 0.0 0.0 2.5561910139893698 4.427452710080594 0.0 0.0 0.0 32.0871212231205" Properties=species:S:1:pos:R:3:tags:I:1:momenta:R:3:forces:R:3 energy=-28.829844264798204 stress="0.00039434212262476017 -1.0625037913448755e-06 -1.501732116979027e-07 -1.0625037913448755e-06 0.0003928307712498692 -2.1747562900662913e-06 -1.501732116979027e-07 -2.1747562900662913e-06 3.4814210369600946e-05" free_energy=-28.829844264798204 pbc="T T F"
Cu      -0.00903460       1.43493711      14.99048501        2      -0.55059810      -2.50115029      -0.66819727       0.09338068       0.26866958       0.12527689
Cu       2.56998951       1.47552675      14.98850171        2       0.96609701       0.12970308      -0.60697425      -0.15717027       0.09881150       0.07816074
Cu       1.25636803       3.70698576      14.99468525        2      -1.31645098       0.96824693      -0.35259390       0.01747829      -0.22021167       0.05622007
Cu       3.82006371       3.70817581      15.00869147        2      -1.05551090       1.09026958       0.55098504       0.04385175      -0.16137641      -0.05795073
Cu      -0.00657184      -0.04308242      17.09977967        1      -0.34377761      -2.45554025       0.73487942      -0.03168068       0.29948974      -0.05781184
Cu       2.52895286      -0.01210013      17.07418761        1      -1.89046699      -0.80808178      -0.95317933       0.09535512       0.14589819       0.01826208
Cu       1.28450067       2.24229574      17.10449589        1       0.36559184       1.59339158       1.11832300      -0.10626167      -0.26056818      -0.17048826
Cu       3.83521052       2.21508657      17.06462190        1       0.11274046       0.02931960      -1.30622818       0.04504677      -0.17071276       0.00833104
8
Lattice="5.1123820279787395 0.0 0.0 2.5561910139893698 4.427452710080594 0.0 0.0 0.0 32.0871212231205" Properties=species:S:1:pos:R:3:tags:I:1:momenta:R:3:forces:R:3 energy=-28.765303255936352 stress="0.0003734631647011564 -4.7941904142771966e-06 -1.565963316871033e-06 -4.7941904142771966e-06 0.0003637360319353846 -5.2329881188851935e-06 -1.565963316871033e-06 -5.2329881188851935e-06 3.0339279196222997e-05" free_energy=-28.765303255936352 pbc="T T F"
Cu      -0.01709714       1.40246596      14.98324009        2      -0.44574345      -1.74712725      -0.43342742       0.17008828       0.48240186       0.17151223
Cu       2.58330967       1.47724216      14.98039681        2       0.49453331       0.16207660      -0.43613868      -0.30675466       0.16084521       0.09075330
Cu       1.23624521       3.72118239      14.98719645        2      -1.23651259       0.82051885      -0.52332481       0.03141869      -0.39969979       0.07940455
Cu       3.80400774       3.72132764      15.01699649        2      -0.96343678       0.53448677       0.45101654       0.08992474      -0.27802571      -0.17470826
Cu      -0.01098797      -0.07967348      17.11065256        1      -0.35269171      -2.26693466       0.69715184      -0.08004515       0.54913249      -0.06830174
Cu       2.50128226      -0.02431372      17.05907924        1      -1.57811767      -0.61331004      -0.89388356       0.21490525       0.28172756       0.09342175
Cu       1.28763464       2.26393859      17.12118213        1       0.13090284       1.28354709       1.03074984      -0.18447416      -0.46798105      -0.26258486
Cu       3.83798091       2.21560176      17.04389355        1       0.27497781      -0.10800088      -1.36063360       0.06493701      -0.32840058       0.07050303
8
Lattice="5.1123820279787395 0.0 0.0 2.5561910139893698 4.427452710080594 0.0 0.0 0.0 32.0871212231205" Properties=species:S:1:pos:R:3:tags:I:1:momenta:R:3:forces:R:3 energy=-28.693999546872003 stress="0.00034903300017697015 -1.070609554272829e-05 -2.7993776744608253e-06 -1.070609554272829e-05 0.00032892711199011696 -9.188017634072727e-06 -2.7993776744608253e-06 -9.188017634072727e-06 2.1682334472105547e-05" free_energy=-28.693999546872003 pbc="T T F"
Cu      -0.02375405       1.38110860      14.97944387        2      -0.35774333      -0.93948969      -0.14699918       0.21706570       0.62346427       0.18540952
Cu       2.58758896       1.47832577      14.97387455        2       0.18326468       0.03448995      -0.38108169      -0.40204564       0.20532506       0.09068537
Cu       1.21922886       3.73268223      14.98010421        2      -1.09258834       0.65114644      -0.38773719       0.04061355      -0.52945569       0.10449476
Cu       3.78948992       3.72863171      15.02225248        2      -0.98523325       0.20524707       0.17150182       0.11606482      -0.35723115      -0.27579021
Cu      -0.01623757      -0.11128306      17.12070189        1      -0.33405619      -1.80044713       0.64803981      -0.10297608       0.74899676      -0.08341048
Cu       2.47668117      -0.03165512      17.04581062        1      -1.54141618      -0.31156330      -0.82009328       0.32305376       0.37072974       0.16160723
Cu       1.28884659       2.27843298      17.13492886        1       0.05610634       0.64543362       0.75912696      -0.24928178      -0.62584615      -0.32277113
Cu       3.84398604       2.21176806      17.02293261        1       0.43151034      -0.40064911      -1.29689319       0.05750565      -0.43598283       0.13977494
8
Lattice="5.1123820279787395 0.0 0.0 2.5561910139893698 4.427452710080594 0.0 0.0 0.0 32.0871212231205" Properties=species:S:1:pos:R:3:tags:I:1:momenta:R:3:forces:R:3 energy=-28.64854817927176 stress="0.0003340049156668821 -1.61577211532574e-05 -3.435061230961266e-06 -1.61577211532574e-05 0.0003097232381951758 -1.466841660981334e-05 -3.435061230961266e-06 -1.466841660981334e-05 1.4762759856991549e-05" free_energy=-28.64854817927176 pbc="T T F"
Cu      -0.02576560       1.37543775      14.98032028        2       0.06185036       0.07851669       0.04802137       0.23076327       0.65302100       0.16954549
Cu       2.58757951       1.48016892      14.96554204        2      -0.11972436       0.04910854      -0.64587332      -0.45112067       0.21299934       0.09453451
Cu       1.20484784       3.73820797      14.97623719        2      -0.75377767       0.03619884      -0.05167111       0.05826096      -0.57283341       0.12323986
Cu       3.77570344       3.73066120      15.02234774        2      -0.95153242       0.04381617      -0.05426109       0.12711721      -0.38037972      -0.33292517
Cu      -0.02399802      -0.13450508      17.12833222        1      -0.47499373      -0.92523099       0.32664773      -0.10802904       0.85990040      -0.10245478
Cu       2.45364678      -0.03636247      17.03651249        1      -1.50345495      -0.12539683      -0.35857588       0.41229986       0.41000152       0.19937855
Cu       1.28738351       2.28226358      17.14386674        1      -0.22710145      -0.16338192       0.43759127      -0.28755460      -0.70729969      -0.35580802
Cu       3.85043981       2.20267009      17.00452295        1       0.36415940      -0.89073614      -1.14180129       0.01826300      -0.47540944       0.20448956
8
Lattice="5.1123820279787395 0.0 0.0 2.5561910139893698 4.427452710080594 0.0 0.0 0.0 32.0871212231205" Properties=species:S:1:pos:R:3:tags:I:1:momenta:R:3:forces:R:3 energy=-28.64837378477378 stress="0.0003313083588555202 -1.5653980091801554e-05 -2.0957803416480734e-06 -1.5653980091801554e-05 0.00031451037070702394 -1.9621453220911468e-05 -2.0957803416480734e-06 -1.9621453220911468e-05 6.7657390701688034e-06" free_energy=-28.64837378477378 pbc="T T F"
Cu      -0.02387437       1.38062475      14.98322563        2       0.25550784       0.56565152       0.35559344       0.20511347       0.58930399       0.12568161
Cu       2.58310394       1.47939791      14.95644454        2      -0.59248878       0.04298837      -0.59811236      -0.44615147       0.19811298       0.09783021
Cu       1.19194461       3.73359443      14.97756838        2      -0.85785048      -0.60430593       0.06946452       0.08619133      -0.52490475       0.13505508
Cu       3.76241570       3.72896580      15.02092737        2      -0.74249457      -0.19243424      -0.24779432       0.12923216      -0.37605062      -0.35680143
Cu      -0.02914086      -0.14192893      17.13106776        1      -0.26661502      -0.03263646       0.01245910      -0.14991892       0.82161241      -0.11012334
Cu       2.43109654      -0.03337184      17.03217072        1      -1.18839546       0.38300829      -0.04908666       0.50305595       0.36650936       0.20677371
Cu       1.28191388       2.27436201      17.14498962        1      -0.59821205      -0.92181543      -0.13059277      -0.27116032      -0.65354397      -0.36094240
Cu       3.85693247       2.18771665      16.98913884        1       0.42120702      -1.11901830      -0.83777860      -0.05636220      -0.42103940       0.26252655
8
Lattice="5.1123820279787395 0.0 0.0 2.5561910139893698 4.427452710080594 0.0 0.0 0.0 32.0871212231205" Properties=species:S:1:pos:R:3:tags:I:1:momenta:R:3:forces:R:3 energy=-28.688049538216724 stress="0.0003399602275493267 -1.0024624420454534e-05 1.8849800013426057e-06 -1.0024624420454534e-05 0.00033868999448067867 -2.3873402650078837e-05 1.8849800013426057e-06 -2.3873402650078837e-05 9.701470871751148e-07" free_energy=-28.688049538216724 pbc="T T F"
Cu      -0.01908202       1.39343317      14.99032021        2       0.50072533       1.06073735       0.55136393       0.14446336       0.44910721       0.04389211
Cu       2.56934044       1.48026792      14.94761768        2      -1.05857780      -0.03361958      -0.46964940      -0.36752808       0.15006726       0.10533515
Cu       1.18120013       3.72112412      14.98096717        2      -0.65927005      -0.93142288       0.40103184       0.11695525      -0.39856656       0.13961306
Cu       3.75334992       3.72298344      15.01588995        2      -0.47982860      -0.60923813      -0.55869566       0.11288819      -0.33800805      -0.32211943
Cu      -0.03612396      -0.13627445      17.13044361        1      -0.50909342       0.89577527      -0.19622211      -0.17197383       0.65017779      -0.12211547
Cu       2.41720431      -0.02423756      17.03125889        1      -0.77048509       0.75329545      -0.10882760       0.53001076       0.25407258       0.17965179
Cu       1.26895451       2.25601430      17.13987169        1      -1.01575842      -1.44167803      -0.43158971      -0.18152792      -0.49774409      -0.33834691
Cu       3.86464517       2.16715393      16.97723133        1       0.45783545      -1.55404942      -0.59932186      -0.18328773      -0.26910615       0.31408971
8
Lattice="5.1123820279787395 0.0 0.0 2.5561910139893698 4.427452710080594 0.0 0.0 0.0 32.0871212231205" Properties=species:S:1:pos:R:3:tags:I:1:momenta:R:3:forces:R:3 energy=-28.73385352867803 stress="0.00035182698574170665 -1.830536672176768e-06 6.493827993378665e-06 -1.830536672176768e-06 0.0003656649411794671 -2.616548805994835e-05 6.493827993378665e-06 -2.616548805994835e-05 4.872205549354436e-07" free_energy=-28.73385352867803 pbc="T T F"
Cu      -0.01036061       1.41077002      14.99711355        2       0.58775305       1.20301920       0.41909016       0.05167830       0.26925366      -0.05395606
Cu       2.55064905       1.48063933      14.94162690        2      -1.35573875      -0.05576938      -0.37331672      -0.24305770       0.09132007       0.10351711
Cu       1.17339271       3.70324363      14.98758275        2      -0.44965492      -1.16769758       0.45967341       0.14531659      -0.23141352       0.13388990
Cu       3.74660390       3.71365928      15.00271853        2      -0.29171199      -0.59798841      -0.93868010       0.09111636      -0.28409151      -0.21743945
Cu      -0.04799871      -0.11870710      17.12967630        1      -0.90146780       1.21367164      -0.04807604      -0.14657217       0.38652096      -0.15192039
Cu       2.40924698      -0.00974928      17.02958687        1      -0.37843831       1.11622278      -0.11384325       0.49459980       0.07876205       0.13631396
Cu       1.25215451       2.23050224      17.13423084        1      -1.00098206      -1.72899188      -0.39576390      -0.06074352      -0.27668845      -0.29504673
Cu       3.87143392       2.14149325      16.96934687        1       0.29033608      -1.82448360      -0.40719325      -0.33233767      -0.03366325       0.34464167
8
Lattice="5.1123820279787395 0.0 0.0 2.5561910139893698 4.427452710080594 0.0 0.0 0.0 32.0871212231205" Properties=species:S:1:pos:R:3:tags:I:1:momenta:R:3:forces:R:3 energy=-28.755044237716614 stress="0.00035621384507412523 5.837523835294923e-06 1.1470533016567195e-05 5.837523835294923e-06 0.0003787204703692216 -2.6395204375788422e-05 1.1470533016567195e-05 -2.6395204375788422e-05 1.1605437234364962e-06" free_energy=-28.755044237716614 pbc="T T F"
Cu      -0.00063104       1.43288704      15.00105876        2       0.65160090       1.64972002       0.12835876      -0.06230512       0.05478413      -0.15111115
Cu       2.52787552       1.48185824      14.93759207        2      -1.62919989       0.20213204      -0.09396351      -0.09475468       0.01572409       0.09483848
Cu       1.16680389       3.68310614      14.99703088        2      -0.39381043      -1.48754746       0.74108763       0.16889730      -0.03606423       0.11900560
Cu       3.74035365       3.70037414      14.98575237        2      -0.52978068      -1.11736246      -1.12528517       0.07232763      -0.19664401      -0.08998941
Cu      -0.06288985      -0.09897491      17.12740332        1      -0.93354884       1.23401760      -0.32712534      -0.08487375       0.12359051      -0.18064555
Cu       2.40692635       0.00792958      17.03038927        1       0.11350808       1.11952786       0.17797847       0.42169745      -0.13490511       0.07815809
Cu       1.23789952       2.20079164      17.12770175        1      -0.89317595      -1.99160072      -0.40361430       0.03304860      -0.04126001      -0.23297464
Cu       3.87494839       2.11554570      16.96344855        1       0.14871232      -1.43289911      -0.48188024      -0.45403743       0.21477463       0.36271858
8
Lattice="5.1123820279787395 0.0 0.0 2.5561910139893698 4.427452710080594 0.0 0.0 0.0 32.0871212231205" Properties=species:S:1:pos:R:3:tags:I:1:momenta:R:3:forces:R:3 energy=-28.743603090993936 stress="0.00034569038111826467 1.1699563552906585e-05 1.5620550749382053e-05 1.1699563552906585e-05 0.00037039987131738265 -2.4427344518403614e-05 1.5620550749382053e-05 -2.4427344518403614e-05 -2.6959955223986715e-06" free_energy=-28.743603090993936 pbc="T T F"
Cu       0.00749908       1.46087179      15.00272146        2       0.33159121       1.73553565      -0.01595457      -0.18759095      -0.20076593      -0.25023198
Cu       2.50366732       1.48175316      14.93390223        2      -1.43071709      -0.09111627      -0.27109564       0.05750991      -0.08643782       0.09306545
Cu       1.16230645       3.65926300      15.00900697        2      -0.30613491      -1.47833324       0.79127595       0.17953828       0.19202045       0.09060097
Cu       3.73090502       3.68093735      14.96935901        2      -0.67082248      -1.26214159      -0.81017308       0.06891393      -0.06150029       0.01864675
Cu      -0.07648523      -0.07586512      17.12225475        1      -0.81804266       1.50658104      -0.48764888      -0.02001148      -0.12971419      -0.19512857
Cu       2.41103238       0.02037036      17.03343333        1       0.55653556       0.48457077       0.17103466       0.33802574      -0.30729607       0.01826173
Cu       1.22242326       2.17051094      17.11901814        1      -0.99825881      -1.85791118      -0.59325446       0.14249321       0.17975735      -0.14846020
Cu       3.87662903       2.09761923      16.95938564        1      -0.09596950      -0.84336841      -0.15509529      -0.57887865       0.41393651       0.37324585
8
Lattice="5.1123820279787395 0.0 0.0 2.5561910139893698 4.427452710080594 0.0 0.0 0.0 32.0871212231205" Properties=species:S:1:pos:R:3:tags:I:1:momenta:R:3:forces:R:3 energy=-28.714595675607473 stress="0.00032879988786234024 1.3180460608135457e-05 1.5733105256696408e-05 1.3180460608135457e-05 0.00034894494933902385 -2.1655667273052952e-05 1.5733105256696408e-05 -2.1655667273052952e-05 -4.454287736163689e-06" free_energy=-28.714595675607473 pbc="T T F"
Cu       0.01164831       1.48466855      14.99844915        2       0.18568201       1.31336595      -0.56758997      -0.32151518      -0.41261216      -0.29381951
Cu       2.48211600       1.48009684      14.92924352        2      -1.48639635      -0.15332531      -0.19750070       0.19146154      -0.17718573       0.10149652
Cu       1.16005118       3.63807332      15.02025824        2       0.06931898      -1.12053886       0.73785057       0.18745501       0.39596485       0.05161545
Cu       3.72248134       3.66316837      14.95833897        2      -0.52596691      -1.21262327      -0.65343952       0.06582918       0.05151459       0.08657770
Cu      -0.08881896      -0.05432994      17.11468338        1      -0.73409566       1.40147486      -0.53913030       0.04407230      -0.34055812      -0.19450975
Cu       2.41836031       0.02359257      17.03508300        1       0.55293159      -0.08178000       0.11600728       0.25108188      -0.40597029      -0.01592795
Cu       1.20830439       2.14573133      17.11081701        1      -0.84721667      -1.46193558      -0.55824304       0.23245260       0.33766266      -0.07368126
Cu       3.87104670       2.08667706      16.96112099        1      -0.61253098      -0.47316630       0.30453449      -0.65083733       0.55118419       0.33824880
