8

Cu     -0.000000000000000      1.475817570000000     15.000000000000000
Cu      2.556191010000000      1.475817570000000     15.000000000000000
Cu      1.278095510000000      3.689543930000000     15.000000000000000
Cu      3.834286520000000      3.689543930000000     15.000000000000000
Cu      0.000000000000000      0.000000000000000     17.087121220000000
Cu      2.556191010000000      0.000000000000000     17.087121220000000
Cu      1.278095510000000      2.213726360000000     17.087121220000000
Cu      3.834286520000000      2.213726360000000     17.087121220000000
8

Cu     -0.009034597849123      1.434937106592826     14.990485008164221
Cu      2.569989509087419      1.475526748547700     14.988501705419845
Cu      1.256368026872074      3.706985758976171     14.994685248824887
Cu      3.820063710092323      3.708175811125314     15.008691473707863
Cu     -0.006571839170493     -0.043082424029851     17.099779674463182
Cu      2.528952860400938     -0.012100130090353     17.074187608008650
Cu      1.284500668724967      2.242295738466176     17.104495889613737
Cu      3.835210523795830      2.215086566841897     17.064621902794642
8

Cu     -0.017097140650210      1.402465960214800     14.983240090050375
Cu      2.583309665949914      1.477242161238182     14.980396806481675
Cu      1.236245210065518      3.721182389281884     14.987196452914176
Cu      3.804007744928314      3.721327640668630     15.016996486842112
Cu     -0.010987966260395     -0.079673480847357     17.110652555516502
Cu      2.501282256845956     -0.024313724449092     17.059079239085744
Cu      1.287634641073045      2.263938590858725     17.121182130444598
Cu      3.837980906481623      2.215601760599466     17.043893552165660
8

Cu     -0.023754048834271      1.381108603914687     14.979443865257689
Cu      2.587588960378372      1.478325768867006     14.973874549233342
Cu      1.219228860340909      3.732682232919259     14.980104211969755
Cu      3.789489923865184      3.728631712013821     15.022252482330071
Cu     -0.016237565786071     -0.111283058186632     17.120701888948581
Cu      2.476681172433380     -0.031655121761786     17.045810618093988
Cu      1.288846593925227      2.278432983557298     17.134928856362425
Cu      3.843986043418502      2.211768062300818     17.022932614352150
8

Cu     -0.025765604869051      1.375437746440534     14.980320282504001
Cu      2.587579509003839      1.480168919643768     14.965542043049547
Cu      1.204847844126272      3.738207973011153     14.976237193654502
Cu      3.775703436863628      3.730661200571189     15.022347739302907
Cu     -0.023998024524544     -0.134505077086527     17.128332217637368
Cu      2.453646784936548     -0.036362472454852     17.036512485850949
Cu      1.287383514420635      2.282263583999040     17.143866740560593
Cu      3.850439810075896      2.202670089045935     17.004522948128585
8

Cu     -0.023874373286288      1.380624747945480     14.983225631424974
Cu      2.583103938475359      1.479397913688753     14.956444535726044
Cu      1.191944614282494      3.733594431744067     14.977568379991661
Cu      3.762415695459323      3.728965801586384     15.020927366419095
Cu     -0.029140862194252     -0.141928928758517     17.131067757159588
Cu      2.431096543294391     -0.033371835118708     17.032170718279261
Cu      1.281913876108076      2.274362008608337     17.144989622815586
Cu      3.856932474656245      2.187716653136551     16.989138835959398
8

Cu     -0.019082019152995      1.393433168003759     14.990320212896636
Cu      2.569340436283398      1.480267919556323     14.947617682089421
Cu      1.181200129041703      3.721124119405540     14.980967172386981
Cu      3.753349919473672      3.722983436293871     15.015889948590836
Cu     -0.036123955550134     -0.136274450306585     17.130443612164562
Cu      2.417204308559068     -0.024237559635623     17.031258892585097
Cu      1.268954508059980      2.256014298010604     17.139871689506290
Cu      3.864645173605996      2.167153925705565     16.977231330537929
8

Cu     -0.010360608537689      1.410770018054852     14.997113547555291
Cu      2.550649047604058      1.480639330393022     14.941626899292153
Cu      1.173392708201169      3.703243629706545     14.987582754080261
Cu      3.746603901388585      3.713659277338731     15.002718533399195
Cu     -0.047998708717139     -0.118707099514364     17.129676299436234
Cu      2.409246977788726     -0.009749280571277     17.029586867262040
Cu      1.252154513233679      2.230502243774819     17.134230837854194
Cu      3.871433922232235      2.141493248535056     16.969346874592759
8

Cu     -0.000631037685775      1.432887039897174     15.001058761641282
Cu      2.527875519059454      1.481858235102197     14.937592065037650
Cu      1.166803889206981      3.683106137328070     14.997030882837171
Cu      3.740353648431157      3.700374140664158     14.985752370239711
Cu     -0.062889854524611     -0.098974909270228     17.127403317704548
Cu      2.406926348895694      0.007929580221715     17.030389272496620
Cu      1.237899518832064      2.200791643784819     17.127701752707189
Cu      3.874948387563742      2.115545696352210     16.963448547776512
8

Cu      0.007499083039277      1.460871789213927     15.002721462750818
Cu      2.503667316284843      1.481753160624112     14.933902227627144
Cu      1.162306449164922      3.659262997069302     15.009006974808171
Cu      3.730905017758906      3.680937352316729     14.969359014439341
Cu     -0.076485229459042     -0.075865124026519     17.122254748848619
Cu      2.411032380881807      0.020370362092213     17.033433326900713
Cu      1.222423257808509      2.170510943145797     17.119018140505023
Cu      3.876629030235298      2.097619231867884     16.959385640787733
8

Cu      0.011648313099628      1.484668553385025     14.998449147534721
Cu      2.482115995673021      1.480096841518314     14.929243522981469
Cu      1.160051177399640      3.638073321875118     15.020258242519411
Cu      3.722481343281734      3.663168368619837     14.958338970613388
Cu     -0.088818958439870     -0.054329943064311     17.114683378400542
Cu      2.418360311124903      0.023592571058090     17.035083001820098
Cu      1.208304387457641      2.145731334009302     17.110817005830281
Cu      3.871046697815824      2.086677057889762     16.961120987739651
