     161
 i =        1, E =     -8104.4899611032
 Fe         5.0938794100       11.8196869300        0.3885799900
 Fe         7.6575796300        7.3792284900        0.3885799900
 Fe        10.2212798400        2.9387700600        0.3885799900
 Fe        -0.0335205200       11.8196869300        0.3885799900
 Fe         2.5301797000        7.3792284900        0.3885799900
 Fe         5.0938799200        2.9387700600        0.3885799900
 Fe        -5.1609204400       11.8196869300        0.3885799900
 Fe        -2.5972202200        7.3792284900        0.3885799900
 Fe        -0.0335200000        2.9387700600        0.3885799900
  O         8.4519195100        8.9577468800        1.1642700400
  O        11.0156197300        4.5172884400        1.1642700400
  O        13.5793199500        0.0768300000        1.1642700400
  O         3.3245195900        8.9577468800        1.1642700400
  O         5.8882198100        4.5172884400        1.1642700400
  O         8.4519200300        0.0768300000        1.1642700400
  O        -1.8028803300        8.9577468800        1.1642700400
  O         0.7608198900        4.5172884400        1.1642700400
  O         3.3245201100        0.0768300000        1.1642700400
  O         8.4568493000       11.7183869300        1.1650400200
  O        11.0205495200        7.2779284900        1.1650400200
  O        13.5842497300        2.8374700500        1.1650400200
  O         3.3294493700       11.7183869300        1.1650400200
  O         5.8931495900        7.2779284900        1.1650400200
  O         8.4568498100        2.8374700500        1.1650400200
  O        -1.7979505500       11.7183869300        1.1650400200
  O         0.7657496700        7.2779284900        1.1650400200
  O         3.3294498900        2.8374700500        1.1650400200
  O         6.0627194200       10.3425368500        1.1660399400
  O         8.6264196400        5.9020784100        1.1660399400
  O        11.1901198600        1.4616199700        1.1660399400
  O         0.9353195000       10.3425368500        1.1660399400
  O         3.4990197200        5.9020784100        1.1660399400
  O         6.0627199400        1.4616199700        1.1660399400
  O        -4.1920804200       10.3425368500        1.1660399400
  O        -1.6283802000        5.9020784100        1.1660399400
  O         0.9353200200        1.4616199700        1.1660399400
 Fe         7.6576695000       13.2997167500        1.9292099500
 Fe        10.2213697200        8.8592583200        1.9292099500
 Fe        12.7850699400        4.4187998800        1.9292099500
 Fe         2.5302695800       13.2997167500        1.9292099500
 Fe         5.0939698000        8.8592583200        1.9292099500
 Fe         7.6576700200        4.4187998800        1.9292099500
 Fe        -2.5971303400       13.2997167500        1.9292099500
 Fe        -0.0334301200        8.8592583200        1.9292099500
 Fe         2.5302701000        4.4187998800        1.9292099500
 Fe         7.6573893600       10.3392168700        2.7128999200
 Fe        10.2210895800        5.8987584300        2.7128999200
 Fe        12.7847898000        1.4582999900        2.7128999200
 Fe         2.5299894400       10.3392168700        2.7128999200
 Fe         5.0936896600        5.8987584300        2.7128999200
 Fe         7.6573898800        1.4582999900        2.7128999200
 Fe        -2.5974104800       10.3392168700        2.7128999200
 Fe        -0.0337102600        5.8987584300        2.7128999200
 Fe         2.5299899600        1.4582999900        2.7128999200
  O         4.1321582759       13.3028447443        3.4989417629
  O         6.6972880938        8.8627632434        3.5012911193
  O         9.2613288862        4.4251340045        3.5003334993
  O        -0.9939787445       13.3039044356        3.4996167233
  O         1.5695191850        8.8659919228        3.4940973637
  O         4.1298056654        4.4240239735        3.5014515311
  O        -6.1219778376       13.3027820712        3.4985367438
  O        -3.5583351728        8.8607048427        3.4995307165
  O        -0.9973181171        4.4215563715        3.4944828720
  O         6.8607707457       11.9089542774        3.5013843832
  O         9.4221744858        7.4701169318        3.5023032261
  O        11.9869593974        3.0307135535        3.5000973986
  O         1.7332794148       11.9103416237        3.5010305455
  O         4.3008748878        7.4679842008        3.5018394344
  O         6.8605222613        3.0297553254        3.4997439847
  O        -3.3944119556       11.9105843621        3.4999509643
  O        -0.8343165239        7.4718354927        3.4922896697
  O         1.7361364256        3.0272542385        3.5009485686
  O         9.4144141678       10.2446258298        3.5025392851
  O        11.9775759623        5.8041699768        3.5009600506
  O        14.5397923072        1.3579565050        3.4975216059
  O         4.2906483309       10.2454830562        3.5003821624
  O         6.8514328502        5.8060630851        3.5024887513
  O         9.4150561071        1.3638284072        3.5016087909
  O        -0.8501309371       10.2519053578        3.5005184577
  O         1.7271211683        5.8026861468        3.4967235402
  O         4.2874824471        1.3625407869        3.5001706041
 Fe         5.0949907782       11.8194403343        4.4873625041
 Fe         7.6540633575        7.3780208754        4.4906441555
 Fe        10.2212417719        2.9384856980        4.4860748059
 Fe        -0.0344775578       11.8172640221        4.4846354232
 Fe         2.5339133396        7.3819846384        4.4759126581
 Fe         5.0912361761        2.9349478668        4.4829309230
 Fe        -5.1597250756       11.8195610218        4.4864283286
 Fe        -2.5925150762        7.3736304191        4.4900327169
 Fe        -0.0393052987        2.9285739926        4.4735714365
 Fe         7.6578693452       13.3009918206        4.8209877919
 Fe        10.2221787370        8.8596953823        4.8237390627
 Fe        12.7895440222        4.4233322278        4.8253243874
 Fe         2.5307555225       13.2995605640        4.8229657635
 Fe         5.0954179115        8.8545382338        4.8213949126
 Fe         7.6643447973        4.4188535440        4.8196090562
 Fe        -2.5962121970       13.2998195695        4.8221268044
 Fe        -0.0472429707        8.8819873842        4.8026151519
 Fe         2.5224631886        4.4164426040        4.8270036044
  O         5.8648755710       10.3835271899        5.7294735606
  O         8.4281175446        5.9501810313        5.7319943571
  O        10.9929898019        1.5080533347        5.7274508123
  O         0.7380312007       10.3924778065        5.7305273821
  O         3.3031102828        5.9511622761        5.7071445976
  O         5.8658316119        1.5075059519        5.7290783231
  O        -4.3893814227       10.3894375573        5.7280611490
  O        -1.8052932550        5.9467364214        5.7268475177
  O         0.7374932202        1.5067781645        5.7274289686
  O         5.9483928374       13.2027035273        5.7290810067
  O         8.5095338615        8.7612588892        5.7316454799
  O        11.0750525735        4.3213416692        5.7278533755
  O         0.8187998154       13.2007525835        5.7262284121
  O         3.3900695184        8.7601076661        5.7376428895
  O         5.9592075528        4.3006445997        5.7167648807
  O        -4.3067550630       13.2042048332        5.7283457238
  O        -1.7455897008        8.7631841493        5.7285090400
  O         0.7868614973        4.3172387490        5.6755978016
  O         3.4697180102       11.8658561721        5.7306951581
  O         6.0224097965        7.4165768766        5.7554687190
  O         8.5969262383        2.9852363531        5.7318271805
  O        -1.6580688975       11.8670050682        5.7298846657
  O         0.9029636762        7.4697539048        5.6505647502
  O         3.4703676227        2.9858335230        5.7333046043
  O        -6.7858418071       11.8682449560        5.7288331824
  O        -4.2225544024        7.4260609251        5.7293669693
  O        -1.6580803890        2.9852468337        5.7300198434
 Fe         7.6586245222       10.3412818059        5.9742064980
 Fe        10.2223990107        5.8984332799        5.9770279810
 Fe        12.7855090310        1.4587258205        5.9792633364
 Fe         2.5299320960       10.3379206897        5.9735707057
 Fe         5.0891267644        5.8653735542        5.9336482904
 Fe         7.6582875201        1.4572830836        5.9766720948
 Fe        -2.5969723297       10.3396200576        5.9786722726
 Fe        -0.0036225536        5.9351745632        5.9571970807
 Fe         2.5292147821        1.4596175055        5.9807151839
  C         6.8888740135        6.4087500475       10.0108590628
  C         5.3646030371        6.2620961113        9.8291098358
  H         7.2601577239        7.0789785220        9.2198044678
  O         7.2748813614        6.9933549451       11.2549631488
  H         7.3541744717        5.4188445001        9.8550647153
  C         4.7529941740        5.1380571181       10.6770862838
  C         3.2178670229        5.0632638410       10.7791371551
  O         5.2664719906        5.1918913513       12.0402603462
  H         5.1248868497        4.1801817911       10.2801065788
  C         2.4396523047        4.8177240302        9.4600127370
  H         2.8528593065        5.9980368655       11.2607671582
  O         2.9086914585        3.9542001088       11.6441050993
  C         2.0104838203        6.1523013542        8.8497232008
  O         1.2225525476        4.1032133285        9.7261658040
  H         3.0714576780        4.2532045827        8.7511461982
  H         1.3586158706        6.6988930825        9.5535432952
  O         1.2086600683        5.8563975730        7.7046652095
  H         2.8642207249        6.7519473539        8.5114878884
  H         7.1107126909        6.3156691408       11.9366852889
  H         4.9463782213        6.0273831937       12.4361328595
  H         3.6042708945        3.9379551753       12.3316378406
  H         1.4201663549        3.4700798849       10.4433258350
  H         0.6117363912        5.1135564110        7.9359999831
  O         5.0887782401        5.9128167735        8.4592532082
  H         4.8810167419        7.2290866790       10.0809451217
  H         5.4182922369        6.6911473921        7.9528799039
     161
 i =        2, E =     -8104.5003164661
 Fe         5.0938794100       11.8196869300        0.3885799900
 Fe         7.6575796300        7.3792284900        0.3885799900
 Fe        10.2212798400        2.9387700600        0.3885799900
 Fe        -0.0335205200       11.8196869300        0.3885799900
 Fe         2.5301797000        7.3792284900        0.3885799900
 Fe         5.0938799200        2.9387700600        0.3885799900
 Fe        -5.1609204400       11.8196869300        0.3885799900
 Fe        -2.5972202200        7.3792284900        0.3885799900
 Fe        -0.0335200000        2.9387700600        0.3885799900
  O         8.4519195100        8.9577468800        1.1642700400
  O        11.0156197300        4.5172884400        1.1642700400
  O        13.5793199500        0.0768300000        1.1642700400
  O         3.3245195900        8.9577468800        1.1642700400
  O         5.8882198100        4.5172884400        1.1642700400
  O         8.4519200300        0.0768300000        1.1642700400
  O        -1.8028803300        8.9577468800        1.1642700400
  O         0.7608198900        4.5172884400        1.1642700400
  O         3.3245201100        0.0768300000        1.1642700400
  O         8.4568493000       11.7183869300        1.1650400200
  O        11.0205495200        7.2779284900        1.1650400200
  O        13.5842497300        2.8374700500        1.1650400200
  O         3.3294493700       11.7183869300        1.1650400200
  O         5.8931495900        7.2779284900        1.1650400200
  O         8.4568498100        2.8374700500        1.1650400200
  O        -1.7979505500       11.7183869300        1.1650400200
  O         0.7657496700        7.2779284900        1.1650400200
  O         3.3294498900        2.8374700500        1.1650400200
  O         6.0627194200       10.3425368500        1.1660399400
  O         8.6264196400        5.9020784100        1.1660399400
  O        11.1901198600        1.4616199700        1.1660399400
  O         0.9353195000       10.3425368500        1.1660399400
  O         3.4990197200        5.9020784100        1.1660399400
  O         6.0627199400        1.4616199700        1.1660399400
  O        -4.1920804200       10.3425368500        1.1660399400
  O        -1.6283802000        5.9020784100        1.1660399400
  O         0.9353200200        1.4616199700        1.1660399400
 Fe         7.6576695000       13.2997167500        1.9292099500
 Fe        10.2213697200        8.8592583200        1.9292099500
 Fe        12.7850699400        4.4187998800        1.9292099500
 Fe         2.5302695800       13.2997167500        1.9292099500
 Fe         5.0939698000        8.8592583200        1.9292099500
 Fe         7.6576700200        4.4187998800        1.9292099500
 Fe        -2.5971303400       13.2997167500        1.9292099500
 Fe        -0.0334301200        8.8592583200        1.9292099500
 Fe         2.5302701000        4.4187998800        1.9292099500
 Fe         7.6573893600       10.3392168700        2.7128999200
 Fe        10.2210895800        5.8987584300        2.7128999200
 Fe        12.7847898000        1.4582999900        2.7128999200
 Fe         2.5299894400       10.3392168700        2.7128999200
 Fe         5.0936896600        5.8987584300        2.7128999200
 Fe         7.6573898800        1.4582999900        2.7128999200
 Fe        -2.5974104800       10.3392168700        2.7128999200
 Fe        -0.0337102600        5.8987584300        2.7128999200
 Fe         2.5299899600        1.4582999900        2.7128999200
  O         4.1328143362       13.2998210391        3.4983988934
  O         6.6986707301        8.8582128926        3.5073822965
  O         9.2638824651        4.4233870991        3.5006350648
  O        -0.9939042753       13.3032218854        3.4981700014
  O         1.5771094539        8.8763531867        3.4847077730
  O         4.1342981989        4.4220817163        3.5083106178
  O        -6.1203764284       13.3003688823        3.4990645586
  O        -3.5590062019        8.8589183859        3.4985761647
  O        -1.0071383402        4.4126517148        3.4735909745
  O         6.8583832000       11.9055073925        3.5047032552
  O         9.4183367378        7.4714094737        3.5023748200
  O        11.9881990881        3.0309110249        3.5041190854
  O         1.7308506561       11.9110559140        3.5008211220
  O         4.3053958017        7.4701931905        3.5040270071
  O         6.8593670655        3.0310111325        3.4935453900
  O        -3.3966880652       11.9110158673        3.4996615412
  O        -0.8487078410        7.4730609594        3.4781517914
  O         1.7353705102        3.0215438685        3.4967203077
  O         9.4163376751       10.2453200256        3.5034442647
  O        11.9769688769        5.8042649092        3.5047989131
  O        14.5426171514        1.3602805194        3.4970700826
  O         4.2951660427       10.2433639690        3.5017862036
  O         6.8495897707        5.8114951324        3.5105914174
  O         9.4179337226        1.3666133399        3.5014024473
  O        -0.8554415127       10.2698299642        3.5069546168
  O         1.7366187521        5.8053098097        3.4807248005
  O         4.2905369273        1.3628036479        3.4981789124
 Fe         5.0939370839       11.8188947794        4.4953879557
 Fe         7.6536431670        7.3781264756        4.5035975282
 Fe        10.2257029981        2.9391090955        4.4944347413
 Fe        -0.0332219026       11.8281782741        4.4968554378
 Fe         2.5333618060        7.3901934857        4.4708576999
 Fe         5.0905998325        2.9269816855        4.4898764435
 Fe        -5.1587455428       11.8208139741        4.4938261834
 Fe        -2.5897034648        7.3711809898        4.4977723911
 Fe        -0.0452871325        2.9310156500        4.4761171129
 Fe         7.6586255808       13.3000022895        4.8177982521
 Fe        10.2242938453        8.8581804040        4.8223449230
 Fe        12.8003390993        4.4294117900        4.8301643283
 Fe         2.5315999546       13.2988266915        4.8204487516
 Fe         5.0970221713        8.8488099422        4.8246424140
 Fe         7.6729119878        4.4151862313        4.8122200583
 Fe        -2.5960860914       13.2982906598        4.8186821037
 Fe        -0.0565789302        8.9004411036        4.7759325740
 Fe         2.5059170498        4.4124049516        4.8252230961
  O         5.8645307738       10.3772382887        5.7383486594
  O         8.4245750983        5.9479544187        5.7420759441
  O        10.9912049548        1.5042676399        5.7326783370
  O         0.7353423283       10.3974042937        5.7312862825
  O         3.2934685893        5.9520909997        5.6840821059
  O         5.8650405471        1.4996826002        5.7362234157
  O        -4.3918789545       10.3878587297        5.7325988209
  O        -1.7844607934        5.9501817762        5.7214878436
  O         0.7360570021        1.5022944169        5.7296956185
  O         5.9502285776       13.2031693993        5.7323569349
  O         8.5097632082        8.7621156600        5.7407780600
  O        11.0789472726        4.3255447223        5.7322889878
  O         0.8230798299       13.2073858295        5.7340043439
  O         3.3976027209        8.7609919177        5.7550136859
  O         5.9749330322        4.2727113148        5.7047781616
  O        -4.3049895231       13.2081021417        5.7326895456
  O        -1.7444657933        8.7690908072        5.7284148418
  O         0.7492614639        4.3206170747        5.6188053701
  O         3.4667750067       11.8649323554        5.7377052491
  O         6.0091873322        7.4040608146        5.7954802261
  O         8.5984572923        2.9851172380        5.7381203217
  O        -1.6622992273       11.8677890805        5.7364430258
  O         0.9120372458        7.5193786970        5.5754514356
  O         3.4663635792        2.9917671885        5.7472272428
  O        -6.7868694096       11.8695201069        5.7355484493
  O        -4.2245016194        7.4256653890        5.7360681323
  O        -1.6648591424        2.9810422467        5.7368678295
 Fe         7.6588790985       10.3432902518        5.9857715656
 Fe        10.2211243874        5.8986317890        5.9904432330
 Fe        12.7826271033        1.4562982476        5.9950712989
 Fe         2.5253676317       10.3364096379        5.9827221839
 Fe         5.0767957768        5.8212065170        5.8642887649
 Fe         7.6565400464        1.4596339595        5.9893727196
 Fe        -2.6000960452       10.3399321998        5.9946408953
 Fe         0.0258992131        5.9860153087        5.9422282168
 Fe         2.5266212986        1.4617600588        5.9916773072
  C         6.8864241777        6.4021068072       10.0100460714
  C         5.3605237041        6.2603417071        9.8383859355
  H         7.2601922688        7.0710510444        9.2184120884
  O         7.2674742694        6.9992668053       11.2510969617
  H         7.3627286204        5.4197247645        9.8477054318
  C         4.7667431273        5.1299070281       10.6829749499
  C         3.2367308396        5.0514140514       10.8085207129
  O         5.2624109359        5.1853492776       12.0535525489
  H         5.1254016526        4.1720293514       10.2764235410
  C         2.4623473343        4.8419432843        9.4906793621
  H         2.8514332629        5.9985100345       11.2491633647
  O         2.8947532190        3.9408066193       11.6562082136
  C         1.9798978663        6.1481135938        8.8688783050
  O         1.2434771176        4.1173621487        9.7167836299
  H         3.0511112844        4.2708992771        8.7452806697
  H         1.4017195587        6.7225762279        9.6020008165
  O         1.1055677764        5.8092447452        7.7831341467
  H         2.8227873843        6.7419097610        8.4921947694
  H         7.1111275557        6.3121604644       11.9252851122
  H         4.9422322394        6.0306935116       12.4288949665
  H         3.6079863721        3.9368116544       12.3246467135
  H         1.4208583866        3.4763294059       10.4328162098
  H         0.6854560918        4.9339640208        8.1166997774
  O         5.1055408727        5.9790270592        8.4401522505
  H         4.8811979940        7.2304167137       10.0808717856
  H         5.4683921150        6.7917970083        7.9931402070
     161
 i =        3, E =     -8104.5063099853
 Fe         5.0938794100       11.8196869300        0.3885799900
 Fe         7.6575796300        7.3792284900        0.3885799900
 Fe        10.2212798400        2.9387700600        0.3885799900
 Fe        -0.0335205200       11.8196869300        0.3885799900
 Fe         2.5301797000        7.3792284900        0.3885799900
 Fe         5.0938799200        2.9387700600        0.3885799900
 Fe        -5.1609204400       11.8196869300        0.3885799900
 Fe        -2.5972202200        7.3792284900        0.3885799900
 Fe        -0.0335200000        2.9387700600        0.3885799900
  O         8.4519195100        8.9577468800        1.1642700400
  O        11.0156197300        4.5172884400        1.1642700400
  O        13.5793199500        0.0768300000        1.1642700400
  O         3.3245195900        8.9577468800        1.1642700400
  O         5.8882198100        4.5172884400        1.1642700400
  O         8.4519200300        0.0768300000        1.1642700400
  O        -1.8028803300        8.9577468800        1.1642700400
  O         0.7608198900        4.5172884400        1.1642700400
  O         3.3245201100        0.0768300000        1.1642700400
  O         8.4568493000       11.7183869300        1.1650400200
  O        11.0205495200        7.2779284900        1.1650400200
  O        13.5842497300        2.8374700500        1.1650400200
  O         3.3294493700       11.7183869300        1.1650400200
  O         5.8931495900        7.2779284900        1.1650400200
  O         8.4568498100        2.8374700500        1.1650400200
  O        -1.7979505500       11.7183869300        1.1650400200
  O         0.7657496700        7.2779284900        1.1650400200
  O         3.3294498900        2.8374700500        1.1650400200
  O         6.0627194200       10.3425368500        1.1660399400
  O         8.6264196400        5.9020784100        1.1660399400
  O        11.1901198600        1.4616199700        1.1660399400
  O         0.9353195000       10.3425368500        1.1660399400
  O         3.4990197200        5.9020784100        1.1660399400
  O         6.0627199400        1.4616199700        1.1660399400
  O        -4.1920804200       10.3425368500        1.1660399400
  O        -1.6283802000        5.9020784100        1.1660399400
  O         0.9353200200        1.4616199700        1.1660399400
 Fe         7.6576695000       13.2997167500        1.9292099500
 Fe        10.2213697200        8.8592583200        1.9292099500
 Fe        12.7850699400        4.4187998800        1.9292099500
 Fe         2.5302695800       13.2997167500        1.9292099500
 Fe         5.0939698000        8.8592583200        1.9292099500
 Fe         7.6576700200        4.4187998800        1.9292099500
 Fe        -2.5971303400       13.2997167500        1.9292099500
 Fe        -0.0334301200        8.8592583200        1.9292099500
 Fe         2.5302701000        4.4187998800        1.9292099500
 Fe         7.6573893600       10.3392168700        2.7128999200
 Fe        10.2210895800        5.8987584300        2.7128999200
 Fe        12.7847898000        1.4582999900        2.7128999200
 Fe         2.5299894400       10.3392168700        2.7128999200
 Fe         5.0936896600        5.8987584300        2.7128999200
 Fe         7.6573898800        1.4582999900        2.7128999200
 Fe        -2.5974104800       10.3392168700        2.7128999200
 Fe        -0.0337102600        5.8987584300        2.7128999200
 Fe         2.5299899600        1.4582999900        2.7128999200
  O         4.1324610176       13.3008303450        3.4994074753
  O         6.6970055598        8.8585409188        3.5130007069
  O         9.2619948022        4.4229645922        3.5003254894
  O        -0.9961798257       13.3077797240        3.4999624083
  O         1.5792994249        8.8866486375        3.4874923347
  O         4.1426197591        4.4245386226        3.5152240114
  O        -6.1217702642       13.3011084316        3.4992620694
  O        -3.5620372053        8.8626737688        3.4985834626
  O        -1.0125919410        4.4141088415        3.4707255689
  O         6.8599865035       11.9046682144        3.5060896482
  O         9.4201335991        7.4705910764        3.5035803602
  O        11.9916926715        3.0272370798        3.5122541863
  O         1.7330156688       11.9124999560        3.5010563377
  O         4.3113676603        7.4739396993        3.5066882914
  O         6.8630756740        3.0310088903        3.4897620433
  O        -3.3959778719       11.9101188701        3.5013254681
  O        -0.8488786172        7.4716673508        3.4857358571
  O         1.7358399164        3.0179633699        3.4946827066
  O         9.4156189798       10.2433226406        3.5041649531
  O        11.9715095940        5.8036091620        3.5147413731
  O        14.5445988658        1.3598388868        3.4975054056
  O         4.2940701220       10.2369578304        3.5055977661
  O         6.8440447864        5.8120247260        3.5194088446
  O         9.4177705317        1.3656618226        3.5020291636
  O        -0.8528862591       10.2734588817        3.5159997737
  O         1.7368667294        5.8071269847        3.4741398138
  O         4.2902542913        1.3614777383        3.5004412128
 Fe         5.0931233522       11.8168986847        4.4903554477
 Fe         7.6560758039        7.3787886329        4.5018172077
 Fe        10.2292063812        2.9386167817        4.4915386412
 Fe        -0.0313595321       11.8385217910        4.4954341711
 Fe         2.5318016772        7.3934699639        4.4671332167
 Fe         5.0938372996        2.9227812510        4.4881013313
 Fe        -5.1595450813       11.8207269822        4.4897252329
 Fe        -2.5923234941        7.3730809542        4.4924423635
 Fe        -0.0470505505        2.9357204706        4.4774137488
 Fe         7.6591651956       13.2993261361        4.8168224885
 Fe        10.2248265158        8.8570640430        4.8207808263
 Fe        12.8056168825        4.4325448599        4.8368932338
 Fe         2.5328369315       13.2988902239        4.8183489600
 Fe         5.0982910955        8.8483303977        4.8333607350
 Fe         7.6738767689        4.4117873748        4.8098624252
 Fe        -2.5968977126       13.2956622727        4.8170801949
 Fe        -0.0512614168        8.8993905501        4.7907927612
 Fe         2.5021601768        4.4119917616        4.8167108496
  O         5.8650179776       10.3806814047        5.7423171761
  O         8.4232841549        5.9467352312        5.7424073208
  O        10.9891413560        1.5038855290        5.7346712884
  O         0.7355971215       10.4090682753        5.7307806580
  O         3.2805707449        5.9527514968        5.6842525000
  O         5.8641990898        1.4957830874        5.7361256552
  O        -4.3943344555       10.3886188485        5.7331223422
  O        -1.7739774148        5.9582524135        5.7126781644
  O         0.7352190231        1.5026663851        5.7310254491
  O         5.9491608180       13.1998534091        5.7313581661
  O         8.5096197724        8.7598765030        5.7430230920
  O        11.0801754529        4.3254815690        5.7338860667
  O         0.8254732196       13.2110675781        5.7374106337
  O         3.3965881700        8.7597098672        5.7578678635
  O         5.9748135091        4.2658342644        5.7047191422
  O        -4.3059701052       13.2069484194        5.7322494954
  O        -1.7480400710        8.7681733764        5.7282291151
  O         0.7495473649        4.3227145129        5.6077062181
  O         3.4686140899       11.8654551558        5.7381694922
  O         6.0071365287        7.3967967230        5.7998428974
  O         8.6034007297        2.9853671918        5.7382006708
  O        -1.6607445642       11.8688102245        5.7391815521
  O         0.9244716793        7.5092053017        5.5881386800
  O         3.4643230596        2.9963638491        5.7508234608
  O        -6.7844797095       11.8698589039        5.7378029954
  O        -4.2229002936        7.4261339506        5.7392856397
  O        -1.6669735725        2.9788843722        5.7393022757
 Fe         7.6601095469       10.3431897986        5.9814265314
 Fe        10.2210360454        5.8986755317        5.9850667432
 Fe        12.7813885379        1.4540241590        5.9877027832
 Fe         2.5265017349       10.3361643324        5.9751867623
 Fe         5.0685966849        5.8133045506        5.8455755414
 Fe         7.6564333204        1.4627753631        5.9854750647
 Fe        -2.6014766888       10.3411246050        5.9883926743
 Fe         0.0311791825        5.9847091147        5.9791712587
 Fe         2.5265539659        1.4619236133        5.9841769759
  C         6.8863715212        6.4037271462       10.0135361575
  C         5.3618879426        6.2631867601        9.8418281627
  H         7.2569288259        7.0685233028        9.2167127330
  O         7.2713814711        6.9990594216       11.2537151182
  H         7.3633297369        5.4214874306        9.8482986396
  C         4.7565542870        5.1310341634       10.6814414707
  C         3.2248691688        5.0576456933       10.7858451082
  O         5.2684199010        5.1849387930       12.0477809288
  H         5.1290084546        4.1734952760       10.2826250125
  C         2.4507455105        4.8417723564        9.4737675887
  H         2.8627687574        5.9947915948       11.2629431259
  O         2.9112317284        3.9571804420       11.6563007274
  C         1.9756347269        6.1620522515        8.8775260011
  O         1.2362528237        4.1157540780        9.7284058233
  H         3.0673395720        4.2854653509        8.7429908415
  H         1.4199146983        6.7349757095        9.6340053579
  O         1.0763689646        5.7437670874        7.8277701517
  H         2.8112089417        6.7471647089        8.4623442956
  H         7.1128970395        6.3109245970       11.9256481052
  H         4.9438967799        6.0276699983       12.4259652300
  H         3.6111380273        3.9222849504       12.3378831432
  H         1.4222487353        3.4678259818       10.4347804882
  H         0.6627408126        4.8926252110        8.1496538273
  O         5.1164004046        6.0208819877        8.4325442993
  H         4.8832531679        7.2270239218       10.1028495807
  H         5.4814729597        6.8194195321        7.9795699446
     161
 i =        4, E =     -8104.5115314064
 Fe         5.0938794100       11.8196869300        0.3885799900
 Fe         7.6575796300        7.3792284900        0.3885799900
 Fe        10.2212798400        2.9387700600        0.3885799900
 Fe        -0.0335205200       11.8196869300        0.3885799900
 Fe         2.5301797000        7.3792284900        0.3885799900
 Fe         5.0938799200        2.9387700600        0.3885799900
 Fe        -5.1609204400       11.8196869300        0.3885799900
 Fe        -2.5972202200        7.3792284900        0.3885799900
 Fe        -0.0335200000        2.9387700600        0.3885799900
  O         8.4519195100        8.9577468800        1.1642700400
  O        11.0156197300        4.5172884400        1.1642700400
  O        13.5793199500        0.0768300000        1.1642700400
  O         3.3245195900        8.9577468800        1.1642700400
  O         5.8882198100        4.5172884400        1.1642700400
  O         8.4519200300        0.0768300000        1.1642700400
  O        -1.8028803300        8.9577468800        1.1642700400
  O         0.7608198900        4.5172884400        1.1642700400
  O         3.3245201100        0.0768300000        1.1642700400
  O         8.4568493000       11.7183869300        1.1650400200
  O        11.0205495200        7.2779284900        1.1650400200
  O        13.5842497300        2.8374700500        1.1650400200
  O         3.3294493700       11.7183869300        1.1650400200
  O         5.8931495900        7.2779284900        1.1650400200
  O         8.4568498100        2.8374700500        1.1650400200
  O        -1.7979505500       11.7183869300        1.1650400200
  O         0.7657496700        7.2779284900        1.1650400200
  O         3.3294498900        2.8374700500        1.1650400200
  O         6.0627194200       10.3425368500        1.1660399400
  O         8.6264196400        5.9020784100        1.1660399400
  O        11.1901198600        1.4616199700        1.1660399400
  O         0.9353195000       10.3425368500        1.1660399400
  O         3.4990197200        5.9020784100        1.1660399400
  O         6.0627199400        1.4616199700        1.1660399400
  O        -4.1920804200       10.3425368500        1.1660399400
  O        -1.6283802000        5.9020784100        1.1660399400
  O         0.9353200200        1.4616199700        1.1660399400
 Fe         7.6576695000       13.2997167500        1.9292099500
 Fe        10.2213697200        8.8592583200        1.9292099500
 Fe        12.7850699400        4.4187998800        1.9292099500
 Fe         2.5302695800       13.2997167500        1.9292099500
 Fe         5.0939698000        8.8592583200        1.9292099500
 Fe         7.6576700200        4.4187998800        1.9292099500
 Fe        -2.5971303400       13.2997167500        1.9292099500
 Fe        -0.0334301200        8.8592583200        1.9292099500
 Fe         2.5302701000        4.4187998800        1.9292099500
 Fe         7.6573893600       10.3392168700        2.7128999200
 Fe        10.2210895800        5.8987584300        2.7128999200
 Fe        12.7847898000        1.4582999900        2.7128999200
 Fe         2.5299894400       10.3392168700        2.7128999200
 Fe         5.0936896600        5.8987584300        2.7128999200
 Fe         7.6573898800        1.4582999900        2.7128999200
 Fe        -2.5974104800       10.3392168700        2.7128999200
 Fe        -0.0337102600        5.8987584300        2.7128999200
 Fe         2.5299899600        1.4582999900        2.7128999200
  O         4.1334179347       13.3005276268        3.5008946215
  O         6.6946761426        8.8601369160        3.5224624095
  O         9.2579783460        4.4215565416        3.4987404983
  O        -0.9981713915       13.3132804941        3.5042232115
  O         1.5726489488        8.8929215079        3.4781360834
  O         4.1568878134        4.4292288922        3.5246509435
  O        -6.1231887860       13.3008945097        3.4989243428
  O        -3.5647684827        8.8662214267        3.4998647054
  O        -1.0255442063        4.4152851738        3.4628581556
  O         6.8621073345       11.9043140878        3.5068652726
  O         9.4220548600        7.4682121051        3.5068609566
  O        11.9963200477        3.0249708618        3.5181662821
  O         1.7363254135       11.9161871638        3.5016859938
  O         4.3190489279        7.4791646657        3.5123001463
  O         6.8694274092        3.0301370961        3.4861153485
  O        -3.3961264361       11.9087898043        3.5034228629
  O        -0.8432544102        7.4826022388        3.4798598370
  O         1.7377845356        3.0151903786        3.4905077221
  O         9.4140413486       10.2410660532        3.5051355827
  O        11.9669601784        5.8032995446        3.5239295430
  O        14.5457904330        1.3559045675        3.4971631015
  O         4.2919385394       10.2276862029        3.5129319426
  O         6.8354372808        5.8122190944        3.5306175239
  O         9.4171348678        1.3646961174        3.5032164141
  O        -0.8419654479       10.2685281877        3.5099960894
  O         1.7373720165        5.8097583196        3.4618542164
  O         4.2889260165        1.3604368703        3.5048027668
 Fe         5.0932817073       11.8125939245        4.4852662754
 Fe         7.6580876612        7.3785562300        4.4990653489
 Fe        10.2371675714        2.9379570748        4.4871814043
 Fe        -0.0315096510       11.8439841766        4.4884548251
 Fe         2.5262260027        7.3979125341        4.4630475114
 Fe         5.0993610526        2.9179503347        4.4859767580
 Fe        -5.1612728255       11.8195857752        4.4859315508
 Fe        -2.5877686195        7.3750104622        4.4828471690
 Fe        -0.0504020924        2.9422129050        4.4756296179
 Fe         7.6601849898       13.3001991269        4.8155953644
 Fe        10.2249982844        8.8559135766        4.8195029083
 Fe        12.8118150879        4.4366804020        4.8478249042
 Fe         2.5348755150       13.3004507356        4.8158913880
 Fe         5.0997123274        8.8477634360        4.8533912331
 Fe         7.6729030855        4.4079048240        4.8082477569
 Fe        -2.5995300364       13.2917553205        4.8154569363
 Fe        -0.0435625257        8.8964329927        4.8083778288
 Fe         2.4994038343        4.4143201409        4.7989870685
  O         5.8669509275       10.3866604405        5.7497543153
  O         8.4246234406        5.9445949026        5.7398785735
  O        10.9890559486        1.5037002770        5.7380311341
  O         0.7363174777       10.4209681311        5.7317715383
  O         3.2604199821        5.9540551653        5.6910118060
  O         5.8642478908        1.4912599757        5.7334982414
  O        -4.3943276172       10.3891904444        5.7334782421
  O        -1.7609532636        5.9679384199        5.7030083525
  O         0.7345570669        1.5064513309        5.7326907127
  O         5.9484295573       13.1945042538        5.7292652368
  O         8.5080398307        8.7553929316        5.7443934191
  O        11.0824592216        4.3250164207        5.7381522835
  O         0.8246932713       13.2137117006        5.7358320275
  O         3.3902229180        8.7591831513        5.7598394004
  O         5.9711642449        4.2593323241        5.7104083804
  O        -4.3089388374       13.2057475809        5.7306137444
  O        -1.7501951574        8.7685374913        5.7300908687
  O         0.7571109412        4.3291426517        5.5979638067
  O         3.4712473236       11.8667868270        5.7367444577
  O         6.0042590173        7.3861403203        5.8004774491
  O         8.6110897788        2.9860484485        5.7358688570
  O        -1.6568572207       11.8734885261        5.7435041108
  O         0.9327113383        7.4841886209        5.6261433023
  O         3.4594563591        3.0040645847        5.7510277929
  O        -6.7823298875       11.8708797861        5.7391628419
  O        -4.2166729436        7.4272629252        5.7406853136
  O        -1.6669121835        2.9775800143        5.7436358192
 Fe         7.6627322563       10.3424915706        5.9755053428
 Fe        10.2231276973        5.8997848641        5.9759818705
 Fe        12.7829185355        1.4502935577        5.9778351587
 Fe         2.5284267493       10.3380806649        5.9707211266
 Fe         5.0571388007        5.8093371390        5.8301538549
 Fe         7.6577090148        1.4675033287        5.9800288906
 Fe        -2.5997975545       10.3462391057        5.9830373524
 Fe         0.0300368135        5.9699187010        6.0601392456
 Fe         2.5272373225        1.4634456488        5.9729061304
  C         6.8934756378        6.4096299041       10.0180564309
  C         5.3729771505        6.2901560611        9.8257972427
  H         7.2524744613        7.0710178747        9.2140049550
  O         7.2826621833        6.9943886829       11.2612536588
  H         7.3617020409        5.4214242603        9.8539636986
  C         4.7623764636        5.1393286856       10.6498854404
  C         3.2338150656        5.0638171688       10.7963411248
  O         5.2657273608        5.1917194500       12.0221607446
  H         5.1336100018        4.1659274541       10.2850492046
  C         2.4592164037        4.8329352074        9.4944347189
  H         2.8746464402        5.9985081242       11.2782640866
  O         2.9143313448        3.9570754087       11.6565419853
  C         1.9695717639        6.1389812673        8.8887420656
  O         1.2379747351        4.1090558510        9.7445938514
  H         3.0784481737        4.3136897514        8.7393247349
  H         1.4410325304        6.7438193580        9.6494627943
  O         1.0111722612        5.7007091323        7.8938042903
  H         2.7652900884        6.7391707046        8.4017798695
  H         7.1176922699        6.3100923077       11.9342737423
  H         4.9487542352        6.0249114844       12.4269218399
  H         3.6135029046        3.9135323769       12.3385121303
  H         1.4311061689        3.4543307475       10.4396580212
  H         0.6399078692        4.8509647153        8.1960542536
  O         5.1135927659        6.0706374453        8.4175062839
  H         4.8862372491        7.2307549492       10.1509039746
  H         5.5007628120        6.8537347312        7.9672501549
     161
 i =        5, E =     -8104.5160912714
 Fe         5.0938794100       11.8196869300        0.3885799900
 Fe         7.6575796300        7.3792284900        0.3885799900
 Fe        10.2212798400        2.9387700600        0.3885799900
 Fe        -0.0335205200       11.8196869300        0.3885799900
 Fe         2.5301797000        7.3792284900        0.3885799900
 Fe         5.0938799200        2.9387700600        0.3885799900
 Fe        -5.1609204400       11.8196869300        0.3885799900
 Fe        -2.5972202200        7.3792284900        0.3885799900
 Fe        -0.0335200000        2.9387700600        0.3885799900
  O         8.4519195100        8.9577468800        1.1642700400
  O        11.0156197300        4.5172884400        1.1642700400
  O        13.5793199500        0.0768300000        1.1642700400
  O         3.3245195900        8.9577468800        1.1642700400
  O         5.8882198100        4.5172884400        1.1642700400
  O         8.4519200300        0.0768300000        1.1642700400
  O        -1.8028803300        8.9577468800        1.1642700400
  O         0.7608198900        4.5172884400        1.1642700400
  O         3.3245201100        0.0768300000        1.1642700400
  O         8.4568493000       11.7183869300        1.1650400200
  O        11.0205495200        7.2779284900        1.1650400200
  O        13.5842497300        2.8374700500        1.1650400200
  O         3.3294493700       11.7183869300        1.1650400200
  O         5.8931495900        7.2779284900        1.1650400200
  O         8.4568498100        2.8374700500        1.1650400200
  O        -1.7979505500       11.7183869300        1.1650400200
  O         0.7657496700        7.2779284900        1.1650400200
  O         3.3294498900        2.8374700500        1.1650400200
  O         6.0627194200       10.3425368500        1.1660399400
  O         8.6264196400        5.9020784100        1.1660399400
  O        11.1901198600        1.4616199700        1.1660399400
  O         0.9353195000       10.3425368500        1.1660399400
  O         3.4990197200        5.9020784100        1.1660399400
  O         6.0627199400        1.4616199700        1.1660399400
  O        -4.1920804200       10.3425368500        1.1660399400
  O        -1.6283802000        5.9020784100        1.1660399400
  O         0.9353200200        1.4616199700        1.1660399400
 Fe         7.6576695000       13.2997167500        1.9292099500
 Fe        10.2213697200        8.8592583200        1.9292099500
 Fe        12.7850699400        4.4187998800        1.9292099500
 Fe         2.5302695800       13.2997167500        1.9292099500
 Fe         5.0939698000        8.8592583200        1.9292099500
 Fe         7.6576700200        4.4187998800        1.9292099500
 Fe        -2.5971303400       13.2997167500        1.9292099500
 Fe        -0.0334301200        8.8592583200        1.9292099500
 Fe         2.5302701000        4.4187998800        1.9292099500
 Fe         7.6573893600       10.3392168700        2.7128999200
 Fe        10.2210895800        5.8987584300        2.7128999200
 Fe        12.7847898000        1.4582999900        2.7128999200
 Fe         2.5299894400       10.3392168700        2.7128999200
 Fe         5.0936896600        5.8987584300        2.7128999200
 Fe         7.6573898800        1.4582999900        2.7128999200
 Fe        -2.5974104800       10.3392168700        2.7128999200
 Fe        -0.0337102600        5.8987584300        2.7128999200
 Fe         2.5299899600        1.4582999900        2.7128999200
  O         4.1368136433       13.2992531739        3.5035768510
  O         6.6952616818        8.8625227850        3.5332930271
  O         9.2540144720        4.4203388431        3.4965421386
  O        -0.9989216569       13.3135029263        3.5056234171
  O         1.5747342610        8.8965650609        3.4839934524
  O         4.1702358922        4.4351864700        3.5359786003
  O        -6.1223544821       13.2999446644        3.5001356317
  O        -3.5645155315        8.8663274821        3.5013605260
  O        -1.0395792037        4.4149335784        3.4537325139
  O         6.8628905331       11.9023067116        3.5088178666
  O         9.4216842329        7.4652181389        3.5108705869
  O        11.9975709538        3.0208265112        3.5235468224
  O         1.7387958068       11.9201585076        3.5023046545
  O         4.3218067794        7.4806398199        3.5187334781
  O         6.8743299353        3.0287406727        3.4849743601
  O        -3.3962351128       11.9081706998        3.5049939306
  O        -0.8368580184        7.4882108356        3.4799779364
  O         1.7418039109        3.0145975450        3.4877621687
  O         9.4121649238       10.2390380609        3.5072586053
  O        11.9640612913        5.8079466798        3.5310996193
  O        14.5452109821        1.3530043804        3.4987981257
  O         4.2895590096       10.2219100065        3.5214001396
  O         6.8287485849        5.8124845870        3.5384719511
  O         9.4177603842        1.3658097340        3.5038864384
  O        -0.8395656239       10.2681736304        3.5123955128
  O         1.7408429499        5.8112817216        3.4465205427
  O         4.2881222749        1.3608821425        3.5083472533
 Fe         5.0947120731       11.8078370455        4.4869215985
 Fe         7.6576109183        7.3770863562        4.4994045881
 Fe        10.2452332277        2.9384093094        4.4877189683
 Fe        -0.0302645161       11.8471405623        4.4874635274
 Fe         2.5208632065        7.3949413064        4.4668227456
 Fe         5.1040918810        2.9143945068        4.4884011878
 Fe        -5.1627682456       11.8177989907        4.4864215884
 Fe        -2.5798054308        7.3758703811        4.4828796970
 Fe        -0.0530306891        2.9499344162        4.4744917102
 Fe         7.6611009265       13.3021747810        4.8145277423
 Fe        10.2259184908        8.8537858369        4.8190459437
 Fe        12.8168999862        4.4407992924        4.8577581778
 Fe         2.5372901602       13.3026000460        4.8127590386
 Fe         5.0999604318        8.8446937819        4.8740967707
 Fe         7.6719022771        4.4049166738        4.8081345615
 Fe        -2.6023230242       13.2883624478        4.8146684855
 Fe        -0.0386850647        8.8927567717        4.8190582268
 Fe         2.4956513831        4.4182960957        4.7840910256
  O         5.8681916553       10.3881497492        5.7596483022
  O         8.4281070754        5.9423035626        5.7358032437
  O        10.9900974586        1.5028014753        5.7411860835
  O         0.7376127772       10.4230464771        5.7320173983
  O         3.2450297547        5.9522449323        5.7021837860
  O         5.8651226818        1.4878985129        5.7307728032
  O        -4.3945553085       10.3888600865        5.7338702229
  O        -1.7490860798        5.9721027956        5.6975890640
  O         0.7334377897        1.5117773413        5.7333229839
  O         5.9483095214       13.1932059887        5.7275723098
  O         8.5061887790        8.7510043653        5.7456662433
  O        11.0868555665        4.3263346475        5.7441716337
  O         0.8243633621       13.2168907197        5.7319326929
  O         3.3816102435        8.7603338328        5.7610040065
  O         5.9673741852        4.2563139346        5.7183111945
  O        -4.3123773692       13.2058343544        5.7291498320
  O        -1.7462941210        8.7714733927        5.7334384825
  O         0.7630540730        4.3402485260        5.5917485287
  O         3.4728670643       11.8688320137        5.7353608697
  O         5.9978963163        7.3765646945        5.8024680030
  O         8.6163588202        2.9854765920        5.7336996894
  O        -1.6554804325       11.8762031489        5.7464419559
  O         0.9319936682        7.4624947416        5.6668129292
  O         3.4507332397        3.0091551456        5.7485284282
  O        -6.7817824351       11.8718707936        5.7396015441
  O        -4.2111227720        7.4280600561        5.7430488346
  O        -1.6639926659        2.9797436013        5.7497805353
 Fe         7.6651123813       10.3416024208        5.9734268923
 Fe        10.2252518683        5.9011984190        5.9728685048
 Fe        12.7845868010        1.4496887861        5.9732051273
 Fe         2.5302184695       10.3419805047        5.9707999116
 Fe         5.0478561809        5.8078965623        5.8351601249
 Fe         7.6590209600        1.4704724059        5.9806290145
 Fe        -2.5994654956       10.3494111330        5.9773543309
 Fe         0.0257838930        5.9545560138        6.1384508665
 Fe         2.5261386127        1.4641662529        5.9717429237
  C         6.8915855678        6.4188182498       10.0152138164
  C         5.3713775572        6.3014251249        9.8276869241
  H         7.2652735642        7.0788933119        9.2180746317
  O         7.2948105267        6.9873954105       11.2610490418
  H         7.3569009221        5.4266781224        9.8597675264
  C         4.7643749722        5.1378598758       10.6500544038
  C         3.2365297210        5.0629825102       10.7935664034
  O         5.2935677890        5.1966111231       12.0144850692
  H         5.1359511928        4.1711096488       10.2697021601
  C         2.4613945186        4.8431231766        9.4954579452
  H         2.8950080144        5.9977414880       11.2910474946
  O         2.9256344270        3.9563974769       11.6580770960
  C         1.9357495240        6.1289036589        8.8816020179
  O         1.2582143918        4.0888951154        9.7693835132
  H         3.0889072482        4.3267527101        8.7478100819
  H         1.4565424669        6.7528951555        9.6686079200
  O         0.8965918012        5.7011210576        7.9562522062
  H         2.7076651334        6.7085537435        8.3296904858
  H         7.1237372461        6.3096587153       11.9393695777
  H         4.9506993518        6.0225412633       12.4146617174
  H         3.6242527455        3.9068186274       12.3399791706
  H         1.4476411837        3.4273813404       10.4562078673
  H         0.6442201329        4.7818969560        8.2801398969
  O         5.1076892726        6.1428607750        8.4114677939
  H         4.9017226494        7.2383670087       10.1945264796
  H         5.5273400498        6.9005713018        7.9504537398
     161
 i =        6, E =     -8104.5196297998
 Fe         5.0938794100       11.8196869300        0.3885799900
 Fe         7.6575796300        7.3792284900        0.3885799900
 Fe        10.2212798400        2.9387700600        0.3885799900
 Fe        -0.0335205200       11.8196869300        0.3885799900
 Fe         2.5301797000        7.3792284900        0.3885799900
 Fe         5.0938799200        2.9387700600        0.3885799900
 Fe        -5.1609204400       11.8196869300        0.3885799900
 Fe        -2.5972202200        7.3792284900        0.3885799900
 Fe        -0.0335200000        2.9387700600        0.3885799900
  O         8.4519195100        8.9577468800        1.1642700400
  O        11.0156197300        4.5172884400        1.1642700400
  O        13.5793199500        0.0768300000        1.1642700400
  O         3.3245195900        8.9577468800        1.1642700400
  O         5.8882198100        4.5172884400        1.1642700400
  O         8.4519200300        0.0768300000        1.1642700400
  O        -1.8028803300        8.9577468800        1.1642700400
  O         0.7608198900        4.5172884400        1.1642700400
  O         3.3245201100        0.0768300000        1.1642700400
  O         8.4568493000       11.7183869300        1.1650400200
  O        11.0205495200        7.2779284900        1.1650400200
  O        13.5842497300        2.8374700500        1.1650400200
  O         3.3294493700       11.7183869300        1.1650400200
  O         5.8931495900        7.2779284900        1.1650400200
  O         8.4568498100        2.8374700500        1.1650400200
  O        -1.7979505500       11.7183869300        1.1650400200
  O         0.7657496700        7.2779284900        1.1650400200
  O         3.3294498900        2.8374700500        1.1650400200
  O         6.0627194200       10.3425368500        1.1660399400
  O         8.6264196400        5.9020784100        1.1660399400
  O        11.1901198600        1.4616199700        1.1660399400
  O         0.9353195000       10.3425368500        1.1660399400
  O         3.4990197200        5.9020784100        1.1660399400
  O         6.0627199400        1.4616199700        1.1660399400
  O        -4.1920804200       10.3425368500        1.1660399400
  O        -1.6283802000        5.9020784100        1.1660399400
  O         0.9353200200        1.4616199700        1.1660399400
 Fe         7.6576695000       13.2997167500        1.9292099500
 Fe        10.2213697200        8.8592583200        1.9292099500
 Fe        12.7850699400        4.4187998800        1.9292099500
 Fe         2.5302695800       13.2997167500        1.9292099500
 Fe         5.0939698000        8.8592583200        1.9292099500
 Fe         7.6576700200        4.4187998800        1.9292099500
 Fe        -2.5971303400       13.2997167500        1.9292099500
 Fe        -0.0334301200        8.8592583200        1.9292099500
 Fe         2.5302701000        4.4187998800        1.9292099500
 Fe         7.6573893600       10.3392168700        2.7128999200
 Fe        10.2210895800        5.8987584300        2.7128999200
 Fe        12.7847898000        1.4582999900        2.7128999200
 Fe         2.5299894400       10.3392168700        2.7128999200
 Fe         5.0936896600        5.8987584300        2.7128999200
 Fe         7.6573898800        1.4582999900        2.7128999200
 Fe        -2.5974104800       10.3392168700        2.7128999200
 Fe        -0.0337102600        5.8987584300        2.7128999200
 Fe         2.5299899600        1.4582999900        2.7128999200
  O         4.1401818523       13.2983145709        3.5047855479
  O         6.7016081905        8.8641478150        3.5356878695
  O         9.2526799266        4.4212078517        3.4949982881
  O        -0.9985854612       13.3074062850        3.5013440921
  O         1.5777493806        8.8891319843        3.4951019211
  O         4.1710071401        4.4396891841        3.5451006653
  O        -6.1212932714       13.2993805782        3.5005520801
  O        -3.5617754791        8.8625695858        3.5019098549
  O        -1.0432719953        4.4127482846        3.4491377610
  O         6.8625688489       11.9003711945        3.5099089435
  O         9.4192673708        7.4644994684        3.5113586992
  O        11.9911630709        3.0174630304        3.5214278840
  O         1.7386767946       11.9221274455        3.5016452539
  O         4.3122277504        7.4729002696        3.5192905896
  O         6.8737202713        3.0279075918        3.4882161461
  O        -3.3958358042       11.9092269257        3.5045490181
  O        -0.8310491458        7.4923831353        3.4766649964
  O         1.7449063857        3.0169576329        3.4939727042
  O         9.4122567839       10.2377398522        3.5081099984
  O        11.9640804974        5.8147642988        3.5286492192
  O        14.5445615678        1.3545656981        3.5003332394
  O         4.2881528615       10.2280222140        3.5213148587
  O         6.8310121281        5.8119729270        3.5339510689
  O         9.4201109490        1.3672006824        3.5017796980
  O        -0.8437672925       10.2665747622        3.5146781339
  O         1.7441869301        5.8115128207        3.4477658133
  O         4.2889428417        1.3622858149        3.5072188010
 Fe         5.0970244285       11.8058278998        4.4928730654
 Fe         7.6544334746        7.3749323007        4.5006532973
 Fe        10.2463915561        2.9393657817        4.4912568138
 Fe        -0.0300356781       11.8424323239        4.4901829952
 Fe         2.5185882482        7.3887595022        4.4813603044
 Fe         5.1041727062        2.9155835052        4.4927604353
 Fe        -5.1638723055       11.8169771735        4.4895194279
 Fe        -2.5701727419        7.3724555383        4.4897058134
 Fe        -0.0531713827        2.9554423647        4.4775858821
 Fe         7.6611668896       13.3045117135        4.8140884215
 Fe        10.2267811340        8.8510724551        4.8208990265
 Fe        12.8165921927        4.4437637762        4.8542037112
 Fe         2.5390153234       13.3041797074        4.8106808739
 Fe         5.0975669481        8.8398140301        4.8675542293
 Fe         7.6713029369        4.4057908916        4.8098388259
 Fe        -2.6030257219       13.2883108014        4.8155681134
 Fe        -0.0390000491        8.8873503005        4.8176671505
 Fe         2.4940645173        4.4207969251        4.7953551734
  O         5.8651392701       10.3790222109        5.7630641679
  O         8.4318929334        5.9421062031        5.7324642443
  O        10.9928507063        1.5029579149        5.7413264156
  O         0.7383151117       10.4124266102        5.7323280248
  O         3.2440980161        5.9509475296        5.7192570245
  O         5.8659998315        1.4900982885        5.7302032281
  O        -4.3942244680       10.3884674604        5.7332630099
  O        -1.7456094138        5.9649716517        5.7047388486
  O         0.7318720826        1.5160925787        5.7324735601
  O         5.9490137301       13.1967853395        5.7274664175
  O         8.5044198672        8.7488571530        5.7469768928
  O        11.0916712313        4.3280126497        5.7464451443
  O         0.8240037417       13.2161013874        5.7268156990
  O         3.3815542516        8.7632552551        5.7614881933
  O         5.9662361009        4.2597769193        5.7262227440
  O        -4.3137375203       13.2063135730        5.7289089381
  O        -1.7395912955        8.7734897860        5.7360382746
  O         0.7631804700        4.3492886710        5.6059490914
  O         3.4729201201       11.8701264969        5.7350270521
  O         5.9913063860        7.3810031389        5.8033637924
  O         8.6151715034        2.9844082589        5.7336692391
  O        -1.6576668683       11.8747504771        5.7459383950
  O         0.9219750290        7.4539107719        5.6919048678
  O         3.4474901671        3.0051876634        5.7479059137
  O        -6.7834965594       11.8718806500        5.7387266185
  O        -4.2072000940        7.4278715151        5.7449632964
  O        -1.6608485029        2.9873973388        5.7530325497
 Fe         7.6640296135       10.3406636941        5.9744175752
 Fe        10.2269407748        5.9021008830        5.9758155721
 Fe        12.7868548607        1.4534662074        5.9762115276
 Fe         2.5311393480       10.3446868905        5.9747376401
 Fe         5.0493289085        5.8141709565        5.8553543123
 Fe         7.6601651100        1.4686302511        5.9843128751
 Fe        -2.6000658108       10.3477916379        5.9792607194
 Fe         0.0226539423        5.9461486992        6.1732933517
 Fe         2.5239171862        1.4630250440        5.9772972273
  C         6.8968121756        6.4179337147       10.0186743801
  C         5.3734255659        6.3198626456        9.8309792961
  H         7.2801489525        7.0848705997        9.2316642348
  O         7.3031001736        6.9943994437       11.2600594758
  H         7.3540104885        5.4252657301        9.8534473259
  C         4.7809776438        5.1396010534       10.6456875405
  C         3.2547835982        5.0630045671       10.8011967876
  O         5.3095125378        5.1965179407       12.0097348099
  H         5.1373368183        4.1765607905       10.2458334213
  C         2.4669850193        4.8551279169        9.5040635568
  H         2.9029939083        5.9987046413       11.2898083101
  O         2.9310406679        3.9507069409       11.6566894528
  C         1.9006204595        6.1241371307        8.8763899518
  O         1.2798905639        4.0695951533        9.7749604120
  H         3.0835524112        4.3196958827        8.7608248981
  H         1.4610312408        6.7616879449        9.6747187675
  O         0.8305203116        5.6841674334        7.9922683145
  H         2.6628599922        6.6724696998        8.2908204594
  H         7.1272481649        6.3087967581       11.9311210063
  H         4.9549219561        6.0212126423       12.4031475150
  H         3.6363569696        3.9103966722       12.3312968991
  H         1.4751393082        3.4114601580       10.4650849744
  H         0.6074470067        4.7768146879        8.3210561422
  O         5.0853199278        6.1851819901        8.4205018057
  H         4.9126511289        7.2545830111       10.2149092282
  H         5.5451067596        6.9253663806        7.9516015161
     161
 i =        7, E =     -8104.5231605310
 Fe         5.0938794100       11.8196869300        0.3885799900
 Fe         7.6575796300        7.3792284900        0.3885799900
 Fe        10.2212798400        2.9387700600        0.3885799900
 Fe        -0.0335205200       11.8196869300        0.3885799900
 Fe         2.5301797000        7.3792284900        0.3885799900
 Fe         5.0938799200        2.9387700600        0.3885799900
 Fe        -5.1609204400       11.8196869300        0.3885799900
 Fe        -2.5972202200        7.3792284900        0.3885799900
 Fe        -0.0335200000        2.9387700600        0.3885799900
  O         8.4519195100        8.9577468800        1.1642700400
  O        11.0156197300        4.5172884400        1.1642700400
  O        13.5793199500        0.0768300000        1.1642700400
  O         3.3245195900        8.9577468800        1.1642700400
  O         5.8882198100        4.5172884400        1.1642700400
  O         8.4519200300        0.0768300000        1.1642700400
  O        -1.8028803300        8.9577468800        1.1642700400
  O         0.7608198900        4.5172884400        1.1642700400
  O         3.3245201100        0.0768300000        1.1642700400
  O         8.4568493000       11.7183869300        1.1650400200
  O        11.0205495200        7.2779284900        1.1650400200
  O        13.5842497300        2.8374700500        1.1650400200
  O         3.3294493700       11.7183869300        1.1650400200
  O         5.8931495900        7.2779284900        1.1650400200
  O         8.4568498100        2.8374700500        1.1650400200
  O        -1.7979505500       11.7183869300        1.1650400200
  O         0.7657496700        7.2779284900        1.1650400200
  O         3.3294498900        2.8374700500        1.1650400200
  O         6.0627194200       10.3425368500        1.1660399400
  O         8.6264196400        5.9020784100        1.1660399400
  O        11.1901198600        1.4616199700        1.1660399400
  O         0.9353195000       10.3425368500        1.1660399400
  O         3.4990197200        5.9020784100        1.1660399400
  O         6.0627199400        1.4616199700        1.1660399400
  O        -4.1920804200       10.3425368500        1.1660399400
  O        -1.6283802000        5.9020784100        1.1660399400
  O         0.9353200200        1.4616199700        1.1660399400
 Fe         7.6576695000       13.2997167500        1.9292099500
 Fe        10.2213697200        8.8592583200        1.9292099500
 Fe        12.7850699400        4.4187998800        1.9292099500
 Fe         2.5302695800       13.2997167500        1.9292099500
 Fe         5.0939698000        8.8592583200        1.9292099500
 Fe         7.6576700200        4.4187998800        1.9292099500
 Fe        -2.5971303400       13.2997167500        1.9292099500
 Fe        -0.0334301200        8.8592583200        1.9292099500
 Fe         2.5302701000        4.4187998800        1.9292099500
 Fe         7.6573893600       10.3392168700        2.7128999200
 Fe        10.2210895800        5.8987584300        2.7128999200
 Fe        12.7847898000        1.4582999900        2.7128999200
 Fe         2.5299894400       10.3392168700        2.7128999200
 Fe         5.0936896600        5.8987584300        2.7128999200
 Fe         7.6573898800        1.4582999900        2.7128999200
 Fe        -2.5974104800       10.3392168700        2.7128999200
 Fe        -0.0337102600        5.8987584300        2.7128999200
 Fe         2.5299899600        1.4582999900        2.7128999200
  O         4.1436820604       13.2987196407        3.5048587428
  O         6.7069585210        8.8633161279        3.5341050698
  O         9.2526853975        4.4244375835        3.4943970650
  O        -0.9986904549       13.2998216498        3.4941194394
  O         1.5805648443        8.8763618063        3.5073826294
  O         4.1640963603        4.4416907179        3.5434692439
  O        -6.1219211564       13.2991163063        3.4988649174
  O        -3.5599518406        8.8603066855        3.5018782335
  O        -1.0450985538        4.4092161348        3.4460698034
  O         6.8630063968       11.8982033936        3.5109691373
  O         9.4175110758        7.4654866394        3.5089811120
  O        11.9817598195        3.0151166919        3.5171226959
  O         1.7378734095       11.9222501281        3.5008772801
  O         4.3003878237        7.4619239219        3.5220332141
  O         6.8696506886        3.0272478509        3.4934837048
  O        -3.3958454055       11.9110872786        3.5029140751
  O        -0.8242559901        7.4993409391        3.4682695004
  O         1.7456350975        3.0278962955        3.4890694253
  O         9.4141366369       10.2350286251        3.5080081633
  O        11.9652037128        5.8193408649        3.5240382664
  O        14.5454773184        1.3595279263        3.5005961370
  O         4.2889838692       10.2359688744        3.5167306178
  O         6.8369559274        5.8128416804        3.5263973260
  O         9.4235593516        1.3677147975        3.4975984641
  O        -0.8488148959       10.2629817952        3.5147375898
  O         1.7525587819        5.8061971949        3.4447852801
  O         4.2911695302        1.3644862729        3.5035267446
 Fe         5.0993848352       11.8044597047        4.4969326651
 Fe         7.6528330791        7.3736468930        4.5010179059
 Fe        10.2455080282        2.9397887705        4.4932222255
 Fe        -0.0314802634       11.8350393910        4.4924183516
 Fe         2.5135917710        7.3774158352        4.4982004175
 Fe         5.0993047163        2.9216483011        4.4957395921
 Fe        -5.1662270066       11.8165492409        4.4926036013
 Fe        -2.5594940164        7.3669913873        4.4939698006
 Fe        -0.0483961555        2.9628579220        4.4822613194
 Fe         7.6608959975       13.3088363753        4.8124139007
 Fe        10.2288826499        8.8456245279        4.8241289649
 Fe        12.8171109781        4.4480194739        4.8512201273
 Fe         2.5418108461       13.3056416701        4.8066773089
 Fe         5.0924454294        8.8322696192        4.8566655143
 Fe         7.6725114723        4.4074450099        4.8110218630
 Fe        -2.6029260481       13.2887081854        4.8162033873
 Fe        -0.0390965856        8.8786044065        4.8090256529
 Fe         2.4927966435        4.4211482781        4.8055565925
  O         5.8596646882       10.3670035612        5.7657632067
  O         8.4349046489        5.9425226871        5.7315902445
  O        10.9963244874        1.5042131127        5.7406034812
  O         0.7376434980       10.3968779826        5.7324460243
  O         3.2393201160        5.9465012744        5.7433887908
  O         5.8656402496        1.4963211215        5.7291932518
  O        -4.3939959544       10.3878783085        5.7323165746
  O        -1.7424925825        5.9581593925        5.7161921775
  O         0.7289519828        1.5211752001        5.7327631919
  O         5.9503376155       13.2014625818        5.7288725162
  O         8.5038000539        8.7463148471        5.7519480679
  O        11.0958974093        4.3297672047        5.7469019318
  O         0.8242680813       13.2125780551        5.7212962848
  O         3.3806639899        8.7628070494        5.7651859392
  O         5.9696967444        4.2623940209        5.7365814191
  O        -4.3142260307       13.2068329197        5.7291802574
  O        -1.7303991229        8.7729476598        5.7371767445
  O         0.7619757467        4.3644515360        5.6223215652
  O         3.4730978407       11.8713096112        5.7364388274
  O         5.9855086567        7.3888987654        5.8110084359
  O         8.6130518068        2.9831335531        5.7364553502
  O        -1.6612003444       11.8715170376        5.7460872103
  O         0.9097644232        7.4498385007        5.7146901368
  O         3.4438901525        3.0004702541        5.7508628021
  O        -6.7871793392       11.8716103825        5.7375122315
  O        -4.2006811831        7.4274631141        5.7503982817
  O        -1.6535621208        2.9959508346        5.7556825228
 Fe         7.6613908939       10.3386854872        5.9758147040
 Fe        10.2288841969        5.9038187222        5.9810188686
 Fe        12.7898591883        1.4590550429        5.9819175558
 Fe         2.5311043463       10.3465385103        5.9806301168
 Fe         5.0497349700        5.8185270487        5.8606952438
 Fe         7.6610704008        1.4643299102        5.9853003042
 Fe        -2.6005092177       10.3425059505        5.9835519488
 Fe         0.0223229067        5.9427499939        6.2061443658
 Fe         2.5210435621        1.4618017161        5.9824910797
  C         6.9109576332        6.4264474630       10.0130741756
  C         5.3809229322        6.3479098726        9.8426419913
  H         7.3069136145        7.0969091079        9.2356719202
  O         7.3132499201        6.9958576439       11.2598128299
  H         7.3496722237        5.4270133648        9.8449571911
  C         4.7916153127        5.1480875657       10.6338821375
  C         3.2665327958        5.0762821374       10.8020693942
  O         5.3279183750        5.1912511248       11.9942787032
  H         5.1492234582        4.1944872380       10.2116296634
  C         2.4616270067        4.8369293692        9.5095112095
  H         2.9170157972        6.0098682712       11.2955318568
  O         2.9544871158        3.9536985435       11.6531690997
  C         1.8565400493        6.1015428603        8.8826921400
  O         1.2857083370        4.0340502463        9.7816912841
  H         3.0863953716        4.3145924574        8.7626130713
  H         1.4711913546        6.7787969067        9.6710078413
  O         0.7074633999        5.6691395415        8.0784872657
  H         2.5790831674        6.6258881723        8.2298431718
  H         7.1340884447        6.3066596125       11.9273026909
  H         4.9687956641        6.0144128186       12.3871258357
  H         3.6628307579        3.9103831343       12.3237388497
  H         1.5346659837        3.3941505142       10.4766499359
  H         0.5595081329        4.7413954249        8.4119240591
  O         5.0587584305        6.2551103850        8.4384548303
  H         4.9327813341        7.2792892057       10.2470239972
  H         5.5682170712        6.9731435725        7.9643431523
     161
 i =        8, E =     -8104.5261212326
 Fe         5.0938794100       11.8196869300        0.3885799900
 Fe         7.6575796300        7.3792284900        0.3885799900
 Fe        10.2212798400        2.9387700600        0.3885799900
 Fe        -0.0335205200       11.8196869300        0.3885799900
 Fe         2.5301797000        7.3792284900        0.3885799900
 Fe         5.0938799200        2.9387700600        0.3885799900
 Fe        -5.1609204400       11.8196869300        0.3885799900
 Fe        -2.5972202200        7.3792284900        0.3885799900
 Fe        -0.0335200000        2.9387700600        0.3885799900
  O         8.4519195100        8.9577468800        1.1642700400
  O        11.0156197300        4.5172884400        1.1642700400
  O        13.5793199500        0.0768300000        1.1642700400
  O         3.3245195900        8.9577468800        1.1642700400
  O         5.8882198100        4.5172884400        1.1642700400
  O         8.4519200300        0.0768300000        1.1642700400
  O        -1.8028803300        8.9577468800        1.1642700400
  O         0.7608198900        4.5172884400        1.1642700400
  O         3.3245201100        0.0768300000        1.1642700400
  O         8.4568493000       11.7183869300        1.1650400200
  O        11.0205495200        7.2779284900        1.1650400200
  O        13.5842497300        2.8374700500        1.1650400200
  O         3.3294493700       11.7183869300        1.1650400200
  O         5.8931495900        7.2779284900        1.1650400200
  O         8.4568498100        2.8374700500        1.1650400200
  O        -1.7979505500       11.7183869300        1.1650400200
  O         0.7657496700        7.2779284900        1.1650400200
  O         3.3294498900        2.8374700500        1.1650400200
  O         6.0627194200       10.3425368500        1.1660399400
  O         8.6264196400        5.9020784100        1.1660399400
  O        11.1901198600        1.4616199700        1.1660399400
  O         0.9353195000       10.3425368500        1.1660399400
  O         3.4990197200        5.9020784100        1.1660399400
  O         6.0627199400        1.4616199700        1.1660399400
  O        -4.1920804200       10.3425368500        1.1660399400
  O        -1.6283802000        5.9020784100        1.1660399400
  O         0.9353200200        1.4616199700        1.1660399400
 Fe         7.6576695000       13.2997167500        1.9292099500
 Fe        10.2213697200        8.8592583200        1.9292099500
 Fe        12.7850699400        4.4187998800        1.9292099500
 Fe         2.5302695800       13.2997167500        1.9292099500
 Fe         5.0939698000        8.8592583200        1.9292099500
 Fe         7.6576700200        4.4187998800        1.9292099500
 Fe        -2.5971303400       13.2997167500        1.9292099500
 Fe        -0.0334301200        8.8592583200        1.9292099500
 Fe         2.5302701000        4.4187998800        1.9292099500
 Fe         7.6573893600       10.3392168700        2.7128999200
 Fe        10.2210895800        5.8987584300        2.7128999200
 Fe        12.7847898000        1.4582999900        2.7128999200
 Fe         2.5299894400       10.3392168700        2.7128999200
 Fe         5.0936896600        5.8987584300        2.7128999200
 Fe         7.6573898800        1.4582999900        2.7128999200
 Fe        -2.5974104800       10.3392168700        2.7128999200
 Fe        -0.0337102600        5.8987584300        2.7128999200
 Fe         2.5299899600        1.4582999900        2.7128999200
  O         4.1457961118       13.3009365007        3.5054805703
  O         6.7038837022        8.8606240624        3.5288308681
  O         9.2539522362        4.4278019102        3.4962139850
  O        -0.9970802129       13.2970675726        3.4925511580
  O         1.5824732672        8.8675593889        3.5168974695
  O         4.1640926423        4.4437505024        3.5486699537
  O        -6.1233525923       13.3009714909        3.4982937395
  O        -3.5597827893        8.8618467375        3.5019407217
  O        -1.0420689234        4.4108464179        3.4523094085
  O         6.8631001496       11.8974351334        3.5114265748
  O         9.4198358096        7.4672909011        3.5067798173
  O        11.9770334585        3.0157586810        3.5128232648
  O         1.7377161671       11.9171830402        3.5028965372
  O         4.2985884624        7.4533781265        3.5308522623
  O         6.8654916021        3.0280907205        3.4981117913
  O        -3.3962950837       11.9107417449        3.5031867574
  O        -0.8201272897        7.4985377654        3.4693055910
  O         1.7421855829        3.0284950452        3.4975710666
  O         9.4149316444       10.2322551167        3.5077881426
  O        11.9682319612        5.8176451894        3.5199977729
  O        14.5457977277        1.3635218957        3.4993921785
  O         4.2918494795       10.2378498126        3.5110373356
  O         6.8411924796        5.8139148106        3.5233874316
  O         9.4232031488        1.3672170304        3.4980524384
  O        -0.8523621278       10.2596587504        3.5133069457
  O         1.7457141655        5.8037826429        3.4629294265
  O         4.2898311411        1.3669195045        3.5027427370
 Fe         5.0996300359       11.8040115691        4.4959299611
 Fe         7.6557116308        7.3753407143        4.4983433668
 Fe        10.2443191932        2.9395668676        4.4913758528
 Fe        -0.0331275421       11.8271339331        4.4923387139
 Fe         2.5092086448        7.3699504297        4.5017256564
 Fe         5.0965689265        2.9250682891        4.4977921131
 Fe        -5.1687383141       11.8148811086        4.4933036752
 Fe        -2.5588408697        7.3638093050        4.4942439908
 Fe        -0.0476392333        2.9664209415        4.4857421198
 Fe         7.6597747160       13.3137043911        4.8104346787
 Fe        10.2311811726        8.8422657119        4.8272203947
 Fe        12.8164827342        4.4492068663        4.8511386869
 Fe         2.5436205079       13.3052175697        4.8043276321
 Fe         5.0869747398        8.8275709817        4.8560454070
 Fe         7.6734929974        4.4092412140        4.8137268318
 Fe        -2.6028880701       13.2891613968        4.8158466350
 Fe        -0.0363582253        8.8689082553        4.7985291136
 Fe         2.4948453653        4.4207072219        4.8123259047
  O         5.8570138979       10.3626230363        5.7641606788
  O         8.4356298997        5.9439055933        5.7326404713
  O        10.9989073320        1.5056508125        5.7377323997
  O         0.7365645458       10.3846101935        5.7310458507
  O         3.2377169705        5.9436541168        5.7570464406
  O         5.8650167307        1.4997710012        5.7288939067
  O        -4.3920710607       10.3873279088        5.7316898133
  O        -1.7439878813        5.9554679924        5.7220438718
  O         0.7278088754        1.5261104038        5.7314307577
  O         5.9517156365       13.2041854507        5.7301869399
  O         8.5059006400        8.7458814997        5.7556098722
  O        11.0960889059        4.3304560430        5.7435635355
  O         0.8236584583       13.2079113400        5.7177024921
  O         3.3749024871        8.7572977056        5.7664729257
  O         5.9707917444        4.2712478588        5.7404730879
  O        -4.3143052026       13.2070588563        5.7279278515
  O        -1.7239179065        8.7693628327        5.7336393380
  O         0.7637713083        4.3741807116        5.6337742530
  O         3.4729360922       11.8708485432        5.7373859796
  O         5.9877829987        7.3933121897        5.8138735100
  O         8.6116317672        2.9820095432        5.7383127757
  O        -1.6628331613       11.8698143286        5.7444240588
  O         0.8990887656        7.4436409457        5.7224614762
  O         3.4431432211        2.9972028161        5.7507661566
  O        -6.7915797330       11.8711986459        5.7336465163
  O        -4.1987129424        7.4275433772        5.7544282981
  O        -1.6475349515        2.9994733065        5.7552464128
 Fe         7.6592692085       10.3365753887        5.9760396788
 Fe        10.2299116106        5.9047366267        5.9834964517
 Fe        12.7919912774        1.4625237082        5.9834558698
 Fe         2.5298732045       10.3457836199        5.9829729181
 Fe         5.0491529003        5.8253189150        5.8713513800
 Fe         7.6613171972        1.4602886385        5.9820754930
 Fe        -2.5978904402       10.3373113295        5.9817249831
 Fe         0.0204864327        5.9369919710        6.2290350136
 Fe         2.5201596752        1.4616203033        5.9825869011
  C         6.9215141880        6.4415822951       10.0083597610
  C         5.3882139973        6.3793955717        9.8427598866
  H         7.3310900459        7.1056948934        9.2324649033
  O         7.3327430744        6.9920020532       11.2617200362
  H         7.3475557186        5.4368200484        9.8369565919
  C         4.7963875045        5.1723297772       10.6142873077
  C         3.2728691202        5.0781725873       10.7944436528
  O         5.3348679344        5.1825748943       11.9731046729
  H         5.1597529441        4.2252570311       10.1790176298
  C         2.4516597932        4.8318960407        9.5013641187
  H         2.9295514092        6.0136041598       11.2892909062
  O         2.9766223178        3.9563108802       11.6547491010
  C         1.8154002940        6.0942781223        8.8818709365
  O         1.3115941324        3.9883732493        9.8032315320
  H         3.0832927121        4.3084577478        8.7608409291
  H         1.4761648892        6.7902818942        9.6659041033
  O         0.6007520097        5.6554766188        8.1589262625
  H         2.5053054639        6.5860006407        8.1758829247
  H         7.1417880609        6.3037192505       11.9264450438
  H         4.9916547430        6.0049627950       12.3788172733
  H         3.6968043340        3.9142070318       12.3131681491
  H         1.5896536504        3.3610832743       10.5019511064
  H         0.4893293169        4.7307031687        8.4853527832
  O         5.0450974803        6.3054663529        8.4497429989
  H         4.9579487255        7.3049127057       10.2846314793
  H         5.5654580675        7.0149177232        7.9800351113
     161
 i =        9, E =     -8104.5287734658
 Fe         5.0938794100       11.8196869300        0.3885799900
 Fe         7.6575796300        7.3792284900        0.3885799900
 Fe        10.2212798400        2.9387700600        0.3885799900
 Fe        -0.0335205200       11.8196869300        0.3885799900
 Fe         2.5301797000        7.3792284900        0.3885799900
 Fe         5.0938799200        2.9387700600        0.3885799900
 Fe        -5.1609204400       11.8196869300        0.3885799900
 Fe        -2.5972202200        7.3792284900        0.3885799900
 Fe        -0.0335200000        2.9387700600        0.3885799900
  O         8.4519195100        8.9577468800        1.1642700400
  O        11.0156197300        4.5172884400        1.1642700400
  O        13.5793199500        0.0768300000        1.1642700400
  O         3.3245195900        8.9577468800        1.1642700400
  O         5.8882198100        4.5172884400        1.1642700400
  O         8.4519200300        0.0768300000        1.1642700400
  O        -1.8028803300        8.9577468800        1.1642700400
  O         0.7608198900        4.5172884400        1.1642700400
  O         3.3245201100        0.0768300000        1.1642700400
  O         8.4568493000       11.7183869300        1.1650400200
  O        11.0205495200        7.2779284900        1.1650400200
  O        13.5842497300        2.8374700500        1.1650400200
  O         3.3294493700       11.7183869300        1.1650400200
  O         5.8931495900        7.2779284900        1.1650400200
  O         8.4568498100        2.8374700500        1.1650400200
  O        -1.7979505500       11.7183869300        1.1650400200
  O         0.7657496700        7.2779284900        1.1650400200
  O         3.3294498900        2.8374700500        1.1650400200
  O         6.0627194200       10.3425368500        1.1660399400
  O         8.6264196400        5.9020784100        1.1660399400
  O        11.1901198600        1.4616199700        1.1660399400
  O         0.9353195000       10.3425368500        1.1660399400
  O         3.4990197200        5.9020784100        1.1660399400
  O         6.0627199400        1.4616199700        1.1660399400
  O        -4.1920804200       10.3425368500        1.1660399400
  O        -1.6283802000        5.9020784100        1.1660399400
  O         0.9353200200        1.4616199700        1.1660399400
 Fe         7.6576695000       13.2997167500        1.9292099500
 Fe        10.2213697200        8.8592583200        1.9292099500
 Fe        12.7850699400        4.4187998800        1.9292099500
 Fe         2.5302695800       13.2997167500        1.9292099500
 Fe         5.0939698000        8.8592583200        1.9292099500
 Fe         7.6576700200        4.4187998800        1.9292099500
 Fe        -2.5971303400       13.2997167500        1.9292099500
 Fe        -0.0334301200        8.8592583200        1.9292099500
 Fe         2.5302701000        4.4187998800        1.9292099500
 Fe         7.6573893600       10.3392168700        2.7128999200
 Fe        10.2210895800        5.8987584300        2.7128999200
 Fe        12.7847898000        1.4582999900        2.7128999200
 Fe         2.5299894400       10.3392168700        2.7128999200
 Fe         5.0936896600        5.8987584300        2.7128999200
 Fe         7.6573898800        1.4582999900        2.7128999200
 Fe        -2.5974104800       10.3392168700        2.7128999200
 Fe        -0.0337102600        5.8987584300        2.7128999200
 Fe         2.5299899600        1.4582999900        2.7128999200
  O         4.1429925292       13.3020103911        3.5025758543
  O         6.6959285431        8.8564947412        3.5190055088
  O         9.2559681570        4.4288770927        3.4990091927
  O        -0.9957274710       13.2994291716        3.4947258693
  O         1.5820220490        8.8623877372        3.5209942815
  O         4.1549463897        4.4398588967        3.5400763358
  O        -6.1255058040       13.3036486231        3.4975819069
  O        -3.5605299770        8.8645105328        3.5018014197
  O        -1.0316237143        4.4149819098        3.4650640707
  O         6.8612107104       11.8995163297        3.5087684640
  O         9.4249946636        7.4697783345        3.5068264321
  O        11.9782981127        3.0195256337        3.5086692417
  O         1.7382320720       11.9096713240        3.5025818494
  O         4.3008962710        7.4477549868        3.5401314043
  O         6.8630410153        3.0314481236        3.5004847046
  O        -3.3974356479       11.9107025994        3.5012038234
  O        -0.8218297439        7.4909530063        3.4777665064
  O         1.7373202123        3.0338294480        3.4972117534
  O         9.4138034687       10.2309089975        3.5076445994
  O        11.9737839732        5.8118061890        3.5152916503
  O        14.5449271994        1.3659278475        3.4974669478
  O         4.2945942899       10.2347587137        3.5044379809
  O         6.8458628288        5.8139234266        3.5206628963
  O         9.4214316024        1.3645591288        3.4991889543
  O        -0.8522842057       10.2562916569        3.5122970789
  O         1.7413781552        5.7974806533        3.4741547335
  O         4.2870096415        1.3684772333        3.5021245184
 Fe         5.0977371675       11.8050505243        4.4906568733
 Fe         7.6597426062        7.3782873507        4.4945271923
 Fe        10.2411832623        2.9382854527        4.4873672503
 Fe        -0.0334459777       11.8207573010        4.4904175587
 Fe         2.5031745449        7.3618638667        4.4925285709
 Fe         5.0941050499        2.9301955633        4.4934362118
 Fe        -5.1695323313       11.8123498296        4.4911232323
 Fe        -2.5679995820        7.3630986439        4.4935085179
 Fe        -0.0440209677        2.9648732038        4.4832481517
 Fe         7.6579019266       13.3171758231        4.8089260267
 Fe        10.2328788276        8.8439068768        4.8312970099
 Fe        12.8134887604        4.4463669997        4.8504513971
 Fe         2.5426607126       13.3020498640        4.8054065145
 Fe         5.0833474478        8.8269329358        4.8570760254
 Fe         7.6723250931        4.4126403702        4.8190404244
 Fe        -2.6024136604       13.2899096867        4.8151830860
 Fe        -0.0315614208        8.8575782526        4.7968174944
 Fe         2.5002045959        4.4193878468        4.8154059359
  O         5.8570491045       10.3654354767        5.7565094756
  O         8.4340288916        5.9468663939        5.7358497783
  O        10.9996385194        1.5064714430        5.7329455521
  O         0.7356181213       10.3809173988        5.7292811039
  O         3.2450295197        5.9408344434        5.7611489081
  O         5.8635469251        1.5025317236        5.7283585015
  O        -4.3893025266       10.3880717982        5.7326079670
  O        -1.7561598448        5.9546901674        5.7255328173
  O         0.7284690602        1.5283979898        5.7292299366
  O         5.9525631805       13.2048234626        5.7309616089
  O         8.5091793505        8.7489988232        5.7545123528
  O        11.0914490960        4.3290884265        5.7367993272
  O         0.8224615623       13.2026797237        5.7199786784
  O         3.3694050955        8.7473263645        5.7616811071
  O         5.9680340243        4.2860783592        5.7370060365
  O        -4.3136083291       13.2063289219        5.7258148810
  O        -1.7263958230        8.7623638674        5.7276119993
  O         0.7708971919        4.3685055466        5.6470297081
  O         3.4722913909       11.8676830803        5.7370407415
  O         5.9969125956        7.3972875955        5.8119291237
  O         8.6088937396        2.9817105860        5.7386890771
  O        -1.6624199924       11.8673365472        5.7395987705
  O         0.8928192948        7.4362574638        5.7136546512
  O         3.4489325617        2.9947424049        5.7494249686
  O        -6.7947398704       11.8704011996        5.7270926495
  O        -4.2036751203        7.4276064599        5.7533530827
  O        -1.6436125618        2.9960795390        5.7481289741
 Fe         7.6573928687       10.3358731974        5.9749553109
 Fe        10.2294452473        5.9036851642        5.9828709236
 Fe        12.7921789362        1.4632509156        5.9813551014
 Fe         2.5278258530       10.3407192290        5.9786573894
 Fe         5.0513820830        5.8347052530        5.9021073602
 Fe         7.6600752886        1.4570199053        5.9784998702
 Fe        -2.5942103095       10.3317134067        5.9802706972
 Fe         0.0168181084        5.9264477508        6.2065593385
 Fe         2.5213941643        1.4616583174        5.9802217822
  C         6.9292831593        6.4528203790       10.0067382366
  C         5.3922198844        6.4034414845        9.8505456174
  H         7.3461782641        7.1123829382        9.2291606908
  O         7.3549964421        6.9907066616       11.2614139361
  H         7.3490702383        5.4475967874        9.8240646961
  C         4.8022475674        5.1884148330       10.5988490502
  C         3.2762918608        5.0905313925       10.7759783137
  O         5.3383896182        5.1779783892       11.9572509648
  H         5.1735750384        4.2563608344       10.1373004181
  C         2.4332800698        4.8115709213        9.4910526022
  H         2.9230955967        6.0184033933       11.2758448232
  O         3.0069400283        3.9706129186       11.6493615528
  C         1.7786040748        6.0748776173        8.8813667189
  O         1.3286555991        3.9373310951        9.8125315578
  H         3.0736254059        4.3074910191        8.7430096919
  H         1.4797933999        6.7955266895        9.6516138978
  O         0.5347922379        5.6638628138        8.2131320234
  H         2.4336451837        6.5501038355        8.1445064326
  H         7.1507591642        6.2993686660       11.9185396386
  H         5.0197404210        5.9987568443       12.3846971389
  H         3.7396671342        3.9254471726       12.2956911238
  H         1.6434934147        3.3384865697       10.5245832594
  H         0.4159761411        4.7545750320        8.5245589142
  O         5.0456754545        6.3348539135        8.4657230466
  H         4.9830085815        7.3313483566       10.3020741647
  H         5.5304859839        7.0442849461        7.9938411160
     161
 i =       10, E =     -8104.5303380801
 Fe         5.0938794100       11.8196869300        0.3885799900
 Fe         7.6575796300        7.3792284900        0.3885799900
 Fe        10.2212798400        2.9387700600        0.3885799900
 Fe        -0.0335205200       11.8196869300        0.3885799900
 Fe         2.5301797000        7.3792284900        0.3885799900
 Fe         5.0938799200        2.9387700600        0.3885799900
 Fe        -5.1609204400       11.8196869300        0.3885799900
 Fe        -2.5972202200        7.3792284900        0.3885799900
 Fe        -0.0335200000        2.9387700600        0.3885799900
  O         8.4519195100        8.9577468800        1.1642700400
  O        11.0156197300        4.5172884400        1.1642700400
  O        13.5793199500        0.0768300000        1.1642700400
  O         3.3245195900        8.9577468800        1.1642700400
  O         5.8882198100        4.5172884400        1.1642700400
  O         8.4519200300        0.0768300000        1.1642700400
  O        -1.8028803300        8.9577468800        1.1642700400
  O         0.7608198900        4.5172884400        1.1642700400
  O         3.3245201100        0.0768300000        1.1642700400
  O         8.4568493000       11.7183869300        1.1650400200
  O        11.0205495200        7.2779284900        1.1650400200
  O        13.5842497300        2.8374700500        1.1650400200
  O         3.3294493700       11.7183869300        1.1650400200
  O         5.8931495900        7.2779284900        1.1650400200
  O         8.4568498100        2.8374700500        1.1650400200
  O        -1.7979505500       11.7183869300        1.1650400200
  O         0.7657496700        7.2779284900        1.1650400200
  O         3.3294498900        2.8374700500        1.1650400200
  O         6.0627194200       10.3425368500        1.1660399400
  O         8.6264196400        5.9020784100        1.1660399400
  O        11.1901198600        1.4616199700        1.1660399400
  O         0.9353195000       10.3425368500        1.1660399400
  O         3.4990197200        5.9020784100        1.1660399400
  O         6.0627199400        1.4616199700        1.1660399400
  O        -4.1920804200       10.3425368500        1.1660399400
  O        -1.6283802000        5.9020784100        1.1660399400
  O         0.9353200200        1.4616199700        1.1660399400
 Fe         7.6576695000       13.2997167500        1.9292099500
 Fe        10.2213697200        8.8592583200        1.9292099500
 Fe        12.7850699400        4.4187998800        1.9292099500
 Fe         2.5302695800       13.2997167500        1.9292099500
 Fe         5.0939698000        8.8592583200        1.9292099500
 Fe         7.6576700200        4.4187998800        1.9292099500
 Fe        -2.5971303400       13.2997167500        1.9292099500
 Fe        -0.0334301200        8.8592583200        1.9292099500
 Fe         2.5302701000        4.4187998800        1.9292099500
 Fe         7.6573893600       10.3392168700        2.7128999200
 Fe        10.2210895800        5.8987584300        2.7128999200
 Fe        12.7847898000        1.4582999900        2.7128999200
 Fe         2.5299894400       10.3392168700        2.7128999200
 Fe         5.0936896600        5.8987584300        2.7128999200
 Fe         7.6573898800        1.4582999900        2.7128999200
 Fe        -2.5974104800       10.3392168700        2.7128999200
 Fe        -0.0337102600        5.8987584300        2.7128999200
 Fe         2.5299899600        1.4582999900        2.7128999200
  O         4.1393865693       13.3002222591        3.4999288166
  O         6.6900460448        8.8537282298        3.5153497407
  O         9.2564883110        4.4268075553        3.5006652393
  O        -0.9961252765       13.3045296211        3.4983091594
  O         1.5778382216        8.8609271046        3.5148360358
  O         4.1507107155        4.4342878676        3.5323765998
  O        -6.1274523807       13.3059994909        3.4972927838
  O        -3.5616777571        8.8662339899        3.5030424660
  O        -1.0255014063        4.4165973461        3.4691347522
  O         6.8582385759       11.9013448849        3.5055443760
  O         9.4291403358        7.4705857148        3.5112907045
  O        11.9842757179        3.0211745678        3.5100819370
  O         1.7392655009       11.9041749364        3.5017311924
  O         4.3036808700        7.4465051394        3.5449544446
  O         6.8652525120        3.0351037852        3.4989846401
  O        -3.3986682688       11.9112890394        3.4984323027
  O        -0.8244246377        7.4890112999        3.4787095486
  O         1.7340260819        3.0344756913        3.4962343116
  O         9.4117380278       10.2305805001        3.5085608284
  O        11.9767894198        5.8077457194        3.5164252420
  O        14.5443162513        1.3661351193        3.4970348104
  O         4.2938678862       10.2269012891        3.5039550625
  O         6.8474938715        5.8132169975        3.5212151162
  O         9.4197381304        1.3617993656        3.5010680723
  O        -0.8435899348       10.2529209762        3.5076341780
  O         1.7421715854        5.7983367946        3.4746624097
  O         4.2842974995        1.3688799823        3.5025595059
 Fe         5.0962758458       11.8034506846        4.4861210873
 Fe         7.6607917115        7.3791972751        4.4932653089
 Fe        10.2416323164        2.9371748839        4.4852173864
 Fe        -0.0333634687       11.8189249831        4.4888081045
 Fe         2.4977487860        7.3604502138        4.4853584937
 Fe         5.0958119308        2.9314726498        4.4883191611
 Fe        -5.1693310526       11.8101899650        4.4879880269
 Fe        -2.5726939858        7.3639025327        4.4910839763
 Fe        -0.0428823866        2.9663485621        4.4814521475
 Fe         7.6565610006       13.3181841249        4.8068789705
 Fe        10.2339409375        8.8473145988        4.8368916069
 Fe        12.8138957207        4.4443753842        4.8523607759
 Fe         2.5411848825       13.2987324171        4.8066908076
 Fe         5.0829380945        8.8250533075        4.8619731548
 Fe         7.6694906863        4.4149173574        4.8243555535
 Fe        -2.6029702467       13.2891290179        4.8132553651
 Fe        -0.0249676670        8.8446213696        4.8072760903
 Fe         2.5029405719        4.4178640344        4.8113371368
  O         5.8581265992       10.3693451928        5.7516928084
  O         8.4321086442        5.9489091467        5.7397211195
  O        10.9992119326        1.5054205127        5.7301949868
  O         0.7346611558       10.3857624458        5.7286348371
  O         3.2469850608        5.9361398828        5.7634497458
  O         5.8622828437        1.5009526193        5.7281602791
  O        -4.3882838285       10.3904613568        5.7355273246
  O        -1.7656091734        5.9562669282        5.7235021726
  O         0.7302923353        1.5288539044        5.7262864827
  O         5.9525892438       13.2032514760        5.7298365615
  O         8.5093904020        8.7515433189        5.7521101346
  O        11.0884018127        4.3276353543        5.7337550949
  O         0.8220098942       13.2006031239        5.7246351637
  O         3.3693857589        8.7428017332        5.7599836138
  O         5.9623467469        4.2960993416        5.7334404117
  O        -4.3136134133       13.2051073258        5.7239205564
  O        -1.7346777103        8.7571721342        5.7250364907
  O         0.7795429688        4.3609819999        5.6549804524
  O         3.4719688343       11.8639134644        5.7346762908
  O         6.0013648674        7.3953686807        5.8153323294
  O         8.6079932984        2.9820258590        5.7380283948
  O        -1.6612150723       11.8667402857        5.7365292635
  O         0.8911466184        7.4155996814        5.7111534859
  O         3.4552719694        2.9955566114        5.7500912178
  O        -6.7946721714       11.8701331108        5.7222826415
  O        -4.2070336640        7.4265690952        5.7498225825
  O        -1.6447457376        2.9906082877        5.7440580708
 Fe         7.6565920982       10.3371300912        5.9725791277
 Fe        10.2286090989        5.9018507565        5.9798608080
 Fe        12.7913054811        1.4610427672        5.9772262577
 Fe         2.5257680658       10.3360679206        5.9720999640
 Fe         5.0485486446        5.8374230343        5.9460032353
 Fe         7.6586047504        1.4566513053        5.9765360994
 Fe        -2.5922366831       10.3299772185        5.9791759977
 Fe         0.0075504206        5.9098049120        6.2324419065
 Fe         2.5233953741        1.4617155584        5.9770388450
  C         6.9454311557        6.4630495114       10.0061375951
  C         5.4070048878        6.4331745956        9.8504090318
  H         7.3543371198        7.1248247980        9.2259854482
  O         7.3827119583        6.9894011096       11.2623237004
  H         7.3515223770        5.4545654110        9.8099239620
  C         4.8069392612        5.2162137564       10.5788342427
  C         3.2792335645        5.0972500780       10.7544797689
  O         5.3542626623        5.1728074809       11.9340738501
  H         5.1848364067        4.2961217202       10.0979012049
  C         2.4187636521        4.8006459154        9.4787635732
  H         2.9191640612        6.0200486173       11.2564254483
  O         3.0363242852        3.9859619989       11.6475378975
  C         1.7300560342        6.0591016049        8.8822836234
  O         1.3556164907        3.8880576880        9.8228459209
  H         3.0639589534        4.3206104817        8.7185922077
  H         1.5024244835        6.8066071038        9.6660571490
  O         0.4187509921        5.6624763393        8.3051415391
  H         2.3460449153        6.5047641827        8.0761718305
  H         7.1662971828        6.2929590101       11.9099884628
  H         5.0501047054        5.9882034019       12.3847644446
  H         3.7928652687        3.9397840465       12.2700984033
  H         1.6984702964        3.3158192025       10.5462289199
  H         0.3455134709        4.7182620217        8.5994469890
  O         5.0238351939        6.3971787983        8.4705250487
  H         5.0086612897        7.3533979460       10.3320424023
  H         5.5160122598        7.1101297842        8.0137888273
     161
 i =       11, E =     -8104.5321577801
 Fe         5.0938794100       11.8196869300        0.3885799900
 Fe         7.6575796300        7.3792284900        0.3885799900
 Fe        10.2212798400        2.9387700600        0.3885799900
 Fe        -0.0335205200       11.8196869300        0.3885799900
 Fe         2.5301797000        7.3792284900        0.3885799900
 Fe         5.0938799200        2.9387700600        0.3885799900
 Fe        -5.1609204400       11.8196869300        0.3885799900
 Fe        -2.5972202200        7.3792284900        0.3885799900
 Fe        -0.0335200000        2.9387700600        0.3885799900
  O         8.4519195100        8.9577468800        1.1642700400
  O        11.0156197300        4.5172884400        1.1642700400
  O        13.5793199500        0.0768300000        1.1642700400
  O         3.3245195900        8.9577468800        1.1642700400
  O         5.8882198100        4.5172884400        1.1642700400
  O         8.4519200300        0.0768300000        1.1642700400
  O        -1.8028803300        8.9577468800        1.1642700400
  O         0.7608198900        4.5172884400        1.1642700400
  O         3.3245201100        0.0768300000        1.1642700400
  O         8.4568493000       11.7183869300        1.1650400200
  O        11.0205495200        7.2779284900        1.1650400200
  O        13.5842497300        2.8374700500        1.1650400200
  O         3.3294493700       11.7183869300        1.1650400200
  O         5.8931495900        7.2779284900        1.1650400200
  O         8.4568498100        2.8374700500        1.1650400200
  O        -1.7979505500       11.7183869300        1.1650400200
  O         0.7657496700        7.2779284900        1.1650400200
  O         3.3294498900        2.8374700500        1.1650400200
  O         6.0627194200       10.3425368500        1.1660399400
  O         8.6264196400        5.9020784100        1.1660399400
  O        11.1901198600        1.4616199700        1.1660399400
  O         0.9353195000       10.3425368500        1.1660399400
  O         3.4990197200        5.9020784100        1.1660399400
  O         6.0627199400        1.4616199700        1.1660399400
  O        -4.1920804200       10.3425368500        1.1660399400
  O        -1.6283802000        5.9020784100        1.1660399400
  O         0.9353200200        1.4616199700        1.1660399400
 Fe         7.6576695000       13.2997167500        1.9292099500
 Fe        10.2213697200        8.8592583200        1.9292099500
 Fe        12.7850699400        4.4187998800        1.9292099500
 Fe         2.5302695800       13.2997167500        1.9292099500
 Fe         5.0939698000        8.8592583200        1.9292099500
 Fe         7.6576700200        4.4187998800        1.9292099500
 Fe        -2.5971303400       13.2997167500        1.9292099500
 Fe        -0.0334301200        8.8592583200        1.9292099500
 Fe         2.5302701000        4.4187998800        1.9292099500
 Fe         7.6573893600       10.3392168700        2.7128999200
 Fe        10.2210895800        5.8987584300        2.7128999200
 Fe        12.7847898000        1.4582999900        2.7128999200
 Fe         2.5299894400       10.3392168700        2.7128999200
 Fe         5.0936896600        5.8987584300        2.7128999200
 Fe         7.6573898800        1.4582999900        2.7128999200
 Fe        -2.5974104800       10.3392168700        2.7128999200
 Fe        -0.0337102600        5.8987584300        2.7128999200
 Fe         2.5299899600        1.4582999900        2.7128999200
  O         4.1358300168       13.2973597608        3.4989869175
  O         6.6897059532        8.8540157765        3.5151292157
  O         9.2577482956        4.4238198731        3.5018555550
  O        -0.9963743709       13.3080725965        3.5014886877
  O         1.5758213645        8.8626488380        3.5042655920
  O         4.1480585197        4.4258840091        3.5196753901
  O        -6.1270382048       13.3061578875        3.4976861061
  O        -3.5624654250        8.8659025667        3.5046430499
  O        -1.0193812326        4.4152436606        3.4691552781
  O         6.8557429383       11.9025197881        3.5037409377
  O         9.4289163035        7.4700090453        3.5146956779
  O        11.9908310154        3.0232483507        3.5119065025
  O         1.7379710895       11.9026231900        3.5019091928
  O         4.3043374180        7.4533163135        3.5350576723
  O         6.8673468546        3.0358324821        3.4968661323
  O        -3.3988467793       11.9116766279        3.4972522397
  O        -0.8299941151        7.4860018005        3.4758581411
  O         1.7324247746        3.0288889565        3.4956416134
  O         9.4116004677       10.2343468045        3.5086565946
  O        11.9781261668        5.8051691702        3.5167057855
  O        14.5430862003        1.3647533916        3.4992545652
  O         4.2898672947       10.2223479978        3.5081343992
  O         6.8487110596        5.8112816574        3.5188238728
  O         9.4177437952        1.3605578614        3.5032002642
  O        -0.8361011405       10.2527111920        3.5019310692
  O         1.7431744585        5.8053656920        3.4712466492
  O         4.2837228131        1.3680950472        3.5031414015
 Fe         5.0953595880       11.8032827414        4.4860117380
 Fe         7.6578709478        7.3772253345        4.4947216901
 Fe        10.2398388284        2.9370395653        4.4866585058
 Fe        -0.0336441261       11.8186144528        4.4896617589
 Fe         2.5036248271        7.3650683773        4.4841118951
 Fe         5.0973733342        2.9311642378        4.4862607017
 Fe        -5.1667991307       11.8115624353        4.4871984356
 Fe        -2.5755753682        7.3664371913        4.4891416780
 Fe        -0.0424851208        2.9636805789        4.4821840329
 Fe         7.6563016425       13.3138853936        4.8078183767
 Fe        10.2318167906        8.8517167830        4.8410061354
 Fe        12.8121479842        4.4399901245        4.8507374205
 Fe         2.5380693740       13.2968273393        4.8104471819
 Fe         5.0866438323        8.8270503404        4.8588287693
 Fe         7.6662030916        4.4166997222        4.8271113477
 Fe        -2.6025288960       13.2903597055        4.8123867722
 Fe        -0.0260771074        8.8409498944        4.8136928512
 Fe         2.5062837525        4.4155431877        4.8022204807
  O         5.8604151325       10.3734746055        5.7468260459
  O         8.4292339256        5.9496846004        5.7438754647
  O        10.9971743281        1.5036993069        5.7297976739
  O         0.7339737658       10.3898959233        5.7291013896
  O         3.2543636349        5.9303865949        5.7537153130
  O         5.8626795526        1.4985189443        5.7288551142
  O        -4.3890787504       10.3925130008        5.7378412059
  O        -1.7751478025        5.9559712045        5.7216995965
  O         0.7343232152        1.5226075434        5.7240902399
  O         5.9512559235       13.2008691402        5.7282284464
  O         8.5066222011        8.7545084659        5.7475745164
  O        11.0849855092        4.3252959884        5.7346269879
  O         0.8221471393       13.2011913361        5.7287271698
  O         3.3776924174        8.7478965007        5.7582818368
  O         5.9582237103        4.2983338715        5.7291482013
  O        -4.3122005099       13.2046163363        5.7245050850
  O        -1.7437598073        8.7569734194        5.7266959463
  O         0.7882556777        4.3484293111        5.6624383387
  O         3.4706353838       11.8611715154        5.7313233711
  O         6.0045036920        7.3950897674        5.8131820512
  O         8.6055816812        2.9831792076        5.7375092926
  O        -1.6605364680       11.8677082033        5.7346760224
  O         0.8933313152        7.4071074143        5.7004132785
  O         3.4607079438        2.9975527259        5.7498751013
  O        -6.7911973528       11.8701186874        5.7226989514
  O        -4.2099291070        7.4244551825        5.7449611961
  O        -1.6515516467        2.9853490582        5.7433092769
 Fe         7.6568877902       10.3403929919        5.9724740805
 Fe        10.2263820051        5.8994251145        5.9782380216
 Fe        12.7890689460        1.4573108892        5.9772953065
 Fe         2.5246258541       10.3339396644        5.9715608166
 Fe         5.0505949660        5.8377173233        5.9746792383
 Fe         7.6576124263        1.4575668493        5.9766256269
 Fe        -2.5929707968       10.3332136412        5.9796905328
 Fe        -0.0022144354        5.9019070561        6.2304652241
 Fe         2.5265169472        1.4617094133        5.9778519559
  C         6.9456409880        6.4654879519        9.9907593266
  C         5.4061808837        6.4284560195        9.8530345900
  H         7.3493693737        7.1351693656        9.2154785424
  O         7.3818583012        6.9767713031       11.2537212317
  H         7.3562306472        5.4561412508        9.8098952926
  C         4.7974691934        5.2199271875       10.5805697528
  C         3.2670102071        5.0951692155       10.7483019831
  O         5.3617174946        5.1714595467       11.9307636852
  H         5.1836658981        4.3055432642       10.0982041815
  C         2.4199382473        4.7989053110        9.4682344747
  H         2.9048861905        6.0236978296       11.2362926274
  O         3.0347401921        3.9872042420       11.6455013822
  C         1.7299632816        6.0558852887        8.8772297271
  O         1.3617147081        3.8904487583        9.8075674165
  H         3.0568385342        4.3295649194        8.6964367152
  H         1.5037629544        6.7945528519        9.6639524365
  O         0.4544254700        5.6662119645        8.2872672581
  H         2.3464989983        6.5058915706        8.0934902029
  H         7.1765956239        6.2911795921       11.9139845640
  H         5.0560664680        5.9837306378       12.3867582465
  H         3.8083857038        3.9551309403       12.2500856466
  H         1.6937862163        3.3310817720       10.5409689495
  H         0.3300316183        4.7384445090        8.5771656701
  O         5.0201023550        6.3919721974        8.4677881395
  H         5.0085947626        7.3532588077       10.3184222704
  H         5.5006298278        7.1224713412        8.0181679292
     161
 i =       12, E =     -8104.5321444948
 Fe         5.0938794100       11.8196869300        0.3885799900
 Fe         7.6575796300        7.3792284900        0.3885799900
 Fe        10.2212798400        2.9387700600        0.3885799900
 Fe        -0.0335205200       11.8196869300        0.3885799900
 Fe         2.5301797000        7.3792284900        0.3885799900
 Fe         5.0938799200        2.9387700600        0.3885799900
 Fe        -5.1609204400       11.8196869300        0.3885799900
 Fe        -2.5972202200        7.3792284900        0.3885799900
 Fe        -0.0335200000        2.9387700600        0.3885799900
  O         8.4519195100        8.9577468800        1.1642700400
  O        11.0156197300        4.5172884400        1.1642700400
  O        13.5793199500        0.0768300000        1.1642700400
  O         3.3245195900        8.9577468800        1.1642700400
  O         5.8882198100        4.5172884400        1.1642700400
  O         8.4519200300        0.0768300000        1.1642700400
  O        -1.8028803300        8.9577468800        1.1642700400
  O         0.7608198900        4.5172884400        1.1642700400
  O         3.3245201100        0.0768300000        1.1642700400
  O         8.4568493000       11.7183869300        1.1650400200
  O        11.0205495200        7.2779284900        1.1650400200
  O        13.5842497300        2.8374700500        1.1650400200
  O         3.3294493700       11.7183869300        1.1650400200
  O         5.8931495900        7.2779284900        1.1650400200
  O         8.4568498100        2.8374700500        1.1650400200
  O        -1.7979505500       11.7183869300        1.1650400200
  O         0.7657496700        7.2779284900        1.1650400200
  O         3.3294498900        2.8374700500        1.1650400200
  O         6.0627194200       10.3425368500        1.1660399400
  O         8.6264196400        5.9020784100        1.1660399400
  O        11.1901198600        1.4616199700        1.1660399400
  O         0.9353195000       10.3425368500        1.1660399400
  O         3.4990197200        5.9020784100        1.1660399400
  O         6.0627199400        1.4616199700        1.1660399400
  O        -4.1920804200       10.3425368500        1.1660399400
  O        -1.6283802000        5.9020784100        1.1660399400
  O         0.9353200200        1.4616199700        1.1660399400
 Fe         7.6576695000       13.2997167500        1.9292099500
 Fe        10.2213697200        8.8592583200        1.9292099500
 Fe        12.7850699400        4.4187998800        1.9292099500
 Fe         2.5302695800       13.2997167500        1.9292099500
 Fe         5.0939698000        8.8592583200        1.9292099500
 Fe         7.6576700200        4.4187998800        1.9292099500
 Fe        -2.5971303400       13.2997167500        1.9292099500
 Fe        -0.0334301200        8.8592583200        1.9292099500
 Fe         2.5302701000        4.4187998800        1.9292099500
 Fe         7.6573893600       10.3392168700        2.7128999200
 Fe        10.2210895800        5.8987584300        2.7128999200
 Fe        12.7847898000        1.4582999900        2.7128999200
 Fe         2.5299894400       10.3392168700        2.7128999200
 Fe         5.0936896600        5.8987584300        2.7128999200
 Fe         7.6573898800        1.4582999900        2.7128999200
 Fe        -2.5974104800       10.3392168700        2.7128999200
 Fe        -0.0337102600        5.8987584300        2.7128999200
 Fe         2.5299899600        1.4582999900        2.7128999200
  O         4.1358300168       13.2973597608        3.4989869175
  O         6.6897059532        8.8540157765        3.5151292157
  O         9.2577482956        4.4238198731        3.5018555550
  O        -0.9963743709       13.3080725965        3.5014886877
  O         1.5758213645        8.8626488380        3.5042655920
  O         4.1480585197        4.4258840091        3.5196753901
  O        -6.1270382048       13.3061578875        3.4976861061
  O        -3.5624654250        8.8659025667        3.5046430499
  O        -1.0193812326        4.4152436606        3.4691552781
  O         6.8557429383       11.9025197881        3.5037409377
  O         9.4289163035        7.4700090453        3.5146956779
  O        11.9908310154        3.0232483507        3.5119065025
  O         1.7379710895       11.9026231900        3.5019091928
  O         4.3043374180        7.4533163135        3.5350576723
  O         6.8673468546        3.0358324821        3.4968661323
  O        -3.3988467793       11.9116766279        3.4972522397
  O        -0.8299941151        7.4860018005        3.4758581411
  O         1.7324247746        3.0288889565        3.4956416134
  O         9.4116004677       10.2343468045        3.5086565946
  O        11.9781261668        5.8051691702        3.5167057855
  O        14.5430862003        1.3647533916        3.4992545652
  O         4.2898672947       10.2223479978        3.5081343992
  O         6.8487110596        5.8112816574        3.5188238728
  O         9.4177437952        1.3605578614        3.5032002642
  O        -0.8361011405       10.2527111920        3.5019310692
  O         1.7431744585        5.8053656920        3.4712466492
  O         4.2837228131        1.3680950472        3.5031414015
 Fe         5.0953595880       11.8032827414        4.4860117380
 Fe         7.6578709478        7.3772253345        4.4947216901
 Fe        10.2398388284        2.9370395653        4.4866585058
 Fe        -0.0336441261       11.8186144528        4.4896617589
 Fe         2.5036248271        7.3650683773        4.4841118951
 Fe         5.0973733342        2.9311642378        4.4862607017
 Fe        -5.1667991307       11.8115624353        4.4871984356
 Fe        -2.5755753682        7.3664371913        4.4891416780
 Fe        -0.0424851208        2.9636805789        4.4821840329
 Fe         7.6563016425       13.3138853936        4.8078183767
 Fe        10.2318167906        8.8517167830        4.8410061354
 Fe        12.8121479842        4.4399901245        4.8507374205
 Fe         2.5380693740       13.2968273393        4.8104471819
 Fe         5.0866438323        8.8270503404        4.8588287693
 Fe         7.6662030916        4.4166997222        4.8271113477
 Fe        -2.6025288960       13.2903597055        4.8123867722
 Fe        -0.0260771074        8.8409498944        4.8136928512
 Fe         2.5062837525        4.4155431877        4.8022204807
  O         5.8604151325       10.3734746055        5.7468260459
  O         8.4292339256        5.9496846004        5.7438754647
  O        10.9971743281        1.5036993069        5.7297976739
  O         0.7339737658       10.3898959233        5.7291013896
  O         3.2543636349        5.9303865949        5.7537153130
  O         5.8626795526        1.4985189443        5.7288551142
  O        -4.3890787504       10.3925130008        5.7378412059
  O        -1.7751478025        5.9559712045        5.7216995965
  O         0.7343232152        1.5226075434        5.7240902399
  O         5.9512559235       13.2008691402        5.7282284464
  O         8.5066222011        8.7545084659        5.7475745164
  O        11.0849855092        4.3252959884        5.7346269879
  O         0.8221471393       13.2011913361        5.7287271698
  O         3.3776924174        8.7478965007        5.7582818368
  O         5.9582237103        4.2983338715        5.7291482013
  O        -4.3122005099       13.2046163363        5.7245050850
  O        -1.7437598073        8.7569734194        5.7266959463
  O         0.7882556777        4.3484293111        5.6624383387
  O         3.4706353838       11.8611715154        5.7313233711
  O         6.0045036920        7.3950897674        5.8131820512
  O         8.6055816812        2.9831792076        5.7375092926
  O        -1.6605364680       11.8677082033        5.7346760224
  O         0.8933313152        7.4071074143        5.7004132785
  O         3.4607079438        2.9975527259        5.7498751013
  O        -6.7911973528       11.8701186874        5.7226989514
  O        -4.2099291070        7.4244551825        5.7449611961
  O        -1.6515516467        2.9853490582        5.7433092769
 Fe         7.6568877902       10.3403929919        5.9724740805
 Fe        10.2263820051        5.8994251145        5.9782380216
 Fe        12.7890689460        1.4573108892        5.9772953065
 Fe         2.5246258541       10.3339396644        5.9715608166
 Fe         5.0505949660        5.8377173233        5.9746792383
 Fe         7.6576124263        1.4575668493        5.9766256269
 Fe        -2.5929707968       10.3332136412        5.9796905328
 Fe        -0.0022144354        5.9019070561        6.2304652241
 Fe         2.5265169472        1.4617094133        5.9778519559
  C         6.9456409880        6.4654879519        9.9907593266
  C         5.4061808837        6.4284560195        9.8530345900
  H         7.3493693737        7.1351693656        9.2154785424
  O         7.3818583012        6.9767713031       11.2537212317
  H         7.3562306472        5.4561412508        9.8098952926
  C         4.7974691934        5.2199271875       10.5805697528
  C         3.2670102071        5.0951692155       10.7483019831
  O         5.3617174946        5.1714595467       11.9307636852
  H         5.1836658981        4.3055432642       10.0982041815
  C         2.4199382473        4.7989053110        9.4682344747
  H         2.9048861905        6.0236978296       11.2362926274
  O         3.0347401921        3.9872042420       11.6455013822
  C         1.7299632816        6.0558852887        8.8772297271
  O         1.3617147081        3.8904487583        9.8075674165
  H         3.0568385342        4.3295649194        8.6964367152
  H         1.5037629544        6.7945528519        9.6639524365
  O         0.4544254700        5.6662119645        8.2872672581
  H         2.3464989983        6.5058915706        8.0934902029
  H         7.1765956239        6.2911795921       11.9139845640
  H         5.0560664680        5.9837306378       12.3867582465
  H         3.8083857038        3.9551309403       12.2500856466
  H         1.6937862163        3.3310817720       10.5409689495
  H         0.3300316183        4.7384445090        8.5771656701
  O         5.0201023550        6.3919721974        8.4677881395
  H         5.0085947626        7.3532588077       10.3184222704
  H         5.5006298278        7.1224713412        8.0181679292
