     168
 i =        1, E =     -8144.1741888364
 Fe         5.0938794100       11.8196869300        0.3885799900
 Fe         7.6575796300        7.3792284900        0.3885799900
 Fe        10.2212798400        2.9387700600        0.3885799900
 Fe        -0.0335205200       11.8196869300        0.3885799900
 Fe         2.5301797000        7.3792284900        0.3885799900
 Fe         5.0938799200        2.9387700600        0.3885799900
 Fe        -5.1609204400       11.8196869300        0.3885799900
 Fe        -2.5972202200        7.3792284900        0.3885799900
 Fe        -0.0335200000        2.9387700600        0.3885799900
  O         8.4519195100        8.9577468800        1.1642700400
  O        11.0156197300        4.5172884400        1.1642700400
  O        13.5793199500        0.0768300000        1.1642700400
  O         3.3245195900        8.9577468800        1.1642700400
  O         5.8882198100        4.5172884400        1.1642700400
  O         8.4519200300        0.0768300000        1.1642700400
  O        -1.8028803300        8.9577468800        1.1642700400
  O         0.7608198900        4.5172884400        1.1642700400
  O         3.3245201100        0.0768300000        1.1642700400
  O         8.4568493000       11.7183869300        1.1650400200
  O        11.0205495200        7.2779284900        1.1650400200
  O        13.5842497300        2.8374700500        1.1650400200
  O         3.3294493700       11.7183869300        1.1650400200
  O         5.8931495900        7.2779284900        1.1650400200
  O         8.4568498100        2.8374700500        1.1650400200
  O        -1.7979505500       11.7183869300        1.1650400200
  O         0.7657496700        7.2779284900        1.1650400200
  O         3.3294498900        2.8374700500        1.1650400200
  O         6.0627194200       10.3425368500        1.1660399400
  O         8.6264196400        5.9020784100        1.1660399400
  O        11.1901198600        1.4616199700        1.1660399400
  O         0.9353195000       10.3425368500        1.1660399400
  O         3.4990197200        5.9020784100        1.1660399400
  O         6.0627199400        1.4616199700        1.1660399400
  O        -4.1920804200       10.3425368500        1.1660399400
  O        -1.6283802000        5.9020784100        1.1660399400
  O         0.9353200200        1.4616199700        1.1660399400
 Fe         7.6576695000       13.2997167500        1.9292099500
 Fe        10.2213697200        8.8592583200        1.9292099500
 Fe        12.7850699400        4.4187998800        1.9292099500
 Fe         2.5302695800       13.2997167500        1.9292099500
 Fe         5.0939698000        8.8592583200        1.9292099500
 Fe         7.6576700200        4.4187998800        1.9292099500
 Fe        -2.5971303400       13.2997167500        1.9292099500
 Fe        -0.0334301200        8.8592583200        1.9292099500
 Fe         2.5302701000        4.4187998800        1.9292099500
 Fe         7.6573893600       10.3392168700        2.7128999200
 Fe        10.2210895800        5.8987584300        2.7128999200
 Fe        12.7847898000        1.4582999900        2.7128999200
 Fe         2.5299894400       10.3392168700        2.7128999200
 Fe         5.0936896600        5.8987584300        2.7128999200
 Fe         7.6573898800        1.4582999900        2.7128999200
 Fe        -2.5974104800       10.3392168700        2.7128999200
 Fe        -0.0337102600        5.8987584300        2.7128999200
 Fe         2.5299899600        1.4582999900        2.7128999200
  O         4.0927531865       13.3151120701        3.5121414869
  O         6.6563356156        8.8741621480        3.5150913973
  O         9.2194320798        4.4352258021        3.5158586894
  O        -1.0356217756       13.3116756172        3.5096737909
  O         1.5269215563        8.8756182669        3.5117460129
  O         4.0801223378        4.4593731114        3.5097578290
  O        -6.1681021055       13.3156329652        3.5053432416
  O        -3.5987432044        8.8737865145        3.5119887129
  O        -1.0307003175        4.4331784818        3.5180568084
  O         6.8097754539       11.8767664466        3.4922779601
  O         9.3779853028        7.4301242534        3.4958450596
  O        11.9399550901        2.9906429920        3.4953504132
  O         1.6847306749       11.8708306026        3.4962834732
  O         4.2482314837        7.4325822252        3.4962835385
  O         6.8814206051        3.0263292594        3.4437878032
  O        -3.4434609688       11.8679012937        3.4859908545
  O        -0.8781754536        7.4298676304        3.4976865029
  O         1.6880828823        2.9786391889        3.5132756467
  O         9.4266509742       10.2222800019        3.4875729850
  O        11.9910520239        5.7838551824        3.4886297337
  O        14.5533406055        1.3411342383        3.4853547096
  O         4.2974783280       10.2241261375        3.4892152753
  O         6.8660731552        5.7871713277        3.4867745869
  O         9.4302660104        1.3425957603        3.4869580047
  O        -0.8252496436       10.2215137383        3.4857450362
  O         1.7286213337        5.8305244784        3.4517581632
  O         4.2794875677        1.3314769360        3.4992144941
 Fe         5.0350914284       11.8360188757        4.4198075565
 Fe         7.6033125744        7.3951676838        4.4184454108
 Fe        10.1625715803        2.9544002618        4.4191882810
 Fe        -0.0940394243       11.8358354173        4.4186567784
 Fe         2.4734613092        7.4015910679        4.4180005188
 Fe         5.0979910444        2.9640720584        4.3459748703
 Fe        -5.2183567585       11.8391133191        4.4175848148
 Fe        -2.6562864421        7.3971352138        4.4193048637
 Fe        -0.0941865718        2.9453766367        4.4285460614
 Fe         7.6137532461       13.1911225611        4.8140060073
 Fe        10.1711247378        8.7447353987        4.8057445969
 Fe        12.7327308806        4.3045379668        4.8049334954
 Fe         2.4813957567       13.1859521674        4.8053964297
 Fe         5.0416128264        8.7488793019        4.8036636484
 Fe         7.5994979171        4.3038211716        4.8102031236
 Fe        -2.6562890274       13.1808396255        4.8072028273
 Fe        -0.0840161256        8.7456417552        4.8064325084
 Fe         2.4413109992        4.3864222057        4.7206737819
  O         5.8548076786       10.3446075797        5.8717897514
  O         8.4174832600        5.8989512336        5.8690044485
  O        10.9853517186        1.4648027151        5.8728069519
  O         0.7303013145       10.3431101121        5.8731846311
  O         3.2960436749        5.8860291864        5.8868563396
  O         5.8559727584        1.4673862086        5.8731359350
  O        -4.3994807965       10.3364074882        5.8733710669
  O        -1.8362226561        5.9040251395        5.8718916537
  O         0.7386255196        1.4663435502        5.8717209634
  O         5.9220038631       13.1722274794        5.6844858479
  O         8.4883165544        8.7320860513        5.6875244937
  O        11.0511165897        4.2938592675        5.6875998870
  O         0.7991854276       13.1725299405        5.6882833475
  O         3.3582914918        8.7289395841        5.6852298202
  O         5.9193468345        4.2874470009        5.7108977824
  O        -4.3374031652       13.1534483665        5.6679725328
  O        -1.7653330443        8.7330720137        5.6888692445
  O         0.8111423065        4.2907335698        5.6974722538
  O         3.4650279767       11.7743230206        5.6705610505
  O         6.0345722087        7.3459437189        5.6675268921
  O         8.5962401204        2.8977076194        5.6731041593
  O        -1.6567552717       11.7739398439        5.6694917407
  O         0.9056498845        7.3339194785        5.6708603908
  O         3.4804225066        2.9833306587        5.5973005730
  O        -6.7903422741       11.7694214457        5.6655987694
  O        -4.2239731627        7.3328752163        5.6688132452
  O        -1.6646087850        2.8981481515        5.6707031724
 Fe         7.7827622579       10.2719714019        6.4327023428
 Fe        10.3428960174        5.8323613108        6.4306964058
 Fe        12.9141740046        1.3907103275        6.4314862121
 Fe         2.6570530587       10.2693268274        6.4309155230
 Fe         5.2335287795        5.8451868942        6.4265996985
 Fe         7.7856591669        1.3918436668        6.4310248311
 Fe        -2.4728076169       10.2750852407        6.4309056100
 Fe         0.0884973170        5.8327406601        6.4276625164
 Fe         2.6931446422        1.3796548066        6.4968378317
  O         7.8382400942       10.3823502451        8.2641454047
  H         7.8871409797        9.5544997002        8.7745129727
  H         5.3481654770       10.6146764777        6.6702113055
  O        10.4025179118        5.9411812461        8.2617212548
  H        10.4529281842        5.1144762539        8.7742006753
  H         7.9142725085        6.1751410439        6.6667384954
  O        12.9678891130        1.5021416659        8.2631405563
  H        13.0134749305        0.6741424085        8.7738539506
  H        10.4750964610        1.7322269328        6.6700122356
  O         2.7117725979       10.3818000749        8.2616987127
  H         2.7593670229        9.5554094967        8.7744728760
  H         0.2195664440       10.6140057262        6.6689284460
  O         5.2578810613        5.9437442114        8.2665037714
  H         5.3520732156        5.1187019035        8.7721169664
  H         2.7775925439        6.1830351400        6.6685606661
  O         7.8289400327        1.5041438377        8.2665663483
  H         7.8899728015        0.6738931606        8.7728543497
  H         5.3637514118        1.7120869245        6.6851016868
  O        -2.4152927274       10.3830762720        8.2632861392
  H        -2.3682313192        9.5550336125        8.7740470321
  H        -4.9066892783       10.6158343213        6.6683225877
  O         0.1621720958        5.9392630088        8.2619240251
  H         0.1864436268        5.1127724626        8.7758571393
  H        -2.3447136919        6.1744376434        6.6691843870
  O         2.6104819659        1.3563620200        8.4120589872
  H         2.7271958799        0.5174634961        8.9089385000
  H         0.2151088896        1.7315694139        6.6611452148
  C         3.6790618438        3.4054964189        9.7343026132
  C         3.5199691824        3.0363734830        8.3323375247
  H         3.9865084816        4.4347538009        9.9383314543
  H         2.7023109625        3.2068930617       10.2031064833
  H         4.3825917082        2.6833519444       10.1791583781
  N         3.4776805327        3.0187241457        7.1261536083
     168
 i =        2, E =     -8144.1903081439
 Fe         5.0938794100       11.8196869300        0.3885799900
 Fe         7.6575796300        7.3792284900        0.3885799900
 Fe        10.2212798400        2.9387700600        0.3885799900
 Fe        -0.0335205200       11.8196869300        0.3885799900
 Fe         2.5301797000        7.3792284900        0.3885799900
 Fe         5.0938799200        2.9387700600        0.3885799900
 Fe        -5.1609204400       11.8196869300        0.3885799900
 Fe        -2.5972202200        7.3792284900        0.3885799900
 Fe        -0.0335200000        2.9387700600        0.3885799900
  O         8.4519195100        8.9577468800        1.1642700400
  O        11.0156197300        4.5172884400        1.1642700400
  O        13.5793199500        0.0768300000        1.1642700400
  O         3.3245195900        8.9577468800        1.1642700400
  O         5.8882198100        4.5172884400        1.1642700400
  O         8.4519200300        0.0768300000        1.1642700400
  O        -1.8028803300        8.9577468800        1.1642700400
  O         0.7608198900        4.5172884400        1.1642700400
  O         3.3245201100        0.0768300000        1.1642700400
  O         8.4568493000       11.7183869300        1.1650400200
  O        11.0205495200        7.2779284900        1.1650400200
  O        13.5842497300        2.8374700500        1.1650400200
  O         3.3294493700       11.7183869300        1.1650400200
  O         5.8931495900        7.2779284900        1.1650400200
  O         8.4568498100        2.8374700500        1.1650400200
  O        -1.7979505500       11.7183869300        1.1650400200
  O         0.7657496700        7.2779284900        1.1650400200
  O         3.3294498900        2.8374700500        1.1650400200
  O         6.0627194200       10.3425368500        1.1660399400
  O         8.6264196400        5.9020784100        1.1660399400
  O        11.1901198600        1.4616199700        1.1660399400
  O         0.9353195000       10.3425368500        1.1660399400
  O         3.4990197200        5.9020784100        1.1660399400
  O         6.0627199400        1.4616199700        1.1660399400
  O        -4.1920804200       10.3425368500        1.1660399400
  O        -1.6283802000        5.9020784100        1.1660399400
  O         0.9353200200        1.4616199700        1.1660399400
 Fe         7.6576695000       13.2997167500        1.9292099500
 Fe        10.2213697200        8.8592583200        1.9292099500
 Fe        12.7850699400        4.4187998800        1.9292099500
 Fe         2.5302695800       13.2997167500        1.9292099500
 Fe         5.0939698000        8.8592583200        1.9292099500
 Fe         7.6576700200        4.4187998800        1.9292099500
 Fe        -2.5971303400       13.2997167500        1.9292099500
 Fe        -0.0334301200        8.8592583200        1.9292099500
 Fe         2.5302701000        4.4187998800        1.9292099500
 Fe         7.6573893600       10.3392168700        2.7128999200
 Fe        10.2210895800        5.8987584300        2.7128999200
 Fe        12.7847898000        1.4582999900        2.7128999200
 Fe         2.5299894400       10.3392168700        2.7128999200
 Fe         5.0936896600        5.8987584300        2.7128999200
 Fe         7.6573898800        1.4582999900        2.7128999200
 Fe        -2.5974104800       10.3392168700        2.7128999200
 Fe        -0.0337102600        5.8987584300        2.7128999200
 Fe         2.5299899600        1.4582999900        2.7128999200
  O         4.0914648601       13.3162111492        3.5126481308
  O         6.6511039949        8.8769689109        3.5079952165
  O         9.2290093231        4.4409654028        3.5136741929
  O        -1.0359439218       13.3168076216        3.5051402079
  O         1.5229431460        8.8855198971        3.5127556155
  O         4.1203612110        4.5157744277        3.6113288531
  O        -6.1592351551       13.3205532340        3.5222318683
  O        -3.5972167967        8.8716708561        3.5123688110
  O        -1.0283374604        4.4324811035        3.5135245100
  O         6.8076258477       11.8580500421        3.5194591047
  O         9.3777987221        7.4297395712        3.4985303802
  O        11.9391560661        2.9983227882        3.4858128580
  O         1.6843478064       11.8694065021        3.4983258579
  O         4.2493137614        7.4389174315        3.4927661100
  O         6.9036041902        3.0534264088        3.4095026793
  O        -3.4389835823       11.8661677919        3.4757762358
  O        -0.8782327990        7.4251532661        3.5057228973
  O         1.6927622073        2.9288144845        3.6191708080
  O         9.4250648267       10.2163087294        3.4849749661
  O        11.9972284208        5.7796274658        3.4793627825
  O        14.5365303199        1.3507920591        3.5116630817
  O         4.3000860324       10.2228046760        3.4865301968
  O         6.8647525139        5.7885951583        3.4896887173
  O         9.4307580108        1.3396600338        3.4920372721
  O        -0.8259905391       10.2222933882        3.4929371864
  O         1.6701476912        5.8828317553        3.5655676399
  O         4.2781942703        1.3228780970        3.4851385365
 Fe         5.0319367976       11.8380495033        4.4228509212
 Fe         7.5997323896        7.4005678941        4.4143123741
 Fe        10.1611022082        2.9571220630        4.4168231453
 Fe        -0.0973429569       11.8429294947        4.4186574184
 Fe         2.4894177086        7.4522628910        4.4360455869
 Fe         5.1300830705        2.9437235250        4.3402416367
 Fe        -5.2148345919       11.8326966309        4.4174400085
 Fe        -2.6600998871        7.3948175858        4.4195073433
 Fe        -0.1136083132        2.9415190657        4.4526520664
 Fe         7.6202791853       13.1915853241        4.8305019588
 Fe        10.1705469811        8.7477673831        4.8058773654
 Fe        12.7338259542        4.3065706083        4.7979017496
 Fe         2.4826018548       13.1847308754        4.8054772372
 Fe         5.0497584952        8.7499796492        4.7991774759
 Fe         7.6132223832        4.3077247889        4.8034468856
 Fe        -2.6596534958       13.1790818432        4.7996878468
 Fe        -0.0839886899        8.7455883194        4.8089552714
 Fe         2.4283808315        4.4335685967        4.7336194387
  O         5.8526557289       10.3431779694        5.8722664097
  O         8.4203435392        5.9056447118        5.8716384416
  O        10.9847036165        1.4653573534        5.8705611574
  O         0.7304441241       10.3420556297        5.8715723650
  O         3.2988878291        5.8995557563        5.8875164330
  O         5.8645462844        1.4568726524        5.8725374894
  O        -4.3968508480       10.3274583548        5.8767564273
  O        -1.8340321571        5.9038717062        5.8740181912
  O         0.7257251128        1.4697185508        5.8587074739
  O         5.9184067885       13.1730439174        5.6860091737
  O         8.4883857325        8.7282970310        5.6897319363
  O        11.0563594654        4.2933325649        5.6876872086
  O         0.8019602999       13.1760603320        5.6904814947
  O         3.3761506436        8.7425702832        5.7001517577
  O         5.9409905679        4.2973620343        5.7156260104
  O        -4.3303753690       13.1057398462        5.6439750716
  O        -1.7644936826        8.7322979065        5.6890806946
  O         0.8076803633        4.3059536880        5.6948047620
  O         3.4630053438       11.7722706277        5.6707289481
  O         6.0327500164        7.3431883273        5.6734502074
  O         8.5937948795        2.8941940243        5.6754547535
  O        -1.6547174446       11.7707221980        5.6704021164
  O         0.9079418230        7.3273468063        5.6694318400
  O         3.4844023562        3.0014330589        5.5854990097
  O        -6.7922598541       11.7588347710        5.6650349735
  O        -4.2258354077        7.3328586583        5.6695703342
  O        -1.6783690596        2.9028126861        5.6827797682
 Fe         7.7809427680       10.2686292303        6.4335419956
 Fe        10.3474423459        5.8305217937        6.4318110093
 Fe        12.9109992719        1.3882862722        6.4348387777
 Fe         2.6522231774       10.2749154731        6.4326491487
 Fe         5.2341814364        5.8436264445        6.4271832790
 Fe         7.7850899348        1.3905037160        6.4331595832
 Fe        -2.4734918400       10.2748264066        6.4323143262
 Fe         0.0838428669        5.8371512648        6.4345021198
 Fe         2.7000696555        1.3100526154        6.5643785739
  O         7.8379215019       10.3833928404        8.2669186465
  H         7.8873890149        9.5526726837        8.7723869248
  H         5.3480635493       10.6165582147        6.6705906436
  O        10.4005844893        5.9426004351        8.2647420955
  H        10.4538565826        5.1124474261        8.7710409668
  H         7.9131685903        6.1768103727        6.6685944034
  O        12.9688574821        1.5047378860        8.2669448029
  H        13.0132219553        0.6722957681        8.7702187042
  H        10.4776590614        1.7331949373        6.6693160801
  O         2.7128346302       10.3818189845        8.2631788654
  H         2.7589129724        9.5540926015        8.7731111425
  H         0.2200853265       10.6144708578        6.6668949466
  O         5.2413950342        5.9537352902        8.2742144406
  H         5.3960724271        5.1227809738        8.7588725600
  H         2.7755515115        6.1882136069        6.6665327161
  O         7.8115906283        1.5070086686        8.2725333945
  H         7.8947863089        0.6717576648        8.7679853332
  H         5.3872094403        1.6986867366        6.6912167572
  O        -2.4140295505       10.3866628674        8.2667728217
  H        -2.3692029098        9.5542066461        8.7703859631
  H        -4.9075671792       10.6190345838        6.6651074750
  O         0.1788167363        5.9404280543        8.2692877541
  H         0.1734107416        5.1072922610        8.7726760426
  H        -2.3471176137        6.1755165455        6.6679298924
  O         2.5545106545        1.2730519082        8.5280479728
  H         2.7129123810        0.4347527082        9.0124928296
  H         0.2169308316        1.7308475362        6.6566091995
  C         3.6797369514        3.4026784085        9.7536823898
  C         3.4988528600        3.0119009840        8.3622664434
  H         3.9853205796        4.4446077910        9.9066219462
  H         2.6969573121        3.2191570850       10.2069803901
  H         4.3992335321        2.6913303347       10.1832044120
  N         3.4506639966        3.1206842713        7.1438886693
     168
 i =        3, E =     -8144.1900507770
 Fe         5.0938794100       11.8196869300        0.3885799900
 Fe         7.6575796300        7.3792284900        0.3885799900
 Fe        10.2212798400        2.9387700600        0.3885799900
 Fe        -0.0335205200       11.8196869300        0.3885799900
 Fe         2.5301797000        7.3792284900        0.3885799900
 Fe         5.0938799200        2.9387700600        0.3885799900
 Fe        -5.1609204400       11.8196869300        0.3885799900
 Fe        -2.5972202200        7.3792284900        0.3885799900
 Fe        -0.0335200000        2.9387700600        0.3885799900
  O         8.4519195100        8.9577468800        1.1642700400
  O        11.0156197300        4.5172884400        1.1642700400
  O        13.5793199500        0.0768300000        1.1642700400
  O         3.3245195900        8.9577468800        1.1642700400
  O         5.8882198100        4.5172884400        1.1642700400
  O         8.4519200300        0.0768300000        1.1642700400
  O        -1.8028803300        8.9577468800        1.1642700400
  O         0.7608198900        4.5172884400        1.1642700400
  O         3.3245201100        0.0768300000        1.1642700400
  O         8.4568493000       11.7183869300        1.1650400200
  O        11.0205495200        7.2779284900        1.1650400200
  O        13.5842497300        2.8374700500        1.1650400200
  O         3.3294493700       11.7183869300        1.1650400200
  O         5.8931495900        7.2779284900        1.1650400200
  O         8.4568498100        2.8374700500        1.1650400200
  O        -1.7979505500       11.7183869300        1.1650400200
  O         0.7657496700        7.2779284900        1.1650400200
  O         3.3294498900        2.8374700500        1.1650400200
  O         6.0627194200       10.3425368500        1.1660399400
  O         8.6264196400        5.9020784100        1.1660399400
  O        11.1901198600        1.4616199700        1.1660399400
  O         0.9353195000       10.3425368500        1.1660399400
  O         3.4990197200        5.9020784100        1.1660399400
  O         6.0627199400        1.4616199700        1.1660399400
  O        -4.1920804200       10.3425368500        1.1660399400
  O        -1.6283802000        5.9020784100        1.1660399400
  O         0.9353200200        1.4616199700        1.1660399400
 Fe         7.6576695000       13.2997167500        1.9292099500
 Fe        10.2213697200        8.8592583200        1.9292099500
 Fe        12.7850699400        4.4187998800        1.9292099500
 Fe         2.5302695800       13.2997167500        1.9292099500
 Fe         5.0939698000        8.8592583200        1.9292099500
 Fe         7.6576700200        4.4187998800        1.9292099500
 Fe        -2.5971303400       13.2997167500        1.9292099500
 Fe        -0.0334301200        8.8592583200        1.9292099500
 Fe         2.5302701000        4.4187998800        1.9292099500
 Fe         7.6573893600       10.3392168700        2.7128999200
 Fe        10.2210895800        5.8987584300        2.7128999200
 Fe        12.7847898000        1.4582999900        2.7128999200
 Fe         2.5299894400       10.3392168700        2.7128999200
 Fe         5.0936896600        5.8987584300        2.7128999200
 Fe         7.6573898800        1.4582999900        2.7128999200
 Fe        -2.5974104800       10.3392168700        2.7128999200
 Fe        -0.0337102600        5.8987584300        2.7128999200
 Fe         2.5299899600        1.4582999900        2.7128999200
  O         4.0868456414       13.3152651872        3.5076243813
  O         6.6841517543        8.8882378734        3.5617795641
  O         9.2401556434        4.4518702249        3.5064943033
  O        -0.9716261577       13.3532736504        3.6132499036
  O         1.5156233147        8.8989872085        3.5089488315
  O         4.1154261070        4.5652426191        3.6462235575
  O        -6.1710009972       13.3164773132        3.5075947056
  O        -3.5962724077        8.8727682628        3.5150173400
  O        -0.9802192323        4.4388234356        3.5812558534
  O         6.8117811208       11.8536004497        3.5276340897
  O         9.3774898046        7.4281224919        3.5014385657
  O        11.9353486840        2.9641580969        3.5420226725
  O         1.6862145310       11.8707333578        3.4949666563
  O         4.2437084725        7.4144630027        3.5480260406
  O         6.9147307391        3.0830773360        3.3795519695
  O        -3.4411427748       11.7945023556        3.5636913551
  O        -0.8796573262        7.4296624865        3.4991788478
  O         1.7031589199        2.9234633101        3.6656062190
  O         9.4235691739       10.2092163873        3.4840172153
  O        11.9728620664        5.7994806157        3.5339087583
  O        14.5276676442        1.3516010388        3.5198945550
  O         4.2715441581       10.2406465929        3.5446182518
  O         6.8684720554        5.7899534345        3.4812335169
  O         9.4328441047        1.3367581326        3.4930171586
  O        -0.8243079554       10.2159850170        3.4881751477
  O         1.6399840575        5.9065757022        3.6389468553
  O         4.2351152179        1.3540485792        3.5674729279
 Fe         5.0450036756       11.8571728337        4.4311106440
 Fe         7.6077978841        7.3844643263        4.4279850984
 Fe        10.1431208785        2.9616954630        4.4215741876
 Fe        -0.0822850386       11.8173145180        4.4376829163
 Fe         2.4789911416        7.4957804230        4.4538749963
 Fe         5.1471807905        2.9720071185        4.3596013304
 Fe        -5.2401980665       11.8336889870        4.4275572837
 Fe        -2.6531026815        7.4111049996        4.4300603517
 Fe        -0.0997535153        2.9067981898        4.4927639994
 Fe         7.6284352221       13.1925260019        4.8479057592
 Fe        10.1700996636        8.7484372581        4.8081028607
 Fe        12.7337136319        4.3078684052        4.8221372608
 Fe         2.4829376306       13.1835770354        4.8037182556
 Fe         5.0615049144        8.7529420416        4.8258060822
 Fe         7.6384214772        4.3238448719        4.7880995251
 Fe        -2.6632307735       13.1695548273        4.8340083509
 Fe        -0.0871462237        8.7474232841        4.8047055800
 Fe         2.4165313005        4.4713807910        4.7509984317
  O         5.8536060377       10.3495202904        5.8754066580
  O         8.4283580346        5.9126833541        5.8766127616
  O        10.9822967420        1.4653958162        5.8671314027
  O         0.7333714175       10.3348498313        5.8731333041
  O         3.2987111260        5.9259500141        5.8875220472
  O         5.8795432298        1.4438650141        5.8733670018
  O        -4.3944084005       10.3143535573        5.8793300932
  O        -1.8311852996        5.9082153297        5.8782688534
  O         0.6983889866        1.4640737583        5.8505932746
  O         5.9203078626       13.1785745882        5.6975926318
  O         8.4880519479        8.7256921718        5.6898823868
  O        11.0499690497        4.2919011632        5.6917626652
  O         0.8043737085       13.1774999651        5.6937933246
  O         3.3800462248        8.7531466895        5.7129472028
  O         5.9981750418        4.3192037514        5.7359807812
  O        -4.3272807886       13.0381993087        5.6272906570
  O        -1.7567949991        8.7375918528        5.6961226356
  O         0.8015932420        4.3263791775        5.7011395211
  O         3.4646904776       11.7713340127        5.6678229583
  O         6.0324693398        7.3324322064        5.6828670691
  O         8.5802368641        2.8933579638        5.6759736221
  O        -1.6408240869       11.7561837996        5.6757427187
  O         0.9047581645        7.3422711249        5.6894717571
  O         3.4809666547        2.9819835114        5.5952968650
  O        -6.8051758365       11.7482037871        5.6742751177
  O        -4.2248762838        7.3295567742        5.6684158716
  O        -1.6808836602        2.9043450374        5.6968307979
 Fe         7.7777734348       10.2621126270        6.4361224214
 Fe        10.3502159368        5.8311581652        6.4344009583
 Fe        12.9056184293        1.3892807996        6.4394237218
 Fe         2.6475052217       10.2850252869        6.4374480568
 Fe         5.2303215433        5.8376108251        6.4285018847
 Fe         7.7907734647        1.3885179600        6.4375939261
 Fe        -2.4766266362       10.2741441872        6.4355739546
 Fe         0.0790269315        5.8514339017        6.4434139409
 Fe         2.6809849891        1.1936746212        6.6648414876
  O         7.8378006419       10.3844693109        8.2699221416
  H         7.8875097568        9.5500627618        8.7691375241
  H         5.3462860962       10.6174762472        6.6726450886
  O        10.3978385299        5.9435884549        8.2683136364
  H        10.4554254591        5.1093504847        8.7671046837
  H         7.9128023256        6.1790230859        6.6692670304
  O        12.9686373237        1.5066459304        8.2722094190
  H        13.0134934093        0.6690641296        8.7670950517
  H        10.4809584056        1.7354906059        6.6683081239
  O         2.7130635046       10.3835994387        8.2680304253
  H         2.7585249723        9.5516303824        8.7709912141
  H         0.2198962521       10.6147967405        6.6633936978
  O         5.2219795421        5.9668258091        8.2823553735
  H         5.4643509886        5.1301536888        8.7384651972
  H         2.7739528825        6.1969363652        6.6701471623
  O         7.7849135297        1.5101584270        8.2810819020
  H         7.9015289236        0.6687429349        8.7620534761
  H         5.4191379648        1.6850975183        6.6994419977
  O        -2.4119674138       10.3913572612        8.2707019196
  H        -2.3707645590        9.5534864973        8.7655155011
  H        -4.9079722025       10.6222852310        6.6600225316
  O         0.2028608917        5.9423730445        8.2799772124
  H         0.1539641044        5.0990350509        8.7677050590
  H        -2.3515764209        6.1771457060        6.6674223091
  O         2.5007659911        1.1887897984        8.6707423574
  H         2.7050398771        0.3544318010        9.1391656981
  H         0.2163886049        1.7290599828        6.6596228024
  C         3.6708085352        3.3811201847        9.7807962229
  C         3.4715475981        3.0184299265        8.3940128132
  H         3.9798932321        4.4435117801        9.8460534689
  H         2.6896880815        3.2365690887       10.2379184202
  H         4.4229429180        2.7079517445       10.2067283884
  N         3.3960991076        3.2385213817        7.1937992330
     168
 i =        4, E =     -8144.2180724497
 Fe         5.0938794100       11.8196869300        0.3885799900
 Fe         7.6575796300        7.3792284900        0.3885799900
 Fe        10.2212798400        2.9387700600        0.3885799900
 Fe        -0.0335205200       11.8196869300        0.3885799900
 Fe         2.5301797000        7.3792284900        0.3885799900
 Fe         5.0938799200        2.9387700600        0.3885799900
 Fe        -5.1609204400       11.8196869300        0.3885799900
 Fe        -2.5972202200        7.3792284900        0.3885799900
 Fe        -0.0335200000        2.9387700600        0.3885799900
  O         8.4519195100        8.9577468800        1.1642700400
  O        11.0156197300        4.5172884400        1.1642700400
  O        13.5793199500        0.0768300000        1.1642700400
  O         3.3245195900        8.9577468800        1.1642700400
  O         5.8882198100        4.5172884400        1.1642700400
  O         8.4519200300        0.0768300000        1.1642700400
  O        -1.8028803300        8.9577468800        1.1642700400
  O         0.7608198900        4.5172884400        1.1642700400
  O         3.3245201100        0.0768300000        1.1642700400
  O         8.4568493000       11.7183869300        1.1650400200
  O        11.0205495200        7.2779284900        1.1650400200
  O        13.5842497300        2.8374700500        1.1650400200
  O         3.3294493700       11.7183869300        1.1650400200
  O         5.8931495900        7.2779284900        1.1650400200
  O         8.4568498100        2.8374700500        1.1650400200
  O        -1.7979505500       11.7183869300        1.1650400200
  O         0.7657496700        7.2779284900        1.1650400200
  O         3.3294498900        2.8374700500        1.1650400200
  O         6.0627194200       10.3425368500        1.1660399400
  O         8.6264196400        5.9020784100        1.1660399400
  O        11.1901198600        1.4616199700        1.1660399400
  O         0.9353195000       10.3425368500        1.1660399400
  O         3.4990197200        5.9020784100        1.1660399400
  O         6.0627199400        1.4616199700        1.1660399400
  O        -4.1920804200       10.3425368500        1.1660399400
  O        -1.6283802000        5.9020784100        1.1660399400
  O         0.9353200200        1.4616199700        1.1660399400
 Fe         7.6576695000       13.2997167500        1.9292099500
 Fe        10.2213697200        8.8592583200        1.9292099500
 Fe        12.7850699400        4.4187998800        1.9292099500
 Fe         2.5302695800       13.2997167500        1.9292099500
 Fe         5.0939698000        8.8592583200        1.9292099500
 Fe         7.6576700200        4.4187998800        1.9292099500
 Fe        -2.5971303400       13.2997167500        1.9292099500
 Fe        -0.0334301200        8.8592583200        1.9292099500
 Fe         2.5302701000        4.4187998800        1.9292099500
 Fe         7.6573893600       10.3392168700        2.7128999200
 Fe        10.2210895800        5.8987584300        2.7128999200
 Fe        12.7847898000        1.4582999900        2.7128999200
 Fe         2.5299894400       10.3392168700        2.7128999200
 Fe         5.0936896600        5.8987584300        2.7128999200
 Fe         7.6573898800        1.4582999900        2.7128999200
 Fe        -2.5974104800       10.3392168700        2.7128999200
 Fe        -0.0337102600        5.8987584300        2.7128999200
 Fe         2.5299899600        1.4582999900        2.7128999200
  O         4.0989222002       13.3165983441        3.5230253851
  O         6.6723273402        8.8806362936        3.5422635070
  O         9.2391435306        4.4452726314        3.5033558454
  O        -0.9901328415       13.3535181082        3.5876110318
  O         1.5398599933        8.8975440292        3.5434154550
  O         4.0729171252        4.5368003217        3.5679266370
  O        -6.1871636075       13.3022923286        3.4832081387
  O        -3.5977412940        8.8705378598        3.5098387562
  O        -0.9909137779        4.4321623093        3.5632317143
  O         6.8134853538       11.8681556470        3.5041439492
  O         9.3776985136        7.4286734658        3.4965704751
  O        11.9408423452        2.9746755553        3.5262971164
  O         1.6854689410       11.8616029916        3.5081464375
  O         4.2430691989        7.4327408633        3.5299347476
  O         6.8934341411        3.0733232436        3.4020323624
  O        -3.4359111594       11.8119676863        3.5376309727
  O        -0.8870915805        7.4189380572        3.5148026488
  O         1.7041094910        2.9740753128        3.5840436312
  O         9.4248484043       10.2070702811        3.4816070596
  O        11.9846293768        5.7914617585        3.5129632978
  O        14.5436014914        1.3493157794        3.4972007828
  O         4.2820150847       10.2316072039        3.5221554314
  O         6.8773149326        5.7927019292        3.4714466049
  O         9.4258113421        1.3466809072        3.5025242141
  O        -0.8346630460       10.2293434336        3.5094594556
  O         1.6813553936        5.8707702211        3.5695302909
  O         4.2599635375        1.3480705169        3.5420290995
 Fe         5.0511632214       11.8442034870        4.4255715697
 Fe         7.6079295102        7.3906471567        4.4226915477
 Fe        10.1579833339        2.9635262629        4.4211709307
 Fe        -0.0872917728       11.8367599435        4.4357586184
 Fe         2.4812423365        7.4603270474        4.4585314121
 Fe         5.1073891192        2.9826206058        4.3671532966
 Fe        -5.2316957663       11.8354795778        4.4160541605
 Fe        -2.6639057341        7.4047143805        4.4269646406
 Fe        -0.0796110392        2.9142582700        4.4802270485
 Fe         7.6219499894       13.1874760960        4.8474760201
 Fe        10.1700201375        8.7454290427        4.8064278965
 Fe        12.7354708115        4.3046870090        4.8264980180
 Fe         2.4830598623       13.1861915864        4.8067631630
 Fe         5.0614048892        8.7530434495        4.8326258884
 Fe         7.6408073464        4.3325426818        4.7937833798
 Fe        -2.6594695366       13.1614708851        4.8420585616
 Fe        -0.0942576027        8.7474553017        4.8154038215
 Fe         2.4184010036        4.4440879223        4.7622312166
  O         5.8547364807       10.3531494842        5.8815526531
  O         8.4319261041        5.9211267972        5.8743328302
  O        10.9795086669        1.4640010492        5.8703333826
  O         0.7337132022       10.3433278431        5.8732258289
  O         3.2942411567        5.9291461618        5.8936418276
  O         5.8803564046        1.4408434771        5.8825199789
  O        -4.3999967724       10.3078955813        5.8816744509
  O        -1.8350785113        5.9107499320        5.8825481456
  O         0.6823638371        1.4573827894        5.8602389156
  O         5.9133081506       13.1728205872        5.7011014082
  O         8.4913055436        8.7236238779        5.6940165332
  O        11.0482909867        4.2928173980        5.6986218803
  O         0.8135831696       13.1697008234        5.7090380252
  O         3.3705584499        8.7473030316        5.7141201389
  O         6.0044475888        4.3149007380        5.7431528665
  O        -4.3232078452       13.0315488305        5.6518681614
  O        -1.7677147178        8.7311412938        5.6975318791
  O         0.8009601040        4.3175015356        5.7272363925
  O         3.4707302532       11.7807576449        5.6724152600
  O         6.0382559002        7.3314250433        5.6863288528
  O         8.5865542164        2.8940814894        5.6652940634
  O        -1.6308119132       11.7518314521        5.6885614985
  O         0.9100261569        7.3664229662        5.7122501382
  O         3.4791244827        2.9389757005        5.6231083714
  O        -6.7957983158       11.7499574007        5.6748284797
  O        -4.2235453666        7.3342205816        5.6750884504
  O        -1.6653637083        2.9040644858        5.7003069758
 Fe         7.7797965670       10.2612582772        6.4368257204
 Fe        10.3509357059        5.8355905052        6.4362933457
 Fe        12.9039454518        1.3921098305        6.4396492538
 Fe         2.6536957551       10.2910103259        6.4415226195
 Fe         5.2251446618        5.8358610909        6.4301257813
 Fe         7.8011066027        1.3887687305        6.4356060242
 Fe        -2.4810188692       10.2708819455        6.4372947460
 Fe         0.0820932574        5.8604304018        6.4416528907
 Fe         2.6499966307        1.1630572514        6.6818163275
  O         7.8376320943       10.3832135814        8.2707553133
  H         7.8875702047        9.5487964887        8.7705901182
  H         5.3430616621       10.6184399548        6.6772760404
  O        10.3975415285        5.9431833141        8.2699318984
  H        10.4560132524        5.1080587045        8.7674540193
  H         7.9134273085        6.1779183393        6.6690171515
  O        12.9663054566        1.5055750207        8.2741350246
  H        13.0142409943        0.6676575029        8.7690336808
  H        10.4789271009        1.7362621478        6.6706208073
  O         2.7119281959       10.3869289976        8.2740544580
  H         2.7585396497        9.5501218183        8.7704782275
  H         0.2170353441       10.6131433455        6.6657678126
  O         5.2277023903        5.9649161516        8.2836193525
  H         5.4789024955        5.1345709983        8.7367342490
  H         2.7746202807        6.2012001922        6.6806692819
  O         7.7780968570        1.5078367455        8.2802097697
  H         7.9018530191        0.6691947714        8.7636090033
  H         5.4178107510        1.6917735651        6.7063121700
  O        -2.4116485650       10.3925494587        8.2721720145
  H        -2.3713462975        9.5535593348        8.7657416320
  H        -4.9090135332       10.6196739526        6.6630801125
  O         0.2054323086        5.9418309979        8.2810931202
  H         0.1502426205        5.0976670012        8.7666952161
  H        -2.3548359986        6.1802951077        6.6719074950
  O         2.5138468935        1.1996065276        8.6688589417
  H         2.7152952979        0.3713343506        9.1417682649
  H         0.2080077205        1.7270629040        6.6730379464
  C         3.6632466254        3.3769835537        9.7844573747
  C         3.4688536673        3.0607074379        8.3906206561
  H         3.9774116574        4.4373033851        9.8367901007
  H         2.6949002549        3.2351687846       10.2714759855
  H         4.4185976766        2.7146467749       10.2247477027
  N         3.3757439982        3.2397799693        7.2258801153
     168
 i =        5, E =     -8144.2274030233
 Fe         5.0938794100       11.8196869300        0.3885799900
 Fe         7.6575796300        7.3792284900        0.3885799900
 Fe        10.2212798400        2.9387700600        0.3885799900
 Fe        -0.0335205200       11.8196869300        0.3885799900
 Fe         2.5301797000        7.3792284900        0.3885799900
 Fe         5.0938799200        2.9387700600        0.3885799900
 Fe        -5.1609204400       11.8196869300        0.3885799900
 Fe        -2.5972202200        7.3792284900        0.3885799900
 Fe        -0.0335200000        2.9387700600        0.3885799900
  O         8.4519195100        8.9577468800        1.1642700400
  O        11.0156197300        4.5172884400        1.1642700400
  O        13.5793199500        0.0768300000        1.1642700400
  O         3.3245195900        8.9577468800        1.1642700400
  O         5.8882198100        4.5172884400        1.1642700400
  O         8.4519200300        0.0768300000        1.1642700400
  O        -1.8028803300        8.9577468800        1.1642700400
  O         0.7608198900        4.5172884400        1.1642700400
  O         3.3245201100        0.0768300000        1.1642700400
  O         8.4568493000       11.7183869300        1.1650400200
  O        11.0205495200        7.2779284900        1.1650400200
  O        13.5842497300        2.8374700500        1.1650400200
  O         3.3294493700       11.7183869300        1.1650400200
  O         5.8931495900        7.2779284900        1.1650400200
  O         8.4568498100        2.8374700500        1.1650400200
  O        -1.7979505500       11.7183869300        1.1650400200
  O         0.7657496700        7.2779284900        1.1650400200
  O         3.3294498900        2.8374700500        1.1650400200
  O         6.0627194200       10.3425368500        1.1660399400
  O         8.6264196400        5.9020784100        1.1660399400
  O        11.1901198600        1.4616199700        1.1660399400
  O         0.9353195000       10.3425368500        1.1660399400
  O         3.4990197200        5.9020784100        1.1660399400
  O         6.0627199400        1.4616199700        1.1660399400
  O        -4.1920804200       10.3425368500        1.1660399400
  O        -1.6283802000        5.9020784100        1.1660399400
  O         0.9353200200        1.4616199700        1.1660399400
 Fe         7.6576695000       13.2997167500        1.9292099500
 Fe        10.2213697200        8.8592583200        1.9292099500
 Fe        12.7850699400        4.4187998800        1.9292099500
 Fe         2.5302695800       13.2997167500        1.9292099500
 Fe         5.0939698000        8.8592583200        1.9292099500
 Fe         7.6576700200        4.4187998800        1.9292099500
 Fe        -2.5971303400       13.2997167500        1.9292099500
 Fe        -0.0334301200        8.8592583200        1.9292099500
 Fe         2.5302701000        4.4187998800        1.9292099500
 Fe         7.6573893600       10.3392168700        2.7128999200
 Fe        10.2210895800        5.8987584300        2.7128999200
 Fe        12.7847898000        1.4582999900        2.7128999200
 Fe         2.5299894400       10.3392168700        2.7128999200
 Fe         5.0936896600        5.8987584300        2.7128999200
 Fe         7.6573898800        1.4582999900        2.7128999200
 Fe        -2.5974104800       10.3392168700        2.7128999200
 Fe        -0.0337102600        5.8987584300        2.7128999200
 Fe         2.5299899600        1.4582999900        2.7128999200
  O         4.0855912659       13.3070193356        3.4910765449
  O         6.6396949862        8.8698860951        3.4963597756
  O         9.2323434120        4.4305148265        3.4996067843
  O        -1.0340175359       13.3380822842        3.5213202309
  O         1.5328627385        8.8741988111        3.5187950799
  O         4.0137761256        4.4511134775        3.4193875590
  O        -6.2033729155       13.2870773511        3.4583225109
  O        -3.5683971203        8.8767451378        3.5575903393
  O        -1.0177024972        4.4156536838        3.5142338046
  O         6.8140572050       11.8923918140        3.4672995466
  O         9.3776700498        7.3958168815        3.5424120574
  O        11.9539219056        3.0044252190        3.4894468575
  O         1.6844142874       11.8835021014        3.4806816019
  O         4.2465351559        7.4656215823        3.4909786319
  O         6.8317100168        3.0420155219        3.4495822159
  O        -3.4223894834       11.8724638884        3.4671462300
  O        -0.8825424795        7.4450505166        3.4840222445
  O         1.6997305557        3.0749163330        3.4173900856
  O         9.4019786164       10.2247494857        3.5286322076
  O        12.0086081864        5.7657726220        3.4659720430
  O        14.5705989151        1.3462969187        3.4589353027
  O         4.3119505330       10.2152201403        3.4687732368
  O         6.8867779674        5.7926888823        3.4619600708
  O         9.4387707329        1.3410250576        3.4693163406
  O        -0.8142203160       10.2257028570        3.4736277480
  O         1.7673046596        5.7955613036        3.4375419564
  O         4.3150868901        1.3388014761        3.4813735306
 Fe         5.0459060714       11.8367619070        4.4027405563
 Fe         7.5930648852        7.4066620587        4.4135366156
 Fe        10.1803821880        2.9502441636        4.4089641252
 Fe        -0.0936946290       11.8518397891        4.4149227353
 Fe         2.4748302600        7.4239395069        4.4494839699
 Fe         5.0334578770        2.9798568670        4.3878714673
 Fe        -5.2018231088       11.8473337199        4.4104364660
 Fe        -2.6531021295        7.3740823434        4.4181476753
 Fe        -0.0503956318        2.9312142708        4.4609365889
 Fe         7.6092493369       13.1849857659        4.8417676371
 Fe        10.1693312315        8.7412830533        4.8292960589
 Fe        12.7453237978        4.3015686778        4.8315485521
 Fe         2.4874325857       13.1891243419        4.8006116227
 Fe         5.0565926421        8.7530824229        4.8386634655
 Fe         7.6308472846        4.3341889665        4.8014043761
 Fe        -2.6512681154       13.1607662242        4.8577054489
 Fe        -0.0996492557        8.7507386254        4.8175641403
 Fe         2.4299340328        4.3764396657        4.7759814189
  O         5.8552236180       10.3562187111        5.8889507777
  O         8.4345263271        5.9265726975        5.8662830419
  O        10.9796093291        1.4671558317        5.8788164469
  O         0.7304963060       10.3563583754        5.8768253386
  O         3.2840837162        5.9312717876        5.8960486166
  O         5.8784084651        1.4555299692        5.8880764343
  O        -4.4035841729       10.2957727638        5.8889064819
  O        -1.8417683634        5.9118834767        5.8941152635
  O         0.6694324650        1.4457232465        5.8783628266
  O         5.9064368100       13.1597035849        5.7003599073
  O         8.4856335974        8.7209068904        5.7008740191
  O        11.0455765409        4.2916195805        5.7004905932
  O         0.8277672617       13.1566412721        5.7264161173
  O         3.3634327736        8.7355047600        5.7229507139
  O         5.9833072876        4.3020517021        5.7321266999
  O        -4.3152495240       13.0394416015        5.6990692347
  O        -1.7804878760        8.7221112098        5.6985381351
  O         0.8069151818        4.3071925898        5.7602684180
  O         3.4798479186       11.7956559208        5.6845079196
  O         6.0412308648        7.3304107593        5.6899734506
  O         8.6008416413        2.8978809404        5.6500482680
  O        -1.6169250852       11.7548348765        5.7053045600
  O         0.9149893525        7.3956680716        5.7404803126
  O         3.4867687449        2.8380900701        5.6350863286
  O        -6.7845858636       11.7584897709        5.6691695220
  O        -4.2102877961        7.3344198247        5.6786346570
  O        -1.6467527490        2.9018175110        5.7039655667
 Fe         7.7846584371       10.2641127207        6.4401688660
 Fe        10.3536878265        5.8415173836        6.4398381621
 Fe        12.9078601891        1.3906336240        6.4388725611
 Fe         2.6595978832       10.2973384342        6.4441446311
 Fe         5.2165744249        5.8330267303        6.4361627103
 Fe         7.8138175147        1.3906457594        6.4307068440
 Fe        -2.4812241876       10.2699705402        6.4416587347
 Fe         0.0848217689        5.8707627780        6.4432764030
 Fe         2.5969376652        1.1202822913        6.7098699383
  O         7.8368483335       10.3790189356        8.2733901637
  H         7.8880047165        9.5455257921        8.7753607468
  H         5.3409822614       10.6229302614        6.6847441839
  O        10.3962030740        5.9415884011        8.2744529691
  H        10.4576953768        5.1048104793        8.7697450507
  H         7.9168737120        6.1784509712        6.6651796749
  O        12.9596736130        1.5021692409        8.2752982905
  H        13.0158973776        0.6656592011        8.7726378126
  H        10.4735102472        1.7382373981        6.6760667095
  O         2.7113255155       10.3926465905        8.2810301887
  H         2.7577864216        9.5489838378        8.7684871633
  H         0.2110221809       10.6135197822        6.6727652273
  O         5.2404071473        5.9588821582        8.2862423284
  H         5.5190742426        5.1444148137        8.7360079889
  H         2.7818754034        6.2062272332        6.6989780204
  O         7.7653177586        1.5036085044        8.2766184631
  H         7.9010943818        0.6717193365        8.7665189494
  H         5.4128265061        1.7046959137        6.7154813931
  O        -2.4118067834       10.3929983822        8.2764749971
  H        -2.3730061670        9.5532932990        8.7695084787
  H        -4.9126828586       10.6131412204        6.6662972476
  O         0.2096615527        5.9423408504        8.2851298230
  H         0.1420795721        5.0947490303        8.7615551983
  H        -2.3601653226        6.1883822825        6.6817417779
  O         2.5363188494        1.1978172651        8.6446342415
  H         2.7336017317        0.3949034586        9.1506674191
  H         0.1874251726        1.7210560484        6.6883501945
  C         3.6558013076        3.3893778707        9.8132710953
  C         3.4973123408        3.0822583621        8.4194987242
  H         3.9733141678        4.4418495583        9.8522587483
  H         2.7068776537        3.2336515906       10.3442473999
  H         4.4101588541        2.7245533862       10.2561611446
  N         3.2570893159        3.3271578044        7.2844406108
     168
 i =        6, E =     -8144.2379923133
 Fe         5.0938794100       11.8196869300        0.3885799900
 Fe         7.6575796300        7.3792284900        0.3885799900
 Fe        10.2212798400        2.9387700600        0.3885799900
 Fe        -0.0335205200       11.8196869300        0.3885799900
 Fe         2.5301797000        7.3792284900        0.3885799900
 Fe         5.0938799200        2.9387700600        0.3885799900
 Fe        -5.1609204400       11.8196869300        0.3885799900
 Fe        -2.5972202200        7.3792284900        0.3885799900
 Fe        -0.0335200000        2.9387700600        0.3885799900
  O         8.4519195100        8.9577468800        1.1642700400
  O        11.0156197300        4.5172884400        1.1642700400
  O        13.5793199500        0.0768300000        1.1642700400
  O         3.3245195900        8.9577468800        1.1642700400
  O         5.8882198100        4.5172884400        1.1642700400
  O         8.4519200300        0.0768300000        1.1642700400
  O        -1.8028803300        8.9577468800        1.1642700400
  O         0.7608198900        4.5172884400        1.1642700400
  O         3.3245201100        0.0768300000        1.1642700400
  O         8.4568493000       11.7183869300        1.1650400200
  O        11.0205495200        7.2779284900        1.1650400200
  O        13.5842497300        2.8374700500        1.1650400200
  O         3.3294493700       11.7183869300        1.1650400200
  O         5.8931495900        7.2779284900        1.1650400200
  O         8.4568498100        2.8374700500        1.1650400200
  O        -1.7979505500       11.7183869300        1.1650400200
  O         0.7657496700        7.2779284900        1.1650400200
  O         3.3294498900        2.8374700500        1.1650400200
  O         6.0627194200       10.3425368500        1.1660399400
  O         8.6264196400        5.9020784100        1.1660399400
  O        11.1901198600        1.4616199700        1.1660399400
  O         0.9353195000       10.3425368500        1.1660399400
  O         3.4990197200        5.9020784100        1.1660399400
  O         6.0627199400        1.4616199700        1.1660399400
  O        -4.1920804200       10.3425368500        1.1660399400
  O        -1.6283802000        5.9020784100        1.1660399400
  O         0.9353200200        1.4616199700        1.1660399400
 Fe         7.6576695000       13.2997167500        1.9292099500
 Fe        10.2213697200        8.8592583200        1.9292099500
 Fe        12.7850699400        4.4187998800        1.9292099500
 Fe         2.5302695800       13.2997167500        1.9292099500
 Fe         5.0939698000        8.8592583200        1.9292099500
 Fe         7.6576700200        4.4187998800        1.9292099500
 Fe        -2.5971303400       13.2997167500        1.9292099500
 Fe        -0.0334301200        8.8592583200        1.9292099500
 Fe         2.5302701000        4.4187998800        1.9292099500
 Fe         7.6573893600       10.3392168700        2.7128999200
 Fe        10.2210895800        5.8987584300        2.7128999200
 Fe        12.7847898000        1.4582999900        2.7128999200
 Fe         2.5299894400       10.3392168700        2.7128999200
 Fe         5.0936896600        5.8987584300        2.7128999200
 Fe         7.6573898800        1.4582999900        2.7128999200
 Fe        -2.5974104800       10.3392168700        2.7128999200
 Fe        -0.0337102600        5.8987584300        2.7128999200
 Fe         2.5299899600        1.4582999900        2.7128999200
  O         4.0984521671       13.3161239919        3.5152143457
  O         6.6712603804        8.8828013186        3.5530361718
  O         9.2342326886        4.4249961629        3.4899002701
  O        -1.0429624422       13.3276925710        3.4998129891
  O         1.5404634575        8.8812662580        3.5336338380
  O         4.0031059443        4.4577949049        3.4223289002
  O        -6.1964265449       13.2948190320        3.4694800488
  O        -3.5779395495        8.8757249473        3.5464284476
  O        -1.0021096293        4.4306956399        3.5453658257
  O         6.8117088083       11.8940732543        3.4651182422
  O         9.3819723105        7.4026338660        3.5360884428
  O        11.9535206166        2.9876070196        3.5163011452
  O         1.6837416371       11.8717643455        3.5030748490
  O         4.2497326149        7.4280447101        3.5468056052
  O         6.8475548537        3.0513426678        3.4538919673
  O        -3.4197055750       11.8896313673        3.4462668791
  O        -0.8759570882        7.4329577255        3.5099863455
  O         1.6977002072        3.0772177295        3.4167406654
  O         9.4084493431       10.2160608553        3.5191950273
  O        11.9966708421        5.7733935802        3.4942013379
  O        14.5688912649        1.3427410396        3.4591685862
  O         4.2862342424       10.2349440472        3.5190177815
  O         6.8812650556        5.7864637018        3.4691902634
  O         9.4262748949        1.3480288224        3.4948355419
  O        -0.8234952433       10.2320876860        3.4922635504
  O         1.7663609019        5.7920393248        3.4425838904
  O         4.3172262923        1.3038842937        3.4593671487
 Fe         5.0547961485       11.8441143861        4.4198665556
 Fe         7.6078284109        7.3925168263        4.4240928165
 Fe        10.1802652624        2.9557810529        4.4195589990
 Fe        -0.0973713887       11.8578760710        4.4223652363
 Fe         2.4695191002        7.4290294691        4.4610180071
 Fe         5.0234344974        2.9562753729        4.3706480136
 Fe        -5.1993311936       11.8387676183        4.4073390005
 Fe        -2.6562929371        7.3860278634        4.4225294987
 Fe        -0.0540562988        2.9218235888        4.4682458491
 Fe         7.6108699073       13.1862734669        4.8394890002
 Fe        10.1707343259        8.7399150262        4.8385428272
 Fe        12.7518437544        4.3005354373        4.8426058575
 Fe         2.4923902630       13.1892272969        4.8097644406
 Fe         5.0545572342        8.7537134095        4.8588118466
 Fe         7.6515287008        4.3457441468        4.8060396400
 Fe        -2.6479529241       13.1520745724        4.8591796275
 Fe        -0.0961916939        8.7577031438        4.8255159416
 Fe         2.4147936709        4.3737614432        4.7830154408
  O         5.8561085993       10.3505037054        5.8903671568
  O         8.4394365443        5.9274554451        5.8696447831
  O        10.9835351510        1.4700219774        5.8778387398
  O         0.7320289646       10.3575780970        5.8765564294
  O         3.2826547311        5.9346987230        5.8878418246
  O         5.8942504323        1.4128705246        5.9198880736
  O        -4.3999884694       10.2900724727        5.8945580431
  O        -1.8382499232        5.9119716638        5.8976326770
  O         0.6699897871        1.4416914708        5.8803294701
  O         5.9131331478       13.1670946988        5.6976042804
  O         8.4828752894        8.7228717152        5.7048124921
  O        11.0513042765        4.2958205913        5.6996924678
  O         0.8336986028       13.1595980924        5.7260467195
  O         3.3618419348        8.7396149498        5.7289827047
  O         5.9929292174        4.3188664339        5.7313914295
  O        -4.3139696007       13.0329678949        5.6917184000
  O        -1.7735486466        8.7236529414        5.7020911922
  O         0.7960043610        4.3108302408        5.7529446506
  O         3.4781944636       11.7920184305        5.6837212410
  O         6.0429175818        7.3277479442        5.6867286897
  O         8.6006761218        2.8966709366        5.6490473316
  O        -1.6189208460       11.7520420508        5.7068215888
  O         0.9072613022        7.3915472322        5.7349995986
  O         3.4768892449        2.7967040533        5.6140512186
  O        -6.7874202382       11.7628185083        5.6686676567
  O        -4.2094810886        7.3282047596        5.6825607057
  O        -1.6503818828        2.8981599421        5.7073236744
 Fe         7.7834865460       10.2679573549        6.4398114702
 Fe        10.3520567879        5.8385391070        6.4390429469
 Fe        12.9074783691        1.3885877025        6.4388811023
 Fe         2.6553377402       10.3000687139        6.4436404089
 Fe         5.2102345585        5.8421691691        6.4434946398
 Fe         7.8290956243        1.3894510384        6.4363274476
 Fe        -2.4795398446       10.2671701814        6.4419691546
 Fe         0.0873223107        5.8722596608        6.4487066978
 Fe         2.5827893223        1.0785952224        6.7608695689
  O         7.8365980595       10.3763277731        8.2729745795
  H         7.8882960412        9.5439306846        8.7767485274
  H         5.3439015842       10.6269518299        6.6838650795
  O        10.3949531335        5.9395493422        8.2728248520
  H        10.4587694128        5.1037326802        8.7691803069
  H         7.9180020503        6.1814337700        6.6636206798
  O        12.9570088940        1.4998420557        8.2735794431
  H        13.0164437868        0.6649418345        8.7727157703
  H        10.4754163556        1.7393305796        6.6743842419
  O         2.7125612396       10.3938133710        8.2799282350
  H         2.7568453140        9.5497973888        8.7665332168
  H         0.2113759172       10.6158044083        6.6705767767
  O         5.2401238755        5.9608691072        8.2929021401
  H         5.5606203426        5.1496644500        8.7322419037
  H         2.7869179762        6.2039738190        6.6982405123
  O         7.7542448528        1.5044794432        8.2793689285
  H         7.9019407538        0.6722073116        8.7650446775
  H         5.4142227577        1.7063314944        6.7226159273
  O        -2.4113513408       10.3922938412        8.2759395315
  H        -2.3744161554        9.5537503775        8.7706716272
  H        -4.9145479610       10.6128942825        6.6663915447
  O         0.2158047524        5.9435419118        8.2884920338
  H         0.1339598920        5.0917695055        8.7562261324
  H        -2.3610011081        6.1925982388        6.6817843459
  O         2.5221575123        1.1592890885        8.6886933828
  H         2.7384275336        0.3611474840        9.1990988157
  H         0.1776957305        1.7187974080        6.6847146366
  C         3.6678470231        3.3935262324        9.8377056322
  C         3.4664623249        3.0996051767        8.4449309405
  H         3.9702869232        4.4503324758        9.8653785966
  H         2.7161131270        3.2404604247       10.3668739684
  H         4.4218190108        2.7321397826       10.2836188122
  N         3.1716505444        3.4323396038        7.3164415942
     168
 i =        7, E =     -8144.2504919159
 Fe         5.0938794100       11.8196869300        0.3885799900
 Fe         7.6575796300        7.3792284900        0.3885799900
 Fe        10.2212798400        2.9387700600        0.3885799900
 Fe        -0.0335205200       11.8196869300        0.3885799900
 Fe         2.5301797000        7.3792284900        0.3885799900
 Fe         5.0938799200        2.9387700600        0.3885799900
 Fe        -5.1609204400       11.8196869300        0.3885799900
 Fe        -2.5972202200        7.3792284900        0.3885799900
 Fe        -0.0335200000        2.9387700600        0.3885799900
  O         8.4519195100        8.9577468800        1.1642700400
  O        11.0156197300        4.5172884400        1.1642700400
  O        13.5793199500        0.0768300000        1.1642700400
  O         3.3245195900        8.9577468800        1.1642700400
  O         5.8882198100        4.5172884400        1.1642700400
  O         8.4519200300        0.0768300000        1.1642700400
  O        -1.8028803300        8.9577468800        1.1642700400
  O         0.7608198900        4.5172884400        1.1642700400
  O         3.3245201100        0.0768300000        1.1642700400
  O         8.4568493000       11.7183869300        1.1650400200
  O        11.0205495200        7.2779284900        1.1650400200
  O        13.5842497300        2.8374700500        1.1650400200
  O         3.3294493700       11.7183869300        1.1650400200
  O         5.8931495900        7.2779284900        1.1650400200
  O         8.4568498100        2.8374700500        1.1650400200
  O        -1.7979505500       11.7183869300        1.1650400200
  O         0.7657496700        7.2779284900        1.1650400200
  O         3.3294498900        2.8374700500        1.1650400200
  O         6.0627194200       10.3425368500        1.1660399400
  O         8.6264196400        5.9020784100        1.1660399400
  O        11.1901198600        1.4616199700        1.1660399400
  O         0.9353195000       10.3425368500        1.1660399400
  O         3.4990197200        5.9020784100        1.1660399400
  O         6.0627199400        1.4616199700        1.1660399400
  O        -4.1920804200       10.3425368500        1.1660399400
  O        -1.6283802000        5.9020784100        1.1660399400
  O         0.9353200200        1.4616199700        1.1660399400
 Fe         7.6576695000       13.2997167500        1.9292099500
 Fe        10.2213697200        8.8592583200        1.9292099500
 Fe        12.7850699400        4.4187998800        1.9292099500
 Fe         2.5302695800       13.2997167500        1.9292099500
 Fe         5.0939698000        8.8592583200        1.9292099500
 Fe         7.6576700200        4.4187998800        1.9292099500
 Fe        -2.5971303400       13.2997167500        1.9292099500
 Fe        -0.0334301200        8.8592583200        1.9292099500
 Fe         2.5302701000        4.4187998800        1.9292099500
 Fe         7.6573893600       10.3392168700        2.7128999200
 Fe        10.2210895800        5.8987584300        2.7128999200
 Fe        12.7847898000        1.4582999900        2.7128999200
 Fe         2.5299894400       10.3392168700        2.7128999200
 Fe         5.0936896600        5.8987584300        2.7128999200
 Fe         7.6573898800        1.4582999900        2.7128999200
 Fe        -2.5974104800       10.3392168700        2.7128999200
 Fe        -0.0337102600        5.8987584300        2.7128999200
 Fe         2.5299899600        1.4582999900        2.7128999200
  O         4.0969665708       13.3214360786        3.5210168266
  O         6.6751602232        8.8894043417        3.5611039954
  O         9.2269429180        4.4297646285        3.4922865605
  O        -1.0202547769       13.3210638239        3.5220294426
  O         1.5358773915        8.8813161333        3.5266083186
  O         4.0616067830        4.4625680655        3.4957413417
  O        -6.1774266665       13.3151412845        3.4924719648
  O        -3.6096153365        8.8701197948        3.5013625806
  O        -1.0012728601        4.4452824983        3.5604898229
  O         6.8079778825       11.8871081595        3.4773896523
  O         9.3841074012        7.4334001997        3.4971380926
  O        11.9508704733        2.9813374446        3.5253526578
  O         1.6851134219       11.8719007416        3.5029353985
  O         4.2550881751        7.4119366147        3.5552279485
  O         6.8519210168        3.0429441438        3.4471007084
  O        -3.4227609072       11.8747778244        3.4770785104
  O        -0.8644533101        7.4289697102        3.5213033599
  O         1.6951311352        3.0255703423        3.4881793496
  O         9.4384482163       10.1979261874        3.4708291915
  O        11.9922221645        5.7821416619        3.5077860555
  O        14.5575152085        1.3389692501        3.4763325426
  O         4.2805526738       10.2381360617        3.5308348239
  O         6.8735743931        5.7840105855        3.4792170594
  O         9.4235051286        1.3429724370        3.5011559736
  O        -0.8271833061       10.2267726888        3.4957383048
  O         1.7319006182        5.8073960020        3.4978007036
  O         4.2881851156        1.3145948912        3.4879482033
 Fe         5.0492310207       11.8459790977        4.4242717356
 Fe         7.6157385650        7.3953313247        4.4200346829
 Fe        10.1714708294        2.9579851763        4.4192271998
 Fe        -0.0876158574       11.8402066445        4.4305755508
 Fe         2.4798294047        7.4446888664        4.4600793727
 Fe         5.0546679228        2.9305674697        4.3668369855
 Fe        -5.2191163284       11.8235432204        4.4061519395
 Fe        -2.6600727979        7.4073147632        4.4146278688
 Fe        -0.0827713817        2.9187044921        4.4694082659
 Fe         7.6194818346       13.1892043592        4.8304392779
 Fe        10.1726036562        8.7397954723        4.8373972444
 Fe        12.7528769288        4.3028884508        4.8421779601
 Fe         2.4918141659       13.1845790968        4.8112605487
 Fe         5.0528927227        8.7489980710        4.8540357088
 Fe         7.6414278424        4.3303880909        4.8012164342
 Fe        -2.6475620375       13.1660270510        4.8450707535
 Fe        -0.0883115162        8.7622224985        4.8257742757
 Fe         2.4267927537        4.3738130887        4.7685820885
  O         5.8544230252       10.3445209118        5.8872806798
  O         8.4333228930        5.9126534461        5.8710011581
  O        10.9873716636        1.4708849324        5.8737976935
  O         0.7334385980       10.3503700017        5.8761245839
  O         3.2839988756        5.9276625035        5.8703039513
  O         5.8958426673        1.4066510166        5.9113548766
  O        -4.3935635495       10.2975885550        5.8957594413
  O        -1.8309064892        5.9118792541        5.8977144166
  O         0.6862503421        1.4475319121        5.8764743056
  O         5.9221330322       13.1729149164        5.6840848125
  O         8.4854113290        8.7228591077        5.7100249994
  O        11.0560918794        4.2937853416        5.6942219121
  O         0.8243944051       13.1736727853        5.7100147176
  O         3.3690535196        8.7471759790        5.7299202820
  O         5.9687809524        4.3244220768        5.7148468094
  O        -4.3175650203       13.0402275414        5.6581741465
  O        -1.7624334867        8.7273435837        5.7039378172
  O         0.8015650273        4.3178098056        5.7048733180
  O         3.4737119940       11.7854492501        5.6814602748
  O         6.0435062336        7.3272231614        5.6834838500
  O         8.6001845249        2.8962456685        5.6600255576
  O        -1.6372428944       11.7572516163        5.6812714501
  O         0.9023569550        7.3626226302        5.7002079002
  O         3.4838481398        2.7873986280        5.5832599741
  O        -6.7979544964       11.7674062663        5.6736155080
  O        -4.2079957238        7.3230669077        5.6852138550
  O        -1.6636643367        2.8949075721        5.7051283546
 Fe         7.7815925724       10.2695712271        6.4379250775
 Fe        10.3512072048        5.8308564640        6.4376607559
 Fe        12.9096655002        1.3824155702        6.4383676664
 Fe         2.6484808222       10.2977943957        6.4389475003
 Fe         5.2069963726        5.8453026947        6.4378777386
 Fe         7.8164191823        1.3924860902        6.4378823775
 Fe        -2.4719481573       10.2690285483        6.4389192323
 Fe         0.0958703372        5.8584207845        6.4486683375
 Fe         2.5979047425        1.0800709044        6.7679249517
  O         7.8375135279       10.3759335238        8.2710974690
  H         7.8882835870        9.5443567160        8.7759288281
  H         5.3486942442       10.6303417181        6.6814077467
  O        10.3943725291        5.9381550263        8.2720498380
  H        10.4591777546        5.1034330938        8.7699590900
  H         7.9186213114        6.1852214538        6.6627396814
  O        12.9563646154        1.4980476704        8.2709565765
  H        13.0163023508        0.6652607731        8.7726928964
  H        10.4806891655        1.7403726920        6.6721838918
  O         2.7142704728       10.3926037887        8.2732987279
  H         2.7559499960        9.5527647114        8.7653835315
  H         0.2150932776       10.6207552032        6.6662486242
  O         5.2466722570        5.9567238656        8.2866270027
  H         5.5746907243        5.1537249379        8.7343856512
  H         2.7911985101        6.1888944513        6.6836728568
  O         7.7596144640        1.5052716882        8.2771064032
  H         7.9001047712        0.6742687549        8.7652307278
  H         5.4125211558        1.7011673290        6.7108383287
  O        -2.4116273171       10.3888995139        8.2731855463
  H        -2.3750034628        9.5541693259        8.7740141031
  H        -4.9141882544       10.6154691930        6.6669996719
  O         0.2121942365        5.9434897015        8.2859282142
  H         0.1343456089        5.0924062553        8.7535733597
  H        -2.3591166971        6.1945588134        6.6791862077
  O         2.5174516345        1.1439914215        8.6988042673
  H         2.7437851216        0.3425736077        9.2118317413
  H         0.1722160888        1.7204523168        6.6693645595
  C         3.6861124306        3.3971688594        9.8383690829
  C         3.3451216786        3.1837492994        8.4326484420
  H         3.9728549727        4.4534849161        9.9041066283
  H         2.7284411164        3.2453811878       10.3560098368
  H         4.4357048604        2.7373240274       10.2931737641
  N         3.2067269075        3.4415187323        7.3221998047
     168
 i =        8, E =     -8144.2339688359
 Fe         5.0938794100       11.8196869300        0.3885799900
 Fe         7.6575796300        7.3792284900        0.3885799900
 Fe        10.2212798400        2.9387700600        0.3885799900
 Fe        -0.0335205200       11.8196869300        0.3885799900
 Fe         2.5301797000        7.3792284900        0.3885799900
 Fe         5.0938799200        2.9387700600        0.3885799900
 Fe        -5.1609204400       11.8196869300        0.3885799900
 Fe        -2.5972202200        7.3792284900        0.3885799900
 Fe        -0.0335200000        2.9387700600        0.3885799900
  O         8.4519195100        8.9577468800        1.1642700400
  O        11.0156197300        4.5172884400        1.1642700400
  O        13.5793199500        0.0768300000        1.1642700400
  O         3.3245195900        8.9577468800        1.1642700400
  O         5.8882198100        4.5172884400        1.1642700400
  O         8.4519200300        0.0768300000        1.1642700400
  O        -1.8028803300        8.9577468800        1.1642700400
  O         0.7608198900        4.5172884400        1.1642700400
  O         3.3245201100        0.0768300000        1.1642700400
  O         8.4568493000       11.7183869300        1.1650400200
  O        11.0205495200        7.2779284900        1.1650400200
  O        13.5842497300        2.8374700500        1.1650400200
  O         3.3294493700       11.7183869300        1.1650400200
  O         5.8931495900        7.2779284900        1.1650400200
  O         8.4568498100        2.8374700500        1.1650400200
  O        -1.7979505500       11.7183869300        1.1650400200
  O         0.7657496700        7.2779284900        1.1650400200
  O         3.3294498900        2.8374700500        1.1650400200
  O         6.0627194200       10.3425368500        1.1660399400
  O         8.6264196400        5.9020784100        1.1660399400
  O        11.1901198600        1.4616199700        1.1660399400
  O         0.9353195000       10.3425368500        1.1660399400
  O         3.4990197200        5.9020784100        1.1660399400
  O         6.0627199400        1.4616199700        1.1660399400
  O        -4.1920804200       10.3425368500        1.1660399400
  O        -1.6283802000        5.9020784100        1.1660399400
  O         0.9353200200        1.4616199700        1.1660399400
 Fe         7.6576695000       13.2997167500        1.9292099500
 Fe        10.2213697200        8.8592583200        1.9292099500
 Fe        12.7850699400        4.4187998800        1.9292099500
 Fe         2.5302695800       13.2997167500        1.9292099500
 Fe         5.0939698000        8.8592583200        1.9292099500
 Fe         7.6576700200        4.4187998800        1.9292099500
 Fe        -2.5971303400       13.2997167500        1.9292099500
 Fe        -0.0334301200        8.8592583200        1.9292099500
 Fe         2.5302701000        4.4187998800        1.9292099500
 Fe         7.6573893600       10.3392168700        2.7128999200
 Fe        10.2210895800        5.8987584300        2.7128999200
 Fe        12.7847898000        1.4582999900        2.7128999200
 Fe         2.5299894400       10.3392168700        2.7128999200
 Fe         5.0936896600        5.8987584300        2.7128999200
 Fe         7.6573898800        1.4582999900        2.7128999200
 Fe        -2.5974104800       10.3392168700        2.7128999200
 Fe        -0.0337102600        5.8987584300        2.7128999200
 Fe         2.5299899600        1.4582999900        2.7128999200
  O         4.0975912833       13.3278085720        3.5317814345
  O         6.6710703280        8.8941087799        3.5543601366
  O         9.2148255823        4.4359347797        3.4985046062
  O        -0.9957928632       13.3234574886        3.5574765680
  O         1.5430650092        8.8810925299        3.5366962053
  O         4.1300842524        4.4616904780        3.5760715666
  O        -6.1040153412       13.3582158882        3.6052583052
  O        -3.5959286616        8.8802965901        3.5288415166
  O        -1.0090019417        4.4581513336        3.5692668011
  O         6.8016223988       11.8197306412        3.5820431474
  O         9.3816601104        7.4212206547        3.5236558225
  O        11.9522878728        2.9786568513        3.5312005534
  O         1.6877641848       11.8670561265        3.5077481821
  O         4.2581314962        7.4049945901        3.5489834077
  O         6.8489160560        3.0229126738        3.4481414483
  O        -3.4232168145       11.8504830875        3.5166076322
  O        -0.8572578825        7.4201363240        3.5337534004
  O         1.6946702938        2.9662908472        3.5647973361
  O         9.4340952214       10.2028462520        3.4898194698
  O        11.9893037991        5.7899951464        3.5145237379
  O        14.5002217943        1.3693540349        3.5854687149
  O         4.2771746965       10.2314795745        3.5328217740
  O         6.8709093460        5.7846235700        3.4808767928
  O         9.4168621667        1.3417227874        3.5114989437
  O        -0.8377392292       10.2219718157        3.5121321506
  O         1.6973235061        5.8149398345        3.5506641941
  O         4.2607553183        1.3414933473        3.5271369954
 Fe         5.0214011853       11.8382916314        4.4374133914
 Fe         7.6039953684        7.4024340323        4.4240455924
 Fe        10.1662925510        2.9615953667        4.4180550289
 Fe        -0.0769128244       11.8249056078        4.4352744767
 Fe         2.4949752150        7.4439086487        4.4614670533
 Fe         5.0895480487        2.9110182158        4.3622725839
 Fe        -5.2147096404       11.8041724402        4.4388136140
 Fe        -2.6526162826        7.4050203037        4.4271616489
 Fe        -0.1005228861        2.9415536296        4.4851280770
 Fe         7.6300376211       13.1919347199        4.8573919184
 Fe        10.1758503250        8.7384932319        4.8609677281
 Fe        12.7505135255        4.3084035675        4.8450422397
 Fe         2.4871774308       13.1822745523        4.8113862450
 Fe         5.0524999722        8.7441023180        4.8493925354
 Fe         7.6219274658        4.3125440946        4.7955358671
 Fe        -2.6488215797       13.1767590735        4.8332894430
 Fe        -0.0822021308        8.7615078493        4.8287573058
 Fe         2.4473082962        4.3644014505        4.7591158133
  O         5.8548263247       10.3434291964        5.8869542024
  O         8.4274481109        5.8952404115        5.8709411321
  O        10.9905948334        1.4694704324        5.8696255794
  O         0.7360154551       10.3431819260        5.8754443960
  O         3.2889113685        5.9197858237        5.8508457867
  O         5.8952528529        1.4037320320        5.8932451052
  O        -4.3874158997       10.3035400842        5.8971178901
  O        -1.8207312568        5.9064464762        5.9002265723
  O         0.7078570436        1.4565053249        5.8781970611
  O         5.9186587426       13.1741140774        5.6724100129
  O         8.4861508196        8.7205197870        5.7182046987
  O        11.0573828653        4.2907681228        5.6915226844
  O         0.8124681396       13.1866573095        5.6941390519
  O         3.3734598434        8.7527978598        5.7269132585
  O         5.9374476348        4.3220758687        5.6980762078
  O        -4.3163969057       13.0626539522        5.6346054631
  O        -1.7545597386        8.7355403671        5.7041525332
  O         0.8146284583        4.3298965215        5.6597400307
  O         3.4597422148       11.7847374615        5.6862358362
  O         6.0381213571        7.3287302304        5.6893040265
  O         8.6005499381        2.8980061869        5.6715475992
  O        -1.6542202512       11.7562874250        5.6509983530
  O         0.9007630328        7.3334167244        5.6642723385
  O         3.4994263800        2.7629913698        5.5402328013
  O        -6.8031980248       11.7620467748        5.6793967902
  O        -4.2053933428        7.3165142352        5.6910528795
  O        -1.6755712948        2.8927096965        5.7006058984
 Fe         7.7798832603       10.2685783798        6.4367632422
 Fe        10.3511034254        5.8234334753        6.4362796749
 Fe        12.9110911201        1.3780815608        6.4373266923
 Fe         2.6455215684       10.2938881296        6.4364919650
 Fe         5.2039629791        5.8422723954        6.4267940380
 Fe         7.8006741661        1.3960168878        6.4381000139
 Fe        -2.4710684933       10.2714327513        6.4349037943
 Fe         0.1035202347        5.8456053570        6.4412191736
 Fe         2.6120109711        1.0904381399        6.7788522935
  O         7.8389492729       10.3754664273        8.2681966489
  H         7.8881400233        9.5449551510        8.7743133377
  H         5.3524614179       10.6342950182        6.6806915448
  O        10.3932302832        5.9351070166        8.2705002602
  H        10.4599423866        5.1027270074        8.7718088671
  H         7.9189763944        6.1894714340        6.6597775841
  O        12.9540921576        1.4942476281        8.2676812363
  H        13.0167694034        0.6651153219        8.7744924057
  H        10.4880282786        1.7425423286        6.6701616024
  O         2.7151499756       10.3932582711        8.2676635034
  H         2.7548197260        9.5564889557        8.7632742864
  H         0.2194959612       10.6270937860        6.6618649367
  O         5.2620652184        5.9488961996        8.2733043604
  H         5.5966673467        5.1621892357        8.7362082589
  H         2.7939836386        6.1651375265        6.6647642879
  O         7.7678135024        1.5056922673        8.2733318292
  H         7.8969757655        0.6774357313        8.7674160245
  H         5.4062382464        1.6950446484        6.6911253765
  O        -2.4109021282       10.3841258992        8.2680099778
  H        -2.3759049911        9.5552925354        8.7785317255
  H        -4.9098288484       10.6184581039        6.6684082643
  O         0.2073986703        5.9392969388        8.2754377821
  H         0.1346474001        5.0942606843        8.7514933799
  H        -2.3543062349        6.1986713902        6.6750939086
  O         2.5175839224        1.1248218569        8.7047611244
  H         2.7504967102        0.3233731364        9.2238283165
  H         0.1639823439        1.7220572914        6.6532084152
  C         3.6782337888        3.4105916343        9.8495313912
  C         3.2735810878        3.2539699877        8.4334642544
  H         3.9806453994        4.4574585177        9.9616921593
  H         2.7337012967        3.2505946439       10.3834619474
  H         4.4433662260        2.7466798023       10.2779012131
  N         3.1917371566        3.5037513825        7.3328563857
     168
 i =        9, E =     -8144.2601379146
 Fe         5.0938794100       11.8196869300        0.3885799900
 Fe         7.6575796300        7.3792284900        0.3885799900
 Fe        10.2212798400        2.9387700600        0.3885799900
 Fe        -0.0335205200       11.8196869300        0.3885799900
 Fe         2.5301797000        7.3792284900        0.3885799900
 Fe         5.0938799200        2.9387700600        0.3885799900
 Fe        -5.1609204400       11.8196869300        0.3885799900
 Fe        -2.5972202200        7.3792284900        0.3885799900
 Fe        -0.0335200000        2.9387700600        0.3885799900
  O         8.4519195100        8.9577468800        1.1642700400
  O        11.0156197300        4.5172884400        1.1642700400
  O        13.5793199500        0.0768300000        1.1642700400
  O         3.3245195900        8.9577468800        1.1642700400
  O         5.8882198100        4.5172884400        1.1642700400
  O         8.4519200300        0.0768300000        1.1642700400
  O        -1.8028803300        8.9577468800        1.1642700400
  O         0.7608198900        4.5172884400        1.1642700400
  O         3.3245201100        0.0768300000        1.1642700400
  O         8.4568493000       11.7183869300        1.1650400200
  O        11.0205495200        7.2779284900        1.1650400200
  O        13.5842497300        2.8374700500        1.1650400200
  O         3.3294493700       11.7183869300        1.1650400200
  O         5.8931495900        7.2779284900        1.1650400200
  O         8.4568498100        2.8374700500        1.1650400200
  O        -1.7979505500       11.7183869300        1.1650400200
  O         0.7657496700        7.2779284900        1.1650400200
  O         3.3294498900        2.8374700500        1.1650400200
  O         6.0627194200       10.3425368500        1.1660399400
  O         8.6264196400        5.9020784100        1.1660399400
  O        11.1901198600        1.4616199700        1.1660399400
  O         0.9353195000       10.3425368500        1.1660399400
  O         3.4990197200        5.9020784100        1.1660399400
  O         6.0627199400        1.4616199700        1.1660399400
  O        -4.1920804200       10.3425368500        1.1660399400
  O        -1.6283802000        5.9020784100        1.1660399400
  O         0.9353200200        1.4616199700        1.1660399400
 Fe         7.6576695000       13.2997167500        1.9292099500
 Fe        10.2213697200        8.8592583200        1.9292099500
 Fe        12.7850699400        4.4187998800        1.9292099500
 Fe         2.5302695800       13.2997167500        1.9292099500
 Fe         5.0939698000        8.8592583200        1.9292099500
 Fe         7.6576700200        4.4187998800        1.9292099500
 Fe        -2.5971303400       13.2997167500        1.9292099500
 Fe        -0.0334301200        8.8592583200        1.9292099500
 Fe         2.5302701000        4.4187998800        1.9292099500
 Fe         7.6573893600       10.3392168700        2.7128999200
 Fe        10.2210895800        5.8987584300        2.7128999200
 Fe        12.7847898000        1.4582999900        2.7128999200
 Fe         2.5299894400       10.3392168700        2.7128999200
 Fe         5.0936896600        5.8987584300        2.7128999200
 Fe         7.6573898800        1.4582999900        2.7128999200
 Fe        -2.5974104800       10.3392168700        2.7128999200
 Fe        -0.0337102600        5.8987584300        2.7128999200
 Fe         2.5299899600        1.4582999900        2.7128999200
  O         4.0918260963       13.3175265543        3.5162746325
  O         6.6596223653        8.8811479652        3.5296743534
  O         9.2133745155        4.4293760075        3.4963881829
  O        -1.0196447309       13.3260698784        3.5303943008
  O         1.5453323131        8.8753149080        3.5340483180
  O         4.1003709798        4.4319841195        3.5139542964
  O        -6.1276485897       13.3413938633        3.5680917647
  O        -3.5911744865        8.8757714919        3.5277726500
  O        -1.0202984567        4.4429375396        3.5464509357
  O         6.8090640101       11.8358104461        3.5566130959
  O         9.3801307128        7.4178351424        3.5209575093
  O        11.9531429776        2.9927133034        3.5099697944
  O         1.6896702332       11.8716015499        3.5011876920
  O         4.2560596119        7.4220881087        3.5296204064
  O         6.8247661912        3.0093559704        3.4711314002
  O        -3.4194880071       11.8702467662        3.4828341304
  O        -0.8663924734        7.4299333084        3.5115322227
  O         1.6915635856        3.0095284193        3.4932877037
  O         9.4334949575       10.2085742825        3.4952733338
  O        11.9983490700        5.7823760094        3.4926895000
  O        14.5213548014        1.3679266413        3.5520118346
  O         4.2889575611       10.2229611201        3.5098259498
  O         6.8770983972        5.7848243095        3.4693076318
  O         9.4240891358        1.3447722306        3.4932880915
  O        -0.8276816042       10.2194681310        3.4984335996
  O         1.7371094509        5.7803859435        3.4925511680
  O         4.3008192899        1.3485742931        3.4903907924
 Fe         5.0298512467       11.8345997250        4.4256242766
 Fe         7.6023646191        7.4048686693        4.4185752706
 Fe        10.1751222076        2.9569127868        4.4157871968
 Fe        -0.0845544097       11.8374163285        4.4176051854
 Fe         2.4885376208        7.4208851696        4.4556925791
 Fe         5.0598185675        2.9244149801        4.3638652506
 Fe        -5.2041404711       11.8203345594        4.4277202941
 Fe        -2.6524864316        7.3954543814        4.4208775169
 Fe        -0.0848120317        2.9406039081        4.4776597047
 Fe         7.6247769019       13.1891911612        4.8648095553
 Fe        10.1764804233        8.7325697915        4.8570176426
 Fe        12.7489264283        4.3068740034        4.8470797987
 Fe         2.4844413430       13.1871586006        4.8083571991
 Fe         5.0537844932        8.7450964069        4.8542296310
 Fe         7.6195136226        4.3190741224        4.7978722825
 Fe        -2.6501543411       13.1667593648        4.8421084339
 Fe        -0.0858853638        8.7536401679        4.8283429373
 Fe         2.4509158435        4.3346643131        4.7770676562
  O         5.8522263315       10.3488465566        5.8935422705
  O         8.4282237891        5.9011975204        5.8688092886
  O        10.9869486091        1.4693815605        5.8714658257
  O         0.7335715676       10.3509611546        5.8766409150
  O         3.2913050672        5.9308319834        5.8512356485
  O         5.8951649113        1.4148788294        5.8879797159
  O        -4.3969261576       10.3000765436        5.8970440206
  O        -1.8263481375        5.9076883320        5.9026257747
  O         0.7006006119        1.4532620988        5.8926747788
  O         5.9107347039       13.1642554086        5.6892985318
  O         8.4898809132        8.7169540684        5.7196541088
  O        11.0515935591        4.2899536579        5.6955597650
  O         0.8142262245       13.1741857959        5.7041742134
  O         3.3671602159        8.7429165464        5.7278791519
  O         5.9381535674        4.3071266269        5.6981969720
  O        -4.3119396523       13.0605926943        5.6674012041
  O        -1.7608700382        8.7299782944        5.7048619912
  O         0.8070262259        4.3200376543        5.6790186169
  O         3.4660033075       11.7925264069        5.6867152396
  O         6.0418892113        7.3265468766        5.6911683870
  O         8.6019942273        2.9018531789        5.6651410423
  O        -1.6385600615       11.7513122692        5.6662978229
  O         0.9104953024        7.3493324487        5.6863493040
  O         3.5084679081        2.7233257061        5.5409745040
  O        -6.7887753405       11.7583179817        5.6833905041
  O        -4.2010602115        7.3192099244        5.6939806184
  O        -1.6626617047        2.9010182225        5.7098006851
 Fe         7.7796294452       10.2657055059        6.4396785279
 Fe        10.3499295908        5.8268102800        6.4385254126
 Fe        12.9089567853        1.3833620157        6.4370450544
 Fe         2.6538221187       10.2957917461        6.4415173763
 Fe         5.2077997985        5.8326666049        6.4289609854
 Fe         7.8077610241        1.3949287215        6.4369450256
 Fe        -2.4755039373       10.2683403777        6.4390658694
 Fe         0.1020779160        5.8511015303        6.4391694911
 Fe         2.5984970682        1.0830131686        6.7923311425
  O         7.8392258029       10.3753132853        8.2711524115
  H         7.8880383873        9.5430433574        8.7750426573
  H         5.3492333000       10.6346061233        6.6885379351
  O        10.3924737268        5.9338299705        8.2726039721
  H        10.4606297021        5.1008698905        8.7731340685
  H         7.9180211306        6.1886289334        6.6590706808
  O        12.9504699947        1.4923862415        8.2693792968
  H        13.0181273175        0.6635011558        8.7770719296
  H        10.4873058497        1.7442100972        6.6725108808
  O         2.7136172378       10.3972920373        8.2746243687
  H         2.7545968918        9.5553764674        8.7633885836
  H         0.2164440367       10.6278790002        6.6669097872
  O         5.2693460947        5.9483704693        8.2735437001
  H         5.6204576489        5.1666812033        8.7337937615
  H         2.7915270278        6.1588953683        6.6690905059
  O         7.7644635178        1.5053124157        8.2735794012
  H         7.8961372156        0.6781557905        8.7697967648
  H         5.3979049499        1.6991088913        6.6864014086
  O        -2.4094949061       10.3862094568        8.2719730577
  H        -2.3764804301        9.5549019226        8.7792007752
  H        -4.9079888844       10.6169942298        6.6749258582
  O         0.2098415508        5.9380027408        8.2751798670
  H         0.1312382061        5.0924017480        8.7510732663
  H        -2.3525815396        6.2025084480        6.6803682715
  O         2.5327103039        1.1225195180        8.6941351773
  H         2.7529639658        0.3330685297        9.2220787140
  H         0.1574388454        1.7220773121        6.6659466346
  C         3.6377227686        3.4254450672        9.8839418892
  C         3.3830968805        3.2063776817        8.4790263856
  H         3.9813917096        4.4648040397        9.9729893286
  H         2.7183665485        3.2497248548       10.4551726207
  H         4.4318337479        2.7479853472       10.2495789623
  N         3.0811864076        3.6040455814        7.3611321000
     168
 i =       10, E =     -8144.2682437354
 Fe         5.0938794100       11.8196869300        0.3885799900
 Fe         7.6575796300        7.3792284900        0.3885799900
 Fe        10.2212798400        2.9387700600        0.3885799900
 Fe        -0.0335205200       11.8196869300        0.3885799900
 Fe         2.5301797000        7.3792284900        0.3885799900
 Fe         5.0938799200        2.9387700600        0.3885799900
 Fe        -5.1609204400       11.8196869300        0.3885799900
 Fe        -2.5972202200        7.3792284900        0.3885799900
 Fe        -0.0335200000        2.9387700600        0.3885799900
  O         8.4519195100        8.9577468800        1.1642700400
  O        11.0156197300        4.5172884400        1.1642700400
  O        13.5793199500        0.0768300000        1.1642700400
  O         3.3245195900        8.9577468800        1.1642700400
  O         5.8882198100        4.5172884400        1.1642700400
  O         8.4519200300        0.0768300000        1.1642700400
  O        -1.8028803300        8.9577468800        1.1642700400
  O         0.7608198900        4.5172884400        1.1642700400
  O         3.3245201100        0.0768300000        1.1642700400
  O         8.4568493000       11.7183869300        1.1650400200
  O        11.0205495200        7.2779284900        1.1650400200
  O        13.5842497300        2.8374700500        1.1650400200
  O         3.3294493700       11.7183869300        1.1650400200
  O         5.8931495900        7.2779284900        1.1650400200
  O         8.4568498100        2.8374700500        1.1650400200
  O        -1.7979505500       11.7183869300        1.1650400200
  O         0.7657496700        7.2779284900        1.1650400200
  O         3.3294498900        2.8374700500        1.1650400200
  O         6.0627194200       10.3425368500        1.1660399400
  O         8.6264196400        5.9020784100        1.1660399400
  O        11.1901198600        1.4616199700        1.1660399400
  O         0.9353195000       10.3425368500        1.1660399400
  O         3.4990197200        5.9020784100        1.1660399400
  O         6.0627199400        1.4616199700        1.1660399400
  O        -4.1920804200       10.3425368500        1.1660399400
  O        -1.6283802000        5.9020784100        1.1660399400
  O         0.9353200200        1.4616199700        1.1660399400
 Fe         7.6576695000       13.2997167500        1.9292099500
 Fe        10.2213697200        8.8592583200        1.9292099500
 Fe        12.7850699400        4.4187998800        1.9292099500
 Fe         2.5302695800       13.2997167500        1.9292099500
 Fe         5.0939698000        8.8592583200        1.9292099500
 Fe         7.6576700200        4.4187998800        1.9292099500
 Fe        -2.5971303400       13.2997167500        1.9292099500
 Fe        -0.0334301200        8.8592583200        1.9292099500
 Fe         2.5302701000        4.4187998800        1.9292099500
 Fe         7.6573893600       10.3392168700        2.7128999200
 Fe        10.2210895800        5.8987584300        2.7128999200
 Fe        12.7847898000        1.4582999900        2.7128999200
 Fe         2.5299894400       10.3392168700        2.7128999200
 Fe         5.0936896600        5.8987584300        2.7128999200
 Fe         7.6573898800        1.4582999900        2.7128999200
 Fe        -2.5974104800       10.3392168700        2.7128999200
 Fe        -0.0337102600        5.8987584300        2.7128999200
 Fe         2.5299899600        1.4582999900        2.7128999200
  O         4.0874047588       13.3080749822        3.5022966954
  O         6.6645291282        8.8746327811        3.5324808939
  O         9.2195220886        4.4282554450        3.5053502054
  O        -1.0302970100       13.3262303678        3.5190967546
  O         1.5359707598        8.8767703987        3.5184762667
  O         4.1174509503        4.4473684364        3.5629506352
  O        -6.1541536980       13.3252173164        3.5274191023
  O        -3.5817734041        8.8734113301        3.5357651880
  O        -1.0188743792        4.4332059792        3.5422975476
  O         6.8163379557       11.8507889082        3.5316441954
  O         9.3795004883        7.4113159632        3.5254297902
  O        11.9483536336        2.9922192336        3.5086673318
  O         1.6897627375       11.8749765265        3.4963032248
  O         4.2545178626        7.4237626793        3.5303296118
  O         6.8247962396        3.0047550349        3.4855264446
  O        -3.4194863807       11.8769087503        3.4699175285
  O        -0.8726043735        7.4403799495        3.4889140080
  O         1.6867234162        2.9802745480        3.5378491407
  O         9.4241430644       10.2162981717        3.5094839405
  O        11.9916405608        5.7826433587        3.4963841626
  O        14.5383508629        1.3615535145        3.5184725521
  O         4.2872050759       10.2246892249        3.5123492063
  O         6.8724313683        5.7839444888        3.4745458912
  O         9.4313153143        1.3463656715        3.4798254693
  O        -0.8147343475       10.2144555599        3.4788347764
  O         1.7216795803        5.7943720619        3.5337242620
  O         4.3198449591        1.3450211033        3.4721090765
 Fe         5.0430893764       11.8386698967        4.4214347586
 Fe         7.6042857282        7.3976325756        4.4221546149
 Fe        10.1749798630        2.9517659665        4.4219206606
 Fe        -0.0912997647       11.8400944387        4.4098667331
 Fe         2.4839985798        7.4316977843        4.4576296995
 Fe         5.0584136571        2.9187739665        4.3742235451
 Fe        -5.2019274785       11.8392603047        4.4184255440
 Fe        -2.6467663868        7.3896289804        4.4210823857
 Fe        -0.0930173773        2.9273072249        4.4865655247
 Fe         7.6210534100       13.1875424375        4.8688872166
 Fe        10.1759393317        8.7316819818        4.8503698844
 Fe        12.7457007368        4.3076558223        4.8450163359
 Fe         2.4832474409       13.1909722109        4.8054172725
 Fe         5.0550068815        8.7487731056        4.8549259101
 Fe         7.6195452050        4.3240492960        4.8056199044
 Fe        -2.6518804296       13.1587968474        4.8527886119
 Fe        -0.0850945388        8.7472128447        4.8214485957
 Fe         2.4456397352        4.3261312170        4.8252148121
  O         5.8501606568       10.3491825886        5.8960496452
  O         8.4292517443        5.9060143024        5.8691947335
  O        10.9854709915        1.4695594220        5.8708168695
  O         0.7325709940       10.3524483054        5.8771581287
  O         3.3007068360        5.9439455491        5.8524466132
  O         5.8983293977        1.4221540080        5.8857234241
  O        -4.4022521198       10.3010339374        5.8945507043
  O        -1.8301463017        5.9069623721        5.8991243353
  O         0.6939299945        1.4500496534        5.9018542623
  O         5.9078983387       13.1608971866        5.7071961096
  O         8.4903795175        8.7168872405        5.7139269222
  O        11.0485749598        4.2922131337        5.6950842248
  O         0.8133481152       13.1668546090        5.7049205991
  O         3.3692391084        8.7415504582        5.7280799587
  O         5.9416648644        4.2958779128        5.7039218391
  O        -4.3105188260       13.0567187938        5.6894922582
  O        -1.7604421102        8.7280366512        5.7017588693
  O         0.7835136234        4.3084571110        5.6964012009
  O         3.4689792258       11.7910309531        5.6788516365
  O         6.0407692902        7.3272162168        5.6861515887
  O         8.5977090718        2.9025929292        5.6639188046
  O        -1.6283370429       11.7468220769        5.6802482366
  O         0.9146431319        7.3556440654        5.6993167598
  O         3.5092069409        2.7175844580        5.5523147614
  O        -6.7790261338       11.7536759080        5.6868742093
  O        -4.2029938833        7.3206090524        5.6886766602
  O        -1.6658134649        2.9113163618        5.7205871030
 Fe         7.7781531352       10.2636764379        6.4413748893
 Fe        10.3470044483        5.8288942440        6.4382177542
 Fe        12.9058087288        1.3876776653        6.4372721887
 Fe         2.6579075121       10.2944918734        6.4429298605
 Fe         5.2175265375        5.8281907566        6.4319483325
 Fe         7.8116298601        1.3920116891        6.4360433344
 Fe        -2.4767405798       10.2652450855        6.4410371679
 Fe         0.0957663472        5.8539006978        6.4382360784
 Fe         2.5962693051        1.0889826156        6.7961606827
  O         7.8395370957       10.3758578742        8.2731640742
  H         7.8876705897        9.5421683299        8.7748528756
  H         5.3474536356       10.6323124847        6.6918687859
  O        10.3921969338        5.9324138896        8.2717971453
  H        10.4605930220        5.1004550304        8.7738995209
  H         7.9153348446        6.1875720802        6.6582599726
  O        12.9490805117        1.4921007489        8.2699514328
  H        13.0186203830        0.6631061970        8.7772493306
  H        10.4865600087        1.7448069790        6.6715014446
  O         2.7124344489       10.3978505921        8.2763603149
  H         2.7545696513        9.5554635609        8.7647805729
  H         0.2154585220       10.6285965338        6.6684899460
  O         5.2731359452        5.9498620181        8.2754048271
  H         5.6294473150        5.1660505744        8.7328859554
  H         2.7875961546        6.1521516264        6.6676149012
  O         7.7655099438        1.5063613380        8.2737479958
  H         7.8952467242        0.6784525075        8.7707842634
  H         5.3873173779        1.7005443389        6.6768387034
  O        -2.4087577507       10.3880167372        8.2738165299
  H        -2.3762270945        9.5549641924        8.7782451320
  H        -4.9059088176       10.6165543638        6.6782129799
  O         0.2094482411        5.9366917401        8.2741285606
  H         0.1321094991        5.0914711772        8.7524411942
  H        -2.3471018329        6.2032297585        6.6811254844
  O         2.5418498641        1.1282353258        8.6964812033
  H         2.7514809948        0.3333230844        9.2123199582
  H         0.1592006847        1.7259521490        6.6761101241
  C         3.6335547297        3.4341224204        9.8964019801
  C         3.3576133936        3.2567717062        8.4902411936
  H         3.9754296743        4.4752560000        9.9903306854
  H         2.7195893204        3.2473391789       10.4727696573
  H         4.4225660142        2.7357274252       10.2311624965
  N         3.1135642575        3.5900182380        7.3795524852
     168
 i =       11, E =     -8144.2038591543
 Fe         5.0938794100       11.8196869300        0.3885799900
 Fe         7.6575796300        7.3792284900        0.3885799900
 Fe        10.2212798400        2.9387700600        0.3885799900
 Fe        -0.0335205200       11.8196869300        0.3885799900
 Fe         2.5301797000        7.3792284900        0.3885799900
 Fe         5.0938799200        2.9387700600        0.3885799900
 Fe        -5.1609204400       11.8196869300        0.3885799900
 Fe        -2.5972202200        7.3792284900        0.3885799900
 Fe        -0.0335200000        2.9387700600        0.3885799900
  O         8.4519195100        8.9577468800        1.1642700400
  O        11.0156197300        4.5172884400        1.1642700400
  O        13.5793199500        0.0768300000        1.1642700400
  O         3.3245195900        8.9577468800        1.1642700400
  O         5.8882198100        4.5172884400        1.1642700400
  O         8.4519200300        0.0768300000        1.1642700400
  O        -1.8028803300        8.9577468800        1.1642700400
  O         0.7608198900        4.5172884400        1.1642700400
  O         3.3245201100        0.0768300000        1.1642700400
  O         8.4568493000       11.7183869300        1.1650400200
  O        11.0205495200        7.2779284900        1.1650400200
  O        13.5842497300        2.8374700500        1.1650400200
  O         3.3294493700       11.7183869300        1.1650400200
  O         5.8931495900        7.2779284900        1.1650400200
  O         8.4568498100        2.8374700500        1.1650400200
  O        -1.7979505500       11.7183869300        1.1650400200
  O         0.7657496700        7.2779284900        1.1650400200
  O         3.3294498900        2.8374700500        1.1650400200
  O         6.0627194200       10.3425368500        1.1660399400
  O         8.6264196400        5.9020784100        1.1660399400
  O        11.1901198600        1.4616199700        1.1660399400
  O         0.9353195000       10.3425368500        1.1660399400
  O         3.4990197200        5.9020784100        1.1660399400
  O         6.0627199400        1.4616199700        1.1660399400
  O        -4.1920804200       10.3425368500        1.1660399400
  O        -1.6283802000        5.9020784100        1.1660399400
  O         0.9353200200        1.4616199700        1.1660399400
 Fe         7.6576695000       13.2997167500        1.9292099500
 Fe        10.2213697200        8.8592583200        1.9292099500
 Fe        12.7850699400        4.4187998800        1.9292099500
 Fe         2.5302695800       13.2997167500        1.9292099500
 Fe         5.0939698000        8.8592583200        1.9292099500
 Fe         7.6576700200        4.4187998800        1.9292099500
 Fe        -2.5971303400       13.2997167500        1.9292099500
 Fe        -0.0334301200        8.8592583200        1.9292099500
 Fe         2.5302701000        4.4187998800        1.9292099500
 Fe         7.6573893600       10.3392168700        2.7128999200
 Fe        10.2210895800        5.8987584300        2.7128999200
 Fe        12.7847898000        1.4582999900        2.7128999200
 Fe         2.5299894400       10.3392168700        2.7128999200
 Fe         5.0936896600        5.8987584300        2.7128999200
 Fe         7.6573898800        1.4582999900        2.7128999200
 Fe        -2.5974104800       10.3392168700        2.7128999200
 Fe        -0.0337102600        5.8987584300        2.7128999200
 Fe         2.5299899600        1.4582999900        2.7128999200
  O         4.1148878610       13.3016602443        3.5310175454
  O         6.6645083850        8.8607776872        3.5269386886
  O         9.3223453404        4.4674160175        3.6888471788
  O        -1.0541693165       13.3154444862        3.4837713186
  O         1.5169600490        8.8765169788        3.4812821113
  O         4.1475493309        4.4620610369        3.6515995041
  O        -6.2277279202       13.2757040048        3.4073199783
  O        -3.5576699809        8.8750140365        3.5656375404
  O        -1.0266802301        4.4066981763        3.5169277501
  O         6.8341028034       11.9006591096        3.4486566578
  O         9.3833950534        7.3947114483        3.5439410225
  O        11.9417702104        2.9982053056        3.4943937418
  O         1.6840555796       11.8492981830        3.5381916610
  O         4.2545677086        7.4345754037        3.5211307112
  O         6.7912545304        2.8763107018        3.6944311809
  O        -3.4219055401       11.9024778703        3.4397910566
  O        -0.8842495635        7.4624235429        3.4443465563
  O         1.6758330997        2.9270437773        3.6146890494
  O         9.3949399572       10.2354026280        3.5505741579
  O        11.9807910548        5.7779750788        3.4937546169
  O        14.5859029036        1.3356311475        3.4219563349
  O         4.2913096041       10.2228515031        3.5055928441
  O         6.7775863701        5.8298941153        3.6501163167
  O         9.4179272553        1.3616835601        3.5031135359
  O        -0.7823297775       10.2071733035        3.4295460468
  O         1.7008030192        5.8014319626        3.6178638557
  O         4.3677354593        1.3345041586        3.4295219292
 Fe         5.0891614936       11.8294889810        4.4225669424
 Fe         7.6230141683        7.4216393321        4.4522687054
 Fe        10.2092991153        2.9120389726        4.4749198853
 Fe        -0.1184249411       11.8435389344        4.4123124872
 Fe         2.4734583964        7.4426370660        4.4602870621
 Fe         4.9976444315        2.9036382533        4.4359340943
 Fe        -5.2018907868       11.8862471996        4.3968603778
 Fe        -2.6364138208        7.3724164552        4.4176968641
 Fe        -0.1084989684        2.8939754635        4.4964167847
 Fe         7.6108150161       13.1831061303        4.8679219230
 Fe        10.1770245296        8.7355321068        4.8407022200
 Fe        12.7431262043        4.3085343977        4.8361740829
 Fe         2.4853172108       13.1965057651        4.8229590239
 Fe         5.0557589774        8.7570884860        4.8544844170
 Fe         7.6176652124        4.3254316086        4.8950150839
 Fe        -2.6507035761       13.1451674661        4.8870166587
 Fe        -0.0787538109        8.7367963130        4.8051492683
 Fe         2.4415976907        4.2755795355        4.9600564984
  O         5.8481723936       10.3413847016        5.9036828341
  O         8.4326172685        5.9242588886        5.8723163362
  O        10.9873668109        1.4696027336        5.8722250157
  O         0.7318189171       10.3546932439        5.8790514739
  O         3.3222626609        5.9719857289        5.8505842347
  O         5.9078043248        1.4484647923        5.8753111915
  O        -4.4082479128       10.3030749585        5.8913358263
  O        -1.8396725606        5.9053801010        5.8890254210
  O         0.6722458657        1.4357349719        5.9334133775
  O         5.9062451543       13.1555478657        5.7486656291
  O         8.5006309974        8.7292136446        5.7090281623
  O        11.0508467215        4.3047307269        5.6963846980
  O         0.8094980470       13.1552784746        5.7039994714
  O         3.3750641065        8.7391097084        5.7243543222
  O         5.9262075779        4.2609414458        5.7211012057
  O        -4.3054375077       13.0511334698        5.7473020207
  O        -1.7583111401        8.7193202011        5.6887934255
  O         0.7229350270        4.2761031043        5.7379653147
  O         3.4806391951       11.7797236859        5.6592666615
  O         6.0356418968        7.3268873782        5.6681209756
  O         8.6015961619        2.8889011816        5.6679541677
  O        -1.6159072119       11.7360565690        5.7183723920
  O         0.9203544183        7.3689758688        5.7285760163
  O         3.4916934430        2.6697561185        5.5857605422
  O        -6.7603102055       11.7485169051        5.6963162253
  O        -4.2114663532        7.3230916461        5.6728533510
  O        -1.6727827226        2.9309961267        5.7433983431
 Fe         7.7740650429       10.2636103427        6.4444411479
 Fe        10.3374042243        5.8347009412        6.4376419843
 Fe        12.8967656053        1.3952731973        6.4395578300
 Fe         2.6649868200       10.2896437980        6.4426023640
 Fe         5.2367468925        5.8180257949        6.4426011998
 Fe         7.8175846962        1.3838124012        6.4357969063
 Fe        -2.4745607129       10.2519647694        6.4463889164
 Fe         0.0806048525        5.8576138349        6.4402930847
 Fe         2.5800963691        1.0965351423        6.8144813637
  O         7.8400436358       10.3730944999        8.2749651386
  H         7.8864461929        9.5391351676        8.7758991794
  H         5.3459122643       10.6277180351        6.6989692298
  O        10.3904365002        5.9262792385        8.2690166370
  H        10.4610934925        5.0981806734        8.7769099100
  H         7.9078073692        6.1883526123        6.6568203442
  O        12.9414455582        1.4903146081        8.2714624663
  H        13.0204974789        0.6614592025        8.7776211256
  H        10.4845454537        1.7474472699        6.6668046719
  O         2.7103013315       10.3994471820        8.2770272019
  H         2.7535607579        9.5582519581        8.7684671316
  H         0.2136705380       10.6332428327        6.6693840929
  O         5.2980178670        5.9507148425        8.2800616760
  H         5.6799903924        5.1686555653        8.7306467376
  H         2.7841177877        6.1298405086        6.6643362043
  O         7.7687817447        1.5089797926        8.2727799398
  H         7.8906213433        0.6813206131        8.7747807642
  H         5.3506737697        1.7094932018        6.6411027950
  O        -2.4073355441       10.3912724323        8.2773047523
  H        -2.3761829526        9.5560535605        8.7776402978
  H        -4.9015764378       10.6139993098        6.6844906810
  O         0.2068016661        5.9340769148        8.2741385948
  H         0.1329725605        5.0868166273        8.7530213675
  H        -2.3307451301        6.2089190651        6.6831189221
  O         2.5802787438        1.1439713875        8.6904928680
  H         2.7573681460        0.3377977144        9.1815763380
  H         0.1582832672        1.7367487681        6.7098316287
  C         3.6373138370        3.4633110132        9.9564611226
  C         3.2420133598        3.4604627828        8.5443977583
  H         3.9525949045        4.5117917847       10.0840252819
  H         2.7356104122        3.2449223690       10.5443751250
  H         4.4009008452        2.6994320497       10.1955921569
  N         3.1542839734        3.6028377691        7.4679062408
     168
 i =       12, E =     -8144.2743784216
 Fe         5.0938794100       11.8196869300        0.3885799900
 Fe         7.6575796300        7.3792284900        0.3885799900
 Fe        10.2212798400        2.9387700600        0.3885799900
 Fe        -0.0335205200       11.8196869300        0.3885799900
 Fe         2.5301797000        7.3792284900        0.3885799900
 Fe         5.0938799200        2.9387700600        0.3885799900
 Fe        -5.1609204400       11.8196869300        0.3885799900
 Fe        -2.5972202200        7.3792284900        0.3885799900
 Fe        -0.0335200000        2.9387700600        0.3885799900
  O         8.4519195100        8.9577468800        1.1642700400
  O        11.0156197300        4.5172884400        1.1642700400
  O        13.5793199500        0.0768300000        1.1642700400
  O         3.3245195900        8.9577468800        1.1642700400
  O         5.8882198100        4.5172884400        1.1642700400
  O         8.4519200300        0.0768300000        1.1642700400
  O        -1.8028803300        8.9577468800        1.1642700400
  O         0.7608198900        4.5172884400        1.1642700400
  O         3.3245201100        0.0768300000        1.1642700400
  O         8.4568493000       11.7183869300        1.1650400200
  O        11.0205495200        7.2779284900        1.1650400200
  O        13.5842497300        2.8374700500        1.1650400200
  O         3.3294493700       11.7183869300        1.1650400200
  O         5.8931495900        7.2779284900        1.1650400200
  O         8.4568498100        2.8374700500        1.1650400200
  O        -1.7979505500       11.7183869300        1.1650400200
  O         0.7657496700        7.2779284900        1.1650400200
  O         3.3294498900        2.8374700500        1.1650400200
  O         6.0627194200       10.3425368500        1.1660399400
  O         8.6264196400        5.9020784100        1.1660399400
  O        11.1901198600        1.4616199700        1.1660399400
  O         0.9353195000       10.3425368500        1.1660399400
  O         3.4990197200        5.9020784100        1.1660399400
  O         6.0627199400        1.4616199700        1.1660399400
  O        -4.1920804200       10.3425368500        1.1660399400
  O        -1.6283802000        5.9020784100        1.1660399400
  O         0.9353200200        1.4616199700        1.1660399400
 Fe         7.6576695000       13.2997167500        1.9292099500
 Fe        10.2213697200        8.8592583200        1.9292099500
 Fe        12.7850699400        4.4187998800        1.9292099500
 Fe         2.5302695800       13.2997167500        1.9292099500
 Fe         5.0939698000        8.8592583200        1.9292099500
 Fe         7.6576700200        4.4187998800        1.9292099500
 Fe        -2.5971303400       13.2997167500        1.9292099500
 Fe        -0.0334301200        8.8592583200        1.9292099500
 Fe         2.5302701000        4.4187998800        1.9292099500
 Fe         7.6573893600       10.3392168700        2.7128999200
 Fe        10.2210895800        5.8987584300        2.7128999200
 Fe        12.7847898000        1.4582999900        2.7128999200
 Fe         2.5299894400       10.3392168700        2.7128999200
 Fe         5.0936896600        5.8987584300        2.7128999200
 Fe         7.6573898800        1.4582999900        2.7128999200
 Fe        -2.5974104800       10.3392168700        2.7128999200
 Fe        -0.0337102600        5.8987584300        2.7128999200
 Fe         2.5299899600        1.4582999900        2.7128999200
  O         4.1062300242       13.3155814441        3.5302168283
  O         6.6563013505        8.8712214252        3.5195478858
  O         9.2708813781        4.4604978347        3.6161508368
  O        -1.0295835019       13.3023903894        3.5004207076
  O         1.5331256558        8.8701489802        3.5035009029
  O         4.1546096254        4.4449440016        3.6257845607
  O        -6.1759127087       13.3023576699        3.4796282722
  O        -3.5885643400        8.8749119389        3.5262661463
  O        -1.0367088956        4.4252405271        3.5199573246
  O         6.8192225314       11.8744912726        3.4913997988
  O         9.3813590146        7.4249436977        3.5125497096
  O        11.9453482449        2.9957705378        3.4997234129
  O         1.6833820252       11.8580150220        3.5169793364
  O         4.2518890549        7.4384589962        3.5015378048
  O         6.8019145176        2.9135230209        3.6095475919
  O        -3.4262855198       11.8830439976        3.4755169680
  O        -0.8730427444        7.4452097388        3.4793665127
  O         1.6818325631        2.9286768849        3.6003797523
  O         9.4238163944       10.2163069112        3.5018377167
  O        11.9956630069        5.7835567474        3.4840405433
  O        14.5522907051        1.3436506060        3.4839190811
  O         4.2988286178       10.2174886329        3.4943788829
  O         6.8176399707        5.8105161174        3.5812736603
  O         9.4236688682        1.3541291458        3.5037110712
  O        -0.8071006269       10.2133742883        3.4625687105
  O         1.6994807886        5.7920478921        3.5956118095
  O         4.3298866660        1.3371785951        3.4584497824
 Fe         5.0574327123       11.8298507804        4.4199647388
 Fe         7.6119934180        7.4152656803        4.4359047350
 Fe        10.1881105800        2.9416866862        4.4516007861
 Fe        -0.0967847507       11.8330360285        4.4225395849
 Fe         2.4870982188        7.4224448244        4.4603001589
 Fe         5.0361871803        2.9033182482        4.4090930506
 Fe        -5.2134803025       11.8474023129        4.4106739418
 Fe        -2.6493594404        7.3915786731        4.4114505407
 Fe        -0.1059639255        2.9187012619        4.4772203027
 Fe         7.6194551537       13.1868159227        4.8514253166
 Fe        10.1786278519        8.7385634287        4.8457947682
 Fe        12.7454424967        4.3096711152        4.8358924656
 Fe         2.4852724647       13.1822395163        4.8188056342
 Fe         5.0524856008        8.7457873177        4.8455689373
 Fe         7.6075791435        4.3024892959        4.8719903367
 Fe        -2.6496846847       13.1644509351        4.8554861415
 Fe        -0.0781144308        8.7489800209        4.8074784638
 Fe         2.4605957364        4.2727424530        4.9092695376
  O         5.8524730306       10.3437765808        5.8979448826
  O         8.4248014325        5.9097763869        5.8796997264
  O        10.9867034982        1.4708882532        5.8715409010
  O         0.7322434375       10.3475011668        5.8755693595
  O         3.3047550944        5.9430493304        5.8496100209
  O         5.8928811094        1.4289596310        5.8751296322
  O        -4.3951994211       10.3108800504        5.8948219078
  O        -1.8309019347        5.9100700767        5.8901218931
  O         0.6908724076        1.4363550439        5.9320441262
  O         5.9178466467       13.1602249696        5.7163110099
  O         8.4959883416        8.7225698003        5.7133357161
  O        11.0628081147        4.2915940807        5.7070632370
  O         0.8086774335       13.1697576054        5.6978533235
  O         3.3718744444        8.7455919472        5.7180886185
  O         5.9177522129        4.2686547456        5.7272811056
  O        -4.3106226150       13.0670906834        5.7175120470
  O        -1.7538513990        8.7223116201        5.6914162940
  O         0.7534645126        4.2869182559        5.7076985528
  O         3.4773590152       11.7790048052        5.6747680698
  O         6.0405588994        7.3365129318        5.6887372989
  O         8.6134140839        2.8897715750        5.6922590990
  O        -1.6398299599       11.7462773405        5.6804387560
  O         0.9092619077        7.3575759350        5.6978110407
  O         3.5116489980        2.6708467013        5.5475700253
  O        -6.7767907486       11.7653162904        5.6956090319
  O        -4.2083368690        7.3234018336        5.6836515263
  O        -1.6709807067        2.9101788644        5.7208818886
 Fe         7.7823498791       10.2672487605        6.4405919580
 Fe        10.3442848368        5.8269319884        6.4366348304
 Fe        12.9042772329        1.3842649339        6.4418515669
 Fe         2.6543925727       10.2890767767        6.4391441978
 Fe         5.2198266319        5.8257254044        6.4325284196
 Fe         7.7991432007        1.3865660484        6.4375550538
 Fe        -2.4669752194       10.2565195718        6.4395149733
 Fe         0.0945465188        5.8506891159        6.4385544810
 Fe         2.5992220720        1.1223406940        6.7735111032
  O         7.8402051936       10.3733805791        8.2724929665
  H         7.8865713074        9.5404892613        8.7756120603
  H         5.3483376854       10.6301188238        6.6934807757
  O        10.3906637969        5.9282635799        8.2701355489
  H        10.4611134292        5.0986992517        8.7759764228
  H         7.9085804538        6.1949284970        6.6647087229
  O        12.9437349872        1.4915378873        8.2733000526
  H        13.0192412068        0.6612749457        8.7774115767
  H        10.4854507375        1.7472185675        6.6707199785
  O         2.7126267820       10.3985721394        8.2720996330
  H         2.7532444472        9.5599808861        8.7667449260
  H         0.2181140101       10.6328050363        6.6644541936
  O         5.3071734648        5.9457308249        8.2732671295
  H         5.6666448026        5.1707016280        8.7339699757
  H         2.7921462058        6.1368356339        6.6648439100
  O         7.7749279199        1.5079961932        8.2726386842
  H         7.8896872606        0.6814396624        8.7752404300
  H         5.3583167988        1.7115106727        6.6475436604
  O        -2.4096055042       10.3861970671        8.2714206277
  H        -2.3762558577        9.5567385442        8.7812008288
  H        -4.9045406508       10.6146580441        6.6799352621
  O         0.2013990212        5.9345876313        8.2726815705
  H         0.1351423259        5.0889955817        8.7515729374
  H        -2.3375677294        6.2075611055        6.6788921928
  O         2.5744801167        1.1324828556        8.6500351390
  H         2.7619645668        0.3385071218        9.1754772564
  H         0.1517283673        1.7341636423        6.6968062279
  C         3.6303598530        3.4628632461        9.9558898529
  C         3.2778461363        3.3896197797        8.5531113192
  H         3.9692146125        4.4994568491       10.1055768078
  H         2.7283614930        3.2494325590       10.5413962408
  H         4.4105223434        2.7232035985       10.2074581508
  N         3.0773833660        3.6635134119        7.4355709117
     168
 i =       13, E =     -8144.1810082134
 Fe         5.0938794100       11.8196869300        0.3885799900
 Fe         7.6575796300        7.3792284900        0.3885799900
 Fe        10.2212798400        2.9387700600        0.3885799900
 Fe        -0.0335205200       11.8196869300        0.3885799900
 Fe         2.5301797000        7.3792284900        0.3885799900
 Fe         5.0938799200        2.9387700600        0.3885799900
 Fe        -5.1609204400       11.8196869300        0.3885799900
 Fe        -2.5972202200        7.3792284900        0.3885799900
 Fe        -0.0335200000        2.9387700600        0.3885799900
  O         8.4519195100        8.9577468800        1.1642700400
  O        11.0156197300        4.5172884400        1.1642700400
  O        13.5793199500        0.0768300000        1.1642700400
  O         3.3245195900        8.9577468800        1.1642700400
  O         5.8882198100        4.5172884400        1.1642700400
  O         8.4519200300        0.0768300000        1.1642700400
  O        -1.8028803300        8.9577468800        1.1642700400
  O         0.7608198900        4.5172884400        1.1642700400
  O         3.3245201100        0.0768300000        1.1642700400
  O         8.4568493000       11.7183869300        1.1650400200
  O        11.0205495200        7.2779284900        1.1650400200
  O        13.5842497300        2.8374700500        1.1650400200
  O         3.3294493700       11.7183869300        1.1650400200
  O         5.8931495900        7.2779284900        1.1650400200
  O         8.4568498100        2.8374700500        1.1650400200
  O        -1.7979505500       11.7183869300        1.1650400200
  O         0.7657496700        7.2779284900        1.1650400200
  O         3.3294498900        2.8374700500        1.1650400200
  O         6.0627194200       10.3425368500        1.1660399400
  O         8.6264196400        5.9020784100        1.1660399400
  O        11.1901198600        1.4616199700        1.1660399400
  O         0.9353195000       10.3425368500        1.1660399400
  O         3.4990197200        5.9020784100        1.1660399400
  O         6.0627199400        1.4616199700        1.1660399400
  O        -4.1920804200       10.3425368500        1.1660399400
  O        -1.6283802000        5.9020784100        1.1660399400
  O         0.9353200200        1.4616199700        1.1660399400
 Fe         7.6576695000       13.2997167500        1.9292099500
 Fe        10.2213697200        8.8592583200        1.9292099500
 Fe        12.7850699400        4.4187998800        1.9292099500
 Fe         2.5302695800       13.2997167500        1.9292099500
 Fe         5.0939698000        8.8592583200        1.9292099500
 Fe         7.6576700200        4.4187998800        1.9292099500
 Fe        -2.5971303400       13.2997167500        1.9292099500
 Fe        -0.0334301200        8.8592583200        1.9292099500
 Fe         2.5302701000        4.4187998800        1.9292099500
 Fe         7.6573893600       10.3392168700        2.7128999200
 Fe        10.2210895800        5.8987584300        2.7128999200
 Fe        12.7847898000        1.4582999900        2.7128999200
 Fe         2.5299894400       10.3392168700        2.7128999200
 Fe         5.0936896600        5.8987584300        2.7128999200
 Fe         7.6573898800        1.4582999900        2.7128999200
 Fe        -2.5974104800       10.3392168700        2.7128999200
 Fe        -0.0337102600        5.8987584300        2.7128999200
 Fe         2.5299899600        1.4582999900        2.7128999200
  O         4.0730987109       13.3313221167        3.4977535609
  O         6.6280868490        8.8876728728        3.4848207521
  O         9.1446873849        4.4284125644        3.4197069692
  O        -0.9084689784       13.3196937927        3.6758037591
  O         1.6122176812        8.8816419739        3.6336700434
  O         4.1390052828        4.4148219909        3.5364769170
  O        -6.0570963329       13.3637754521        3.6701932072
  O        -3.6494871700        8.8663272213        3.4445107287
  O        -1.0765635764        4.4524379031        3.4886735511
  O         6.7898832887       11.7982521178        3.6149981487
  O         9.3800838438        7.4873857071        3.4466979401
  O        11.9537529236        3.0155538258        3.4776207247
  O         1.6962012451       11.8939263359        3.4552407643
  O         4.2542866954        7.4579657614        3.4526918179
  O         6.8189872537        3.0197316248        3.4020527020
  O        -3.4413391242       11.7523669603        3.6873905475
  O        -0.8576673841        7.3590865052        3.6286075714
  O         1.6807721706        2.9679694402        3.5174358742
  O         9.4755092933       10.1731481885        3.4115376443
  O        12.0375130500        5.7794255077        3.4381119950
  O        14.4745851909        1.3767339204        3.6470260902
  O         4.3267407810       10.2052516610        3.4506633306
  O         6.9194994458        5.7522262209        3.3977879693
  O         9.4478529946        1.3307735030        3.4758552781
  O        -0.8975286154       10.2426745376        3.6069687853
  O         1.7208728127        5.7401366473        3.5258074439
  O         4.2084654494        1.3632791436        3.6117605808
 Fe         4.9801255532       11.8321014143        4.4148045979
 Fe         7.5815038779        7.3936770576        4.3805679495
 Fe        10.1441325016        2.9997399300        4.3861042508
 Fe        -0.0186828630       11.7998451942        4.4677507543
 Fe         2.5249867986        7.3546068578        4.4713925984
 Fe         5.1029376388        2.9364637725        4.3859444356
 Fe        -5.2569299727       11.7551512888        4.4616397213
 Fe        -2.6938336287        7.4149397712        4.4110720893
 Fe        -0.0911721905        2.9934657957        4.4430514046
 Fe         7.6271623001       13.1917657060        4.8393735169
 Fe        10.1800016950        8.7428768321        4.8527491048
 Fe        12.7563955454        4.3096699730        4.8261953750
 Fe         2.4878223836       13.1646909042        4.8018265591
 Fe         5.0463424741        8.7269909724        4.8237315628
 Fe         7.5962857033        4.2659742452        4.8070451329
 Fe        -2.6509435296       13.1996001489        4.8560987264
 Fe        -0.0741849520        8.7649383820        4.8515607032
 Fe         2.5201354821        4.2264807873        4.8328107196
  O         5.8608532945       10.3486811997        5.8842709197
  O         8.4110863071        5.8859988133        5.8940763334
  O        10.9843730340        1.4736467021        5.8722028815
  O         0.7358596463       10.3396132317        5.8726783299
  O         3.2743315943        5.9017717276        5.8378385625
  O         5.8767628650        1.3747803603        5.8916390364
  O        -4.3734304385       10.3236988983        5.9005557643
  O        -1.8138340041        5.9165327227        5.8947452059
  O         0.7420545363        1.4247648135        5.9532656788
  O         5.9334703051       13.1643118024        5.6585140814
  O         8.4810532359        8.7095404968        5.7117898570
  O        11.0872023869        4.2678790437        5.7170040054
  O         0.8200124041       13.1971419757        5.6988102198
  O         3.3700764845        8.7561616968        5.7090562266
  O         5.9285969720        4.3026984296        5.7522194803
  O        -4.3402164765       13.0869691279        5.7090618534
  O        -1.7601211783        8.7293539020        5.6958460499
  O         0.8196799993        4.3154880115        5.6461916246
  O         3.4613381542       11.7811067472        5.7048195632
  O         6.0451406078        7.3501471024        5.7203847097
  O         8.6360978411        2.8992241177        5.7352220633
  O        -1.6727265589       11.7574663623        5.6185405066
  O         0.8959804528        7.3267953365        5.6479740877
  O         3.5723052681        2.6287626525        5.4844497350
  O        -6.8136314053       11.7963531522        5.7059030763
  O        -4.2138399177        7.3253783697        5.7081128927
  O        -1.6626967084        2.8668703590        5.6774209886
 Fe         7.7926624630       10.2687932642        6.4356338749
 Fe        10.3587289196        5.8088423597        6.4378893324
 Fe        12.9149885282        1.3628881742        6.4419843833
 Fe         2.6334316753       10.2861486774        6.4319955268
 Fe         5.1817982370        5.8427520378        6.4238512010
 Fe         7.7746584315        1.3940958660        6.4428245423
 Fe        -2.4577651068       10.2646267884        6.4299076216
 Fe         0.1207000656        5.8349106596        6.4380664824
 Fe         2.6335353149        1.1666723089        6.6787683736
  O         7.8436384935       10.3750397335        8.2689257255
  H         7.8865464111        9.5422048005        8.7733078762
  H         5.3554487640       10.6359072381        6.6811588256
  O        10.3905067747        5.9335278757        8.2754680681
  H        10.4620564068        5.0981191967        8.7720253515
  H         7.9112749332        6.2099374962        6.6816159358
  O        12.9507838419        1.4909177240        8.2747287174
  H        13.0155352245        0.6595259507        8.7781034329
  H        10.4852689203        1.7483227840        6.6786424911
  O         2.7166954007       10.3980222853        8.2622111368
  H         2.7517505522        9.5639074320        8.7621463098
  H         0.2262958211       10.6312586415        6.6574696023
  O         5.3203612692        5.9441047197        8.2686128883
  H         5.6865267461        5.1767585567        8.7328499643
  H         2.8114167690        6.1422592754        6.6687819447
  O         7.7764434133        1.5048564892        8.2757338605
  H         7.8889330439        0.6806556710        8.7774144578
  H         5.3720179627        1.7277390898        6.6579921787
  O        -2.4151623445       10.3780347742        8.2625415666
  H        -2.3767074213        9.5584425818        8.7881868466
  H        -4.9078200514       10.6113644762        6.6734907560
  O         0.1927030361        5.9376473125        8.2719137180
  H         0.1349567875        5.0913067476        8.7434890245
  H        -2.3510338868        6.2080442188        6.6707434697
  O         2.5776247131        1.0720942156        8.5567322961
  H         2.7624915136        0.3156533075        9.1726433297
  H         0.1273520910        1.7297242136        6.6741267223
  C         3.6287778154        3.4503756013        9.9770284941
  C         3.2926822536        3.3644833972        8.5764662114
  H         3.9930551219        4.4706391273       10.1634314979
  H         2.7259831495        3.2637027588       10.5658581891
  H         4.4440437603        2.7701697259       10.2597588593
  N         2.8273833660        3.8807033447        7.4347830658
     168
 i =       14, E =     -8144.3036351292
 Fe         5.0938794100       11.8196869300        0.3885799900
 Fe         7.6575796300        7.3792284900        0.3885799900
 Fe        10.2212798400        2.9387700600        0.3885799900
 Fe        -0.0335205200       11.8196869300        0.3885799900
 Fe         2.5301797000        7.3792284900        0.3885799900
 Fe         5.0938799200        2.9387700600        0.3885799900
 Fe        -5.1609204400       11.8196869300        0.3885799900
 Fe        -2.5972202200        7.3792284900        0.3885799900
 Fe        -0.0335200000        2.9387700600        0.3885799900
  O         8.4519195100        8.9577468800        1.1642700400
  O        11.0156197300        4.5172884400        1.1642700400
  O        13.5793199500        0.0768300000        1.1642700400
  O         3.3245195900        8.9577468800        1.1642700400
  O         5.8882198100        4.5172884400        1.1642700400
  O         8.4519200300        0.0768300000        1.1642700400
  O        -1.8028803300        8.9577468800        1.1642700400
  O         0.7608198900        4.5172884400        1.1642700400
  O         3.3245201100        0.0768300000        1.1642700400
  O         8.4568493000       11.7183869300        1.1650400200
  O        11.0205495200        7.2779284900        1.1650400200
  O        13.5842497300        2.8374700500        1.1650400200
  O         3.3294493700       11.7183869300        1.1650400200
  O         5.8931495900        7.2779284900        1.1650400200
  O         8.4568498100        2.8374700500        1.1650400200
  O        -1.7979505500       11.7183869300        1.1650400200
  O         0.7657496700        7.2779284900        1.1650400200
  O         3.3294498900        2.8374700500        1.1650400200
  O         6.0627194200       10.3425368500        1.1660399400
  O         8.6264196400        5.9020784100        1.1660399400
  O        11.1901198600        1.4616199700        1.1660399400
  O         0.9353195000       10.3425368500        1.1660399400
  O         3.4990197200        5.9020784100        1.1660399400
  O         6.0627199400        1.4616199700        1.1660399400
  O        -4.1920804200       10.3425368500        1.1660399400
  O        -1.6283802000        5.9020784100        1.1660399400
  O         0.9353200200        1.4616199700        1.1660399400
 Fe         7.6576695000       13.2997167500        1.9292099500
 Fe        10.2213697200        8.8592583200        1.9292099500
 Fe        12.7850699400        4.4187998800        1.9292099500
 Fe         2.5302695800       13.2997167500        1.9292099500
 Fe         5.0939698000        8.8592583200        1.9292099500
 Fe         7.6576700200        4.4187998800        1.9292099500
 Fe        -2.5971303400       13.2997167500        1.9292099500
 Fe        -0.0334301200        8.8592583200        1.9292099500
 Fe         2.5302701000        4.4187998800        1.9292099500
 Fe         7.6573893600       10.3392168700        2.7128999200
 Fe        10.2210895800        5.8987584300        2.7128999200
 Fe        12.7847898000        1.4582999900        2.7128999200
 Fe         2.5299894400       10.3392168700        2.7128999200
 Fe         5.0936896600        5.8987584300        2.7128999200
 Fe         7.6573898800        1.4582999900        2.7128999200
 Fe        -2.5974104800       10.3392168700        2.7128999200
 Fe        -0.0337102600        5.8987584300        2.7128999200
 Fe         2.5299899600        1.4582999900        2.7128999200
  O         4.0850001493       13.3188265179        3.4998345054
  O         6.6467858318        8.8768915529        3.5018394184
  O         9.1958007388        4.4319093507        3.4908808980
  O        -0.9799700922       13.3036293961        3.5688284314
  O         1.5686127524        8.8752626515        3.5653612250
  O         4.1095916625        4.4053647005        3.5123188539
  O        -6.1071674198       13.3279221618        3.5939656387
  O        -3.6114513084        8.8660057239        3.4934557867
  O        -1.0693062803        4.4373088172        3.4856819917
  O         6.8067332488       11.8386762051        3.5496181379
  O         9.3810379942        7.4511004155        3.4873898772
  O        11.9492186464        3.0095729470        3.4816002702
  O         1.6913910958       11.8858277229        3.4766150584
  O         4.2534697575        7.4470265196        3.4769235400
  O         6.8001310601        2.9726087444        3.4970901082
  O        -3.4462381354       11.8232099139        3.5751778956
  O        -0.8663791839        7.4037017166        3.5473996737
  O         1.6718439586        2.9883451667        3.4797375623
  O         9.4385841248       10.2055017527        3.4750740443
  O        12.0158073781        5.7775154181        3.4575481349
  O        14.5178512058        1.3562287674        3.5625940941
  O         4.3164442484       10.2166917231        3.4663681101
  O         6.8775970716        5.7693662108        3.4667658696
  O         9.4459468383        1.3417356219        3.4738104894
  O        -0.8473930690       10.2292233093        3.5305325880
  O         1.7496957834        5.7265491581        3.4924593298
  O         4.2919499859        1.3090804607        3.4862235139
 Fe         5.0167346317       11.8332383088        4.4148577544
 Fe         7.5912431619        7.3900951361        4.4061745016
 Fe        10.1628181435        2.9738580531        4.4170578938
 Fe        -0.0614614307       11.8249133269        4.4439900845
 Fe         2.4893733916        7.3602099850        4.4509014100
 Fe         5.0340604044        2.9157268286        4.3972788830
 Fe        -5.2248471037       11.7978216099        4.4501500964
 Fe        -2.6628928906        7.3948461214        4.4144269722
 Fe        -0.0855552823        2.9699249760        4.4299345714
 Fe         7.6139964905       13.1882045327        4.8361483938
 Fe        10.1785357271        8.7406046002        4.8470131763
 Fe        12.7550549601        4.3075994717        4.8201667392
 Fe         2.4889890356       13.1782313762        4.8053498581
 Fe         5.0447230072        8.7394832963        4.8233447121
 Fe         7.6002758639        4.2820336423        4.8367009594
 Fe        -2.6486400554       13.1773535172        4.8538660616
 Fe        -0.0744273914        8.7494525716        4.8332943781
 Fe         2.5101860899        4.1968592091        4.8839719994
  O         5.8583179462       10.3450729710        5.8858477189
  O         8.4179041110        5.8985985560        5.8914576430
  O        10.9884905431        1.4725744703        5.8750953801
  O         0.7334289912       10.3486979012        5.8777255376
  O         3.2885753805        5.9205196866        5.8406566685
  O         5.8824675281        1.3862443610        5.9030233521
  O        -4.3888858384       10.3176282202        5.8981167218
  O        -1.8243811257        5.9080945070        5.8893821417
  O         0.7287743337        1.4193630903        5.9668449043
  O         5.9283249948       13.1624674856        5.6876268407
  O         8.4817210339        8.7222289265        5.7013049175
  O        11.0839814119        4.2811572024        5.7106882444
  O         0.8252675612       13.1744015713        5.7090820887
  O         3.3702442214        8.7397599432        5.7046248993
  O         5.9229747784        4.2782430114        5.7461175985
  O        -4.3260807088       13.1016276841        5.7676399121
  O        -1.7606488726        8.7260106419        5.6959121157
  O         0.7824519742        4.2930802711        5.6685659621
  O         3.4684667760       11.7785648593        5.6848989196
  O         6.0350895750        7.3497703234        5.6992037060
  O         8.6284268258        2.8991809916        5.7199913020
  O        -1.6549096942       11.7625030733        5.6722402493
  O         0.9043719970        7.3407022114        5.6854446942
  O         3.5450037699        2.6245282592        5.5264358046
  O        -6.7935561712       11.7874423649        5.6974496263
  O        -4.2139626045        7.3221194072        5.6858790673
  O        -1.6569225270        2.8815700900        5.6828475335
 Fe         7.7858653957       10.2706727581        6.4386728969
 Fe        10.3528561844        5.8166736894        6.4375859890
 Fe        12.9120378763        1.3756385342        6.4385549075
 Fe         2.6510187874       10.2791112506        6.4340287071
 Fe         5.2040209076        5.8356485033        6.4362065422
 Fe         7.7951485097        1.3871988038        6.4424091200
 Fe        -2.4659135491       10.2603953495        6.4346497726
 Fe         0.1075158208        5.8353713043        6.4375117249
 Fe         2.6156696822        1.2018178539        6.6465612644
  O         7.8442265821       10.3733123740        8.2706901251
  H         7.8859513360        9.5408187658        8.7754949973
  H         5.3537357375       10.6306586262        6.6828700924
  O        10.3909107966        5.9304971964        8.2725555340
  H        10.4618261605        5.0982075184        8.7741446446
  H         7.9093926987        6.2070299905        6.6764538491
  O        12.9489472096        1.4888148057        8.2716055980
  H        13.0160832405        0.6600814182        8.7791678754
  H        10.4813087885        1.7480973994        6.6738800602
  O         2.7142310654       10.3991614009        8.2666281723
  H         2.7519367078        9.5635190448        8.7655608851
  H         0.2210251100       10.6324431655        6.6665667483
  O         5.3335313506        5.9475174782        8.2765977433
  H         5.6854548499        5.1732861865        8.7335015939
  H         2.8080196211        6.1354583221        6.6715758206
  O         7.7803818346        1.5058875862        8.2765164221
  H         7.8864046261        0.6807367686        8.7801208978
  H         5.3482108792        1.7405757372        6.6506397451
  O        -2.4143232471       10.3809171520        8.2666499212
  H        -2.3760148279        9.5583348818        8.7870900472
  H        -4.9047112820       10.6072880480        6.6818398330
  O         0.1863615752        5.9374675916        8.2708319280
  H         0.1404640213        5.0909881995        8.7450404240
  H        -2.3420665200        6.2071170291        6.6726154228
  O         2.6186475230        1.1124547708        8.5005815755
  H         2.7621317535        0.3497461184        9.1014895885
  H         0.1380482708        1.7325170480        6.6966830755
  C         3.6271678891        3.4714231800       10.0033625483
  C         3.1813599329        3.4949391577        8.6020814910
  H         3.9852666756        4.4903146806       10.2047471212
  H         2.7297263136        3.2538933556       10.5945442230
  H         4.4226455894        2.7455946729       10.2391381174
  N         2.9517765982        3.7815501755        7.4765867904
     168
 i =       15, E =     -8144.1838552110
 Fe         5.0938794100       11.8196869300        0.3885799900
 Fe         7.6575796300        7.3792284900        0.3885799900
 Fe        10.2212798400        2.9387700600        0.3885799900
 Fe        -0.0335205200       11.8196869300        0.3885799900
 Fe         2.5301797000        7.3792284900        0.3885799900
 Fe         5.0938799200        2.9387700600        0.3885799900
 Fe        -5.1609204400       11.8196869300        0.3885799900
 Fe        -2.5972202200        7.3792284900        0.3885799900
 Fe        -0.0335200000        2.9387700600        0.3885799900
  O         8.4519195100        8.9577468800        1.1642700400
  O        11.0156197300        4.5172884400        1.1642700400
  O        13.5793199500        0.0768300000        1.1642700400
  O         3.3245195900        8.9577468800        1.1642700400
  O         5.8882198100        4.5172884400        1.1642700400
  O         8.4519200300        0.0768300000        1.1642700400
  O        -1.8028803300        8.9577468800        1.1642700400
  O         0.7608198900        4.5172884400        1.1642700400
  O         3.3245201100        0.0768300000        1.1642700400
  O         8.4568493000       11.7183869300        1.1650400200
  O        11.0205495200        7.2779284900        1.1650400200
  O        13.5842497300        2.8374700500        1.1650400200
  O         3.3294493700       11.7183869300        1.1650400200
  O         5.8931495900        7.2779284900        1.1650400200
  O         8.4568498100        2.8374700500        1.1650400200
  O        -1.7979505500       11.7183869300        1.1650400200
  O         0.7657496700        7.2779284900        1.1650400200
  O         3.3294498900        2.8374700500        1.1650400200
  O         6.0627194200       10.3425368500        1.1660399400
  O         8.6264196400        5.9020784100        1.1660399400
  O        11.1901198600        1.4616199700        1.1660399400
  O         0.9353195000       10.3425368500        1.1660399400
  O         3.4990197200        5.9020784100        1.1660399400
  O         6.0627199400        1.4616199700        1.1660399400
  O        -4.1920804200       10.3425368500        1.1660399400
  O        -1.6283802000        5.9020784100        1.1660399400
  O         0.9353200200        1.4616199700        1.1660399400
 Fe         7.6576695000       13.2997167500        1.9292099500
 Fe        10.2213697200        8.8592583200        1.9292099500
 Fe        12.7850699400        4.4187998800        1.9292099500
 Fe         2.5302695800       13.2997167500        1.9292099500
 Fe         5.0939698000        8.8592583200        1.9292099500
 Fe         7.6576700200        4.4187998800        1.9292099500
 Fe        -2.5971303400       13.2997167500        1.9292099500
 Fe        -0.0334301200        8.8592583200        1.9292099500
 Fe         2.5302701000        4.4187998800        1.9292099500
 Fe         7.6573893600       10.3392168700        2.7128999200
 Fe        10.2210895800        5.8987584300        2.7128999200
 Fe        12.7847898000        1.4582999900        2.7128999200
 Fe         2.5299894400       10.3392168700        2.7128999200
 Fe         5.0936896600        5.8987584300        2.7128999200
 Fe         7.6573898800        1.4582999900        2.7128999200
 Fe        -2.5974104800       10.3392168700        2.7128999200
 Fe        -0.0337102600        5.8987584300        2.7128999200
 Fe         2.5299899600        1.4582999900        2.7128999200
  O         4.1373309313       13.3055236511        3.5597949784
  O         6.7111293525        8.8740225780        3.5890628929
  O         9.3235073952        4.4713532396        3.7261895199
  O        -1.1044544252       13.2818068696        3.3899485338
  O         1.4877854957        8.8541974536        3.4337852742
  O         4.1530718999        4.4001187264        3.6040477244
  O        -6.2698665825       13.2569003215        3.3486155411
  O        -3.4831891300        8.9025372432        3.6917799848
  O        -1.0736144621        4.4023930718        3.4557812674
  O         6.8478975910       11.9720535829        3.3497636014
  O         9.3684546345        7.3137992304        3.6581161647
  O        11.9421044772        3.0187167833        3.4534848492
  O         1.6851368402       11.8323440541        3.5665452963
  O         4.2509294303        7.3891437783        3.5722949012
  O         6.7678776814        2.8302699068        3.7470901082
  O        -3.4385724623       11.9443944709        3.3991046951
  O        -0.8788284883        7.4889939010        3.3957902592
  O         1.6585401684        2.9318454137        3.5572726846
  O         9.3305765209       10.2971299458        3.6812305248
  O        11.9899606662        5.7628927718        3.4599698182
  O        14.6465908798        1.2877107154        3.3261634352
  O         4.2618920414       10.2492768880        3.5616215237
  O         6.7603472580        5.8265218105        3.6789105038
  O         9.4121434004        1.3766252437        3.5244970856
  O        -0.7585908383       10.1925071008        3.3881258401
  O         1.7321524163        5.7464573861        3.5484006809
  O         4.4350972879        1.2469253315        3.2914398876
 Fe         5.1226854322       11.8343952784        4.4246638787
 Fe         7.6019440058        7.3923095533        4.5007647789
 Fe        10.2211936491        2.9206497596        4.4890057946
 Fe        -0.1467789024       11.8605442963        4.3873714330
 Fe         2.4339148020        7.3859480146        4.4335500715
 Fe         4.9486647940        2.8572996220        4.4553557492
 Fe        -5.1876629261       11.9381550409        4.4014056198
 Fe        -2.5997336686        7.3272585653        4.4291406232
 Fe        -0.1220368616        2.9088238557        4.4033479707
 Fe         7.6018055622       13.1773229133        4.8232652169
 Fe        10.1783286628        8.7258250402        4.8796154318
 Fe        12.7436168191        4.3049664610        4.7983989452
 Fe         2.4826113113       13.1974081136        4.8336942720
 Fe         5.0453120223        8.7560683774        4.8539211495
 Fe         7.5816606924        4.2961420551        4.9432062641
 Fe        -2.6382152978       13.1587076045        4.8477402352
 Fe        -0.0751881707        8.7267045193        4.7975765690
 Fe         2.5079568223        4.1510476635        5.0062293668
  O         5.8507265801       10.3415239467        5.8950819904
  O         8.4263075275        5.9166501085        5.8872064371
  O        10.9921915740        1.4666391244        5.8759941061
  O         0.7280406047       10.3638771264        5.8819895242
  O         3.3264438167        5.9572410381        5.8367530343
  O         5.8876141700        1.4431033124        5.8794610937
  O        -4.4161912435       10.3263546714        5.8904937803
  O        -1.8365200648        5.8922285695        5.8788184648
  O         0.7127507069        1.4203095880        5.9944618187
  O         5.9278155337       13.1686042185        5.7529483974
  O         8.4898725017        8.7416444645        5.7077930045
  O        11.0763860466        4.3089984643        5.7039682059
  O         0.8068270934       13.1412816395        5.7132346524
  O         3.3639252769        8.7205327976        5.7007950542
  O         5.8771326987        4.2205484787        5.7340553877
  O        -4.2857506503       13.1233459005        5.8520673845
  O        -1.7617001932        8.7144909962        5.6918803658
  O         0.7104324956        4.2384167077        5.6929842690
  O         3.4933760297       11.7713677367        5.6450705287
  O         6.0131765449        7.3387473085        5.6745550299
  O         8.6204800586        2.8865743395        5.6955213507
  O        -1.6322593598       11.7623432708        5.7374652086
  O         0.9126228003        7.3589748385        5.7372069440
  O         3.4893268853        2.5964590527        5.5949523857
  O        -6.7473206816       11.7652427101        5.6987787776
  O        -4.2017951285        7.3084810564        5.6642971724
  O        -1.6583375753        2.9206312730        5.7080199769
 Fe         7.7663247514       10.2716327036        6.4434484713
 Fe        10.3333514555        5.8291532954        6.4374807242
 Fe        12.8969222144        1.4044028832        6.4337862093
 Fe         2.6787501292       10.2731749558        6.4378212403
 Fe         5.2427625405        5.8122753948        6.4453172467
 Fe         7.8023474494        1.3779009862        6.4361213029
 Fe        -2.4722099867       10.2514621461        6.4457427769
 Fe         0.0893740324        5.8263178288        6.4284086970
 Fe         2.6018252087        1.2445232796        6.6274200398
  O         7.8468633422       10.3707194034        8.2734255709
  H         7.8841946916        9.5376226613        8.7767249420
  H         5.3489569485       10.6212229214        6.6914710763
  O        10.3911471066        5.9227077823        8.2665195898
  H        10.4620984775        5.0972856622        8.7783811386
  H         7.9069773024        6.2012368972        6.6678352298
  O        12.9459349871        1.4855298307        8.2670342684
  H        13.0173341915        0.6599798629        8.7796572842
  H        10.4813685420        1.7494954086        6.6642381765
  O         2.7095913286       10.4005555287        8.2736166344
  H         2.7518398601        9.5640970337        8.7733062540
  H         0.2153172190       10.6369902341        6.6797814439
  O         5.3549229491        5.9502056192        8.2768113604
  H         5.7280797890        5.1726826682        8.7307015062
  H         2.7981504743        6.1031079791        6.6600225148
  O         7.7921755036        1.5075580480        8.2728788906
  H         7.8802074301        0.6832017887        8.7868394587
  H         5.3099479745        1.7491232062        6.6137211171
  O        -2.4128690536       10.3867643568        8.2777201348
  H        -2.3750626786        9.5565514366        8.7859694947
  H        -4.8965303104       10.6027845647        6.7037949300
  O         0.1764047920        5.9320930379        8.2622042805
  H         0.1466274400        5.0883087774        8.7491818265
  H        -2.3219726678        6.2061446100        6.6730098525
  O         2.6859823312        1.1772193995        8.4462522519
  H         2.7682620055        0.3792126485        8.9764446148
  H         0.1577214137        1.7398596763        6.7372637325
  C         3.5773259364        3.5332457127       10.0506164174
  C         3.1481703228        3.7033582467        8.6566280539
  H         3.9670997242        4.5309340364       10.3235078297
  H         2.7358796748        3.2389354654       10.7159428772
  H         4.3567004058        2.7164230317       10.1459604853
  N         3.0013990160        3.7464100995        7.5782415204
     168
 i =       16, E =     -8144.3125013740
 Fe         5.0938794100       11.8196869300        0.3885799900
 Fe         7.6575796300        7.3792284900        0.3885799900
 Fe        10.2212798400        2.9387700600        0.3885799900
 Fe        -0.0335205200       11.8196869300        0.3885799900
 Fe         2.5301797000        7.3792284900        0.3885799900
 Fe         5.0938799200        2.9387700600        0.3885799900
 Fe        -5.1609204400       11.8196869300        0.3885799900
 Fe        -2.5972202200        7.3792284900        0.3885799900
 Fe        -0.0335200000        2.9387700600        0.3885799900
  O         8.4519195100        8.9577468800        1.1642700400
  O        11.0156197300        4.5172884400        1.1642700400
  O        13.5793199500        0.0768300000        1.1642700400
  O         3.3245195900        8.9577468800        1.1642700400
  O         5.8882198100        4.5172884400        1.1642700400
  O         8.4519200300        0.0768300000        1.1642700400
  O        -1.8028803300        8.9577468800        1.1642700400
  O         0.7608198900        4.5172884400        1.1642700400
  O         3.3245201100        0.0768300000        1.1642700400
  O         8.4568493000       11.7183869300        1.1650400200
  O        11.0205495200        7.2779284900        1.1650400200
  O        13.5842497300        2.8374700500        1.1650400200
  O         3.3294493700       11.7183869300        1.1650400200
  O         5.8931495900        7.2779284900        1.1650400200
  O         8.4568498100        2.8374700500        1.1650400200
  O        -1.7979505500       11.7183869300        1.1650400200
  O         0.7657496700        7.2779284900        1.1650400200
  O         3.3294498900        2.8374700500        1.1650400200
  O         6.0627194200       10.3425368500        1.1660399400
  O         8.6264196400        5.9020784100        1.1660399400
  O        11.1901198600        1.4616199700        1.1660399400
  O         0.9353195000       10.3425368500        1.1660399400
  O         3.4990197200        5.9020784100        1.1660399400
  O         6.0627199400        1.4616199700        1.1660399400
  O        -4.1920804200       10.3425368500        1.1660399400
  O        -1.6283802000        5.9020784100        1.1660399400
  O         0.9353200200        1.4616199700        1.1660399400
 Fe         7.6576695000       13.2997167500        1.9292099500
 Fe        10.2213697200        8.8592583200        1.9292099500
 Fe        12.7850699400        4.4187998800        1.9292099500
 Fe         2.5302695800       13.2997167500        1.9292099500
 Fe         5.0939698000        8.8592583200        1.9292099500
 Fe         7.6576700200        4.4187998800        1.9292099500
 Fe        -2.5971303400       13.2997167500        1.9292099500
 Fe        -0.0334301200        8.8592583200        1.9292099500
 Fe         2.5302701000        4.4187998800        1.9292099500
 Fe         7.6573893600       10.3392168700        2.7128999200
 Fe        10.2210895800        5.8987584300        2.7128999200
 Fe        12.7847898000        1.4582999900        2.7128999200
 Fe         2.5299894400       10.3392168700        2.7128999200
 Fe         5.0936896600        5.8987584300        2.7128999200
 Fe         7.6573898800        1.4582999900        2.7128999200
 Fe        -2.5974104800       10.3392168700        2.7128999200
 Fe        -0.0337102600        5.8987584300        2.7128999200
 Fe         2.5299899600        1.4582999900        2.7128999200
  O         4.1103060576       13.3194863337        3.5337890926
  O         6.6766119713        8.8799098462        3.5462858891
  O         9.2510501724        4.4496468023        3.5917318398
  O        -1.0272667799       13.2910650041        3.4940654691
  O         1.5302605395        8.8627478979        3.5030189656
  O         4.1234643625        4.4016902696        3.5498958241
  O        -6.1645361094       13.3018107464        3.5011145452
  O        -3.5497533760        8.8907994732        3.5909598409
  O        -1.0710218838        4.4206855092        3.4686708654
  O         6.8218662532       11.8954040590        3.4659856729
  O         9.3734310617        7.3790648266        3.5748808427
  O        11.9441735088        3.0129775370        3.4657994620
  O         1.6886080248       11.8603323560        3.5183912599
  O         4.2521134875        7.4149015095        3.5224342558
  O         6.8005183348        2.9156265666        3.5940324087
  O        -3.4505529838       11.8716177911        3.5023863359
  O        -0.8693154238        7.4379307446        3.4832168660
  O         1.6735750196        2.9611282945        3.5195253257
  O         9.3850967147       10.2523623176        3.5700089712
  O        12.0066406009        5.7748521348        3.4573668746
  O        14.5699623845        1.3298752446        3.4652601794
  O         4.2918405484       10.2334707852        3.5119194131
  O         6.8217876756        5.7931200517        3.5645887234
  O         9.4264508560        1.3546678579        3.5053159954
  O        -0.8102376943       10.2126510378        3.4677536151
  O         1.7406678635        5.7432264819        3.5006005758
  O         4.3398190567        1.2776304639        3.4177592997
 Fe         5.0562123935       11.8341846660        4.4211051710
 Fe         7.5941404966        7.3914669757        4.4521383823
 Fe        10.1829636039        2.9532836178        4.4455541072
 Fe        -0.0956224051       11.8351101691        4.4200774291
 Fe         2.4652678744        7.3654449582        4.4332699560
 Fe         5.0116615145        2.8967505865        4.4194253144
 Fe        -5.2144962738       11.8487044748        4.4341920220
 Fe        -2.6338595317        7.3724256656        4.4217639660
 Fe        -0.0997964716        2.9497780404        4.4063145795
 Fe         7.6118132081       13.1874487507        4.8175893929
 Fe        10.1784756960        8.7325533864        4.8662377899
 Fe        12.7470559417        4.3057060409        4.7977533791
 Fe         2.4853276028       13.1840550090        4.8230081393
 Fe         5.0413194030        8.7434177087        4.8397149550
 Fe         7.5887761577        4.2831138704        4.8836200444
 Fe        -2.6398379957       13.1711742381        4.8373974460
 Fe        -0.0739776089        8.7406069540        4.8151970381
 Fe         2.5155751036        4.1814706743        4.9277929480
  O         5.8574274449       10.3472020985        5.8875644751
  O         8.4141312449        5.9025551895        5.8969154272
  O        10.9924407148        1.4698999173        5.8761218638
  O         0.7303671675       10.3513702479        5.8795995597
  O         3.3064568531        5.9282532617        5.8372075544
  O         5.8790568767        1.4159889621        5.8876811892
  O        -4.4006034602       10.3250697888        5.8998044595
  O        -1.8265093383        5.8999651548        5.8779079075
  O         0.7337205233        1.4239660932        5.9743326448
  O         5.9339842837       13.1686470724        5.7071123594
  O         8.4883165096        8.7269056142        5.7164541020
  O        11.0837691588        4.2918455830        5.7061458594
  O         0.8126954604       13.1622387631        5.7091568210
  O         3.3608734532        8.7285601862        5.7014776650
  O         5.9027338497        4.2525640364        5.7455420045
  O        -4.3074306457       13.1200819033        5.7873855961
  O        -1.7538973927        8.7201377806        5.7029686562
  O         0.7557120273        4.2705239371        5.6621021272
  O         3.4798797081       11.7768709007        5.6750570012
  O         6.0259845196        7.3429052498        5.6945780426
  O         8.6232092262        2.8938596276        5.7157726305
  O        -1.6487789196       11.7655037126        5.6935351213
  O         0.9062963031        7.3375923099        5.6942365404
  O         3.4999943589        2.6194673745        5.5579192468
  O        -6.7793532471       11.7881721506        5.7006532148
  O        -4.2059224316        7.3127698048        5.6817331707
  O        -1.6579273290        2.8928690481        5.6772504406
 Fe         7.7809357342       10.2742019396        6.4388048958
 Fe        10.3420474530        5.8187232337        6.4383443842
 Fe        12.9089457284        1.3872560054        6.4360428062
 Fe         2.6618682435       10.2746912946        6.4339476652
 Fe         5.2205929915        5.8243995846        6.4387337133
 Fe         7.7915083423        1.3823378727        6.4416515872
 Fe        -2.4674824574       10.2586020384        6.4370391969
 Fe         0.1028128254        5.8240247091        6.4319750126
 Fe         2.6241258886        1.2448556528        6.6009999250
  O         7.8462644928       10.3729342995        8.2711879951
  H         7.8847646440        9.5395586217        8.7743796859
  H         5.3511166353       10.6262123659        6.6835919225
  O        10.3913664340        5.9279365882        8.2708134843
  H        10.4620376528        5.0978195884        8.7754322419
  H         7.9086195378        6.2058914461        6.6828019951
  O        12.9515947963        1.4893148225        8.2694335228
  H        13.0153970729        0.6602313182        8.7772175472
  H        10.4812856414        1.7485759106        6.6690302270
  O         2.7129606958       10.3981284513        8.2671358748
  H         2.7516087437        9.5648014834        8.7703061062
  H         0.2212118051       10.6339877762        6.6729934298
  O         5.3476361853        5.9509394769        8.2755309841
  H         5.7119075918        5.1711399725        8.7309241164
  H         2.8038812818        6.1164934526        6.6615877555
  O         7.7916384439        1.5075911665        8.2771833669
  H         7.8821134861        0.6808265575        8.7840155073
  H         5.3318339218        1.7434010185        6.6337838616
  O        -2.4151761193       10.3819216795        8.2697381769
  H        -2.3748302492        9.5572190955        8.7866182788
  H        -4.9007081615       10.6076831247        6.6970142395
  O         0.1758799137        5.9338884798        8.2652231293
  H         0.1460398983        5.0891881783        8.7480391275
  H        -2.3313824964        6.2011925549        6.6671047052
  O         2.6645300957        1.1524168170        8.4433453416
  H         2.7621142447        0.3573080171        8.9893608886
  H         0.1597867670        1.7328334195        6.7115436647
  C         3.5925895483        3.5163581767       10.0385215748
  C         3.1700229991        3.6223846390        8.6486765130
  H         3.9819075649        4.5123833776       10.3023391457
  H         2.7280912414        3.2526256230       10.6628439012
  H         4.3786049295        2.7453583091       10.1857731155
  N         2.9389034734        3.7831677672        7.5343178227
     168
 i =       17, E =     -8144.2656535961
 Fe         5.0938794100       11.8196869300        0.3885799900
 Fe         7.6575796300        7.3792284900        0.3885799900
 Fe        10.2212798400        2.9387700600        0.3885799900
 Fe        -0.0335205200       11.8196869300        0.3885799900
 Fe         2.5301797000        7.3792284900        0.3885799900
 Fe         5.0938799200        2.9387700600        0.3885799900
 Fe        -5.1609204400       11.8196869300        0.3885799900
 Fe        -2.5972202200        7.3792284900        0.3885799900
 Fe        -0.0335200000        2.9387700600        0.3885799900
  O         8.4519195100        8.9577468800        1.1642700400
  O        11.0156197300        4.5172884400        1.1642700400
  O        13.5793199500        0.0768300000        1.1642700400
  O         3.3245195900        8.9577468800        1.1642700400
  O         5.8882198100        4.5172884400        1.1642700400
  O         8.4519200300        0.0768300000        1.1642700400
  O        -1.8028803300        8.9577468800        1.1642700400
  O         0.7608198900        4.5172884400        1.1642700400
  O         3.3245201100        0.0768300000        1.1642700400
  O         8.4568493000       11.7183869300        1.1650400200
  O        11.0205495200        7.2779284900        1.1650400200
  O        13.5842497300        2.8374700500        1.1650400200
  O         3.3294493700       11.7183869300        1.1650400200
  O         5.8931495900        7.2779284900        1.1650400200
  O         8.4568498100        2.8374700500        1.1650400200
  O        -1.7979505500       11.7183869300        1.1650400200
  O         0.7657496700        7.2779284900        1.1650400200
  O         3.3294498900        2.8374700500        1.1650400200
  O         6.0627194200       10.3425368500        1.1660399400
  O         8.6264196400        5.9020784100        1.1660399400
  O        11.1901198600        1.4616199700        1.1660399400
  O         0.9353195000       10.3425368500        1.1660399400
  O         3.4990197200        5.9020784100        1.1660399400
  O         6.0627199400        1.4616199700        1.1660399400
  O        -4.1920804200       10.3425368500        1.1660399400
  O        -1.6283802000        5.9020784100        1.1660399400
  O         0.9353200200        1.4616199700        1.1660399400
 Fe         7.6576695000       13.2997167500        1.9292099500
 Fe        10.2213697200        8.8592583200        1.9292099500
 Fe        12.7850699400        4.4187998800        1.9292099500
 Fe         2.5302695800       13.2997167500        1.9292099500
 Fe         5.0939698000        8.8592583200        1.9292099500
 Fe         7.6576700200        4.4187998800        1.9292099500
 Fe        -2.5971303400       13.2997167500        1.9292099500
 Fe        -0.0334301200        8.8592583200        1.9292099500
 Fe         2.5302701000        4.4187998800        1.9292099500
 Fe         7.6573893600       10.3392168700        2.7128999200
 Fe        10.2210895800        5.8987584300        2.7128999200
 Fe        12.7847898000        1.4582999900        2.7128999200
 Fe         2.5299894400       10.3392168700        2.7128999200
 Fe         5.0936896600        5.8987584300        2.7128999200
 Fe         7.6573898800        1.4582999900        2.7128999200
 Fe        -2.5974104800       10.3392168700        2.7128999200
 Fe        -0.0337102600        5.8987584300        2.7128999200
 Fe         2.5299899600        1.4582999900        2.7128999200
  O         4.0519448228       13.3173431461        3.4538655193
  O         6.6394345114        8.8718244251        3.4923539329
  O         9.1575965772        4.4141127100        3.4270428648
  O        -0.9892523303       13.3064645049        3.5633762413
  O         1.6576870748        8.9154138106        3.7280992792
  O         4.0962934696        4.3762652696        3.4768612709
  O        -6.0832792084       13.3531141595        3.6416613811
  O        -3.6186368565        8.8708059410        3.4912239671
  O        -1.0519786643        4.4375496510        3.5000565591
  O         6.8057005180       11.8282900023        3.5807679027
  O         9.3775017561        7.4435412807        3.4953198525
  O        11.9451946968        3.0000577303        3.4928271174
  O         1.7022744069       11.9220512610        3.4294575587
  O         4.2705230529        7.4450025007        3.4716396482
  O         6.8111917524        3.0174068718        3.4237133870
  O        -3.4477817868       11.8292541601        3.5698329378
  O        -0.8675382342        7.2887233655        3.7215399438
  O         1.6862452047        3.0189487575        3.4439018526
  O         9.4382611126       10.2006836334        3.4712138136
  O        12.0020605320        5.7827922395        3.4795428854
  O        14.5140729722        1.3617468664        3.5842300121
  O         4.3251561762       10.2148602454        3.4581290594
  O         6.8979394547        5.7486321980        3.4210120572
  O         9.4627462142        1.3166462541        3.4353434112
  O        -0.9335406026       10.2817310307        3.6968680533
  O         1.7639819617        5.7134828011        3.4263917507
  O         4.2914403365        1.2901588585        3.4810538241
 Fe         4.9891419470       11.8466237433        4.4036362780
 Fe         7.5853972223        7.3823013722        4.4080220201
 Fe        10.1333231692        2.9725511690        4.3872570327
 Fe        -0.0307222472       11.8642153671        4.4555017305
 Fe         2.5223112699        7.3015110816        4.4452134224
 Fe         5.0601561287        2.9101729978        4.3790165364
 Fe        -5.2286158367       11.7732209861        4.4472852987
 Fe        -2.6962683476        7.4080820407        4.4421580420
 Fe        -0.0740140532        2.9785974812        4.4171384482
 Fe         7.6203513080       13.1942770201        4.8328040732
 Fe        10.1754517134        8.7362468005        4.8598240861
 Fe        12.7507098519        4.3079463843        4.8033822031
 Fe         2.4921976904       13.1810822683        4.7930842244
 Fe         5.0388868326        8.7352709416        4.8271247953
 Fe         7.5863430627        4.2752189353        4.8003902916
 Fe        -2.6437763048       13.1869368313        4.8344861035
 Fe        -0.0686330535        8.7455131609        4.9092792651
 Fe         2.5348190821        4.1951480473        4.8417910801
  O         5.8579977293       10.3516771134        5.8757015339
  O         8.4061531204        5.8813915563        5.8992817020
  O        10.9924262015        1.4733093142        5.8724323632
  O         0.7348461248       10.3525540586        5.8814881310
  O         3.2968269902        5.8976631811        5.8259513376
  O         5.8763586355        1.4166918206        5.8747428996
  O        -4.3903101786       10.3227178513        5.9056304854
  O        -1.8161389517        5.9053314524        5.8763897141
  O         0.7612652299        1.4357989900        5.9462001217
  O         5.9293869630       13.1692968608        5.6635594031
  O         8.4817384820        8.7163941846        5.7200737807
  O        11.0757975681        4.2753483018        5.6863047336
  O         0.8357980751       13.1968329682        5.7153198791
  O         3.3615191474        8.7336652859        5.7031826568
  O         5.9075258453        4.2776564161        5.7206478202
  O        -4.3297660364       13.1170349457        5.7210993956
  O        -1.7681001573        8.7267972050        5.7203104812
  O         0.8046121778        4.3147148447        5.6071087037
  O         3.4621097454       11.7815318633        5.6903045730
  O         6.0284921350        7.3351462730        5.6978554145
  O         8.6117708743        2.9068116970        5.7174190995
  O        -1.6572050119       11.7690367677        5.6539461842
  O         0.9215497949        7.2929955651        5.6571416971
  O         3.5246874002        2.6327437646        5.5190156581
  O        -6.8007266422       11.7887445267        5.6907624822
  O        -4.2254028955        7.3123666283        5.7021611221
  O        -1.6602766092        2.8704709335        5.6454685315
 Fe         7.7863308217       10.2744953479        6.4406137029
 Fe        10.3506822450        5.8027505708        6.4390433487
 Fe        12.9198611414        1.3763713309        6.4347198476
 Fe         2.6471464620       10.2752442741        6.4316190657
 Fe         5.2019710767        5.8285072104        6.4321337055
 Fe         7.7782396744        1.3936593895        6.4449391408
 Fe        -2.4660336756       10.2719761793        6.4371515424
 Fe         0.1106681483        5.8180641780        6.4374647664
 Fe         2.6497710757        1.2524817579        6.5621710040
  O         7.8468785000       10.3759499637        8.2739083430
  H         7.8853250475        9.5389216655        8.7711962433
  H         5.3568750529       10.6329547752        6.6759076361
  O        10.3900729102        5.9309926913        8.2732460961
  H        10.4631881177        5.0974038190        8.7720738239
  H         7.9150501518        6.2089555092        6.6903427675
  O        12.9578128759        1.4914378543        8.2687240515
  H        13.0138929968        0.6605541920        8.7743296159
  H        10.4846156109        1.7493656693        6.6712614682
  O         2.7160414003       10.3965056818        8.2627891178
  H         2.7507020159        9.5649600654        8.7678048447
  H         0.2253065891       10.6329764374        6.6713028604
  O         5.3533390087        5.9511067519        8.2724265514
  H         5.7206959212        5.1746975271        8.7259612203
  H         2.8134011059        6.1176056035        6.6551837143
  O         7.7884863427        1.5058746959        8.2786158769
  H         7.8828825781        0.6792837037        8.7824512345
  H         5.3590655248        1.7350852605        6.6458329744
  O        -2.4173045576       10.3789345011        8.2690441838
  H        -2.3749996936        9.5558557330        8.7875667570
  H        -4.9018634663       10.6109396497        6.6942905839
  O         0.1735443940        5.9345783387        8.2682735855
  H         0.1435809409        5.0881540499        8.7445255301
  H        -2.3400015034        6.1941285650        6.6593299404
  O         2.6491749480        1.1100844652        8.4225019733
  H         2.7600090263        0.3140651064        8.9814021269
  H         0.1704008068        1.7204823234        6.6833433927
  C         3.6032782643        3.5190334400       10.0424300827
  C         3.1799554912        3.5748383889        8.6625461289
  H         3.9918533597        4.5062546087       10.3248902257
  H         2.7295848012        3.2664335198       10.6540162796
  H         4.3942976054        2.7755365446       10.2144167514
  N         2.7862803865        3.9161693578        7.5357211549
     168
 i =       18, E =     -8144.3179537721
 Fe         5.0938794100       11.8196869300        0.3885799900
 Fe         7.6575796300        7.3792284900        0.3885799900
 Fe        10.2212798400        2.9387700600        0.3885799900
 Fe        -0.0335205200       11.8196869300        0.3885799900
 Fe         2.5301797000        7.3792284900        0.3885799900
 Fe         5.0938799200        2.9387700600        0.3885799900
 Fe        -5.1609204400       11.8196869300        0.3885799900
 Fe        -2.5972202200        7.3792284900        0.3885799900
 Fe        -0.0335200000        2.9387700600        0.3885799900
  O         8.4519195100        8.9577468800        1.1642700400
  O        11.0156197300        4.5172884400        1.1642700400
  O        13.5793199500        0.0768300000        1.1642700400
  O         3.3245195900        8.9577468800        1.1642700400
  O         5.8882198100        4.5172884400        1.1642700400
  O         8.4519200300        0.0768300000        1.1642700400
  O        -1.8028803300        8.9577468800        1.1642700400
  O         0.7608198900        4.5172884400        1.1642700400
  O         3.3245201100        0.0768300000        1.1642700400
  O         8.4568493000       11.7183869300        1.1650400200
  O        11.0205495200        7.2779284900        1.1650400200
  O        13.5842497300        2.8374700500        1.1650400200
  O         3.3294493700       11.7183869300        1.1650400200
  O         5.8931495900        7.2779284900        1.1650400200
  O         8.4568498100        2.8374700500        1.1650400200
  O        -1.7979505500       11.7183869300        1.1650400200
  O         0.7657496700        7.2779284900        1.1650400200
  O         3.3294498900        2.8374700500        1.1650400200
  O         6.0627194200       10.3425368500        1.1660399400
  O         8.6264196400        5.9020784100        1.1660399400
  O        11.1901198600        1.4616199700        1.1660399400
  O         0.9353195000       10.3425368500        1.1660399400
  O         3.4990197200        5.9020784100        1.1660399400
  O         6.0627199400        1.4616199700        1.1660399400
  O        -4.1920804200       10.3425368500        1.1660399400
  O        -1.6283802000        5.9020784100        1.1660399400
  O         0.9353200200        1.4616199700        1.1660399400
 Fe         7.6576695000       13.2997167500        1.9292099500
 Fe        10.2213697200        8.8592583200        1.9292099500
 Fe        12.7850699400        4.4187998800        1.9292099500
 Fe         2.5302695800       13.2997167500        1.9292099500
 Fe         5.0939698000        8.8592583200        1.9292099500
 Fe         7.6576700200        4.4187998800        1.9292099500
 Fe        -2.5971303400       13.2997167500        1.9292099500
 Fe        -0.0334301200        8.8592583200        1.9292099500
 Fe         2.5302701000        4.4187998800        1.9292099500
 Fe         7.6573893600       10.3392168700        2.7128999200
 Fe        10.2210895800        5.8987584300        2.7128999200
 Fe        12.7847898000        1.4582999900        2.7128999200
 Fe         2.5299894400       10.3392168700        2.7128999200
 Fe         5.0936896600        5.8987584300        2.7128999200
 Fe         7.6573898800        1.4582999900        2.7128999200
 Fe        -2.5974104800       10.3392168700        2.7128999200
 Fe        -0.0337102600        5.8987584300        2.7128999200
 Fe         2.5299899600        1.4582999900        2.7128999200
  O         4.0831354988       13.3137942987        3.4914690494
  O         6.6431908393        8.8689467698        3.4931865338
  O         9.1996529907        4.4271948042        3.4953211285
  O        -1.0175445809       13.2994254368        3.5138921254
  O         1.6045409257        8.8997577308        3.6379384999
  O         4.0964794381        4.3878097593        3.5006672903
  O        -6.1324656792       13.3283129906        3.5593614501
  O        -3.5687069125        8.8885133474        3.5710377791
  O        -1.0264214560        4.4386503696        3.5385761846
  O         6.8142479130       11.8691407997        3.5126366655
  O         9.3719464599        7.3898113917        3.5635001320
  O        11.9410213999        2.9693430104        3.5312735989
  O         1.6913066164       11.8951633792        3.4711036826
  O         4.2644143601        7.4451225255        3.4740673911
  O         6.8105749778        2.9776574810        3.4944815068
  O        -3.4499722464       11.8622283933        3.5114939731
  O        -0.8699375339        7.3460685420        3.6235213914
  O         1.6878694854        3.0009579903        3.4690035556
  O         9.3984830683       10.2365462227        3.5456879552
  O        11.9753858982        5.7963473144        3.5219148077
  O        14.5494925807        1.3412788799        3.5118319767
  O         4.3221968814       10.2165029735        3.4602146733
  O         6.8623597760        5.7680197726        3.4856091799
  O         9.4415618345        1.3342846057        3.4713316158
  O        -0.8811971817       10.2561344126        3.5991717237
  O         1.7605429977        5.7362459552        3.4471780892
  O         4.3237372812        1.2783174383        3.4368347929
 Fe         5.0248602719       11.8318820874        4.4096707812
 Fe         7.5799343796        7.3932200212        4.4285076220
 Fe        10.1457888249        2.9641026296        4.4184845501
 Fe        -0.0711042446       11.8545697432        4.4394505794
 Fe         2.5020116015        7.3359418188        4.4326371235
 Fe         5.0367825708        2.9050358175        4.3886907070
 Fe        -5.2181565155       11.8207970692        4.4365344684
 Fe        -2.6555072066        7.3968058932        4.4508172707
 Fe        -0.0744509712        2.9488670943        4.4177486610
 Fe         7.6170476582       13.1888953492        4.8232618931
 Fe        10.1739179470        8.7322711656        4.8748600342
 Fe        12.7466733078        4.3029583803        4.8206251358
 Fe         2.4900284447       13.1853440162        4.8040702044
 Fe         5.0410838741        8.7412633821        4.8261989530
 Fe         7.5875806121        4.2844478069        4.8287373792
 Fe        -2.6418902935       13.1766162871        4.8226963834
 Fe        -0.0705860373        8.7383376041        4.8827220778
 Fe         2.5235853132        4.1946293825        4.8747327635
  O         5.8575523140       10.3488445874        5.8822758165
  O         8.4062384604        5.8932995053        5.8971325745
  O        10.9915902119        1.4720508866        5.8717561862
  O         0.7340038979       10.3545440795        5.8877022056
  O         3.3062120149        5.9093344550        5.8274390221
  O         5.8780837239        1.4239229548        5.8719723065
  O        -4.3967597332       10.3253741055        5.9041880992
  O        -1.8233164971        5.8994413816        5.8813116816
  O         0.7489917293        1.4339734815        5.9499233148
  O         5.9272403053       13.1706258222        5.6802686251
  O         8.4821318893        8.7165918007        5.7261528213
  O        11.0686705914        4.2823227576        5.6958875505
  O         0.8232293645       13.1828950931        5.7068778511
  O         3.3713941406        8.7263106154        5.7133489103
  O         5.9062935297        4.2637073439        5.7227132344
  O        -4.3119102224       13.1184226916        5.7412318255
  O        -1.7588176478        8.7220977063        5.7332818054
  O         0.7838401117        4.2939292446        5.6280062640
  O         3.4706248154       11.7821813130        5.6789586477
  O         6.0239830155        7.3355086754        5.6951444741
  O         8.6057090507        2.9006560065        5.7076466018
  O        -1.6535723679       11.7806326227        5.6865961585
  O         0.9276420873        7.3081264341        5.6832846395
  O         3.5008188587        2.6316121160        5.5443678495
  O        -6.7879419192       11.7873535155        5.6948874886
  O        -4.2134989692        7.3114199938        5.6977962321
  O        -1.6519175490        2.8779066706        5.6619848902
 Fe         7.7840085731       10.2752386254        6.4384840608
 Fe        10.3437859151        5.8107360640        6.4389798441
 Fe        12.9139197887        1.3839385206        6.4358514400
 Fe         2.6590579456       10.2743735628        6.4313244840
 Fe         5.2146613467        5.8223681105        6.4347598241
 Fe         7.7851039996        1.3883669949        6.4442924784
 Fe        -2.4674042458       10.2722740840        6.4370389106
 Fe         0.1041946158        5.8168596590        6.4327743012
 Fe         2.6427551858        1.2519508510        6.5754942556
  O         7.8467016784       10.3747324546        8.2723207209
  H         7.8848691855        9.5386920410        8.7713468931
  H         5.3524770900       10.6306075526        6.6787753074
  O        10.3900461972        5.9282714877        8.2722795098
  H        10.4631661461        5.0967237171        8.7742648080
  H         7.9126873370        6.2046518454        6.6899942794
  O        12.9576953467        1.4924921421        8.2696192653
  H        13.0142485919        0.6603921366        8.7734015006
  H        10.4840984121        1.7484326717        6.6688202280
  O         2.7147349648       10.3964109969        8.2641965792
  H         2.7510665614        9.5647798915        8.7699407931
  H         0.2225925261       10.6370719770        6.6776853658
  O         5.3585638294        5.9517974950        8.2740235247
  H         5.7288229651        5.1734124043        8.7252680876
  H         2.8082192231        6.1111458054        6.6525926608
  O         7.7889199538        1.5076232359        8.2794472979
  H         7.8820918173        0.6793865617        8.7827686642
  H         5.3511438972        1.7363762194        6.6390890185
  O        -2.4169377038       10.3812843343        8.2701545919
  H        -2.3747157855        9.5558422110        8.7854816865
  H        -4.9007382322       10.6108309759        6.6985737824
  O         0.1707352786        5.9318077056        8.2655346842
  H         0.1448909245        5.0870758035        8.7473021174
  H        -2.3376622877        6.1927067335        6.6661932191
  O         2.6622072031        1.1328137091        8.4296984886
  H         2.7613996751        0.3170939347        8.9518196373
  H         0.1789538430        1.7237921705        6.6971812695
  C         3.5891597009        3.5296628118       10.0537739143
  C         3.1515873345        3.6406928307        8.6743360123
  H         3.9860047642        4.5139553521       10.3420288886
  H         2.7276642913        3.2647326263       10.6788161538
  H         4.3783248211        2.7686639042       10.1903596172
  N         2.8399920640        3.8785981756        7.5611779619
     168
 i =       19, E =     -8144.2529798814
 Fe         5.0938794100       11.8196869300        0.3885799900
 Fe         7.6575796300        7.3792284900        0.3885799900
 Fe        10.2212798400        2.9387700600        0.3885799900
 Fe        -0.0335205200       11.8196869300        0.3885799900
 Fe         2.5301797000        7.3792284900        0.3885799900
 Fe         5.0938799200        2.9387700600        0.3885799900
 Fe        -5.1609204400       11.8196869300        0.3885799900
 Fe        -2.5972202200        7.3792284900        0.3885799900
 Fe        -0.0335200000        2.9387700600        0.3885799900
  O         8.4519195100        8.9577468800        1.1642700400
  O        11.0156197300        4.5172884400        1.1642700400
  O        13.5793199500        0.0768300000        1.1642700400
  O         3.3245195900        8.9577468800        1.1642700400
  O         5.8882198100        4.5172884400        1.1642700400
  O         8.4519200300        0.0768300000        1.1642700400
  O        -1.8028803300        8.9577468800        1.1642700400
  O         0.7608198900        4.5172884400        1.1642700400
  O         3.3245201100        0.0768300000        1.1642700400
  O         8.4568493000       11.7183869300        1.1650400200
  O        11.0205495200        7.2779284900        1.1650400200
  O        13.5842497300        2.8374700500        1.1650400200
  O         3.3294493700       11.7183869300        1.1650400200
  O         5.8931495900        7.2779284900        1.1650400200
  O         8.4568498100        2.8374700500        1.1650400200
  O        -1.7979505500       11.7183869300        1.1650400200
  O         0.7657496700        7.2779284900        1.1650400200
  O         3.3294498900        2.8374700500        1.1650400200
  O         6.0627194200       10.3425368500        1.1660399400
  O         8.6264196400        5.9020784100        1.1660399400
  O        11.1901198600        1.4616199700        1.1660399400
  O         0.9353195000       10.3425368500        1.1660399400
  O         3.4990197200        5.9020784100        1.1660399400
  O         6.0627199400        1.4616199700        1.1660399400
  O        -4.1920804200       10.3425368500        1.1660399400
  O        -1.6283802000        5.9020784100        1.1660399400
  O         0.9353200200        1.4616199700        1.1660399400
 Fe         7.6576695000       13.2997167500        1.9292099500
 Fe        10.2213697200        8.8592583200        1.9292099500
 Fe        12.7850699400        4.4187998800        1.9292099500
 Fe         2.5302695800       13.2997167500        1.9292099500
 Fe         5.0939698000        8.8592583200        1.9292099500
 Fe         7.6576700200        4.4187998800        1.9292099500
 Fe        -2.5971303400       13.2997167500        1.9292099500
 Fe        -0.0334301200        8.8592583200        1.9292099500
 Fe         2.5302701000        4.4187998800        1.9292099500
 Fe         7.6573893600       10.3392168700        2.7128999200
 Fe        10.2210895800        5.8987584300        2.7128999200
 Fe        12.7847898000        1.4582999900        2.7128999200
 Fe         2.5299894400       10.3392168700        2.7128999200
 Fe         5.0936896600        5.8987584300        2.7128999200
 Fe         7.6573898800        1.4582999900        2.7128999200
 Fe        -2.5974104800       10.3392168700        2.7128999200
 Fe        -0.0337102600        5.8987584300        2.7128999200
 Fe         2.5299899600        1.4582999900        2.7128999200
  O         4.1500950201       13.3025014164        3.5733223000
  O         6.6660097733        8.8594800617        3.5101432932
  O         9.3339479691        4.4773580921        3.7306750826
  O        -0.9965174439       13.3182232293        3.5526283927
  O         1.4834617495        8.8704341552        3.4310994653
  O         4.1978071540        4.4691261573        3.7275799631
  O        -6.2284838749       13.2711251112        3.4008690365
  O        -3.5438661325        8.8819640537        3.5928910085
  O        -1.0560903617        4.4065818242        3.4868779560
  O         6.8362497737       11.9275031138        3.4067716494
  O         9.3681576507        7.3787298122        3.5582160774
  O        11.9317015105        2.9797189707        3.4955917082
  O         1.6806214439       11.8258171931        3.5706807821
  O         4.2485612830        7.4426298404        3.4838222654
  O         6.8186565294        2.8455265969        3.7191544463
  O        -3.4643360914       11.8349182237        3.5267595237
  O        -0.8918360789        7.4801188311        3.3963196640
  O         1.6726765509        2.8377860883        3.6953033426
  O         9.3798734882       10.2580963861        3.5678135568
  O        11.9740434767        5.7934145730        3.5038652422
  O        14.6070150469        1.3089876875        3.3912998998
  O         4.3031400817       10.2223556345        3.4842829452
  O         6.7500066431        5.8333637439        3.6926732494
  O         9.3974349024        1.3765309578        3.5480829335
  O        -0.7611634515       10.1906150669        3.3787280841
  O         1.6698387203        5.8439491601        3.6457685856
  O         4.3349327488        1.2985653909        3.4592645160
 Fe         5.1023501851       11.8066921740        4.4322938954
 Fe         7.6143510062        7.4208464309        4.4656998355
 Fe        10.2080587628        2.9285209889        4.4928808537
 Fe        -0.1304531219       11.7971779471        4.4268382738
 Fe         2.4608354352        7.4376732094        4.4213117881
 Fe         5.0252651534        2.8944002227        4.4599496207
 Fe        -5.2369893121       11.8838855266        4.4125541714
 Fe        -2.6100424068        7.3778778192        4.4339598651
 Fe        -0.1328922073        2.9199525057        4.4203354434
 Fe         7.6087069054       13.1779521284        4.8242093392
 Fe        10.1724456998        8.7273141045        4.8462144203
 Fe        12.7300292550        4.2953117483        4.8169682060
 Fe         2.4809535796       13.1955562153        4.8262092417
 Fe         5.0507652815        8.7573767803        4.8147737481
 Fe         7.5895680665        4.3005816806        4.9320513802
 Fe        -2.6481338337       13.1456437455        4.8575586960
 Fe        -0.0708742144        8.7177965815        4.8094664249
 Fe         2.4971281122        4.2007556136        4.9933278815
  O         5.8551953018       10.3421768128        5.8898395445
  O         8.4068529537        5.9200369865        5.8977342603
  O        10.9855208712        1.4593110643        5.8697700508
  O         0.7362950413       10.3508105659        5.8997159968
  O         3.3403512017        5.9408800542        5.8268018290
  O         5.8887663518        1.4494396227        5.8583934554
  O        -4.4144295498       10.3302611279        5.8970313211
  O        -1.8408039896        5.8893213185        5.8853490643
  O         0.7197436171        1.4374094634        5.9615818243
  O         5.9189892184       13.1710861408        5.7348479669
  O         8.4981901142        8.7302484649        5.7235508418
  O        11.0615033501        4.2980304406        5.7210002348
  O         0.7921427218       13.1508849681        5.6868508905
  O         3.3986924960        8.7250735102        5.7193654192
  O         5.9051866589        4.2293947438        5.7546008483
  O        -4.3072744413       13.1068525914        5.7870245849
  O        -1.7403046887        8.7070195330        5.7391092639
  O         0.7230450034        4.2397787926        5.6819275675
  O         3.4799725479       11.7686125714        5.6389853426
  O         6.0234700811        7.3398958396        5.6634920615
  O         8.6063679103        2.8790353177        5.6918277529
  O        -1.6323884710       11.7805715823        5.7550828066
  O         0.9371036170        7.3409919590        5.7375965588
  O         3.4664113254        2.6729819347        5.5905305049
  O        -6.7680712629       11.7729895772        5.7140237383
  O        -4.2056844610        7.3284782494        5.6908358269
  O        -1.6527576860        2.9076038151        5.7135307132
 Fe         7.7724420936       10.2721982210        6.4392201786
 Fe        10.3265330181        5.8291481524        6.4359987398
 Fe        12.8920919199        1.3997735567        6.4375669781
 Fe         2.6820376352       10.2668333544        6.4344206560
 Fe         5.2535416417        5.8167266843        6.4378263129
 Fe         7.7955471142        1.3749149533        6.4401846712
 Fe        -2.4707409964       10.2625920882        6.4401086388
 Fe         0.0911874758        5.8120011780        6.4212638161
 Fe         2.6566222879        1.2958007373        6.5843837604
  O         7.8470953906       10.3749858602        8.2714416539
  H         7.8832348267        9.5378799140        8.7683846691
  H         5.3465606602       10.6200877069        6.6829034269
  O        10.3888350911        5.9204558391        8.2685527876
  H        10.4626970352        5.0946289876        8.7797183466
  H         7.9008886365        6.1961102329        6.6887438955
  O        12.9558013962        1.4932723652        8.2697561440
  H        13.0154567518        0.6602311311        8.7714846079
  H        10.4850867030        1.7467846006        6.6621745550
  O         2.7111567909       10.3963523419        8.2659182523
  H         2.7517990067        9.5662985242        8.7751910616
  H         0.2217107268       10.6467184437        6.6878724414
  O         5.3884701391        5.9499846573        8.2741569734
  H         5.7437751910        5.1706883076        8.7258397510
  H         2.7937389532        6.0842894598        6.6338153329
  O         7.7979425992        1.5120812819        8.2786286082
  H         7.8778561275        0.6810255115        8.7860727971
  H         5.3174489753        1.7368663128        6.6030142642
  O        -2.4151298095       10.3897329848        8.2749972777
  H        -2.3735677653        9.5559898915        8.7785022287
  H        -4.8933616120       10.6140047862        6.7103722473
  O         0.1597051089        5.9232292762        8.2573603847
  H         0.1519224133        5.0840152474        8.7561527387
  H        -2.3252489143        6.1914335677        6.6831658089
  O         2.6879549717        1.1644107065        8.4382107661
  H         2.7557663605        0.3049569566        8.8812606691
  H         0.1998487682        1.7362563834        6.7335125882
  C         3.5411977368        3.5806242774       10.1049498245
  C         3.1375904887        3.7504540260        8.7435285007
  H         3.9756470952        4.5545870546       10.4279965717
  H         2.7143656328        3.2566266036       10.7587332915
  H         4.3304047175        2.7362919712       10.0813846663
  N         2.9332283265        3.8628848662        7.6138354403
     168
 i =       20, E =     -8144.3351180589
 Fe         5.0938794100       11.8196869300        0.3885799900
 Fe         7.6575796300        7.3792284900        0.3885799900
 Fe        10.2212798400        2.9387700600        0.3885799900
 Fe        -0.0335205200       11.8196869300        0.3885799900
 Fe         2.5301797000        7.3792284900        0.3885799900
 Fe         5.0938799200        2.9387700600        0.3885799900
 Fe        -5.1609204400       11.8196869300        0.3885799900
 Fe        -2.5972202200        7.3792284900        0.3885799900
 Fe        -0.0335200000        2.9387700600        0.3885799900
  O         8.4519195100        8.9577468800        1.1642700400
  O        11.0156197300        4.5172884400        1.1642700400
  O        13.5793199500        0.0768300000        1.1642700400
  O         3.3245195900        8.9577468800        1.1642700400
  O         5.8882198100        4.5172884400        1.1642700400
  O         8.4519200300        0.0768300000        1.1642700400
  O        -1.8028803300        8.9577468800        1.1642700400
  O         0.7608198900        4.5172884400        1.1642700400
  O         3.3245201100        0.0768300000        1.1642700400
  O         8.4568493000       11.7183869300        1.1650400200
  O        11.0205495200        7.2779284900        1.1650400200
  O        13.5842497300        2.8374700500        1.1650400200
  O         3.3294493700       11.7183869300        1.1650400200
  O         5.8931495900        7.2779284900        1.1650400200
  O         8.4568498100        2.8374700500        1.1650400200
  O        -1.7979505500       11.7183869300        1.1650400200
  O         0.7657496700        7.2779284900        1.1650400200
  O         3.3294498900        2.8374700500        1.1650400200
  O         6.0627194200       10.3425368500        1.1660399400
  O         8.6264196400        5.9020784100        1.1660399400
  O        11.1901198600        1.4616199700        1.1660399400
  O         0.9353195000       10.3425368500        1.1660399400
  O         3.4990197200        5.9020784100        1.1660399400
  O         6.0627199400        1.4616199700        1.1660399400
  O        -4.1920804200       10.3425368500        1.1660399400
  O        -1.6283802000        5.9020784100        1.1660399400
  O         0.9353200200        1.4616199700        1.1660399400
 Fe         7.6576695000       13.2997167500        1.9292099500
 Fe        10.2213697200        8.8592583200        1.9292099500
 Fe        12.7850699400        4.4187998800        1.9292099500
 Fe         2.5302695800       13.2997167500        1.9292099500
 Fe         5.0939698000        8.8592583200        1.9292099500
 Fe         7.6576700200        4.4187998800        1.9292099500
 Fe        -2.5971303400       13.2997167500        1.9292099500
 Fe        -0.0334301200        8.8592583200        1.9292099500
 Fe         2.5302701000        4.4187998800        1.9292099500
 Fe         7.6573893600       10.3392168700        2.7128999200
 Fe        10.2210895800        5.8987584300        2.7128999200
 Fe        12.7847898000        1.4582999900        2.7128999200
 Fe         2.5299894400       10.3392168700        2.7128999200
 Fe         5.0936896600        5.8987584300        2.7128999200
 Fe         7.6573898800        1.4582999900        2.7128999200
 Fe        -2.5974104800       10.3392168700        2.7128999200
 Fe        -0.0337102600        5.8987584300        2.7128999200
 Fe         2.5299899600        1.4582999900        2.7128999200
  O         4.1073688668       13.3140905441        3.5226808188
  O         6.6617571903        8.8709547692        3.5144363076
  O         9.2504511173        4.4505618697        3.5865022023
  O        -1.0007867728       13.3065203173        3.5448643275
  O         1.5443151193        8.8779620789        3.5293350595
  O         4.1399025218        4.4186995432        3.5906362582
  O        -6.1633811465       13.3030151496        3.5043499391
  O        -3.5682399413        8.8809422792        3.5661422549
  O        -1.0480888036        4.4223373390        3.5028362233
  O         6.8234687670       11.8878391496        3.4792149857
  O         9.3705541462        7.4002248864        3.5483262385
  O        11.9405172418        2.9803061423        3.5104564624
  O         1.6884523974       11.8657992104        3.5072550554
  O         4.2508379322        7.4404478031        3.4815648546
  O         6.8115824385        2.9308892259        3.5782989936
  O        -3.4515651635       11.8382791002        3.5397469406
  O        -0.8773103661        7.4178188480        3.5109345683
  O         1.6800238533        2.9321215019        3.5586932558
  O         9.3979795690       10.2333994774        3.5394925892
  O        11.9850181149        5.7894863845        3.4990572120
  O        14.5682105828        1.3297806939        3.4702319674
  O         4.3092636305       10.2220704810        3.4814314990
  O         6.8234885301        5.7926590608        3.5610414111
  O         9.4272344416        1.3513680665        3.5006653422
  O        -0.8272533630       10.2231958114        3.4936777424
  O         1.7194581966        5.7841646617        3.5298793445
  O         4.3217595263        1.2883523880        3.4618025194
 Fe         5.0516091779       11.8293060861        4.4179508248
 Fe         7.5966090021        7.3982912845        4.4459238976
 Fe        10.1717940837        2.9549778031        4.4443421482
 Fe        -0.0898435272       11.8232302621        4.4326930238
 Fe         2.4771396338        7.3803622465        4.4288263189
 Fe         5.0364179481        2.9034639916        4.4283382469
 Fe        -5.2269541642       11.8325692192        4.4302855657
 Fe        -2.6383827739        7.3874397170        4.4374062614
 Fe        -0.0983195671        2.9453932361        4.4169314802
 Fe         7.6140652784       13.1888640097        4.8204594227
 Fe        10.1754653906        8.7318309179        4.8664654661
 Fe        12.7404653305        4.3014843208        4.8232889922
 Fe         2.4872398795       13.1838082302        4.8134990902
 Fe         5.0453196036        8.7453804663        4.8183751226
 Fe         7.5937068839        4.2897769251        4.8792980047
 Fe        -2.6439899506       13.1608809314        4.8504559342
 Fe        -0.0701177382        8.7339809187        4.8421019765
 Fe         2.5154047853        4.1935346375        4.9282599121
  O         5.8590489907       10.3485090860        5.8804781045
  O         8.4079560680        5.9067324525        5.9035030852
  O        10.9881012462        1.4657036369        5.8740543753
  O         0.7334823859       10.3513424329        5.8925783426
  O         3.3189809774        5.9214911241        5.8263920342
  O         5.8784990317        1.4297267530        5.8730877446
  O        -4.4012801915       10.3264156689        5.9051522217
  O        -1.8285604409        5.8975875326        5.8873009291
  O         0.7364491525        1.4340453165        5.9499879876
  O         5.9277851216       13.1693676978        5.6983255449
  O         8.4853778653        8.7235117808        5.7228494050
  O        11.0684196762        4.2819697637        5.7173998639
  O         0.8143124079       13.1659351865        5.7040218783
  O         3.3844472189        8.7295435541        5.7124950545
  O         5.9130217265        4.2514808655        5.7518617066
  O        -4.3181145005       13.1157338818        5.7532235636
  O        -1.7481248394        8.7155602198        5.7313045161
  O         0.7631245414        4.2746749188        5.6552303764
  O         3.4769315399       11.7716429264        5.6658586696
  O         6.0254529736        7.3432460445        5.6863447014
  O         8.6145495441        2.8898107516        5.7106261496
  O        -1.6406922606       11.7747292037        5.7147847184
  O         0.9245913925        7.3325509871        5.7093522529
  O         3.4891491309        2.6435102973        5.5721058453
  O        -6.7873700212       11.7833968153        5.6954951729
  O        -4.2079225079        7.3230634576        5.7013869182
  O        -1.6522768309        2.8849747288        5.6817971892
 Fe         7.7824840447       10.2763296995        6.4417075196
 Fe        10.3406760369        5.8185943334        6.4380656747
 Fe        12.9081676522        1.3857162637        6.4374514793
 Fe         2.6653632836       10.2702700868        6.4350169472
 Fe         5.2274212633        5.8265894468        6.4355308340
 Fe         7.7879836775        1.3798155031        6.4413868776
 Fe        -2.4690316038       10.2655559872        6.4409715429
 Fe         0.1029289541        5.8182388403        6.4310773176
 Fe         2.6464056987        1.2719994946        6.5823502137
  O         7.8463212130       10.3753765824        8.2744729788
  H         7.8840547219        9.5369398870        8.7694436355
  H         5.3510118685       10.6251654566        6.6770688458
  O        10.3879443047        5.9247265543        8.2720823089
  H        10.4635316157        5.0944639461        8.7760173853
  H         7.9062092255        6.2030586963        6.6946871901
  O        12.9571592716        1.4934901689        8.2704653600
  H        13.0144383727        0.6597659165        8.7715556455
  H        10.4823861187        1.7465821550        6.6691995144
  O         2.7147578686       10.3977007059        8.2663554673
  H         2.7512703143        9.5654991838        8.7716067472
  H         0.2258602900       10.6408685282        6.6845926015
  O         5.3818350960        5.9515155973        8.2743615040
  H         5.7552977386        5.1731227107        8.7230213132
  H         2.8061204710        6.1021077607        6.6455937083
  O         7.7909581312        1.5085973757        8.2786643319
  H         7.8793837427        0.6804191115        8.7845021428
  H         5.3399347451        1.7384710598        6.6324762166
  O        -2.4176921738       10.3863630438        8.2745333875
  H        -2.3744495772        9.5551246323        8.7810671097
  H        -4.8988258923       10.6122195071        6.7037339866
  O         0.1604914992        5.9275750463        8.2652336444
  H         0.1473545047        5.0832129229        8.7496358616
  H        -2.3351932402        6.1899377262        6.6772206906
  O         2.6772238340        1.1405680578        8.4334677485
  H         2.7591069452        0.2911578535        8.8995622344
  H         0.1913176504        1.7249025118        6.7134281354
  C         3.5724130999        3.5528355421       10.0892535195
  C         3.1168730772        3.7310565403        8.7213178762
  H         3.9797605569        4.5265411610       10.4088503492
  H         2.7303635861        3.2674417853       10.7335808712
  H         4.3487579612        2.7733873271       10.1675045311
  N         2.8338541918        3.9247452242        7.6126776959
     168
 i =       21, E =     -8144.2844448302
 Fe         5.0938794100       11.8196869300        0.3885799900
 Fe         7.6575796300        7.3792284900        0.3885799900
 Fe        10.2212798400        2.9387700600        0.3885799900
 Fe        -0.0335205200       11.8196869300        0.3885799900
 Fe         2.5301797000        7.3792284900        0.3885799900
 Fe         5.0938799200        2.9387700600        0.3885799900
 Fe        -5.1609204400       11.8196869300        0.3885799900
 Fe        -2.5972202200        7.3792284900        0.3885799900
 Fe        -0.0335200000        2.9387700600        0.3885799900
  O         8.4519195100        8.9577468800        1.1642700400
  O        11.0156197300        4.5172884400        1.1642700400
  O        13.5793199500        0.0768300000        1.1642700400
  O         3.3245195900        8.9577468800        1.1642700400
  O         5.8882198100        4.5172884400        1.1642700400
  O         8.4519200300        0.0768300000        1.1642700400
  O        -1.8028803300        8.9577468800        1.1642700400
  O         0.7608198900        4.5172884400        1.1642700400
  O         3.3245201100        0.0768300000        1.1642700400
  O         8.4568493000       11.7183869300        1.1650400200
  O        11.0205495200        7.2779284900        1.1650400200
  O        13.5842497300        2.8374700500        1.1650400200
  O         3.3294493700       11.7183869300        1.1650400200
  O         5.8931495900        7.2779284900        1.1650400200
  O         8.4568498100        2.8374700500        1.1650400200
  O        -1.7979505500       11.7183869300        1.1650400200
  O         0.7657496700        7.2779284900        1.1650400200
  O         3.3294498900        2.8374700500        1.1650400200
  O         6.0627194200       10.3425368500        1.1660399400
  O         8.6264196400        5.9020784100        1.1660399400
  O        11.1901198600        1.4616199700        1.1660399400
  O         0.9353195000       10.3425368500        1.1660399400
  O         3.4990197200        5.9020784100        1.1660399400
  O         6.0627199400        1.4616199700        1.1660399400
  O        -4.1920804200       10.3425368500        1.1660399400
  O        -1.6283802000        5.9020784100        1.1660399400
  O         0.9353200200        1.4616199700        1.1660399400
 Fe         7.6576695000       13.2997167500        1.9292099500
 Fe        10.2213697200        8.8592583200        1.9292099500
 Fe        12.7850699400        4.4187998800        1.9292099500
 Fe         2.5302695800       13.2997167500        1.9292099500
 Fe         5.0939698000        8.8592583200        1.9292099500
 Fe         7.6576700200        4.4187998800        1.9292099500
 Fe        -2.5971303400       13.2997167500        1.9292099500
 Fe        -0.0334301200        8.8592583200        1.9292099500
 Fe         2.5302701000        4.4187998800        1.9292099500
 Fe         7.6573893600       10.3392168700        2.7128999200
 Fe        10.2210895800        5.8987584300        2.7128999200
 Fe        12.7847898000        1.4582999900        2.7128999200
 Fe         2.5299894400       10.3392168700        2.7128999200
 Fe         5.0936896600        5.8987584300        2.7128999200
 Fe         7.6573898800        1.4582999900        2.7128999200
 Fe        -2.5974104800       10.3392168700        2.7128999200
 Fe        -0.0337102600        5.8987584300        2.7128999200
 Fe         2.5299899600        1.4582999900        2.7128999200
  O         4.0570694347       13.3090367593        3.4538934044
  O         6.6747125430        8.8833737752        3.5443461384
  O         9.1451386923        4.3965738537        3.4005759019
  O        -1.0212113647       13.3004825441        3.5218502465
  O         1.5734097600        8.8861905701        3.6039638979
  O         4.0626697149        4.3586821401        3.4181365190
  O        -6.0254669871       13.3873698112        3.7543499391
  O        -3.6259311303        8.8605142183        3.4822113824
  O        -1.0509770705        4.4464404876        3.5110582588
  O         6.8029923058       11.7549236891        3.6910974310
  O         9.3822565988        7.4473770085        3.4872321289
  O        11.9480292937        2.9936252128        3.5024446306
  O         1.7042312823       11.9140346986        3.4433887340
  O         4.2656000814        7.4040632514        3.5306680164
  O         6.8073959920        3.0391777110        3.4091672183
  O        -3.4308723400       11.8553689806        3.5278878695
  O        -0.8547235924        7.3803566231        3.6034754480
  O         1.6878216940        3.0699242985        3.3664855662
  O         9.4525490387       10.1869498279        3.4527880816
  O        11.9925909259        5.7785369462        3.4974964139
  O        14.4695597908        1.3972980948        3.6840964333
  O         4.2929786636       10.2361886231        3.5110261761
  O         6.9110514179        5.7379700033        3.3938041420
  O         9.4499270295        1.3207545036        3.4438350159
  O        -0.8699619394       10.2314462145        3.5807930146
  O         1.8003297425        5.7039407457        3.3516253569
  O         4.3285239737        1.2739206267        3.4293805410
 Fe         4.9783772806       11.8521495767        4.4364331363
 Fe         7.6005082676        7.3660014077        4.4083379212
 Fe        10.1423564552        2.9698479360        4.3824423358
 Fe        -0.0606359958       11.8439074271        4.4141507255
 Fe         2.4756179846        7.3224832803        4.4070059268
 Fe         5.0372904389        2.9069465224        4.3611247933
 Fe        -5.1953956150       11.7454428920        4.4489195292
 Fe        -2.6657720195        7.4064415888        4.4236427841
 Fe        -0.0542507558        3.0124827570        4.4242917942
 Fe         7.6213731851       13.1862330601        4.8902495613
 Fe        10.1743994546        8.7262946804        4.8620872977
 Fe        12.7503164022        4.2990013029        4.8295512632
 Fe         2.4880616715       13.1916948530        4.7874105635
 Fe         5.0384529807        8.7412513702        4.8339892732
 Fe         7.5885416669        4.2911359202        4.7874338919
 Fe        -2.6433402098       13.1801151170        4.8327561820
 Fe        -0.0693062365        8.7441302058        4.9027204687
 Fe         2.5420144688        4.1930497249        4.8199490172
  O         5.8564717091       10.3523178588        5.8699533756
  O         8.4055573676        5.8824253011        5.8971245028
  O        10.9898935673        1.4683920613        5.8719533828
  O         0.7371504511       10.3621050403        5.8887817182
  O         3.3090613890        5.9104377455        5.8052122081
  O         5.8786268624        1.4250496428        5.8773693639
  O        -4.3977381500       10.3161004896        5.9097643024
  O        -1.8195957397        5.9006860626        5.8889871660
  O         0.7707803453        1.4492674951        5.9350586289
  O         5.9135049765       13.1740989225        5.6706123833
  O         8.4783421963        8.7162299181        5.7211277968
  O        11.0611161706        4.2768078795        5.6906841987
  O         0.8278871841       13.1781213112        5.7072474407
  O         3.3617613704        8.7222391389        5.7019697182
  O         5.9002637089        4.2750671946        5.7030070396
  O        -4.3280401939       13.1218059370        5.7175585934
  O        -1.7659531588        8.7234086943        5.7324837191
  O         0.8257274231        4.3274480312        5.6028427141
  O         3.4462331455       11.7839674734        5.6825957162
  O         6.0291284304        7.3268817130        5.6745867770
  O         8.6052526214        2.9100053642        5.6950395173
  O        -1.6492367756       11.7756024466        5.6743345432
  O         0.9242501222        7.3011936898        5.6752740194
  O         3.5145346706        2.6436895742        5.5698368017
  O        -6.7814319576       11.7671687518        5.6882345929
  O        -4.2090032381        7.3157487092        5.7078888895
  O        -1.6435949069        2.8698619448        5.6569046840
 Fe         7.7761881126       10.2729240396        6.4390116241
 Fe        10.3476500249        5.8098994752        6.4420651867
 Fe        12.9143952854        1.3846751765        6.4309875392
 Fe         2.6585707898       10.2695405538        6.4338438835
 Fe         5.2118858857        5.8310547552        6.4357656226
 Fe         7.7925067376        1.3893600504        6.4424085295
 Fe        -2.4718987227       10.2740234321        6.4411520443
 Fe         0.1126317378        5.8159670662        6.4402782093
 Fe         2.6518197306        1.2609468506        6.5619261172
  O         7.8484868012       10.3751264074        8.2720516695
  H         7.8846429034        9.5377685755        8.7691577480
  H         5.3570446577       10.6315465373        6.6693426423
  O        10.3876174160        5.9282409685        8.2770783907
  H        10.4646944385        5.0933084317        8.7733823583
  H         7.9179272475        6.2040893349        6.6932957298
  O        12.9626090510        1.4892913618        8.2644041005
  H        13.0129127822        0.6603861694        8.7736638298
  H        10.4848745659        1.7452984505        6.6707902010
  O         2.7172407449       10.3981587544        8.2648703921
  H         2.7508960928        9.5652354432        8.7680313925
  H         0.2288138700       10.6378095304        6.6839300658
  O         5.3828624990        5.9522037803        8.2745268208
  H         5.7705675073        5.1761459540        8.7189548288
  H         2.8166375616        6.1000009229        6.6443710845
  O         7.7837105799        1.5050711329        8.2786710572
  H         7.8801334580        0.6792897503        8.7839494141
  H         5.3637534160        1.7380845357        6.6572487678
  O        -2.4213199115       10.3822427019        8.2745147184
  H        -2.3756099563        9.5537846757        8.7848463138
  H        -4.8997330054       10.6105633644        6.7025530134
  O         0.1517636717        5.9315817877        8.2705647839
  H         0.1450239719        5.0827072872        8.7422545216
  H        -2.3409890961        6.1869850192        6.6747118331
  O         2.6702007421        1.1153833018        8.4082115277
  H         2.7665134809        0.2706322211        8.8904252799
  H         0.1832822520        1.7128193365        6.6841842797
  C         3.5808118948        3.5585553617       10.0809120529
  C         3.1242356956        3.7096841655        8.7098857784
  H         3.9927944104        4.5178183201       10.4118374793
  H         2.7325579812        3.2720907336       10.7223740018
  H         4.3705349665        2.8012442163       10.1962420237
  N         2.6910539440        4.0159402039        7.6463387166
     168
 i =       22, E =     -8144.3416635462
 Fe         5.0938794100       11.8196869300        0.3885799900
 Fe         7.6575796300        7.3792284900        0.3885799900
 Fe        10.2212798400        2.9387700600        0.3885799900
 Fe        -0.0335205200       11.8196869300        0.3885799900
 Fe         2.5301797000        7.3792284900        0.3885799900
 Fe         5.0938799200        2.9387700600        0.3885799900
 Fe        -5.1609204400       11.8196869300        0.3885799900
 Fe        -2.5972202200        7.3792284900        0.3885799900
 Fe        -0.0335200000        2.9387700600        0.3885799900
  O         8.4519195100        8.9577468800        1.1642700400
  O        11.0156197300        4.5172884400        1.1642700400
  O        13.5793199500        0.0768300000        1.1642700400
  O         3.3245195900        8.9577468800        1.1642700400
  O         5.8882198100        4.5172884400        1.1642700400
  O         8.4519200300        0.0768300000        1.1642700400
  O        -1.8028803300        8.9577468800        1.1642700400
  O         0.7608198900        4.5172884400        1.1642700400
  O         3.3245201100        0.0768300000        1.1642700400
  O         8.4568493000       11.7183869300        1.1650400200
  O        11.0205495200        7.2779284900        1.1650400200
  O        13.5842497300        2.8374700500        1.1650400200
  O         3.3294493700       11.7183869300        1.1650400200
  O         5.8931495900        7.2779284900        1.1650400200
  O         8.4568498100        2.8374700500        1.1650400200
  O        -1.7979505500       11.7183869300        1.1650400200
  O         0.7657496700        7.2779284900        1.1650400200
  O         3.3294498900        2.8374700500        1.1650400200
  O         6.0627194200       10.3425368500        1.1660399400
  O         8.6264196400        5.9020784100        1.1660399400
  O        11.1901198600        1.4616199700        1.1660399400
  O         0.9353195000       10.3425368500        1.1660399400
  O         3.4990197200        5.9020784100        1.1660399400
  O         6.0627199400        1.4616199700        1.1660399400
  O        -4.1920804200       10.3425368500        1.1660399400
  O        -1.6283802000        5.9020784100        1.1660399400
  O         0.9353200200        1.4616199700        1.1660399400
 Fe         7.6576695000       13.2997167500        1.9292099500
 Fe        10.2213697200        8.8592583200        1.9292099500
 Fe        12.7850699400        4.4187998800        1.9292099500
 Fe         2.5302695800       13.2997167500        1.9292099500
 Fe         5.0939698000        8.8592583200        1.9292099500
 Fe         7.6576700200        4.4187998800        1.9292099500
 Fe        -2.5971303400       13.2997167500        1.9292099500
 Fe        -0.0334301200        8.8592583200        1.9292099500
 Fe         2.5302701000        4.4187998800        1.9292099500
 Fe         7.6573893600       10.3392168700        2.7128999200
 Fe        10.2210895800        5.8987584300        2.7128999200
 Fe        12.7847898000        1.4582999900        2.7128999200
 Fe         2.5299894400       10.3392168700        2.7128999200
 Fe         5.0936896600        5.8987584300        2.7128999200
 Fe         7.6573898800        1.4582999900        2.7128999200
 Fe        -2.5974104800       10.3392168700        2.7128999200
 Fe        -0.0337102600        5.8987584300        2.7128999200
 Fe         2.5299899600        1.4582999900        2.7128999200
  O         4.0873865227       13.3105180425        3.4969038048
  O         6.6672342083        8.8724059086        3.5243746997
  O         9.2057888600        4.4289352553        3.5018884279
  O        -1.0000356200       13.3091286277        3.5509087799
  O         1.5443438996        8.8725351239        3.5392677691
  O         4.0944881535        4.3971319877        3.5048769047
  O        -6.0965697467       13.3446481640        3.6235190833
  O        -3.5950698091        8.8691936526        3.5237277079
  O        -1.0531465726        4.4325510833        3.4997112447
  O         6.8149864592       11.8151405324        3.5878490867
  O         9.3755604844        7.4232300727        3.5150110328
  O        11.9403643907        2.9930426506        3.4957526249
  O         1.6929947792       11.8839743071        3.4805736020
  O         4.2557259614        7.4253361947        3.5017268948
  O         6.8162337275        2.9885569379        3.4917920921
  O        -3.4396984623       11.8324406337        3.5501106118
  O        -0.8672675904        7.4168635489        3.5291882795
  O         1.6873894191        2.9979782394        3.4720165030
  O         9.4275489272       10.2144388607        3.4959279906
  O        11.9903940440        5.7807769522        3.4897644031
  O        14.5191008303        1.3649159845        3.5716142910
  O         4.2986521990       10.2243950638        3.4967025449
  O         6.8649544643        5.7686672973        3.4831431987
  O         9.4354977514        1.3399978819        3.4790959366
  O        -0.8350375598       10.2199865200        3.5113061484
  O         1.7523476861        5.7593219420        3.4491770521
  O         4.3187695592        1.2861954040        3.4622485339
 Fe         5.0232484678       11.8352985905        4.4276146073
 Fe         7.5992410307        7.3856303763        4.4291846992
 Fe        10.1604534737        2.9635793731        4.4154859330
 Fe        -0.0783495342       11.8245890885        4.4251055340
 Fe         2.4756717672        7.3603040788        4.4171635402
 Fe         5.0392605304        2.9139676240        4.3919036909
 Fe        -5.2128399191       11.8004248629        4.4427762403
 Fe        -2.6486301597        7.3918293152        4.4221883734
 Fe        -0.0826139361        2.9750468783        4.4166602948
 Fe         7.6179455645       13.1836822838        4.8672124308
 Fe        10.1754092868        8.7294444431        4.8533335760
 Fe        12.7418492935        4.3007204349        4.8222148318
 Fe         2.4845942440       13.1870463031        4.8022687182
 Fe         5.0439768522        8.7423159509        4.8271995065
 Fe         7.5963870557        4.2943942793        4.8296458151
 Fe        -2.6427456280       13.1664531437        4.8512880116
 Fe        -0.0717598264        8.7386611561        4.8591935808
 Fe         2.5236201839        4.2075852561        4.8707500665
  O         5.8545833020       10.3480438705        5.8819545533
  O         8.4085341528        5.8988669245        5.8969920075
  O        10.9878117901        1.4661546570        5.8712035888
  O         0.7342562598       10.3508600769        5.8896827861
  O         3.3191256376        5.9148428158        5.8150744189
  O         5.8796140626        1.4301074884        5.8749323440
  O        -4.4005604517       10.3211583867        5.9047247763
  O        -1.8238565921        5.8981504487        5.8866273785
  O         0.7489313776        1.4457401968        5.9441949768
  O         5.9155915821       13.1678924487        5.6989592155
  O         8.4887953904        8.7184904385        5.7185271876
  O        11.0631257652        4.2819895959        5.7045533755
  O         0.8176441820       13.1703198122        5.7039703135
  O         3.3727544332        8.7296561156        5.7067816885
  O         5.9154541037        4.2657113576        5.7244747723
  O        -4.3132405260       13.1113643986        5.7494497760
  O        -1.7579711616        8.7187173872        5.7240128501
  O         0.7877792287        4.3013832113        5.6239861919
  O         3.4652353874       11.7771490284        5.6707613698
  O         6.0299941865        7.3324181985        5.6791221151
  O         8.6062291198        2.8971761673        5.6945125435
  O        -1.6418118205       11.7696485557        5.6995045870
  O         0.9220134506        7.3220707086        5.6916831424
  O         3.4935311988        2.6710262192        5.5848937536
  O        -6.7784822701       11.7671294640        5.7004845999
  O        -4.2098953359        7.3218498761        5.6974705800
  O        -1.6470125875        2.8939506546        5.6847822623
 Fe         7.7774541579       10.2678242485        6.4393223378
 Fe        10.3445472422        5.8175565847        6.4393113877
 Fe        12.9111860912        1.3920500280        6.4350521604
 Fe         2.6619095338       10.2722274926        6.4347612586
 Fe         5.2236163631        5.8278435245        6.4343073098
 Fe         7.7916720980        1.3837130718        6.4408501835
 Fe        -2.4701047534       10.2671611337        6.4419966515
 Fe         0.1083591263        5.8181448025        6.4357849591
 Fe         2.6565349179        1.2753928427        6.5647103132
  O         7.8474934295       10.3751373277        8.2723233168
  H         7.8838839006        9.5373775180        8.7684572052
  H         5.3498766473       10.6265749566        6.6781451234
  O        10.3872156613        5.9253282864        8.2740011446
  H        10.4641041905        5.0932124697        8.7748357405
  H         7.9115117673        6.2007097209        6.6916935391
  O        12.9614067010        1.4930897361        8.2692724306
  H        13.0132538528        0.6596601338        8.7713844440
  H        10.4828185983        1.7445898807        6.6684552129
  O         2.7161722904       10.3969882867        8.2660328494
  H         2.7515531746        9.5651232362        8.7714555394
  H         0.2302209632       10.6412295456        6.6836688709
  O         5.3928948219        5.9518708371        8.2728394451
  H         5.7698701426        5.1741596578        8.7183437507
  H         2.8099289962        6.0969250876        6.6385266960
  O         7.7873134612        1.5072317991        8.2782114170
  H         7.8792120708        0.6796994021        8.7838167839
  H         5.3539248576        1.7385309836        6.6450020268
  O        -2.4207766071       10.3857029812        8.2755609521
  H        -2.3751278737        9.5541691820        8.7811855153
  H        -4.8994258105       10.6098901110        6.7022401009
  O         0.1474144776        5.9286488876        8.2686036032
  H         0.1482038938        5.0814434729        8.7470001595
  H        -2.3354372042        6.1861591743        6.6765951417
  O         2.6761566733        1.1284628388        8.4169641523
  H         2.7620096373        0.2687283949        8.8693436769
  H         0.1944357481        1.7231532771        6.7066923647
  C         3.5722436497        3.5660216722       10.0984354460
  C         3.1071442270        3.7404549444        8.7373678603
  H         3.9851151984        4.5290301481       10.4309847081
  H         2.7291682473        3.2730461915       10.7366664728
  H         4.3519159945        2.7884694142       10.1697005195
  N         2.7574504326        3.9875859155        7.6526427532
     168
 i =       23, E =     -8144.2554090443
 Fe         5.0938794100       11.8196869300        0.3885799900
 Fe         7.6575796300        7.3792284900        0.3885799900
 Fe        10.2212798400        2.9387700600        0.3885799900
 Fe        -0.0335205200       11.8196869300        0.3885799900
 Fe         2.5301797000        7.3792284900        0.3885799900
 Fe         5.0938799200        2.9387700600        0.3885799900
 Fe        -5.1609204400       11.8196869300        0.3885799900
 Fe        -2.5972202200        7.3792284900        0.3885799900
 Fe        -0.0335200000        2.9387700600        0.3885799900
  O         8.4519195100        8.9577468800        1.1642700400
  O        11.0156197300        4.5172884400        1.1642700400
  O        13.5793199500        0.0768300000        1.1642700400
  O         3.3245195900        8.9577468800        1.1642700400
  O         5.8882198100        4.5172884400        1.1642700400
  O         8.4519200300        0.0768300000        1.1642700400
  O        -1.8028803300        8.9577468800        1.1642700400
  O         0.7608198900        4.5172884400        1.1642700400
  O         3.3245201100        0.0768300000        1.1642700400
  O         8.4568493000       11.7183869300        1.1650400200
  O        11.0205495200        7.2779284900        1.1650400200
  O        13.5842497300        2.8374700500        1.1650400200
  O         3.3294493700       11.7183869300        1.1650400200
  O         5.8931495900        7.2779284900        1.1650400200
  O         8.4568498100        2.8374700500        1.1650400200
  O        -1.7979505500       11.7183869300        1.1650400200
  O         0.7657496700        7.2779284900        1.1650400200
  O         3.3294498900        2.8374700500        1.1650400200
  O         6.0627194200       10.3425368500        1.1660399400
  O         8.6264196400        5.9020784100        1.1660399400
  O        11.1901198600        1.4616199700        1.1660399400
  O         0.9353195000       10.3425368500        1.1660399400
  O         3.4990197200        5.9020784100        1.1660399400
  O         6.0627199400        1.4616199700        1.1660399400
  O        -4.1920804200       10.3425368500        1.1660399400
  O        -1.6283802000        5.9020784100        1.1660399400
  O         0.9353200200        1.4616199700        1.1660399400
 Fe         7.6576695000       13.2997167500        1.9292099500
 Fe        10.2213697200        8.8592583200        1.9292099500
 Fe        12.7850699400        4.4187998800        1.9292099500
 Fe         2.5302695800       13.2997167500        1.9292099500
 Fe         5.0939698000        8.8592583200        1.9292099500
 Fe         7.6576700200        4.4187998800        1.9292099500
 Fe        -2.5971303400       13.2997167500        1.9292099500
 Fe        -0.0334301200        8.8592583200        1.9292099500
 Fe         2.5302701000        4.4187998800        1.9292099500
 Fe         7.6573893600       10.3392168700        2.7128999200
 Fe        10.2210895800        5.8987584300        2.7128999200
 Fe        12.7847898000        1.4582999900        2.7128999200
 Fe         2.5299894400       10.3392168700        2.7128999200
 Fe         5.0936896600        5.8987584300        2.7128999200
 Fe         7.6573898800        1.4582999900        2.7128999200
 Fe        -2.5974104800       10.3392168700        2.7128999200
 Fe        -0.0337102600        5.8987584300        2.7128999200
 Fe         2.5299899600        1.4582999900        2.7128999200
  O         4.1657143902       13.3272748636        3.6171448609
  O         6.6486213393        8.8551622887        3.4850340290
  O         9.3274218623        4.4969688517        3.7201512912
  O        -0.9864366357       13.3105816569        3.5642050989
  O         1.4854528776        8.8482153344        3.4123087476
  O         4.2002015260        4.4650116201        3.7271175791
  O        -6.2317040174       13.2552782094        3.3735190833
  O        -3.5510076891        8.8829120456        3.5823514354
  O        -1.0419730373        4.4094236517        3.5056541670
  O         6.8411124658       11.9351403733        3.3919005713
  O         9.3687109302        7.3934064850        3.5521367259
  O        11.9276158839        2.9748222554        3.5130353062
  O         1.6726062980       11.7997025915        3.5932265925
  O         4.2383790715        7.4695349106        3.4404306459
  O         6.8165453065        2.8636135818        3.6851259429
  O        -3.4536942631       11.8144999137        3.5638077126
  O        -0.8890941694        7.4907219216        3.3841534660
  O         1.6769164198        2.8266412231        3.7152129697
  O         9.3869590771       10.2566562470        3.5619959671
  O        11.9724788777        5.7959611808        3.5042489881
  O        14.6134201830        1.3015297202        3.3597778391
  O         4.3154510183       10.2015602889        3.4608907421
  O         6.7653037435        5.8306690104        3.6756793976
  O         9.3902105269        1.3873419873        3.5803814760
  O        -0.7682084580       10.1940238538        3.3783829385
  O         1.6422371336        5.8639396492        3.6751186138
  O         4.3209942807        1.3052711222        3.4935533006
 Fe         5.1089061500       11.7970865032        4.4169458577
 Fe         7.6016187769        7.4257282630        4.4631697857
 Fe        10.1925340760        2.9529068356        4.4941486269
 Fe        -0.1240171085       11.7958781902        4.4393218253
 Fe         2.4758579936        7.4322190033        4.4349844896
 Fe         5.0443058582        2.9022699113        4.4779959600
 Fe        -5.2400157894       11.8923235478        4.4251949135
 Fe        -2.6155218772        7.3791943895        4.4192061857
 Fe        -0.1368135778        2.8966008715        4.4251968208
 Fe         7.6121238737       13.1847880783        4.8192896512
 Fe        10.1797137046        8.7370449281        4.8413344586
 Fe        12.7282703319        4.3074006264        4.8197049647
 Fe         2.4794065411       13.1766157292        4.8519966784
 Fe         5.0518686789        8.7444747702        4.8110186026
 Fe         7.6010776835        4.2917067892        4.9321186844
 Fe        -2.6429166889       13.1460488303        4.8792643178
 Fe        -0.0718312736        8.7286458044        4.7736067628
 Fe         2.4978985367        4.2123152409        5.0050460305
  O         5.8552558779       10.3401515741        5.9000358798
  O         8.4120857910        5.9271129817        5.9019122604
  O        10.9878011801        1.4649669155        5.8735715859
  O         0.7281869939       10.3327170696        5.8884158445
  O         3.3385336294        5.9299400813        5.8322488225
  O         5.8781374183        1.4472518511        5.8641432648
  O        -4.4039244877       10.3325506495        5.8974109295
  O        -1.8315472100        5.8982410318        5.8776087529
  O         0.7155439106        1.4307538112        5.9682238347
  O         5.9253144812       13.1566552574        5.7469643260
  O         8.5051780367        8.7250023285        5.7130984485
  O        11.0701911797        4.2921702526        5.7347390295
  O         0.7928605146       13.1519038687        5.7013284303
  O         3.3914746689        8.7436751857        5.7096299303
  O         5.9280969679        4.2347031252        5.7744812076
  O        -4.2948949564       13.1057101155        5.8020075650
  O        -1.7361143313        8.7138721171        5.7053255527
  O         0.7106435876        4.2513188466        5.6737065812
  O         3.5031022974       11.7586747832        5.6545596033
  O         6.0321615419        7.3471504603        5.6865074811
  O         8.6111055120        2.8742410954        5.7123970268
  O        -1.6346186089       11.7569386647        5.7401969741
  O         0.9170763350        7.3611084898        5.7201162003
  O         3.4647127100        2.6961492136        5.6107185588
  O        -6.7742879633       11.7734481723        5.7170738976
  O        -4.2106451872        7.3309510664        5.6786490477
  O        -1.6631449621        2.9271320177        5.7274297111
 Fe         7.7832163657       10.2634416423        6.4416527801
 Fe        10.3378097144        5.8308781007        6.4360890373
 Fe        12.9058197256        1.3986137331        6.4428862779
 Fe         2.6667282323       10.2734866409        6.4372258150
 Fe         5.2455795895        5.8215028281        6.4321097673
 Fe         7.7839685789        1.3709872486        6.4370463924
 Fe        -2.4667422267       10.2516732069        6.4433223160
 Fe         0.0980579529        5.8249297398        6.4285710976
 Fe         2.6620043972        1.3112445290        6.5710811999
  O         7.8455015932       10.3746601797        8.2742878982
  H         7.8823552095        9.5355785077        8.7678803307
  H         5.3395345203       10.6165717947        6.6912153485
  O        10.3859341009        5.9197145978        8.2693334604
  H        10.4633518327        5.0924589286        8.7777268851
  H         7.8986423016        6.1975042024        6.6928064859
  O        12.9567634025        1.4986418207        8.2766957145
  H        13.0142243704        0.6582684874        8.7674684451
  H        10.4785555535        1.7444280181        6.6652581909
  O         2.7142753972       10.3961719567        8.2681332643
  H         2.7522037801        9.5661160799        8.7775176427
  H         0.2330058006       10.6456123202        6.6821700789
  O         5.4169280216        5.9504714071        8.2690183341
  H         5.7823004100        5.1709062098        8.7183183906
  H         2.7990898366        6.0865371798        6.6316940850
  O         7.7975114312        1.5107671443        8.2749054177
  H         7.8755439131        0.6821245674        8.7849383077
  H         5.3270338557        1.7411325088        6.6156608134
  O        -2.4195669987       10.3904314891        8.2760725468
  H        -2.3742636009        9.5552649366        8.7759779476
  H        -4.8976869626       10.6088070596        6.7031886499
  O         0.1377691316        5.9228270655        8.2647578561
  H         0.1549001779        5.0786817073        8.7549711722
  H        -2.3216579684        6.1859621101        6.6786409500
  O         2.6975026811        1.1542663214        8.4248617965
  H         2.7544815407        0.2649754615        8.8204207792
  H         0.2106358937        1.7412148173        6.7472423215
  C         3.5568679998        3.5864135849       10.1433461126
  C         3.0738175890        3.8312270066        8.7979337343
  H         3.9698116011        4.5528665822       10.4978566367
  H         2.7284772824        3.2735928016       10.7837240051
  H         4.3115471755        2.7652760259       10.1209324580
  N         2.8514949984        3.9619505861        7.6759041198
     168
 i =       24, E =     -8144.3330977669
 Fe         5.0938794100       11.8196869300        0.3885799900
 Fe         7.6575796300        7.3792284900        0.3885799900
 Fe        10.2212798400        2.9387700600        0.3885799900
 Fe        -0.0335205200       11.8196869300        0.3885799900
 Fe         2.5301797000        7.3792284900        0.3885799900
 Fe         5.0938799200        2.9387700600        0.3885799900
 Fe        -5.1609204400       11.8196869300        0.3885799900
 Fe        -2.5972202200        7.3792284900        0.3885799900
 Fe        -0.0335200000        2.9387700600        0.3885799900
  O         8.4519195100        8.9577468800        1.1642700400
  O        11.0156197300        4.5172884400        1.1642700400
  O        13.5793199500        0.0768300000        1.1642700400
  O         3.3245195900        8.9577468800        1.1642700400
  O         5.8882198100        4.5172884400        1.1642700400
  O         8.4519200300        0.0768300000        1.1642700400
  O        -1.8028803300        8.9577468800        1.1642700400
  O         0.7608198900        4.5172884400        1.1642700400
  O         3.3245201100        0.0768300000        1.1642700400
  O         8.4568493000       11.7183869300        1.1650400200
  O        11.0205495200        7.2779284900        1.1650400200
  O        13.5842497300        2.8374700500        1.1650400200
  O         3.3294493700       11.7183869300        1.1650400200
  O         5.8931495900        7.2779284900        1.1650400200
  O         8.4568498100        2.8374700500        1.1650400200
  O        -1.7979505500       11.7183869300        1.1650400200
  O         0.7657496700        7.2779284900        1.1650400200
  O         3.3294498900        2.8374700500        1.1650400200
  O         6.0627194200       10.3425368500        1.1660399400
  O         8.6264196400        5.9020784100        1.1660399400
  O        11.1901198600        1.4616199700        1.1660399400
  O         0.9353195000       10.3425368500        1.1660399400
  O         3.4990197200        5.9020784100        1.1660399400
  O         6.0627199400        1.4616199700        1.1660399400
  O        -4.1920804200       10.3425368500        1.1660399400
  O        -1.6283802000        5.9020784100        1.1660399400
  O         0.9353200200        1.4616199700        1.1660399400
 Fe         7.6576695000       13.2997167500        1.9292099500
 Fe        10.2213697200        8.8592583200        1.9292099500
 Fe        12.7850699400        4.4187998800        1.9292099500
 Fe         2.5302695800       13.2997167500        1.9292099500
 Fe         5.0939698000        8.8592583200        1.9292099500
 Fe         7.6576700200        4.4187998800        1.9292099500
 Fe        -2.5971303400       13.2997167500        1.9292099500
 Fe        -0.0334301200        8.8592583200        1.9292099500
 Fe         2.5302701000        4.4187998800        1.9292099500
 Fe         7.6573893600       10.3392168700        2.7128999200
 Fe        10.2210895800        5.8987584300        2.7128999200
 Fe        12.7847898000        1.4582999900        2.7128999200
 Fe         2.5299894400       10.3392168700        2.7128999200
 Fe         5.0936896600        5.8987584300        2.7128999200
 Fe         7.6573898800        1.4582999900        2.7128999200
 Fe        -2.5974104800       10.3392168700        2.7128999200
 Fe        -0.0337102600        5.8987584300        2.7128999200
 Fe         2.5299899600        1.4582999900        2.7128999200
  O         4.1274732548       13.3211641535        3.5588020468
  O         6.6517242952        8.8615804577        3.4952699380
  O         9.2569599872        4.4578586508        3.5924455904
  O        -0.9931496612       13.3081210110        3.5568117382
  O         1.5176179392        8.8638316835        3.4851868901
  O         4.1452051987        4.4281931595        3.6087171984
  O        -6.1537459075       13.3032970410        3.5113284820
  O        -3.5816916744        8.8734361720        3.5405776509
  O        -1.0452417664        4.4254585124        3.5082456334
  O         6.8242484990       11.8714870919        3.4948420174
  O         9.3738269791        7.4175177367        3.5239306209
  O        11.9359932188        2.9820987681        3.5123726041
  O         1.6879518943       11.8397844818        3.5433147299
  O         4.2504087612        7.4524354374        3.4640540643
  O         6.8157392898        2.9412793283        3.5681331675
  O        -3.4453055219       11.8222904494        3.5591933171
  O        -0.8763629557        7.4503293229        3.4670084264
  O         1.6807146148        2.9156462988        3.5843874101
  O         9.4115173387       10.2283393371        3.5197250157
  O        11.9815893866        5.7892605692        3.5028185449
  O        14.5617353367        1.3369864716        3.4758441635
  O         4.3143051208       10.2129254940        3.4663766989
  O         6.8251736237        5.7938903610        3.5597689943
  O         9.4110855500        1.3621526952        3.5322565911
  O        -0.8090212435       10.2082241642        3.4580524594
  O         1.6965689864        5.8093722235        3.5541027883
  O         4.3158849056        1.2964465603        3.4821659011
 Fe         5.0607344314       11.8171930748        4.4242150486
 Fe         7.5987428730        7.4032664144        4.4405760864
 Fe        10.1720430690        2.9600403683        4.4530987391
 Fe        -0.0955141334       11.8135537500        4.4317502417
 Fe         2.4771467669        7.3914288955        4.4205136220
 Fe         5.0450532471        2.9084222836        4.4368027398
 Fe        -5.2244991500       11.8369581777        4.4338436240
 Fe        -2.6367376859        7.3907632252        4.4196406714
 Fe        -0.1064549086        2.9409137771        4.4234097778
 Fe         7.6172279687       13.1854820915        4.8375039480
 Fe        10.1779266579        8.7344919226        4.8471592611
 Fe        12.7382910049        4.3043852648        4.8266546876
 Fe         2.4845216479       13.1821418342        4.8374607578
 Fe         5.0456005146        8.7449646756        4.8113548662
 Fe         7.5998770628        4.2947558692        4.8750835298
 Fe        -2.6427614521       13.1575457626        4.8632801041
 Fe        -0.0709271143        8.7359314281        4.8193630404
 Fe         2.5120463322        4.2105334600        4.9337176463
  O         5.8560154194       10.3409493048        5.8884421448
  O         8.4116025021        5.9122831808        5.9014144139
  O        10.9890714255        1.4672125654        5.8770485247
  O         0.7319330043       10.3435580410        5.8860605873
  O         3.3285618278        5.9241977916        5.8222190058
  O         5.8767359942        1.4370696263        5.8735728101
  O        -4.4005349979       10.3257742815        5.9016896153
  O        -1.8260923227        5.9023862869        5.8783556080
  O         0.7341032623        1.4370150797        5.9537581041
  O         5.9281773233       13.1636596540        5.7174831779
  O         8.4935122872        8.7230640901        5.7124924368
  O        11.0677660311        4.2871051608        5.7200769856
  O         0.8073425502       13.1595092361        5.7118132530
  O         3.3784040109        8.7365580476        5.7004430473
  O         5.9236642622        4.2516053105        5.7524279891
  O        -4.3059990801       13.1126024468        5.7697790203
  O        -1.7482680067        8.7195182896        5.7078764134
  O         0.7542988868        4.2834822653        5.6477590443
  O         3.4837526993       11.7653558224        5.6691154620
  O         6.0279002619        7.3429763529        5.6809884816
  O         8.6077946331        2.8910719432        5.7089131450
  O        -1.6386671108       11.7604774141        5.7118200200
  O         0.9189773125        7.3429716134        5.7018752586
  O         3.4830668894        2.6914326358        5.6105729344
  O        -6.7782050184       11.7720817175        5.7027203301
  O        -4.2115462654        7.3265717352        5.6871069915
  O        -1.6562239267        2.9042831000        5.7017862930
 Fe         7.7813414240       10.2678496196        6.4400899791
 Fe        10.3444165367        5.8255989789        6.4396779959
 Fe        12.9101576328        1.3913392709        6.4383534002
 Fe         2.6618126241       10.2703154024        6.4357373905
 Fe         5.2343702993        5.8272967232        6.4351285438
 Fe         7.7887672631        1.3786769944        6.4399385572
 Fe        -2.4686111497       10.2584804037        6.4410991717
 Fe         0.1033881978        5.8249568024        6.4327593777
 Fe         2.6595590048        1.2970497162        6.5641490299
  O         7.8467008735       10.3736498539        8.2731391152
  H         7.8829685931        9.5357145391        8.7689454429
  H         5.3458199423       10.6206734065        6.6820839929
  O        10.3860263254        5.9239188293        8.2735446332
  H        10.4641958557        5.0922383425        8.7747533171
  H         7.9066028659        6.2000397129        6.6943606782
  O        12.9602371183        1.4958487135        8.2721341113
  H        13.0131629704        0.6589046636        8.7685384291
  H        10.4794675490        1.7449192183        6.6701032895
  O         2.7156500755       10.3964465117        8.2668162997
  H         2.7517024222        9.5658468621        8.7746657493
  H         0.2314181539       10.6394499375        6.6805147006
  O         5.4134683319        5.9521675806        8.2720546748
  H         5.7864558930        5.1716460272        8.7157048452
  H         2.8070961328        6.0915138612        6.6380916720
  O         7.7914030428        1.5084792186        8.2771527243
  H         7.8766207503        0.6805846458        8.7843549003
  H         5.3439244547        1.7411192988        6.6384384660
  O        -2.4215584193       10.3857483878        8.2742877123
  H        -2.3749564570        9.5543970879        8.7800258945
  H        -4.8989426289       10.6079299933        6.7015843038
  O         0.1346449039        5.9265177729        8.2672901262
  H         0.1525927428        5.0797256832        8.7489345292
  H        -2.3278663505        6.1850083566        6.6753648924
  O         2.6901030924        1.1393121449        8.4145730891
  H         2.7589054122        0.2569064377        8.8236364266
  H         0.2045258229        1.7304274482        6.7263281221
  C         3.5587957116        3.5877660526       10.1322838564
  C         3.0904340113        3.7989720605        8.7856458651
  H         3.9833407054        4.5427413543       10.4865266493
  H         2.7265609975        3.2731142496       10.7747249708
  H         4.3268953219        2.7891682606       10.1436772347
  N         2.7679934851        4.0043990050        7.6888756595
     168
 i =       25, E =     -8144.3507997297
 Fe         5.0938794100       11.8196869300        0.3885799900
 Fe         7.6575796300        7.3792284900        0.3885799900
 Fe        10.2212798400        2.9387700600        0.3885799900
 Fe        -0.0335205200       11.8196869300        0.3885799900
 Fe         2.5301797000        7.3792284900        0.3885799900
 Fe         5.0938799200        2.9387700600        0.3885799900
 Fe        -5.1609204400       11.8196869300        0.3885799900
 Fe        -2.5972202200        7.3792284900        0.3885799900
 Fe        -0.0335200000        2.9387700600        0.3885799900
  O         8.4519195100        8.9577468800        1.1642700400
  O        11.0156197300        4.5172884400        1.1642700400
  O        13.5793199500        0.0768300000        1.1642700400
  O         3.3245195900        8.9577468800        1.1642700400
  O         5.8882198100        4.5172884400        1.1642700400
  O         8.4519200300        0.0768300000        1.1642700400
  O        -1.8028803300        8.9577468800        1.1642700400
  O         0.7608198900        4.5172884400        1.1642700400
  O         3.3245201100        0.0768300000        1.1642700400
  O         8.4568493000       11.7183869300        1.1650400200
  O        11.0205495200        7.2779284900        1.1650400200
  O        13.5842497300        2.8374700500        1.1650400200
  O         3.3294493700       11.7183869300        1.1650400200
  O         5.8931495900        7.2779284900        1.1650400200
  O         8.4568498100        2.8374700500        1.1650400200
  O        -1.7979505500       11.7183869300        1.1650400200
  O         0.7657496700        7.2779284900        1.1650400200
  O         3.3294498900        2.8374700500        1.1650400200
  O         6.0627194200       10.3425368500        1.1660399400
  O         8.6264196400        5.9020784100        1.1660399400
  O        11.1901198600        1.4616199700        1.1660399400
  O         0.9353195000       10.3425368500        1.1660399400
  O         3.4990197200        5.9020784100        1.1660399400
  O         6.0627199400        1.4616199700        1.1660399400
  O        -4.1920804200       10.3425368500        1.1660399400
  O        -1.6283802000        5.9020784100        1.1660399400
  O         0.9353200200        1.4616199700        1.1660399400
 Fe         7.6576695000       13.2997167500        1.9292099500
 Fe        10.2213697200        8.8592583200        1.9292099500
 Fe        12.7850699400        4.4187998800        1.9292099500
 Fe         2.5302695800       13.2997167500        1.9292099500
 Fe         5.0939698000        8.8592583200        1.9292099500
 Fe         7.6576700200        4.4187998800        1.9292099500
 Fe        -2.5971303400       13.2997167500        1.9292099500
 Fe        -0.0334301200        8.8592583200        1.9292099500
 Fe         2.5302701000        4.4187998800        1.9292099500
 Fe         7.6573893600       10.3392168700        2.7128999200
 Fe        10.2210895800        5.8987584300        2.7128999200
 Fe        12.7847898000        1.4582999900        2.7128999200
 Fe         2.5299894400       10.3392168700        2.7128999200
 Fe         5.0936896600        5.8987584300        2.7128999200
 Fe         7.6573898800        1.4582999900        2.7128999200
 Fe        -2.5974104800       10.3392168700        2.7128999200
 Fe        -0.0337102600        5.8987584300        2.7128999200
 Fe         2.5299899600        1.4582999900        2.7128999200
  O         4.0908484932       13.3158319171        3.5101809468
  O         6.6640663722        8.8775381362        3.5233441071
  O         9.2075258551        4.4243148078        3.5009349544
  O        -1.0133969424       13.3015969017        3.5277560716
  O         1.5330977047        8.8654388454        3.5140849799
  O         4.0925429213        4.4001711945        3.5149636797
  O        -6.1272751497       13.3293417648        3.5852717032
  O        -3.6029690765        8.8653239782        3.5135966897
  O        -1.0625445957        4.4288675862        3.4858537993
  O         6.8225541562       11.8463337336        3.5548707981
  O         9.3834324775        7.4325518833        3.5049134665
  O        11.9438150961        3.0027696273        3.4889903888
  O         1.7005861026       11.8758352332        3.5010590895
  O         4.2540222731        7.4252362782        3.4998863106
  O         6.8144943982        2.9941903465        3.4931213957
  O        -3.4368935853       11.8461635248        3.5319750278
  O        -0.8710073864        7.4328346280        3.5036369463
  O         1.6892837077        2.9976408749        3.4803699050
  O         9.4300368498       10.2091523285        3.4898907857
  O        11.9995434175        5.7741350436        3.4767251400
  O        14.5406487546        1.3490940574        3.5415385858
  O         4.3003150536       10.2249282532        3.4920128175
  O         6.8676486034        5.7626327487        3.4781707308
  O         9.4299899603        1.3404174222        3.4947088300
  O        -0.8273360400       10.2148765634        3.4912010472
  O         1.7509336558        5.7623813379        3.4507127583
  O         4.3245664153        1.2812493615        3.4550341683
 Fe         5.0309076589       11.8378186730        4.4210560222
 Fe         7.6009056939        7.3848701916        4.4089824356
 Fe        10.1657845752        2.9601557123        4.4232863023
 Fe        -0.0768013988       11.8270955039        4.4138558536
 Fe         2.4672325280        7.3582616092        4.4104092661
 Fe         5.0345382515        2.9105698632        4.3983785223
 Fe        -5.2121643394       11.8070540077        4.4296554625
 Fe        -2.6516800696        7.3897566284        4.4146720447
 Fe        -0.0844219208        2.9733315144        4.4126082869
 Fe         7.6186039581       13.1857215459        4.8728700756
 Fe        10.1751355603        8.7320866054        4.8520064973
 Fe        12.7436252037        4.3020041897        4.8264634330
 Fe         2.4882642890       13.1838082959        4.8341691606
 Fe         5.0417075221        8.7428332492        4.8150346109
 Fe         7.6000932919        4.2992722190        4.8305344663
 Fe        -2.6403946823       13.1653752728        4.8504225676
 Fe        -0.0725985123        8.7427244846        4.8279011065
 Fe         2.5203832811        4.2110801045        4.8943325304
  O         5.8555685799       10.3441679097        5.8774373532
  O         8.4086605213        5.9032539350        5.8922585224
  O        10.9881066116        1.4688094025        5.8806524989
  O         0.7325816651       10.3459371894        5.8816223163
  O         3.3241142994        5.9223599358        5.8125990622
  O         5.8776234656        1.4350790756        5.8781184180
  O        -4.3991982265       10.3212678214        5.9022752770
  O        -1.8221602559        5.9052753053        5.8773559274
  O         0.7516999131        1.4480231775        5.9445626262
  O         5.9220139973       13.1653048541        5.7046924758
  O         8.4800553733        8.7186178347        5.7047986978
  O        11.0617137096        4.2866593121        5.7060947561
  O         0.8148408091       13.1625908912        5.7194466141
  O         3.3632038865        8.7339261910        5.6830916607
  O         5.9171699976        4.2663838331        5.7235534512
  O        -4.3131640900       13.1232236676        5.7462024839
  O        -1.7558072602        8.7241448062        5.7010099102
  O         0.7789515426        4.3030580162        5.6329211969
  O         3.4772839338       11.7677440651        5.6796038877
  O         6.0308518903        7.3310877747        5.6625965767
  O         8.6044508465        2.9023313230        5.6979002895
  O        -1.6374857132       11.7601312908        5.6888546970
  O         0.9101086955        7.3349444005        5.6849854909
  O         3.4919954702        2.6912356499        5.6207505727
  O        -6.7736047627       11.7651848158        5.6965969405
  O        -4.2119412752        7.3231270904        5.6921749482
  O        -1.6494549731        2.8889546021        5.6809459583
 Fe         7.7790210265       10.2661705933        6.4401292658
 Fe        10.3425134480        5.8238386045        6.4403511967
 Fe        12.9117738966        1.3893811203        6.4362802048
 Fe         2.6584433634       10.2674660129        6.4355539258
 Fe         5.2264320964        5.8318957175        6.4361155575
 Fe         7.7946760820        1.3851609576        6.4419287053
 Fe        -2.4687282586       10.2621748944        6.4400102559
 Fe         0.1074992838        5.8264245971        6.4378243941
 Fe         2.6565000702        1.2896392312        6.5599674891
  O         7.8480069582       10.3725635677        8.2731602311
  H         7.8830910269        9.5350146015        8.7698969786
  H         5.3499045891       10.6205173461        6.6752323641
  O        10.3859053150        5.9262417139        8.2751859771
  H        10.4651857323        5.0918017674        8.7724973274
  H         7.9151514603        6.1993188514        6.6921323496
  O        12.9629822617        1.4936023971        8.2701008470
  H        13.0123299810        0.6585416874        8.7695814936
  H        10.4810035721        1.7465812285        6.6760045183
  O         2.7165880240       10.3961078906        8.2671650270
  H         2.7512709152        9.5651723277        8.7741336959
  H         0.2303466922       10.6345829282        6.6775537677
  O         5.4200388181        5.9522754241        8.2721435939
  H         5.8032190747        5.1720488378        8.7117403257
  H         2.8149018361        6.0908631096        6.6410759645
  O         7.7858740795        1.5074336708        8.2790199876
  H         7.8765188368        0.6793047186        8.7840260196
  H         5.3565121467        1.7438898438        6.6535104808
  O        -2.4240377397       10.3822132700        8.2739584865
  H        -2.3758099833        9.5530797624        8.7833675616
  H        -4.9003297581       10.6052417138        6.7000928866
  O         0.1222732951        5.9311558584        8.2707670320
  H         0.1530939381        5.0800068542        8.7426651464
  H        -2.3300561798        6.1856098062        6.6727998587
  O         2.6936218664        1.1355998784        8.4011044137
  H         2.7657967425        0.2488945568        8.8049957740
  H         0.2005543750        1.7216315641        6.7138216754
  C         3.5743261328        3.5834405351       10.1412201730
  C         3.0900377894        3.8123402177        8.7906498535
  H         3.9857380672        4.5344241257       10.5009289279
  H         2.7348357421        3.2798943373       10.7787736427
  H         4.3411845658        2.8010217058       10.1745298508
  N         2.6607609516        4.0711163803        7.7225034625
     168
 i =       26, E =     -8144.3527477280
 Fe         5.0938794100       11.8196869300        0.3885799900
 Fe         7.6575796300        7.3792284900        0.3885799900
 Fe        10.2212798400        2.9387700600        0.3885799900
 Fe        -0.0335205200       11.8196869300        0.3885799900
 Fe         2.5301797000        7.3792284900        0.3885799900
 Fe         5.0938799200        2.9387700600        0.3885799900
 Fe        -5.1609204400       11.8196869300        0.3885799900
 Fe        -2.5972202200        7.3792284900        0.3885799900
 Fe        -0.0335200000        2.9387700600        0.3885799900
  O         8.4519195100        8.9577468800        1.1642700400
  O        11.0156197300        4.5172884400        1.1642700400
  O        13.5793199500        0.0768300000        1.1642700400
  O         3.3245195900        8.9577468800        1.1642700400
  O         5.8882198100        4.5172884400        1.1642700400
  O         8.4519200300        0.0768300000        1.1642700400
  O        -1.8028803300        8.9577468800        1.1642700400
  O         0.7608198900        4.5172884400        1.1642700400
  O         3.3245201100        0.0768300000        1.1642700400
  O         8.4568493000       11.7183869300        1.1650400200
  O        11.0205495200        7.2779284900        1.1650400200
  O        13.5842497300        2.8374700500        1.1650400200
  O         3.3294493700       11.7183869300        1.1650400200
  O         5.8931495900        7.2779284900        1.1650400200
  O         8.4568498100        2.8374700500        1.1650400200
  O        -1.7979505500       11.7183869300        1.1650400200
  O         0.7657496700        7.2779284900        1.1650400200
  O         3.3294498900        2.8374700500        1.1650400200
  O         6.0627194200       10.3425368500        1.1660399400
  O         8.6264196400        5.9020784100        1.1660399400
  O        11.1901198600        1.4616199700        1.1660399400
  O         0.9353195000       10.3425368500        1.1660399400
  O         3.4990197200        5.9020784100        1.1660399400
  O         6.0627199400        1.4616199700        1.1660399400
  O        -4.1920804200       10.3425368500        1.1660399400
  O        -1.6283802000        5.9020784100        1.1660399400
  O         0.9353200200        1.4616199700        1.1660399400
 Fe         7.6576695000       13.2997167500        1.9292099500
 Fe        10.2213697200        8.8592583200        1.9292099500
 Fe        12.7850699400        4.4187998800        1.9292099500
 Fe         2.5302695800       13.2997167500        1.9292099500
 Fe         5.0939698000        8.8592583200        1.9292099500
 Fe         7.6576700200        4.4187998800        1.9292099500
 Fe        -2.5971303400       13.2997167500        1.9292099500
 Fe        -0.0334301200        8.8592583200        1.9292099500
 Fe         2.5302701000        4.4187998800        1.9292099500
 Fe         7.6573893600       10.3392168700        2.7128999200
 Fe        10.2210895800        5.8987584300        2.7128999200
 Fe        12.7847898000        1.4582999900        2.7128999200
 Fe         2.5299894400       10.3392168700        2.7128999200
 Fe         5.0936896600        5.8987584300        2.7128999200
 Fe         7.6573898800        1.4582999900        2.7128999200
 Fe        -2.5974104800       10.3392168700        2.7128999200
 Fe        -0.0337102600        5.8987584300        2.7128999200
 Fe         2.5299899600        1.4582999900        2.7128999200
  O         4.0829438729       13.3113680283        3.4951825533
  O         6.6585602093        8.8724009079        3.5111984494
  O         9.2403646541        4.4441065004        3.5623903542
  O        -1.0158175928       13.2973634245        3.5209054416
  O         1.5282430071        8.8639872639        3.5046619479
  O         4.1069836668        4.4102249773        3.5465492982
  O        -6.1395613504       13.3172251078        3.5522514795
  O        -3.6013179066        8.8692523863        3.5147706682
  O        -1.0456812507        4.4307263398        3.5103131197
  O         6.8217281829       11.8599987638        3.5281376985
  O         9.3801257541        7.4327804820        3.5030067637
  O        11.9409008968        2.9835156381        3.5145734355
  O         1.6993552286       11.8841243187        3.4857353165
  O         4.2514270869        7.4354029814        3.4825320993
  O         6.8140594860        2.9585514479        3.5466484327
  O        -3.4379985588       11.8488216907        3.5262297530
  O        -0.8736251628        7.4388364902        3.4905375294
  O         1.6897945947        2.9711134396        3.5173565546
  O         9.4276225989       10.2120000061        3.4907962359
  O        11.9862465300        5.7863412609        3.5011346591
  O        14.5500867351        1.3428020906        3.5151639054
  O         4.3067586395       10.2231154283        3.4815300158
  O         6.8411210521        5.7829681877        3.5331315697
  O         9.4385692634        1.3334325253        3.4777204304
  O        -0.8211887351       10.2149530590        3.4808244675
  O         1.7310745034        5.7786018133        3.4849357888
  O         4.3250809563        1.2842211902        3.4566608056
 Fe         5.0345936960       11.8417225059        4.4144397444
 Fe         7.6043905913        7.3988969762        4.4242639644
 Fe        10.1642582079        2.9436443624        4.4339681181
 Fe        -0.0745502470       11.8276198277        4.4125769143
 Fe         2.4719436001        7.3653317207        4.4127303866
 Fe         5.0312935968        2.9094693015        4.4161082252
 Fe        -5.2153546701       11.8145866899        4.4227976336
 Fe        -2.6488997889        7.3978518048        4.4178536968
 Fe        -0.0866825756        2.9565343030        4.4196515792
 Fe         7.6193209424       13.1866804823        4.8556504711
 Fe        10.1774176272        8.7340582324        4.8461474525
 Fe        12.7411136010        4.3027506874        4.8322802826
 Fe         2.4873077942       13.1818841868        4.8296597229
 Fe         5.0414028720        8.7423889304        4.8088424475
 Fe         7.6014060737        4.2968420712        4.8602628068
 Fe        -2.6411628741       13.1631805381        4.8482100459
 Fe        -0.0725939108        8.7423294177        4.8172868043
 Fe         2.5152503281        4.2157885978        4.9104924777
  O         5.8559203113       10.3438902263        5.8782214052
  O         8.4113807266        5.9078244512        5.8964234553
  O        10.9876223589        1.4664752072        5.8821982010
  O         0.7324208472       10.3439665114        5.8788626876
  O         3.3259083793        5.9210039266        5.8168247884
  O         5.8761815689        1.4340459043        5.8768090160
  O        -4.3987779752       10.3237412600        5.9002817868
  O        -1.8227477201        5.9069025069        5.8735552098
  O         0.7474906663        1.4421769032        5.9472608776
  O         5.9283491053       13.1657780503        5.7074410260
  O         8.4889023907        8.7231778431        5.7082939955
  O        11.0592792817        4.2832101954        5.7081310124
  O         0.8153677134       13.1624063709        5.7189848990
  O         3.3644236148        8.7355977291        5.6827496683
  O         5.9166809926        4.2613443412        5.7357432042
  O        -4.3130535721       13.1233765165        5.7456813985
  O        -1.7521322569        8.7264518590        5.6977052383
  O         0.7679566791        4.2988923659        5.6368873566
  O         3.4795445240       11.7684785980        5.6789806219
  O         6.0294945573        7.3355897878        5.6667496749
  O         8.6076925144        2.8964164273        5.7070772788
  O        -1.6364121945       11.7567472522        5.6857909641
  O         0.9096494743        7.3377818882        5.6828232293
  O         3.4831937007        2.7038685997        5.6302634222
  O        -6.7744667736       11.7696359759        5.6950956688
  O        -4.2135776553        7.3253693093        5.6908130709
  O        -1.6519223843        2.8899044268        5.6834577394
 Fe         7.7814151270       10.2682293948        6.4391449775
 Fe        10.3442678727        5.8238218642        6.4397448726
 Fe        12.9117610702        1.3886875770        6.4371012169
 Fe         2.6583262103       10.2677035348        6.4349646811
 Fe         5.2289228766        5.8318604695        6.4348889739
 Fe         7.7913382204        1.3825675075        6.4415754912
 Fe        -2.4680473720       10.2609328858        6.4392087984
 Fe         0.1058444756        5.8283232910        6.4360156341
 Fe         2.6599530176        1.2975422117        6.5578704628
  O         7.8479720422       10.3716689842        8.2726230794
  H         7.8827294422        9.5346269350        8.7701652679
  H         5.3482441452       10.6190184836        6.6756371401
  O        10.3852354365        5.9258665448        8.2745474369
  H        10.4651599226        5.0918276932        8.7722174881
  H         7.9116871710        6.1999206612        6.6926492808
  O        12.9627509888        1.4942727871        8.2707170313
  H        13.0123030971        0.6584105808        8.7688648952
  H        10.4809930343        1.7474857046        6.6769435653
  O         2.7165326770       10.3951597680        8.2667081297
  H         2.7510705182        9.5653835055        8.7756285668
  H         0.2303450891       10.6331885170        6.6745807297
  O         5.4280333981        5.9515548930        8.2703853004
  H         5.8086487362        5.1715030400        8.7106186092
  H         2.8135111348        6.0887798173        6.6406231467
  O         7.7878825773        1.5081293180        8.2783429900
  H         7.8753921047        0.6798271600        8.7839144320
  H         5.3532794177        1.7435236266        6.6494165348
  O        -2.4243505120       10.3817684942        8.2729545527
  H        -2.3756987396        9.5531392284        8.7831296040
  H        -4.8995975103       10.6055264251        6.6991425479
  O         0.1156135233        5.9307857863        8.2693466585
  H         0.1553540088        5.0803789788        8.7429544564
  H        -2.3272576916        6.1855745269        6.6712749147
  O         2.6979905584        1.1378002439        8.3996687808
  H         2.7657972333        0.2459818090        8.7915850002
  H         0.2045594732        1.7246311263        6.7179407641
  C         3.5638327503        3.5970908810       10.1503455526
  C         3.0771783292        3.8321151826        8.8078997137
  H         3.9905394479        4.5409030446       10.5246697285
  H         2.7319739287        3.2784957769       10.7938473928
  H         4.3309884834        2.8034626400       10.1560888821
  N         2.6760383231        4.0712835112        7.7369821111
     168
 i =       27, E =     -8144.3465747883
 Fe         5.0938794100       11.8196869300        0.3885799900
 Fe         7.6575796300        7.3792284900        0.3885799900
 Fe        10.2212798400        2.9387700600        0.3885799900
 Fe        -0.0335205200       11.8196869300        0.3885799900
 Fe         2.5301797000        7.3792284900        0.3885799900
 Fe         5.0938799200        2.9387700600        0.3885799900
 Fe        -5.1609204400       11.8196869300        0.3885799900
 Fe        -2.5972202200        7.3792284900        0.3885799900
 Fe        -0.0335200000        2.9387700600        0.3885799900
  O         8.4519195100        8.9577468800        1.1642700400
  O        11.0156197300        4.5172884400        1.1642700400
  O        13.5793199500        0.0768300000        1.1642700400
  O         3.3245195900        8.9577468800        1.1642700400
  O         5.8882198100        4.5172884400        1.1642700400
  O         8.4519200300        0.0768300000        1.1642700400
  O        -1.8028803300        8.9577468800        1.1642700400
  O         0.7608198900        4.5172884400        1.1642700400
  O         3.3245201100        0.0768300000        1.1642700400
  O         8.4568493000       11.7183869300        1.1650400200
  O        11.0205495200        7.2779284900        1.1650400200
  O        13.5842497300        2.8374700500        1.1650400200
  O         3.3294493700       11.7183869300        1.1650400200
  O         5.8931495900        7.2779284900        1.1650400200
  O         8.4568498100        2.8374700500        1.1650400200
  O        -1.7979505500       11.7183869300        1.1650400200
  O         0.7657496700        7.2779284900        1.1650400200
  O         3.3294498900        2.8374700500        1.1650400200
  O         6.0627194200       10.3425368500        1.1660399400
  O         8.6264196400        5.9020784100        1.1660399400
  O        11.1901198600        1.4616199700        1.1660399400
  O         0.9353195000       10.3425368500        1.1660399400
  O         3.4990197200        5.9020784100        1.1660399400
  O         6.0627199400        1.4616199700        1.1660399400
  O        -4.1920804200       10.3425368500        1.1660399400
  O        -1.6283802000        5.9020784100        1.1660399400
  O         0.9353200200        1.4616199700        1.1660399400
 Fe         7.6576695000       13.2997167500        1.9292099500
 Fe        10.2213697200        8.8592583200        1.9292099500
 Fe        12.7850699400        4.4187998800        1.9292099500
 Fe         2.5302695800       13.2997167500        1.9292099500
 Fe         5.0939698000        8.8592583200        1.9292099500
 Fe         7.6576700200        4.4187998800        1.9292099500
 Fe        -2.5971303400       13.2997167500        1.9292099500
 Fe        -0.0334301200        8.8592583200        1.9292099500
 Fe         2.5302701000        4.4187998800        1.9292099500
 Fe         7.6573893600       10.3392168700        2.7128999200
 Fe        10.2210895800        5.8987584300        2.7128999200
 Fe        12.7847898000        1.4582999900        2.7128999200
 Fe         2.5299894400       10.3392168700        2.7128999200
 Fe         5.0936896600        5.8987584300        2.7128999200
 Fe         7.6573898800        1.4582999900        2.7128999200
 Fe        -2.5974104800       10.3392168700        2.7128999200
 Fe        -0.0337102600        5.8987584300        2.7128999200
 Fe         2.5299899600        1.4582999900        2.7128999200
  O         4.1290793084       13.3246469417        3.5671485558
  O         6.6613104336        8.8685616143        3.5110577836
  O         9.2463027680        4.4597910263        3.5827926966
  O        -1.0078551174       13.3025608804        3.5317158916
  O         1.5310131207        8.8714002916        3.5123010134
  O         4.1248359158        4.4154573834        3.5749900559
  O        -6.1574759604       13.3034890072        3.5046283069
  O        -3.5911790222        8.8741802468        3.5284841548
  O        -1.0389347896        4.4294262353        3.5162108980
  O         6.8228061942       11.8807189068        3.4847297047
  O         9.3732554446        7.4252097083        3.5100677565
  O        11.9395999320        2.9767392157        3.5208776218
  O         1.6866401560       11.8380975249        3.5498286690
  O         4.2508451345        7.4376307896        3.4797652959
  O         6.8160062318        2.9489970469        3.5563547335
  O        -3.4430567447       11.8431912751        3.5301970417
  O        -0.8783002141        7.4324107971        3.4940554414
  O         1.6925246885        2.9471722466        3.5558584983
  O         9.4194406489       10.2237098849        3.5043821099
  O        11.9800547158        5.7912647427        3.5081139563
  O        14.5659633245        1.3326983870        3.4728170979
  O         4.3055030857       10.2226204550        3.4818290116
  O         6.8345444053        5.7903864915        3.5491840047
  O         9.4039507004        1.3572603866        3.5430987074
  O        -0.8218565655       10.2203650543        3.4836985072
  O         1.7126195301        5.8030444845        3.5193534447
  O         4.3134814550        1.3029395026        3.4812401648
 Fe         5.0619175605       11.8213759299        4.4284635964
 Fe         7.6015683613        7.4000924521        4.4394798795
 Fe        10.1689191636        2.9626724376        4.4417718289
 Fe        -0.0938314555       11.8252125104        4.4350419038
 Fe         2.4785348828        7.3785774602        4.4224322407
 Fe         5.0468774049        2.9152705773        4.4327998837
 Fe        -5.2226414471       11.8326530703        4.4216317097
 Fe        -2.6478711795        7.3955093171        4.4238130460
 Fe        -0.0982570248        2.9403623934        4.4178030348
 Fe         7.6212793520       13.1859247154        4.8312231807
 Fe        10.1772761232        8.7377256906        4.8371986636
 Fe        12.7396113955        4.3041981065        4.8291578060
 Fe         2.4867101797       13.1798048859        4.8485652876
 Fe         5.0421045612        8.7445075694        4.8079145439
 Fe         7.5982563952        4.2913548353        4.8713444886
 Fe        -2.6431598416       13.1669099678        4.8439181343
 Fe        -0.0731698113        8.7392213456        4.8178457464
 Fe         2.5106359159        4.2326486355        4.9114375694
  O         5.8580464893       10.3378347332        5.8831146493
  O         8.4139907232        5.9077738586        5.8978919744
  O        10.9869895665        1.4681047914        5.8813940038
  O         0.7354117682       10.3422081544        5.8784640022
  O         3.3296775015        5.9164435013        5.8238810607
  O         5.8715644597        1.4468611268        5.8651980320
  O        -4.3965517296       10.3269007889        5.8949243042
  O        -1.8259830844        5.9046759603        5.8712033356
  O         0.7413696321        1.4397524174        5.9441543423
  O         5.9363012278       13.1697893236        5.7111117297
  O         8.4949452448        8.7265534789        5.7054422182
  O        11.0659429300        4.2870264566        5.7153620920
  O         0.8085809665       13.1662613608        5.7157402297
  O         3.3702295004        8.7360459356        5.6909934408
  O         5.9161423098        4.2573976607        5.7393568837
  O        -4.3073742907       13.1211159177        5.7440244365
  O        -1.7557465072        8.7276081160        5.6944996361
  O         0.7594287167        4.2960199528        5.6320072280
  O         3.4853071652       11.7657466592        5.6748240622
  O         6.0255485820        7.3406255454        5.6729875339
  O         8.6089307241        2.8883408593        5.7072178060
  O        -1.6491733264       11.7623081233        5.6930993982
  O         0.9120449179        7.3330804027        5.6836083694
  O         3.4799908539        2.7386091740        5.6368489223
  O        -6.7790438275       11.7703814131        5.6942623358
  O        -4.2191519017        7.3288638764        5.6852138941
  O        -1.6555261353        2.8973110964        5.6907741883
 Fe         7.7807229622       10.2670172333        6.4366458034
 Fe        10.3456045311        5.8258498550        6.4379253693
 Fe        12.9119870870        1.3911666438        6.4383987736
 Fe         2.6599841357       10.2682117400        6.4322948458
 Fe         5.2362159389        5.8299023703        6.4314366056
 Fe         7.7821074942        1.3823697226        6.4399712994
 Fe        -2.4663877352       10.2615503166        6.4390253653
 Fe         0.1003931147        5.8261651893        6.4338153533
 Fe         2.6710070876        1.3107285781        6.5437133153
  O         7.8479176299       10.3707280842        8.2699062436
  H         7.8823714611        9.5352771987        8.7696037820
  H         5.3459191581       10.6175507997        6.6747089104
  O        10.3847390328        5.9248865428        8.2719728502
  H        10.4649619031        5.0926377175        8.7718622530
  H         7.9092231285        6.1997678878        6.6901391178
  O        12.9640733831        1.4960001308        8.2720657799
  H        13.0119421862        0.6584619985        8.7676874091
  H        10.4813537950        1.7471968257        6.6771824437
  O         2.7162712984       10.3917154584        8.2637059298
  H         2.7510576308        9.5654543406        8.7779473664
  H         0.2293575766       10.6328893262        6.6704284147
  O         5.4345318887        5.9504826134        8.2665386684
  H         5.8047805365        5.1697642689        8.7086944783
  H         2.8106637081        6.0874784870        6.6391625414
  O         7.7900744511        1.5087285414        8.2768291939
  H         7.8745992724        0.6801549710        8.7830367807
  H         5.3549112916        1.7394802898        6.6450377201
  O        -2.4248352455       10.3820888762        8.2717761776
  H        -2.3754941977        9.5533318785        8.7812422599
  H        -4.8986576387       10.6056291156        6.6942766141
  O         0.1055902544        5.9316175606        8.2676076636
  H         0.1593324359        5.0822433806        8.7432665005
  H        -2.3250389563        6.1847106097        6.6706447598
  O         2.6983673833        1.1373958693        8.3939521096
  H         2.7630964782        0.2432197250        8.7766249034
  H         0.2134214214        1.7289235253        6.7205408008
  C         3.5543539541        3.6128293149       10.1556723910
  C         3.0486956457        3.8365736916        8.8263219834
  H         3.9982008173        4.5491916884       10.5395218440
  H         2.7258819526        3.2768864015       10.7943221183
  H         4.3209864328        2.8052846102       10.1323406143
  N         2.7305755862        4.0445705048        7.7428326008
     168
 i =       28, E =     -8144.3552447317
 Fe         5.0938794100       11.8196869300        0.3885799900
 Fe         7.6575796300        7.3792284900        0.3885799900
 Fe        10.2212798400        2.9387700600        0.3885799900
 Fe        -0.0335205200       11.8196869300        0.3885799900
 Fe         2.5301797000        7.3792284900        0.3885799900
 Fe         5.0938799200        2.9387700600        0.3885799900
 Fe        -5.1609204400       11.8196869300        0.3885799900
 Fe        -2.5972202200        7.3792284900        0.3885799900
 Fe        -0.0335200000        2.9387700600        0.3885799900
  O         8.4519195100        8.9577468800        1.1642700400
  O        11.0156197300        4.5172884400        1.1642700400
  O        13.5793199500        0.0768300000        1.1642700400
  O         3.3245195900        8.9577468800        1.1642700400
  O         5.8882198100        4.5172884400        1.1642700400
  O         8.4519200300        0.0768300000        1.1642700400
  O        -1.8028803300        8.9577468800        1.1642700400
  O         0.7608198900        4.5172884400        1.1642700400
  O         3.3245201100        0.0768300000        1.1642700400
  O         8.4568493000       11.7183869300        1.1650400200
  O        11.0205495200        7.2779284900        1.1650400200
  O        13.5842497300        2.8374700500        1.1650400200
  O         3.3294493700       11.7183869300        1.1650400200
  O         5.8931495900        7.2779284900        1.1650400200
  O         8.4568498100        2.8374700500        1.1650400200
  O        -1.7979505500       11.7183869300        1.1650400200
  O         0.7657496700        7.2779284900        1.1650400200
  O         3.3294498900        2.8374700500        1.1650400200
  O         6.0627194200       10.3425368500        1.1660399400
  O         8.6264196400        5.9020784100        1.1660399400
  O        11.1901198600        1.4616199700        1.1660399400
  O         0.9353195000       10.3425368500        1.1660399400
  O         3.4990197200        5.9020784100        1.1660399400
  O         6.0627199400        1.4616199700        1.1660399400
  O        -4.1920804200       10.3425368500        1.1660399400
  O        -1.6283802000        5.9020784100        1.1660399400
  O         0.9353200200        1.4616199700        1.1660399400
 Fe         7.6576695000       13.2997167500        1.9292099500
 Fe        10.2213697200        8.8592583200        1.9292099500
 Fe        12.7850699400        4.4187998800        1.9292099500
 Fe         2.5302695800       13.2997167500        1.9292099500
 Fe         5.0939698000        8.8592583200        1.9292099500
 Fe         7.6576700200        4.4187998800        1.9292099500
 Fe        -2.5971303400       13.2997167500        1.9292099500
 Fe        -0.0334301200        8.8592583200        1.9292099500
 Fe         2.5302701000        4.4187998800        1.9292099500
 Fe         7.6573893600       10.3392168700        2.7128999200
 Fe        10.2210895800        5.8987584300        2.7128999200
 Fe        12.7847898000        1.4582999900        2.7128999200
 Fe         2.5299894400       10.3392168700        2.7128999200
 Fe         5.0936896600        5.8987584300        2.7128999200
 Fe         7.6573898800        1.4582999900        2.7128999200
 Fe        -2.5974104800       10.3392168700        2.7128999200
 Fe        -0.0337102600        5.8987584300        2.7128999200
 Fe         2.5299899600        1.4582999900        2.7128999200
  O         4.1116977621       13.3228158108        3.5451406527
  O         6.6736694596        8.8776517783        3.5350856800
  O         9.2295030134        4.4478361520        3.5504655467
  O        -1.0181777044       13.3022632288        3.5202151029
  O         1.5371275034        8.8721572111        3.5232764257
  O         4.1059792724        4.4033709578        3.5346428088
  O        -6.1328414121       13.3201874846        3.5547646435
  O        -3.6043159160        8.8688456437        3.5089693443
  O        -1.0439943332        4.4307840198        3.5092934296
  O         6.8219580883       11.8547660960        3.5296258780
  O         9.3774185553        7.4357313465        3.4945276204
  O        11.9405596057        2.9833407386        3.5126770770
  O         1.6899627474       11.8544875472        3.5300678512
  O         4.2508148147        7.4179699070        3.5069117127
  O         6.8131966605        2.9657926493        3.5300337817
  O        -3.4392157802       11.8545528536        3.5158619570
  O        -0.8773965345        7.4250709436        3.5061060099
  O         1.6950152871        2.9792149714        3.5116428407
  O         9.4323166015       10.2156387577        3.4848403301
  O        11.9835790391        5.7863477070        3.5017386353
  O        14.5484037930        1.3471302548        3.5155939104
  O         4.2934677889       10.2311506928        3.5054004276
  O         6.8488545405        5.7802475838        3.5202748583
  O         9.4133360923        1.3484823744        3.5229878807
  O        -0.8289995198       10.2231913120        3.4964460915
  O         1.7347408193        5.7851450417        3.4775371914
  O         4.3189731916        1.3014992073        3.4694792501
 Fe         5.0474297510       11.8333012193        4.4299051948
 Fe         7.6065125500        7.3916099135        4.4304113262
 Fe        10.1655642943        2.9603354374        4.4286307912
 Fe        -0.0886656871       11.8307217687        4.4268858958
 Fe         2.4724388125        7.3672813181        4.4215069341
 Fe         5.0424750355        2.9176890601        4.4160956219
 Fe        -5.2135721680       11.8171794643        4.4243385216
 Fe        -2.6534985011        7.3970624494        4.4190043699
 Fe        -0.0890535237        2.9565870890        4.4177278271
 Fe         7.6220989963       13.1856028157        4.8526192254
 Fe        10.1762079584        8.7367668497        4.8333446418
 Fe        12.7411817466        4.3032687543        4.8302995233
 Fe         2.4866853980       13.1813683665        4.8462479979
 Fe         5.0415300126        8.7420759839        4.8191069086
 Fe         7.5971970833        4.2929895564        4.8517620071
 Fe        -2.6431596702       13.1704795748        4.8381865556
 Fe        -0.0743642418        8.7396166255        4.8227877135
 Fe         2.5160942154        4.2341452743        4.8851933557
  O         5.8574806219       10.3412325963        5.8815485100
  O         8.4133537720        5.9038556863        5.8932501402
  O        10.9874029316        1.4685880001        5.8829305062
  O         0.7344681764       10.3433453161        5.8782246550
  O         3.3280465705        5.9150019937        5.8184794896
  O         5.8725099096        1.4496297330        5.8639351996
  O        -4.3968390471       10.3247742783        5.8928961420
  O        -1.8259290144        5.9061284736        5.8719481445
  O         0.7482465812        1.4465360724        5.9386841991
  O         5.9322238223       13.1689200886        5.7111172559
  O         8.4934614938        8.7247395212        5.7029121540
  O        11.0615899425        4.2866325457        5.7082466821
  O         0.8091440565       13.1667161191        5.7173625795
  O         3.3646292821        8.7323020444        5.6914182178
  O         5.9112361487        4.2630994396        5.7223662798
  O        -4.3088697142       13.1259414889        5.7359487644
  O        -1.7608580653        8.7295906510        5.6931007246
  O         0.7733913557        4.3062427312        5.6211161768
  O         3.4819853219       11.7694606937        5.6818296362
  O         6.0308601584        7.3334396411        5.6693401250
  O         8.6062237638        2.8940053968        5.7012059386
  O        -1.6485176171       11.7643532353        5.6869524400
  O         0.9095205698        7.3274242431        5.6786361760
  O         3.4847703658        2.7442329771        5.6379296725
  O        -6.7752926684       11.7642257870        5.6925952097
  O        -4.2196440696        7.3281703952        5.6846905246
  O        -1.6517969725        2.8960435274        5.6876630635
 Fe         7.7800402614       10.2646543702        6.4373052610
 Fe        10.3453562880        5.8252695931        6.4378640531
 Fe        12.9135383166        1.3923843390        6.4368679906
 Fe         2.6591012345       10.2673700883        6.4328029414
 Fe         5.2336899995        5.8297588647        6.4316320779
 Fe         7.7851551134        1.3856475641        6.4396021260
 Fe        -2.4679076983       10.2643322770        6.4388101415
 Fe         0.1013227943        5.8244678684        6.4342796681
 Fe         2.6703741043        1.3117498612        6.5353835639
  O         7.8486311437       10.3705251309        8.2700697926
  H         7.8824013509        9.5348979743        8.7695892917
  H         5.3462133479       10.6177593794        6.6744060478
  O        10.3844812638        5.9254678189        8.2722223259
  H        10.4654761943        5.0925467201        8.7710899675
  H         7.9124724828        6.1987386559        6.6877049533
  O        12.9654495183        1.4949003687        8.2706046664
  H        13.0116198929        0.6584348581        8.7681396824
  H        10.4821650709        1.7483514716        6.6790094812
  O         2.7166491748       10.3912162258        8.2641622704
  H         2.7507993725        9.5647418403        8.7779260123
  H         0.2286373694       10.6318940171        6.6710437136
  O         5.4394078356        5.9501250405        8.2656276488
  H         5.8147548818        5.1695329976        8.7064056304
  H         2.8132117754        6.0826466966        6.6393155529
  O         7.7873756843        1.5083765355        8.2766366876
  H         7.8741070009        0.6801215339        8.7826289319
  H         5.3595377029        1.7397387298        6.6490694679
  O        -2.4257535399       10.3810665226        8.2717178741
  H        -2.3759859765        9.5527704104        8.7820634704
  H        -4.8988008977       10.6042547650        6.6920439195
  O         0.0954570965        5.9332553814        8.2672761388
  H         0.1609245954        5.0836655404        8.7406174499
  H        -2.3261711156        6.1848780441        6.6713542790
  O         2.7035058548        1.1360132082        8.3829946511
  H         2.7665365361        0.2397609317        8.7625718955
  H         0.2140310243        1.7263864668        6.7145934849
  C         3.5606912683        3.6081250411       10.1614540667
  C         3.0435861619        3.8500632317        8.8299850778
  H         3.9957372252        4.5431824064       10.5479831469
  H         2.7326000249        3.2806899034       10.8033819841
  H         4.3248918786        2.8137017104       10.1505115576
  N         2.6832437870        4.0796249802        7.7579223519
     168
 i =       29, E =     -8144.3555470252
 Fe         5.0938794100       11.8196869300        0.3885799900
 Fe         7.6575796300        7.3792284900        0.3885799900
 Fe        10.2212798400        2.9387700600        0.3885799900
 Fe        -0.0335205200       11.8196869300        0.3885799900
 Fe         2.5301797000        7.3792284900        0.3885799900
 Fe         5.0938799200        2.9387700600        0.3885799900
 Fe        -5.1609204400       11.8196869300        0.3885799900
 Fe        -2.5972202200        7.3792284900        0.3885799900
 Fe        -0.0335200000        2.9387700600        0.3885799900
  O         8.4519195100        8.9577468800        1.1642700400
  O        11.0156197300        4.5172884400        1.1642700400
  O        13.5793199500        0.0768300000        1.1642700400
  O         3.3245195900        8.9577468800        1.1642700400
  O         5.8882198100        4.5172884400        1.1642700400
  O         8.4519200300        0.0768300000        1.1642700400
  O        -1.8028803300        8.9577468800        1.1642700400
  O         0.7608198900        4.5172884400        1.1642700400
  O         3.3245201100        0.0768300000        1.1642700400
  O         8.4568493000       11.7183869300        1.1650400200
  O        11.0205495200        7.2779284900        1.1650400200
  O        13.5842497300        2.8374700500        1.1650400200
  O         3.3294493700       11.7183869300        1.1650400200
  O         5.8931495900        7.2779284900        1.1650400200
  O         8.4568498100        2.8374700500        1.1650400200
  O        -1.7979505500       11.7183869300        1.1650400200
  O         0.7657496700        7.2779284900        1.1650400200
  O         3.3294498900        2.8374700500        1.1650400200
  O         6.0627194200       10.3425368500        1.1660399400
  O         8.6264196400        5.9020784100        1.1660399400
  O        11.1901198600        1.4616199700        1.1660399400
  O         0.9353195000       10.3425368500        1.1660399400
  O         3.4990197200        5.9020784100        1.1660399400
  O         6.0627199400        1.4616199700        1.1660399400
  O        -4.1920804200       10.3425368500        1.1660399400
  O        -1.6283802000        5.9020784100        1.1660399400
  O         0.9353200200        1.4616199700        1.1660399400
 Fe         7.6576695000       13.2997167500        1.9292099500
 Fe        10.2213697200        8.8592583200        1.9292099500
 Fe        12.7850699400        4.4187998800        1.9292099500
 Fe         2.5302695800       13.2997167500        1.9292099500
 Fe         5.0939698000        8.8592583200        1.9292099500
 Fe         7.6576700200        4.4187998800        1.9292099500
 Fe        -2.5971303400       13.2997167500        1.9292099500
 Fe        -0.0334301200        8.8592583200        1.9292099500
 Fe         2.5302701000        4.4187998800        1.9292099500
 Fe         7.6573893600       10.3392168700        2.7128999200
 Fe        10.2210895800        5.8987584300        2.7128999200
 Fe        12.7847898000        1.4582999900        2.7128999200
 Fe         2.5299894400       10.3392168700        2.7128999200
 Fe         5.0936896600        5.8987584300        2.7128999200
 Fe         7.6573898800        1.4582999900        2.7128999200
 Fe        -2.5974104800       10.3392168700        2.7128999200
 Fe        -0.0337102600        5.8987584300        2.7128999200
 Fe         2.5299899600        1.4582999900        2.7128999200
  O         4.0955238523       13.3160582143        3.5205409331
  O         6.6613986745        8.8764504837        3.5186339708
  O         9.2122064341        4.4303811905        3.5126944108
  O        -1.0293796069       13.3036088467        3.5096304055
  O         1.5325734162        8.8723110372        3.5208345872
  O         4.0856540052        4.4011794408        3.5030708779
  O        -6.1387258854       13.3209694394        3.5579243892
  O        -3.6045873605        8.8667490460        3.5083454977
  O        -1.0523410098        4.4284283203        3.4963115912
  O         6.8253919619       11.8603416268        3.5328001782
  O         9.3822164434        7.4365136918        3.4935039067
  O        11.9420201215        2.9922308775        3.5014496605
  O         1.6967793744       11.8730899502        3.5107890763
  O         4.2565693034        7.4268464638        3.4968522087
  O         6.8168211871        2.9886130064        3.5103279973
  O        -3.4365980664       11.8641973098        3.5034710890
  O        -0.8762755044        7.4278665668        3.5051535066
  O         1.6920548559        3.0025183930        3.4716859974
  O         9.4336327193       10.2142472706        3.4831509424
  O        11.9882311587        5.7789592902        3.4924478803
  O        14.5527927902        1.3443218305        3.5192965507
  O         4.3029144330       10.2267690568        3.4886272035
  O         6.8644332944        5.7643326699        3.4893487049
  O         9.4254965091        1.3395572941        3.4975192593
  O        -0.8287650897       10.2194682875        3.4947378007
  O         1.7552415630        5.7686009999        3.4424019735
  O         4.3247082867        1.2908922245        3.4553711233
 Fe         5.0388244817       11.8354605421        4.4208832854
 Fe         7.6012755606        7.3895357504        4.4075355983
 Fe        10.1633145737        2.9556687981        4.4152725731
 Fe        -0.0846239505       11.8330720632        4.4118089559
 Fe         2.4714504448        7.3612431749        4.4062195003
 Fe         5.0313770225        2.9192834840        4.4069271194
 Fe        -5.2094738104       11.8146843892        4.4184419363
 Fe        -2.6533756323        7.3917505310        4.4177962520
 Fe        -0.0835191376        2.9652739235        4.4127185984
 Fe         7.6213557866       13.1852365532        4.8646957247
 Fe        10.1744541094        8.7372563965        4.8327742903
 Fe        12.7431353359        4.3017068782        4.8308027377
 Fe         2.4878307329       13.1846190399        4.8475172251
 Fe         5.0408787680        8.7428645562        4.8181048614
 Fe         7.6050908398        4.3020869191        4.8440807765
 Fe        -2.6422742993       13.1688806382        4.8358343039
 Fe        -0.0745748470        8.7391049564        4.8263033525
 Fe         2.5151755838        4.2293967425        4.8671776169
  O         5.8576203900       10.3429504409        5.8797200573
  O         8.4137750856        5.9099246440        5.8895815922
  O        10.9880924479        1.4700813671        5.8855567761
  O         0.7328564240       10.3472380785        5.8780538862
  O         3.3253183316        5.9203665378        5.8107861072
  O         5.8782110840        1.4414422463        5.8728660316
  O        -4.3982328421       10.3260003467        5.8881073522
  O        -1.8277824584        5.9078574742        5.8708981164
  O         0.7519394910        1.4522222886        5.9322427638
  O         5.9282012861       13.1666698346        5.7078201423
  O         8.4873905067        8.7213748199        5.6966039663
  O        11.0564654085        4.2875269405        5.6993486816
  O         0.8076733721       13.1609168190        5.7193794386
  O         3.3610273370        8.7266333282        5.6896561649
  O         5.9152971641        4.2706102743        5.7159510303
  O        -4.3129667884       13.1338083765        5.7289935434
  O        -1.7655383849        8.7312671311        5.6906676292
  O         0.7783277739        4.3102755622        5.6181307975
  O         3.4814482875       11.7724347924        5.6880864504
  O         6.0343875267        7.3293758065        5.6626569811
  O         8.6051548413        2.8994627769        5.6964578727
  O        -1.6426371703       11.7645973256        5.6841503394
  O         0.9135341712        7.3252540119        5.6758316778
  O         3.4837237197        2.7495403788        5.6496714194
  O        -6.7705278704       11.7601643941        5.6885154901
  O        -4.2203735390        7.3271205979        5.6812203855
  O        -1.6478989691        2.8920525541        5.6822749550
 Fe         7.7809750177       10.2629443354        6.4382253111
 Fe        10.3456076928        5.8258725754        6.4391492055
 Fe        12.9144806628        1.3920893247        6.4357918471
 Fe         2.6595024217       10.2651756574        6.4348265406
 Fe         5.2300271958        5.8324538607        6.4377200349
 Fe         7.7959750533        1.3867764072        6.4417123855
 Fe        -2.4704680242       10.2663409339        6.4383188588
 Fe         0.1006391377        5.8245779564        6.4346369824
 Fe         2.6646879318        1.3164548403        6.5201236424
  O         7.8494865709       10.3700222007        8.2708624242
  H         7.8823940080        9.5337334794        8.7699166972
  H         5.3468501948       10.6178947235        6.6744423017
  O        10.3841234044        5.9267734529        8.2734703569
  H        10.4662433775        5.0921969146        8.7698381717
  H         7.9142381877        6.1977624835        6.6878253402
  O        12.9667041661        1.4943518375        8.2698285408
  H        13.0113194196        0.6580844557        8.7680394612
  H        10.4820728580        1.7505518176        6.6806620814
  O         2.7163035681       10.3914617144        8.2666918582
  H         2.7504179177        9.5633735789        8.7780962014
  H         0.2268551952       10.6293552353        6.6730311938
  O         5.4486883586        5.9512155048        8.2694923289
  H         5.8303911089        5.1666155709        8.7035351542
  H         2.8155140536        6.0726180633        6.6434348894
  O         7.7831831139        1.5091050426        8.2786639283
  H         7.8729069202        0.6798083430        8.7820509537
  H         5.3585158258        1.7436470349        6.6523446532
  O        -2.4265996684       10.3803596572        8.2715266743
  H        -2.3764917080        9.5522169783        8.7824402696
  H        -4.8991236564       10.6018895890        6.6888148565
  O         0.0801291080        5.9345692252        8.2672526247
  H         0.1638750509        5.0853514330        8.7385252055
  H        -2.3265166547        6.1849734842        6.6722435100
  O         2.7171401871        1.1410150647        8.3625667728
  H         2.7717945041        0.2396431202        8.7339855078
  H         0.2164215469        1.7241257867        6.7117965387
  C         3.5622216925        3.6095743740       10.1775786443
  C         3.0741966918        3.8660804009        8.8458820314
  H         3.9912494942        4.5421119862       10.5650595551
  H         2.7380660563        3.2810548188       10.8276746455
  H         4.3250494192        2.8183503404       10.1605126455
  N         2.5933639984        4.1338022905        7.7870263035
     168
 i =       30, E =     -8144.3595489578
 Fe         5.0938794100       11.8196869300        0.3885799900
 Fe         7.6575796300        7.3792284900        0.3885799900
 Fe        10.2212798400        2.9387700600        0.3885799900
 Fe        -0.0335205200       11.8196869300        0.3885799900
 Fe         2.5301797000        7.3792284900        0.3885799900
 Fe         5.0938799200        2.9387700600        0.3885799900
 Fe        -5.1609204400       11.8196869300        0.3885799900
 Fe        -2.5972202200        7.3792284900        0.3885799900
 Fe        -0.0335200000        2.9387700600        0.3885799900
  O         8.4519195100        8.9577468800        1.1642700400
  O        11.0156197300        4.5172884400        1.1642700400
  O        13.5793199500        0.0768300000        1.1642700400
  O         3.3245195900        8.9577468800        1.1642700400
  O         5.8882198100        4.5172884400        1.1642700400
  O         8.4519200300        0.0768300000        1.1642700400
  O        -1.8028803300        8.9577468800        1.1642700400
  O         0.7608198900        4.5172884400        1.1642700400
  O         3.3245201100        0.0768300000        1.1642700400
  O         8.4568493000       11.7183869300        1.1650400200
  O        11.0205495200        7.2779284900        1.1650400200
  O        13.5842497300        2.8374700500        1.1650400200
  O         3.3294493700       11.7183869300        1.1650400200
  O         5.8931495900        7.2779284900        1.1650400200
  O         8.4568498100        2.8374700500        1.1650400200
  O        -1.7979505500       11.7183869300        1.1650400200
  O         0.7657496700        7.2779284900        1.1650400200
  O         3.3294498900        2.8374700500        1.1650400200
  O         6.0627194200       10.3425368500        1.1660399400
  O         8.6264196400        5.9020784100        1.1660399400
  O        11.1901198600        1.4616199700        1.1660399400
  O         0.9353195000       10.3425368500        1.1660399400
  O         3.4990197200        5.9020784100        1.1660399400
  O         6.0627199400        1.4616199700        1.1660399400
  O        -4.1920804200       10.3425368500        1.1660399400
  O        -1.6283802000        5.9020784100        1.1660399400
  O         0.9353200200        1.4616199700        1.1660399400
 Fe         7.6576695000       13.2997167500        1.9292099500
 Fe        10.2213697200        8.8592583200        1.9292099500
 Fe        12.7850699400        4.4187998800        1.9292099500
 Fe         2.5302695800       13.2997167500        1.9292099500
 Fe         5.0939698000        8.8592583200        1.9292099500
 Fe         7.6576700200        4.4187998800        1.9292099500
 Fe        -2.5971303400       13.2997167500        1.9292099500
 Fe        -0.0334301200        8.8592583200        1.9292099500
 Fe         2.5302701000        4.4187998800        1.9292099500
 Fe         7.6573893600       10.3392168700        2.7128999200
 Fe        10.2210895800        5.8987584300        2.7128999200
 Fe        12.7847898000        1.4582999900        2.7128999200
 Fe         2.5299894400       10.3392168700        2.7128999200
 Fe         5.0936896600        5.8987584300        2.7128999200
 Fe         7.6573898800        1.4582999900        2.7128999200
 Fe        -2.5974104800       10.3392168700        2.7128999200
 Fe        -0.0337102600        5.8987584300        2.7128999200
 Fe         2.5299899600        1.4582999900        2.7128999200
  O         4.0989455830       13.3177962027        3.5268246138
  O         6.6551992521        8.8743800641        3.5076403976
  O         9.2155466390        4.4317288084        3.5169710352
  O        -1.0158869954       13.3095709082        3.5321860050
  O         1.5297927182        8.8708593799        3.5157789009
  O         4.1045586308        4.4127516327        3.5343102215
  O        -6.1446711974       13.3167943635        3.5474323983
  O        -3.6012938519        8.8687717247        3.5141602751
  O        -1.0508538991        4.4292935259        3.5009366844
  O         6.8259405590       11.8652002100        3.5265558529
  O         9.3808194442        7.4334839652        3.4993814574
  O        11.9408222130        2.9889313191        3.5060129512
  O         1.6973395891       11.8687843050        3.5167172699
  O         4.2554235627        7.4360490126        3.4848878912
  O         6.8200054137        2.9874378317        3.5129791370
  O        -3.4382454678       11.8487193107        3.5244362922
  O        -0.8760919931        7.4321800500        3.4981326804
  O         1.6894065763        2.9781642324        3.5031945652
  O         9.4300628881       10.2159487269        3.4892094629
  O        11.9861061708        5.7803077983        3.4962445268
  O        14.5538847336        1.3408907716        3.5145210103
  O         4.3083823597       10.2226622344        3.4787772127
  O         6.8633408916        5.7672369610        3.4924366938
  O         9.4243833395        1.3425775721        3.5023556724
  O        -0.8263687614       10.2172909877        3.4893502422
  O         1.7395081079        5.7822290495        3.4716509936
  O         4.3138929427        1.2998541804        3.4766175626
 Fe         5.0399793150       11.8324474573        4.4195732535
 Fe         7.5978360313        7.3929483567        4.4083708296
 Fe        10.1629688386        2.9565381900        4.4203358074
 Fe        -0.0829568846       11.8262632154        4.4175043678
 Fe         2.4747980681        7.3687956797        4.4110501729
 Fe         5.0418335603        2.9204479365        4.4151732701
 Fe        -5.2144488131       11.8179803254        4.4222631494
 Fe        -2.6504814713        7.3914777597        4.4170806571
 Fe        -0.0888065902        2.9620276234        4.4165485575
 Fe         7.6220844798       13.1865176741        4.8623309773
 Fe        10.1749563820        8.7375511560        4.8355269097
 Fe        12.7418838871        4.3021572284        4.8335582667
 Fe         2.4880988077       13.1832925267        4.8520818081
 Fe         5.0429443006        8.7436072134        4.8130154337
 Fe         7.6076290198        4.3027372190        4.8481155722
 Fe        -2.6422692861       13.1660859484        4.8440908745
 Fe        -0.0749607272        8.7385827291        4.8251139094
 Fe         2.5128295214        4.2321195034        4.8733209021
  O         5.8580076475       10.3429524189        5.8792961007
  O         8.4135207345        5.9113495717        5.8906084481
  O        10.9884971774        1.4693606765        5.8864239764
  O         0.7329939320       10.3458288802        5.8792119549
  O         3.3255532810        5.9202522179        5.8128576060
  O         5.8777002479        1.4413170414        5.8741138524
  O        -4.3980953712       10.3272112165        5.8874746783
  O        -1.8285804006        5.9095619390        5.8707220228
  O         0.7498181042        1.4535647444        5.9288789727
  O         5.9289506222       13.1661169363        5.7067161851
  O         8.4862225868        8.7219217406        5.6960533422
  O        11.0564804491        4.2877374901        5.7024380287
  O         0.8070143193       13.1592434372        5.7216984820
  O         3.3661291544        8.7295919786        5.6905355348
  O         5.9214745182        4.2706174883        5.7246194052
  O        -4.3162353090       13.1359895530        5.7247066455
  O        -1.7649464569        8.7297979569        5.6916574551
  O         0.7754507386        4.3080654242        5.6226949285
  O         3.4829183899       11.7705563866        5.6893849591
  O         6.0330644445        7.3317344196        5.6644536101
  O         8.6049773177        2.8995402594        5.7008264269
  O        -1.6402506807       11.7628490283        5.6887754169
  O         0.9144509103        7.3289463004        5.6800406220
  O         3.4882479239        2.7570422636        5.6502317239
  O        -6.7740705160       11.7603712222        5.6875533732
  O        -4.2184698402        7.3269607795        5.6807987409
  O        -1.6500908616        2.8907592310        5.6829191618
 Fe         7.7815303099       10.2633819833        6.4387353416
 Fe        10.3458468264        5.8269189160        6.4394640108
 Fe        12.9145945639        1.3903853244        6.4367689647
 Fe         2.6590039018       10.2649351174        6.4360193807
 Fe         5.2296697914        5.8330688152        6.4375713583
 Fe         7.7951242454        1.3858266206        6.4418110059
 Fe        -2.4717100440       10.2650687392        6.4380735972
 Fe         0.1001146866        5.8253654672        6.4340980397
 Fe         2.6662835643        1.3215046722        6.5204051766
  O         7.8493971792       10.3697428353        8.2711055398
  H         7.8824103343        9.5332388634        8.7698013054
  H         5.3472635995       10.6176514599        6.6745349269
  O        10.3839197821        5.9268652806        8.2736664505
  H        10.4665275074        5.0920785926        8.7696220162
  H         7.9137702420        6.1986246602        6.6889035487
  O        12.9664004168        1.4948628211        8.2703908205
  H        13.0115044086        0.6579171210        8.7674318935
  H        10.4824865837        1.7516643411        6.6807444611
  O         2.7161070070       10.3914226842        8.2672509783
  H         2.7502504907        9.5630308310        8.7781873742
  H         0.2268165327       10.6289703962        6.6736646434
  O         5.4537641056        5.9508109257        8.2692201660
  H         5.8347001532        5.1658008250        8.7025279942
  H         2.8147405357        6.0701762936        6.6445402376
  O         7.7832998129        1.5096207401        8.2787106221
  H         7.8721582550        0.6800796974        8.7819059181
  H         5.3576502534        1.7428036615        6.6531039080
  O        -2.4264321532       10.3804201201        8.2711293491
  H        -2.3766377210        9.5521994031        8.7818619908
  H        -4.8994496451       10.6023464810        6.6877733987
  O         0.0744531158        5.9341316006        8.2667258186
  H         0.1650579899        5.0861167769        8.7387746849
  H        -2.3267230595        6.1843746823        6.6732283608
  O         2.7168143585        1.1378910191        8.3648634334
  H         2.7707562376        0.2327265801        8.7287033854
  H         0.2191750190        1.7237601036        6.7124406339
  C         3.5571677372        3.6112233371       10.1852081053
  C         3.0600676237        3.8749355362        8.8563637837
  H         3.9921125131        4.5416153783       10.5751009368
  H         2.7373272986        3.2818596488       10.8399908446
  H         4.3227617343        2.8204632627       10.1560210408
  N         2.5990593994        4.1457665887        7.7918187102
     168
 i =       31, E =     -8144.3500190683
 Fe         5.0938794100       11.8196869300        0.3885799900
 Fe         7.6575796300        7.3792284900        0.3885799900
 Fe        10.2212798400        2.9387700600        0.3885799900
 Fe        -0.0335205200       11.8196869300        0.3885799900
 Fe         2.5301797000        7.3792284900        0.3885799900
 Fe         5.0938799200        2.9387700600        0.3885799900
 Fe        -5.1609204400       11.8196869300        0.3885799900
 Fe        -2.5972202200        7.3792284900        0.3885799900
 Fe        -0.0335200000        2.9387700600        0.3885799900
  O         8.4519195100        8.9577468800        1.1642700400
  O        11.0156197300        4.5172884400        1.1642700400
  O        13.5793199500        0.0768300000        1.1642700400
  O         3.3245195900        8.9577468800        1.1642700400
  O         5.8882198100        4.5172884400        1.1642700400
  O         8.4519200300        0.0768300000        1.1642700400
  O        -1.8028803300        8.9577468800        1.1642700400
  O         0.7608198900        4.5172884400        1.1642700400
  O         3.3245201100        0.0768300000        1.1642700400
  O         8.4568493000       11.7183869300        1.1650400200
  O        11.0205495200        7.2779284900        1.1650400200
  O        13.5842497300        2.8374700500        1.1650400200
  O         3.3294493700       11.7183869300        1.1650400200
  O         5.8931495900        7.2779284900        1.1650400200
  O         8.4568498100        2.8374700500        1.1650400200
  O        -1.7979505500       11.7183869300        1.1650400200
  O         0.7657496700        7.2779284900        1.1650400200
  O         3.3294498900        2.8374700500        1.1650400200
  O         6.0627194200       10.3425368500        1.1660399400
  O         8.6264196400        5.9020784100        1.1660399400
  O        11.1901198600        1.4616199700        1.1660399400
  O         0.9353195000       10.3425368500        1.1660399400
  O         3.4990197200        5.9020784100        1.1660399400
  O         6.0627199400        1.4616199700        1.1660399400
  O        -4.1920804200       10.3425368500        1.1660399400
  O        -1.6283802000        5.9020784100        1.1660399400
  O         0.9353200200        1.4616199700        1.1660399400
 Fe         7.6576695000       13.2997167500        1.9292099500
 Fe        10.2213697200        8.8592583200        1.9292099500
 Fe        12.7850699400        4.4187998800        1.9292099500
 Fe         2.5302695800       13.2997167500        1.9292099500
 Fe         5.0939698000        8.8592583200        1.9292099500
 Fe         7.6576700200        4.4187998800        1.9292099500
 Fe        -2.5971303400       13.2997167500        1.9292099500
 Fe        -0.0334301200        8.8592583200        1.9292099500
 Fe         2.5302701000        4.4187998800        1.9292099500
 Fe         7.6573893600       10.3392168700        2.7128999200
 Fe        10.2210895800        5.8987584300        2.7128999200
 Fe        12.7847898000        1.4582999900        2.7128999200
 Fe         2.5299894400       10.3392168700        2.7128999200
 Fe         5.0936896600        5.8987584300        2.7128999200
 Fe         7.6573898800        1.4582999900        2.7128999200
 Fe        -2.5974104800       10.3392168700        2.7128999200
 Fe        -0.0337102600        5.8987584300        2.7128999200
 Fe         2.5299899600        1.4582999900        2.7128999200
  O         4.1030443687       13.3239268189        3.5347040139
  O         6.6893230717        8.8882164659        3.5647425398
  O         9.2252600621        4.4429223402        3.5442362076
  O        -1.0184520883       13.3009089490        3.5205221869
  O         1.5213328738        8.8614957398        3.4956455174
  O         4.1227678357        4.4099921047        3.5513786115
  O        -6.1497300825       13.3098431063        3.5245805568
  O        -3.5967818894        8.8745999789        3.5221539896
  O        -1.0633210895        4.4260648339        3.4831130518
  O         6.8215651066       11.8761475701        3.5012643459
  O         9.3761740857        7.4295071329        3.5046785741
  O        11.9440156470        2.9989480767        3.4903342126
  O         1.6951305128       11.8613680476        3.5214428712
  O         4.2470026954        7.4042274891        3.5310219276
  O         6.8175151768        2.9700897989        3.5333538334
  O        -3.4366843952       11.8560680530        3.5190569745
  O        -0.8747197894        7.4455051446        3.4802517746
  O         1.6907414433        2.9608380181        3.5276904500
  O         9.4256614041       10.2172357508        3.4936417739
  O        11.9993378090        5.7754158164        3.4738130318
  O        14.5578080880        1.3365809203        3.4967119032
  O         4.2807075038       10.2421272309        3.5336293848
  O         6.8557135864        5.7776246696        3.5136305003
  O         9.4199121457        1.3438531063        3.5133814874
  O        -0.8180892231       10.2141899576        3.4726197852
  O         1.7268018495        5.7930750581        3.4922086910
  O         4.3125852576        1.3113115431        3.4808594974
 Fe         5.0489937788       11.8475198659        4.4284591484
 Fe         7.6079299346        7.3833826238        4.4368005131
 Fe        10.1702372980        2.9566870990        4.4206627991
 Fe        -0.0833004718       11.8239314415        4.4197764413
 Fe         2.4633773597        7.3722953782        4.4286940204
 Fe         5.0501544389        2.9202108785        4.4307303876
 Fe        -5.2173926536       11.8193610147        4.4185892767
 Fe        -2.6512882617        7.3875865532        4.4122622423
 Fe        -0.0970874727        2.9628172013        4.4101403924
 Fe         7.6246012300       13.1883410281        4.8354407287
 Fe        10.1774295161        8.7383417237        4.8381007848
 Fe        12.7398791345        4.3038558856        4.8274669093
 Fe         2.4890829823       13.1769301885        4.8541974264
 Fe         5.0426058997        8.7416701254        4.8299574358
 Fe         7.6046068844        4.2945635184        4.8666382155
 Fe        -2.6400927099       13.1713729231        4.8396899522
 Fe        -0.0756470212        8.7440835782        4.8115594838
 Fe         2.5130876742        4.2383911759        4.8741961304
  O         5.8605992375       10.3441586570        5.8780644548
  O         8.4157918145        5.9053413344        5.8945037662
  O        10.9869503981        1.4670160988        5.8876375260
  O         0.7332342300       10.3424762899        5.8763092611
  O         3.3251080091        5.9120590911        5.8210241033
  O         5.8693356956        1.4482953113        5.8701207749
  O        -4.3942370287       10.3301053292        5.8882317692
  O        -1.8276290219        5.9111785670        5.8686132405
  O         0.7469132405        1.4494073942        5.9245977830
  O         5.9448693400       13.1742867511        5.7050797391
  O         8.4899078908        8.7277251164        5.6998635009
  O        11.0598111993        4.2867726162        5.7069779432
  O         0.8086708937       13.1622326667        5.7222134291
  O         3.3616150838        8.7354559850        5.6895780356
  O         5.9186527960        4.2671405128        5.7355844643
  O        -4.3192139166       13.1397948539        5.7121687114
  O        -1.7615162504        8.7273830123        5.6858439210
  O         0.7739461742        4.3058083116        5.6231916067
  O         3.4856171950       11.7686997232        5.6914620205
  O         6.0329116401        7.3333292443        5.6703372068
  O         8.6139742747        2.8934673216        5.7080160139
  O        -1.6458724846       11.7603249408        5.6810566978
  O         0.8999114188        7.3350175726        5.6799759860
  O         3.4914459341        2.7715653207        5.6575224080
  O        -6.7807200767       11.7697533742        5.6832973262
  O        -4.2163257284        7.3283930433        5.6839338081
  O        -1.6546513455        2.8873889826        5.6784615123
 Fe         7.7836300804       10.2682973762        6.4368442843
 Fe        10.3466042570        5.8279004924        6.4379211722
 Fe        12.9140849568        1.3878144434        6.4384845410
 Fe         2.6557834919       10.2674429474        6.4357048019
 Fe         5.2286981893        5.8341130594        6.4325511938
 Fe         7.7851837505        1.3851943194        6.4397263376
 Fe        -2.4680764360       10.2612573672        6.4374340842
 Fe         0.1014961832        5.8244173351        6.4350412835
 Fe         2.6714887362        1.3284151187        6.5150228384
  O         7.8493312173       10.3676243608        8.2694628677
  H         7.8823919353        9.5328297104        8.7707714848
  H         5.3478552699       10.6176759818        6.6722730178
  O        10.3834184939        5.9265474890        8.2720944279
  H        10.4668928781        5.0927140574        8.7690414425
  H         7.9127052218        6.2012747283        6.6874337463
  O        12.9665809485        1.4952299033        8.2711165493
  H        13.0114550880        0.6576887457        8.7669740144
  H        10.4838708920        1.7538620378        6.6827875178
  O         2.7161903717       10.3896965962        8.2662958934
  H         2.7497706508        9.5626534285        8.7791785566
  H         0.2272119555       10.6272500236        6.6701712151
  O         5.4663006778        5.9467670395        8.2637623541
  H         5.8405122155        5.1652509846        8.7010367128
  H         2.8136874846        6.0690427911        6.6457723993
  O         7.7852301350        1.5097140665        8.2768821338
  H         7.8702141044        0.6811336492        8.7819809727
  H         5.3591441429        1.7411900852        6.6563121700
  O        -2.4276488900       10.3797967200        8.2704190003
  H        -2.3770031833        9.5518796566        8.7814800234
  H        -4.9019880132       10.6032145341        6.6848002934
  O         0.0583476300        5.9351893363        8.2666042483
  H         0.1684818710        5.0885097543        8.7376710529
  H        -2.3260944323        6.1844062601        6.6721911796
  O         2.7187531018        1.1365146881        8.3576592594
  H         2.7720356893        0.2292896108        8.7131732317
  H         0.2218160277        1.7246159883        6.7114632486
  C         3.5491482946        3.6237177845       10.1927798729
  C         2.9925294263        3.9107724045        8.8727362604
  H         4.0029672049        4.5431695127       10.6030159780
  H         2.7369276635        3.2823566750       10.8523773547
  H         4.3143930732        2.8275334596       10.1440933189
  N         2.6473386431        4.1363355628        7.8109259152
     168
 i =       32, E =     -8144.3600077061
 Fe         5.0938794100       11.8196869300        0.3885799900
 Fe         7.6575796300        7.3792284900        0.3885799900
 Fe        10.2212798400        2.9387700600        0.3885799900
 Fe        -0.0335205200       11.8196869300        0.3885799900
 Fe         2.5301797000        7.3792284900        0.3885799900
 Fe         5.0938799200        2.9387700600        0.3885799900
 Fe        -5.1609204400       11.8196869300        0.3885799900
 Fe        -2.5972202200        7.3792284900        0.3885799900
 Fe        -0.0335200000        2.9387700600        0.3885799900
  O         8.4519195100        8.9577468800        1.1642700400
  O        11.0156197300        4.5172884400        1.1642700400
  O        13.5793199500        0.0768300000        1.1642700400
  O         3.3245195900        8.9577468800        1.1642700400
  O         5.8882198100        4.5172884400        1.1642700400
  O         8.4519200300        0.0768300000        1.1642700400
  O        -1.8028803300        8.9577468800        1.1642700400
  O         0.7608198900        4.5172884400        1.1642700400
  O         3.3245201100        0.0768300000        1.1642700400
  O         8.4568493000       11.7183869300        1.1650400200
  O        11.0205495200        7.2779284900        1.1650400200
  O        13.5842497300        2.8374700500        1.1650400200
  O         3.3294493700       11.7183869300        1.1650400200
  O         5.8931495900        7.2779284900        1.1650400200
  O         8.4568498100        2.8374700500        1.1650400200
  O        -1.7979505500       11.7183869300        1.1650400200
  O         0.7657496700        7.2779284900        1.1650400200
  O         3.3294498900        2.8374700500        1.1650400200
  O         6.0627194200       10.3425368500        1.1660399400
  O         8.6264196400        5.9020784100        1.1660399400
  O        11.1901198600        1.4616199700        1.1660399400
  O         0.9353195000       10.3425368500        1.1660399400
  O         3.4990197200        5.9020784100        1.1660399400
  O         6.0627199400        1.4616199700        1.1660399400
  O        -4.1920804200       10.3425368500        1.1660399400
  O        -1.6283802000        5.9020784100        1.1660399400
  O         0.9353200200        1.4616199700        1.1660399400
 Fe         7.6576695000       13.2997167500        1.9292099500
 Fe        10.2213697200        8.8592583200        1.9292099500
 Fe        12.7850699400        4.4187998800        1.9292099500
 Fe         2.5302695800       13.2997167500        1.9292099500
 Fe         5.0939698000        8.8592583200        1.9292099500
 Fe         7.6576700200        4.4187998800        1.9292099500
 Fe        -2.5971303400       13.2997167500        1.9292099500
 Fe        -0.0334301200        8.8592583200        1.9292099500
 Fe         2.5302701000        4.4187998800        1.9292099500
 Fe         7.6573893600       10.3392168700        2.7128999200
 Fe        10.2210895800        5.8987584300        2.7128999200
 Fe        12.7847898000        1.4582999900        2.7128999200
 Fe         2.5299894400       10.3392168700        2.7128999200
 Fe         5.0936896600        5.8987584300        2.7128999200
 Fe         7.6573898800        1.4582999900        2.7128999200
 Fe        -2.5974104800       10.3392168700        2.7128999200
 Fe        -0.0337102600        5.8987584300        2.7128999200
 Fe         2.5299899600        1.4582999900        2.7128999200
  O         4.0922244316       13.3189099326        3.5179364604
  O         6.6798743158        8.8857999184        3.5510613829
  O         9.2166384239        4.4365246552        3.5239544057
  O        -1.0186283996       13.3065147894        3.5239760718
  O         1.5424127312        8.8738565094        3.5347031143
  O         4.1163978132        4.4105998411        3.5415228608
  O        -6.1498814399       13.3130484921        3.5278273236
  O        -3.6028081775        8.8723621251        3.5121255670
  O        -1.0432160247        4.4323497953        3.5126888101
  O         6.8209010918       11.8741405231        3.5057317860
  O         9.3780150646        7.4320238028        3.4977003924
  O        11.9403731617        2.9817172830        3.5135984072
  O         1.6955628532       11.8748006523        3.5039417688
  O         4.2519087989        7.4098336001        3.5243644558
  O         6.8196731048        2.9827791632        3.5114433528
  O        -3.4367140112       11.8573143155        3.5151964298
  O        -0.8777405033        7.4192506669        3.5163575556
  O         1.6951109004        2.9719218758        3.5198981437
  O         9.4315214486       10.2159211759        3.4847257609
  O        11.9837343099        5.7856674064        3.5019119244
  O        14.5561987547        1.3374940404        3.4999804187
  O         4.2859016838       10.2387588752        3.5234311432
  O         6.8633281440        5.7729805963        3.4982726389
  O         9.4257908005        1.3365307582        3.4974283177
  O        -0.8343103150       10.2280943356        3.5061067768
  O         1.7313551597        5.7906779734        3.4827696651
  O         4.3095457357        1.3172527032        3.4840580730
 Fe         5.0435599232       11.8470263584        4.4230339203
 Fe         7.6066312743        7.3871652814        4.4262270164
 Fe        10.1596241432        2.9530563975        4.4151642214
 Fe        -0.0769272631       11.8325325352        4.4239276971
 Fe         2.4738609200        7.3658127937        4.4306599175
 Fe         5.0543265828        2.9244190494        4.4219625413
 Fe        -5.2180427432       11.8184787836        4.4166525147
 Fe        -2.6570143446        7.3967756620        4.4231182405
 Fe        -0.0910496502        2.9546877410        4.4172680320
 Fe         7.6244360727       13.1879953508        4.8390846332
 Fe        10.1758229209        8.7390175682        4.8317896470
 Fe        12.7387177325        4.3028626545        4.8328696716
 Fe         2.4888601275       13.1799949499        4.8455696992
 Fe         5.0431164323        8.7419981633        4.8324065651
 Fe         7.6039624486        4.2960276513        4.8473264011
 Fe        -2.6411685607       13.1745391701        4.8347477752
 Fe        -0.0761397725        8.7418442769        4.8241327878
 Fe         2.5130690264        4.2514944447        4.8558158089
  O         5.8594527996       10.3455170209        5.8791996764
  O         8.4147021209        5.9031566791        5.8893831345
  O        10.9870358776        1.4660027646        5.8860378291
  O         0.7342514547       10.3416940797        5.8762160173
  O         3.3270268553        5.9104631387        5.8214521047
  O         5.8703784109        1.4557237795        5.8643878574
  O        -4.3950799832       10.3300302716        5.8853950690
  O        -1.8284148377        5.9096418237        5.8670554895
  O         0.7512652610        1.4535174453        5.9174272027
  O         5.9394774890       13.1742788612        5.7017792201
  O         8.4927716699        8.7251770770        5.7008283230
  O        11.0528727112        4.2876747659        5.6978104546
  O         0.8118353126       13.1682470883        5.7208468414
  O         3.3609951749        8.7335003960        5.6950173849
  O         5.9203300715        4.2708695707        5.7211202857
  O        -4.3197507214       13.1387271491        5.7025795589
  O        -1.7632038829        8.7311784383        5.6905631210
  O         0.7778783525        4.3125205599        5.6122570911
  O         3.4828933888       11.7757076160        5.6921521495
  O         6.0350889433        7.3267725635        5.6667372572
  O         8.6048784052        2.8954721655        5.7000313848
  O        -1.6472905380       11.7631973951        5.6776631992
  O         0.9046203815        7.3268201880        5.6754127040
  O         3.4924740245        2.7958898990        5.6632997987
  O        -6.7804007462       11.7668437013        5.6826707553
  O        -4.2221416220        7.3279832189        5.6832292076
  O        -1.6539264862        2.8884816691        5.6774371946
 Fe         7.7827585290       10.2657867599        6.4352992000
 Fe        10.3458989613        5.8267682740        6.4380277838
 Fe        12.9144785000        1.3899010419        6.4375189847
 Fe         2.6568665080       10.2699404307        6.4342744399
 Fe         5.2301059005        5.8303225739        6.4317510074
 Fe         7.7848558719        1.3875829844        6.4394583252
 Fe        -2.4689993878       10.2651561456        6.4367247999
 Fe         0.0997903600        5.8231575270        6.4349066357
 Fe         2.6769226122        1.3319679696        6.5031363042
  O         7.8501526389       10.3676431296        8.2683629021
  H         7.8824804148        9.5330164546        8.7699980505
  H         5.3471997600       10.6190861843        6.6728985533
  O        10.3835341082        5.9272201864        8.2718904419
  H        10.4671868894        5.0931152496        8.7682711838
  H         7.9144206197        6.1991520101        6.6847925711
  O        12.9685902976        1.4951877454        8.2704992208
  H        13.0111788673        0.6577967672        8.7668714824
  H        10.4856147605        1.7551586961        6.6816760218
  O         2.7156106241       10.3876595443        8.2657473688
  H         2.7495602106        9.5615742918        8.7801438334
  H         0.2261864915       10.6267369929        6.6686471695
  O         5.4703003259        5.9464889688        8.2623363995
  H         5.8435609423        5.1632782151        8.6978785109
  H         2.8119478429        6.0623790937        6.6454032701
  O         7.7835228252        1.5100403470        8.2764276131
  H         7.8697342131        0.6809561524        8.7809327261
  H         5.3648869257        1.7386394308        6.6577096418
  O        -2.4283076984       10.3791706297        8.2695749158
  H        -2.3772605345        9.5515096291        8.7809957517
  H        -4.9021004984       10.6035961803        6.6827078820
  O         0.0459274671        5.9361217247        8.2660273155
  H         0.1709405608        5.0908190992        8.7373102419
  H        -2.3253343799        6.1836360677        6.6708767966
  O         2.7175758892        1.1340571704        8.3506560711
  H         2.7733367741        0.2249956504        8.7007038752
  H         0.2263199754        1.7237923843        6.7051480592
  C         3.5472958398        3.6302427949       10.1981801962
  C         3.0070970742        3.8970634105        8.8854655133
  H         4.0039868989        4.5462776708       10.6063515321
  H         2.7355196430        3.2834647241       10.8526531094
  H         4.3124929657        2.8305659116       10.1390839555
  N         2.6228332960        4.1541016850        7.8221436566
     168
 i =       33, E =     -8144.3615457153
 Fe         5.0938794100       11.8196869300        0.3885799900
 Fe         7.6575796300        7.3792284900        0.3885799900
 Fe        10.2212798400        2.9387700600        0.3885799900
 Fe        -0.0335205200       11.8196869300        0.3885799900
 Fe         2.5301797000        7.3792284900        0.3885799900
 Fe         5.0938799200        2.9387700600        0.3885799900
 Fe        -5.1609204400       11.8196869300        0.3885799900
 Fe        -2.5972202200        7.3792284900        0.3885799900
 Fe        -0.0335200000        2.9387700600        0.3885799900
  O         8.4519195100        8.9577468800        1.1642700400
  O        11.0156197300        4.5172884400        1.1642700400
  O        13.5793199500        0.0768300000        1.1642700400
  O         3.3245195900        8.9577468800        1.1642700400
  O         5.8882198100        4.5172884400        1.1642700400
  O         8.4519200300        0.0768300000        1.1642700400
  O        -1.8028803300        8.9577468800        1.1642700400
  O         0.7608198900        4.5172884400        1.1642700400
  O         3.3245201100        0.0768300000        1.1642700400
  O         8.4568493000       11.7183869300        1.1650400200
  O        11.0205495200        7.2779284900        1.1650400200
  O        13.5842497300        2.8374700500        1.1650400200
  O         3.3294493700       11.7183869300        1.1650400200
  O         5.8931495900        7.2779284900        1.1650400200
  O         8.4568498100        2.8374700500        1.1650400200
  O        -1.7979505500       11.7183869300        1.1650400200
  O         0.7657496700        7.2779284900        1.1650400200
  O         3.3294498900        2.8374700500        1.1650400200
  O         6.0627194200       10.3425368500        1.1660399400
  O         8.6264196400        5.9020784100        1.1660399400
  O        11.1901198600        1.4616199700        1.1660399400
  O         0.9353195000       10.3425368500        1.1660399400
  O         3.4990197200        5.9020784100        1.1660399400
  O         6.0627199400        1.4616199700        1.1660399400
  O        -4.1920804200       10.3425368500        1.1660399400
  O        -1.6283802000        5.9020784100        1.1660399400
  O         0.9353200200        1.4616199700        1.1660399400
 Fe         7.6576695000       13.2997167500        1.9292099500
 Fe        10.2213697200        8.8592583200        1.9292099500
 Fe        12.7850699400        4.4187998800        1.9292099500
 Fe         2.5302695800       13.2997167500        1.9292099500
 Fe         5.0939698000        8.8592583200        1.9292099500
 Fe         7.6576700200        4.4187998800        1.9292099500
 Fe        -2.5971303400       13.2997167500        1.9292099500
 Fe        -0.0334301200        8.8592583200        1.9292099500
 Fe         2.5302701000        4.4187998800        1.9292099500
 Fe         7.6573893600       10.3392168700        2.7128999200
 Fe        10.2210895800        5.8987584300        2.7128999200
 Fe        12.7847898000        1.4582999900        2.7128999200
 Fe         2.5299894400       10.3392168700        2.7128999200
 Fe         5.0936896600        5.8987584300        2.7128999200
 Fe         7.6573898800        1.4582999900        2.7128999200
 Fe        -2.5974104800       10.3392168700        2.7128999200
 Fe        -0.0337102600        5.8987584300        2.7128999200
 Fe         2.5299899600        1.4582999900        2.7128999200
  O         4.0883554258       13.3126255431        3.5077373281
  O         6.6587897413        8.8785480785        3.5184772158
  O         9.2072869045        4.4220457938        3.4961707964
  O        -1.0201155531       13.3131547952        3.5289846830
  O         1.5327729401        8.8745485690        3.5228554635
  O         4.0981574993        4.4138126642        3.5255573746
  O        -6.1547505188       13.3115844308        3.5284319684
  O        -3.6047229248        8.8683211095        3.5079127337
  O        -1.0487133040        4.4284859357        3.5019704898
  O         6.8229743968       11.8756356077        3.5092777989
  O         9.3815611274        7.4343911291        3.4951383271
  O        11.9400015619        2.9850546034        3.5086371704
  O         1.6977854889       11.8839319904        3.4962545933
  O         4.2594024603        7.4317000010        3.4989448235
  O         6.8230904703        2.9987016296        3.4970052630
  O        -3.4373740643       11.8573664384        3.5123123372
  O        -0.8765657920        7.4281420618        3.5041175903
  O         1.6945685135        2.9851816731        3.5004111404
  O         9.4342902625       10.2157484484        3.4827586997
  O        11.9844642599        5.7810130245        3.4977086751
  O        14.5581425039        1.3377926487        3.5017135629
  O         4.3032487882       10.2266431558        3.4900392304
  O         6.8739415375        5.7642438386        3.4753156375
  O         9.4310960124        1.3368413287        3.4861417146
  O        -0.8269628777       10.2208346055        3.4929681403
  O         1.7462917339        5.7764562434        3.4678960934
  O         4.3115843001        1.3108568857        3.4793775143
 Fe         5.0375087822       11.8370368032        4.4148102330
 Fe         7.6004256637        7.3912360570        4.4064164069
 Fe        10.1606918573        2.9531923083        4.4140513692
 Fe        -0.0797861074       11.8288528633        4.4141533788
 Fe         2.4760509181        7.3698572063        4.4134311328
 Fe         5.0448805990        2.9273028421        4.4110323665
 Fe        -5.2149915647       11.8189954024        4.4175340737
 Fe        -2.6531814094        7.3936140055        4.4180017171
 Fe        -0.0876383923        2.9602144993        4.4163586765
 Fe         7.6212440158       13.1881159325        4.8483718204
 Fe        10.1745487960        8.7385459539        4.8317819294
 Fe        12.7403790929        4.3018064263        4.8339481674
 Fe         2.4891788912       13.1852699801        4.8425614757
 Fe         5.0437556219        8.7443987120        4.8324552619
 Fe         7.6121295921        4.3055711574        4.8374193534
 Fe        -2.6414811504       13.1682252282        4.8373583321
 Fe        -0.0757895584        8.7384033151        4.8270923392
 Fe         2.5106949278        4.2426497231        4.8674273721
  O         5.8598415167       10.3471914017        5.8813343924
  O         8.4148380400        5.9099586486        5.8863473349
  O        10.9886132902        1.4678081561        5.8857775213
  O         0.7339389567       10.3468443438        5.8767634614
  O         3.3271637023        5.9242538149        5.8175971933
  O         5.8765461829        1.4454287999        5.8741182834
  O        -4.3973535105       10.3299765041        5.8829899405
  O        -1.8328797648        5.9098306986        5.8674558665
  O         0.7527127471        1.4580471069        5.9132652845
  O         5.9288356971       13.1703872001        5.6960790653
  O         8.4892299368        8.7222720056        5.6985599338
  O        11.0520124712        4.2897497500        5.6959104049
  O         0.8101415331       13.1620240351        5.7172197043
  O         3.3617991663        8.7283762211        5.7004077792
  O         5.9289190542        4.2732945045        5.7174270819
  O        -4.3224297780       13.1456012459        5.7039102842
  O        -1.7662654333        8.7307253458        5.6921334765
  O         0.7724735502        4.3106251259        5.6205624834
  O         3.4807455674       11.7813307390        5.6937042692
  O         6.0385121329        7.3250793830        5.6647750181
  O         8.6014738192        2.8977898331        5.6925813134
  O        -1.6414988201       11.7651231016        5.6844954403
  O         0.9143131238        7.3283329140        5.6798812433
  O         3.4949758944        2.7800354183        5.6688794820
  O        -6.7783553310       11.7630719754        5.6793311768
  O        -4.2193222967        7.3279923017        5.6804400261
  O        -1.6507569030        2.8881617817        5.6777705460
 Fe         7.7832344240       10.2646089831        6.4376388649
 Fe        10.3460484353        5.8284356522        6.4385083500
 Fe        12.9150350257        1.3900482418        6.4366339624
 Fe         2.6596374534       10.2706499594        6.4363865566
 Fe         5.2308387229        5.8291683338        6.4385471902
 Fe         7.7967138861        1.3860698065        6.4416912953
 Fe        -2.4714014377       10.2665523841        6.4370258910
 Fe         0.0969937121        5.8258020163        6.4345031160
 Fe         2.6663191755        1.3273449261        6.5131209385
  O         7.8509779100       10.3681782508        8.2700160057
  H         7.8828164355        9.5318680584        8.7690880886
  H         5.3478296741       10.6219370214        6.6750739317
  O        10.3832163009        5.9270376550        8.2725355883
  H        10.4680499879        5.0925448647        8.7683711216
  H         7.9141145097        6.1974580175        6.6844049875
  O        12.9685764319        1.4940696854        8.2700179601
  H        13.0113757601        0.6572805114        8.7674670524
  H        10.4852290961        1.7559731194        6.6801462275
  O         2.7147541986       10.3888031666        8.2687156933
  H         2.7489509723        9.5601572303        8.7793596094
  H         0.2247065419       10.6264557857        6.6706787171
  O         5.4775721681        5.9481664467        8.2672006884
  H         5.8665347815        5.1602216457        8.6939167142
  H         2.8114307169        6.0490188337        6.6524424077
  O         7.7781168324        1.5111346141        8.2784656223
  H         7.8684618538        0.6810010321        8.7806366296
  H         5.3622666142        1.7421064306        6.6593672272
  O        -2.4286712970       10.3796892316        8.2699087846
  H        -2.3779242892        9.5513294704        8.7803741037
  H        -4.9022071449       10.6028064640        6.6817664685
  O         0.0319665561        5.9361888256        8.2657876557
  H         0.1718867175        5.0933459196        8.7366522896
  H        -2.3248266231        6.1840880882        6.6740452107
  O         2.7281847392        1.1391271109        8.3513222150
  H         2.7783404151        0.2194031666        8.6831303878
  H         0.2270096356        1.7212574973        6.7028120053
  C         3.5514865816        3.6243080549       10.2175698457
  C         3.0286969535        3.9242249223        8.9033842055
  H         3.9930764441        4.5426579117       10.6201293746
  H         2.7453368062        3.2854707654       10.8833709320
  H         4.3095419875        2.8366335724       10.1609004495
  N         2.5395951498        4.2183707477        7.8513936670
     168
 i =       34, E =     -8144.3642895930
 Fe         5.0938794100       11.8196869300        0.3885799900
 Fe         7.6575796300        7.3792284900        0.3885799900
 Fe        10.2212798400        2.9387700600        0.3885799900
 Fe        -0.0335205200       11.8196869300        0.3885799900
 Fe         2.5301797000        7.3792284900        0.3885799900
 Fe         5.0938799200        2.9387700600        0.3885799900
 Fe        -5.1609204400       11.8196869300        0.3885799900
 Fe        -2.5972202200        7.3792284900        0.3885799900
 Fe        -0.0335200000        2.9387700600        0.3885799900
  O         8.4519195100        8.9577468800        1.1642700400
  O        11.0156197300        4.5172884400        1.1642700400
  O        13.5793199500        0.0768300000        1.1642700400
  O         3.3245195900        8.9577468800        1.1642700400
  O         5.8882198100        4.5172884400        1.1642700400
  O         8.4519200300        0.0768300000        1.1642700400
  O        -1.8028803300        8.9577468800        1.1642700400
  O         0.7608198900        4.5172884400        1.1642700400
  O         3.3245201100        0.0768300000        1.1642700400
  O         8.4568493000       11.7183869300        1.1650400200
  O        11.0205495200        7.2779284900        1.1650400200
  O        13.5842497300        2.8374700500        1.1650400200
  O         3.3294493700       11.7183869300        1.1650400200
  O         5.8931495900        7.2779284900        1.1650400200
  O         8.4568498100        2.8374700500        1.1650400200
  O        -1.7979505500       11.7183869300        1.1650400200
  O         0.7657496700        7.2779284900        1.1650400200
  O         3.3294498900        2.8374700500        1.1650400200
  O         6.0627194200       10.3425368500        1.1660399400
  O         8.6264196400        5.9020784100        1.1660399400
  O        11.1901198600        1.4616199700        1.1660399400
  O         0.9353195000       10.3425368500        1.1660399400
  O         3.4990197200        5.9020784100        1.1660399400
  O         6.0627199400        1.4616199700        1.1660399400
  O        -4.1920804200       10.3425368500        1.1660399400
  O        -1.6283802000        5.9020784100        1.1660399400
  O         0.9353200200        1.4616199700        1.1660399400
 Fe         7.6576695000       13.2997167500        1.9292099500
 Fe        10.2213697200        8.8592583200        1.9292099500
 Fe        12.7850699400        4.4187998800        1.9292099500
 Fe         2.5302695800       13.2997167500        1.9292099500
 Fe         5.0939698000        8.8592583200        1.9292099500
 Fe         7.6576700200        4.4187998800        1.9292099500
 Fe        -2.5971303400       13.2997167500        1.9292099500
 Fe        -0.0334301200        8.8592583200        1.9292099500
 Fe         2.5302701000        4.4187998800        1.9292099500
 Fe         7.6573893600       10.3392168700        2.7128999200
 Fe        10.2210895800        5.8987584300        2.7128999200
 Fe        12.7847898000        1.4582999900        2.7128999200
 Fe         2.5299894400       10.3392168700        2.7128999200
 Fe         5.0936896600        5.8987584300        2.7128999200
 Fe         7.6573898800        1.4582999900        2.7128999200
 Fe        -2.5974104800       10.3392168700        2.7128999200
 Fe        -0.0337102600        5.8987584300        2.7128999200
 Fe         2.5299899600        1.4582999900        2.7128999200
  O         4.0908235542       13.3128987757        3.5100667765
  O         6.6556643889        8.8768075422        3.5133623786
  O         9.2252552172        4.4293442105        3.5255493295
  O        -1.0243987133       13.3082194785        3.5198164342
  O         1.5321164584        8.8734168469        3.5179312980
  O         4.0945688587        4.4146916679        3.5277508014
  O        -6.1593161739       13.3082748576        3.5188669042
  O        -3.6023998904        8.8700042245        3.5108077446
  O        -1.0543058836        4.4252156909        3.4921877561
  O         6.8232025600       11.8795458861        3.5009087732
  O         9.3799865007        7.4337136726        3.4966663023
  O        11.9396960382        2.9884356359        3.5026957397
  O         1.6963585836       11.8819106204        3.4979234292
  O         4.2594889043        7.4375334217        3.4912608720
  O         6.8209506770        2.9783036735        3.5242363577
  O        -3.4380857402       11.8635913008        3.5046165207
  O        -0.8769454010        7.4299623820        3.5000796157
  O         1.6956415032        2.9817671542        3.5061854667
  O         9.4316879571       10.2181399557        3.4865006058
  O        11.9884501642        5.7795574925        3.4896068545
  O        14.5616810350        1.3369498633        3.4925072305
  O         4.3065680959       10.2242986736        3.4845068427
  O         6.8589939783        5.7740784928        3.5021290969
  O         9.4314172804        1.3391631971        3.4878520450
  O        -0.8249975756       10.2202898523        3.4886916681
  O         1.7466627330        5.7733667029        3.4718288919
  O         4.3148704945        1.3079029016        3.4716201303
 Fe         5.0392750674       11.8350803745        4.4132649932
 Fe         7.6009994250        7.3968618812        4.4131370531
 Fe        10.1669200401        2.9491422349        4.4239372420
 Fe        -0.0821881874       11.8290903828        4.4133013733
 Fe         2.4765755075        7.3692682146        4.4116193935
 Fe         5.0371490033        2.9266458792        4.4118322532
 Fe        -5.2147563357       11.8225413598        4.4158186923
 Fe        -2.6532640142        7.3919084479        4.4163145572
 Fe        -0.0896206010        2.9606401015        4.4139481808
 Fe         7.6194605830       13.1888728759        4.8427512832
 Fe        10.1756625714        8.7389784837        4.8313727304
 Fe        12.7402702610        4.3025733311        4.8304149177
 Fe         2.4891482603       13.1845945503        4.8412416446
 Fe         5.0431498307        8.7444785779        4.8330523631
 Fe         7.6121342127        4.3033527738        4.8492127511
 Fe        -2.6415622485       13.1685024808        4.8339592849
 Fe        -0.0742598700        8.7382125506        4.8227364124
 Fe         2.5091071244        4.2376439313        4.8847694126
  O         5.8601350439       10.3472133007        5.8821186627
  O         8.4149425835        5.9110841451        5.8889433400
  O        10.9893077835        1.4675021097        5.8856058055
  O         0.7334002415       10.3471732044        5.8754532527
  O         3.3286904620        5.9251149230        5.8206939298
  O         5.8752539805        1.4422807419        5.8763578559
  O        -4.3967098202       10.3326242578        5.8828428544
  O        -1.8335881863        5.9098807963        5.8657645669
  O         0.7529234594        1.4565543969        5.9159330903
  O         5.9286752207       13.1700480152        5.6955392486
  O         8.4914146932        8.7253178250        5.6999164132
  O        11.0569398584        4.2895984935        5.7010145997
  O         0.8092225773       13.1619966786        5.7136882463
  O         3.3614753922        8.7291217920        5.6994415390
  O         5.9268981171        4.2687113885        5.7219049914
  O        -4.3222825993       13.1485514287        5.7078792866
  O        -1.7642317949        8.7301101372        5.6903647869
  O         0.7648992281        4.3059687674        5.6273374988
  O         3.4811259482       11.7805210896        5.6920780182
  O         6.0382469059        7.3295863294        5.6689969440
  O         8.6044833080        2.8949885880        5.6967005319
  O        -1.6436032439       11.7659216815        5.6837546960
  O         0.9138350442        7.3296629750        5.6795461437
  O         3.4932474735        2.7735046447        5.6715058567
  O        -6.7780218091       11.7659692256        5.6785616781
  O        -4.2190897357        7.3292248199        5.6807247316
  O        -1.6517806864        2.8889762779        5.6777683143
 Fe         7.7840137458       10.2669503900        6.4383081843
 Fe        10.3460035975        5.8286692067        6.4378233074
 Fe        12.9149991323        1.3895291082        6.4363473898
 Fe         2.6591079390       10.2707538618        6.4364141538
 Fe         5.2333455919        5.8288662618        6.4390261504
 Fe         7.7960896532        1.3844452746        6.4418474613
 Fe        -2.4695232898       10.2656193000        6.4369982570
 Fe         0.0960746489        5.8267781891        6.4345558387
 Fe         2.6658553041        1.3316748468        6.5124746018
  O         7.8514134830       10.3685876943        8.2704292981
  H         7.8830107136        9.5316698398        8.7684826210
  H         5.3485585735       10.6233273919        6.6757509513
  O        10.3830558045        5.9264631464        8.2717922769
  H        10.4683795606        5.0926423884        8.7687380450
  H         7.9123806434        6.1982902431        6.6854070879
  O        12.9681436839        1.4932464667        8.2696227827
  H        13.0114831156        0.6571307934        8.7680318243
  H        10.4849453188        1.7559155732        6.6792365137
  O         2.7144158220       10.3889777418        8.2688187286
  H         2.7485210118        9.5600705894        8.7790960847
  H         0.2250596002       10.6269109380        6.6698168006
  O         5.4850247622        5.9467748499        8.2667527770
  H         5.8736006872        5.1588397900        8.6930457566
  H         2.8110844854        6.0443823331        6.6543987675
  O         7.7786048268        1.5114512774        8.2782004095
  H         7.8670805861        0.6815816274        8.7813036988
  H         5.3578926801        1.7431878364        6.6576672586
  O        -2.4291677247       10.3798275802        8.2697060666
  H        -2.3781042582        9.5514313042        8.7801475801
  H        -4.9023856161       10.6031508733        6.6820827035
  O         0.0232504545        5.9366417405        8.2652884168
  H         0.1730532425        5.0955470182        8.7367685693
  H        -2.3229630395        6.1842342447        6.6739686289
  O         2.7353770499        1.1436164854        8.3447294233
  H         2.7809629850        0.2231116613        8.6726310232
  H         0.2253198577        1.7219747123        6.7027696121
  C         3.5492200288        3.6299185820       10.2293956789
  C         3.0084675285        3.9487431183        8.9189162326
  H         3.9927929666        4.5457672856       10.6378953684
  H         2.7463882996        3.2861210093       10.8955661651
  H         4.3034592631        2.8381738383       10.1590864178
  N         2.5428968220        4.2248712256        7.8662537368
     168
 i =       35, E =     -8144.3657097357
 Fe         5.0938794100       11.8196869300        0.3885799900
 Fe         7.6575796300        7.3792284900        0.3885799900
 Fe        10.2212798400        2.9387700600        0.3885799900
 Fe        -0.0335205200       11.8196869300        0.3885799900
 Fe         2.5301797000        7.3792284900        0.3885799900
 Fe         5.0938799200        2.9387700600        0.3885799900
 Fe        -5.1609204400       11.8196869300        0.3885799900
 Fe        -2.5972202200        7.3792284900        0.3885799900
 Fe        -0.0335200000        2.9387700600        0.3885799900
  O         8.4519195100        8.9577468800        1.1642700400
  O        11.0156197300        4.5172884400        1.1642700400
  O        13.5793199500        0.0768300000        1.1642700400
  O         3.3245195900        8.9577468800        1.1642700400
  O         5.8882198100        4.5172884400        1.1642700400
  O         8.4519200300        0.0768300000        1.1642700400
  O        -1.8028803300        8.9577468800        1.1642700400
  O         0.7608198900        4.5172884400        1.1642700400
  O         3.3245201100        0.0768300000        1.1642700400
  O         8.4568493000       11.7183869300        1.1650400200
  O        11.0205495200        7.2779284900        1.1650400200
  O        13.5842497300        2.8374700500        1.1650400200
  O         3.3294493700       11.7183869300        1.1650400200
  O         5.8931495900        7.2779284900        1.1650400200
  O         8.4568498100        2.8374700500        1.1650400200
  O        -1.7979505500       11.7183869300        1.1650400200
  O         0.7657496700        7.2779284900        1.1650400200
  O         3.3294498900        2.8374700500        1.1650400200
  O         6.0627194200       10.3425368500        1.1660399400
  O         8.6264196400        5.9020784100        1.1660399400
  O        11.1901198600        1.4616199700        1.1660399400
  O         0.9353195000       10.3425368500        1.1660399400
  O         3.4990197200        5.9020784100        1.1660399400
  O         6.0627199400        1.4616199700        1.1660399400
  O        -4.1920804200       10.3425368500        1.1660399400
  O        -1.6283802000        5.9020784100        1.1660399400
  O         0.9353200200        1.4616199700        1.1660399400
 Fe         7.6576695000       13.2997167500        1.9292099500
 Fe        10.2213697200        8.8592583200        1.9292099500
 Fe        12.7850699400        4.4187998800        1.9292099500
 Fe         2.5302695800       13.2997167500        1.9292099500
 Fe         5.0939698000        8.8592583200        1.9292099500
 Fe         7.6576700200        4.4187998800        1.9292099500
 Fe        -2.5971303400       13.2997167500        1.9292099500
 Fe        -0.0334301200        8.8592583200        1.9292099500
 Fe         2.5302701000        4.4187998800        1.9292099500
 Fe         7.6573893600       10.3392168700        2.7128999200
 Fe        10.2210895800        5.8987584300        2.7128999200
 Fe        12.7847898000        1.4582999900        2.7128999200
 Fe         2.5299894400       10.3392168700        2.7128999200
 Fe         5.0936896600        5.8987584300        2.7128999200
 Fe         7.6573898800        1.4582999900        2.7128999200
 Fe        -2.5974104800       10.3392168700        2.7128999200
 Fe        -0.0337102600        5.8987584300        2.7128999200
 Fe         2.5299899600        1.4582999900        2.7128999200
  O         4.0929179131       13.3159212575        3.5170617158
  O         6.6597326411        8.8777144321        3.5171748254
  O         9.2196233509        4.4376447194        3.5276137320
  O        -1.0259459279       13.3057633126        3.5159490717
  O         1.5332653484        8.8694886104        3.5165342895
  O         4.1015228120        4.4112354278        3.5239109540
  O        -6.1588486422       13.3112890537        3.5185925768
  O        -3.6033538048        8.8718527917        3.5097257837
  O        -1.0461692576        4.4303203951        3.5063589587
  O         6.8203917345       11.8775237930        3.5003668413
  O         9.3764617864        7.4349693632        3.4947027788
  O        11.9413783203        2.9816368625        3.5120877726
  O         1.6947472553       11.8769850274        3.5012896520
  O         4.2560390645        7.4358813052        3.4927628854
  O         6.8216408656        2.9826994179        3.5164087410
  O        -3.4353590958       11.8654190977        3.5054020328
  O        -0.8756515134        7.4317302442        3.4988886711
  O         1.6982588318        2.9810685899        3.5061353775
  O         9.4322779466       10.2149678476        3.4831790097
  O        11.9850707831        5.7848638880        3.4977358048
  O        14.5596846685        1.3373943818        3.4939062319
  O         4.3019105793       10.2265457355        3.4933749814
  O         6.8606395902        5.7747505774        3.5036176497
  O         9.4275004457        1.3378768386        3.4953269340
  O        -0.8245788327       10.2217117542        3.4881650385
  O         1.7423783210        5.7825742124        3.4707118658
  O         4.3110743337        1.3159526544        3.4764978745
 Fe         5.0401233952       11.8370716105        4.4175838577
 Fe         7.6010058432        7.3961336345        4.4188048478
 Fe        10.1634764067        2.9536767774        4.4157112624
 Fe        -0.0821548009       11.8297687498        4.4170221679
 Fe         2.4780689147        7.3689244191        4.4204826488
 Fe         5.0453516097        2.9275908423        4.4186244682
 Fe        -5.2177647423       11.8206547225        4.4131708542
 Fe        -2.6535326015        7.3959610941        4.4194043007
 Fe        -0.0869183396        2.9576832715        4.4151216591
 Fe         7.6205701620       13.1884924581        4.8356344419
 Fe        10.1764115642        8.7398495982        4.8286005064
 Fe        12.7388846463        4.3034364849        4.8319784685
 Fe         2.4884045168       13.1816516653        4.8404439717
 Fe         5.0441180611        8.7439194356        4.8294514077
 Fe         7.6118047490        4.2989462951        4.8525458700
 Fe        -2.6408846397       13.1745231009        4.8288967043
 Fe        -0.0742217007        8.7411330991        4.8173300154
 Fe         2.5070263278        4.2523574110        4.8565759279
  O         5.8596670030       10.3454766507        5.8795194577
  O         8.4170531776        5.9087829924        5.8886809712
  O        10.9874025831        1.4685521489        5.8830875007
  O         0.7337704546       10.3445214861        5.8726157651
  O         3.3272731518        5.9075898739        5.8259886194
  O         5.8715438888        1.4448006282        5.8722691302
  O        -4.3948158086       10.3353095131        5.8805381483
  O        -1.8316870465        5.9111786831        5.8634751460
  O         0.7542570816        1.4555580802        5.9105142009
  O         5.9325086755       13.1747790680        5.6918696256
  O         8.4918962685        8.7292357191        5.6968159083
  O        11.0549979572        4.2880583583        5.6997106195
  O         0.8087151167       13.1675680701        5.7112119868
  O         3.3631900697        8.7367448378        5.6930999500
  O         5.9265478771        4.2737407940        5.7221881270
  O        -4.3246413519       13.1472493208        5.6933358342
  O        -1.7613654078        8.7331138523        5.6883177147
  O         0.7738784658        4.3117013944        5.6200348744
  O         3.4789103776       11.7762776736        5.6884055488
  O         6.0355106702        7.3321835795        5.6673796244
  O         8.6087094633        2.8905312860        5.6978465173
  O        -1.6502367232       11.7641048203        5.6749917638
  O         0.9061699031        7.3269328970        5.6722080676
  O         3.4895703146        2.8066181700        5.6818472838
  O        -6.7812936296       11.7675735244        5.6768426374
  O        -4.2206858273        7.3303071536        5.6808485152
  O        -1.6527052798        2.8860443786        5.6725983366
 Fe         7.7835166982       10.2683550018        6.4366714831
 Fe        10.3478141487        5.8284591310        6.4375004484
 Fe        12.9145553733        1.3895427503        6.4366537108
 Fe         2.6558693910       10.2711368505        6.4362263313
 Fe         5.2332842731        5.8322149660        6.4342175221
 Fe         7.7874534225        1.3854208601        6.4397677383
 Fe        -2.4691196873       10.2655870604        6.4371063941
 Fe         0.0959990827        5.8254002687        6.4360173247
 Fe         2.6756179333        1.3371791792        6.5029528010
  O         7.8519693251       10.3683872301        8.2690807535
  H         7.8834269708        9.5318785969        8.7678225070
  H         5.3501807419       10.6250746106        6.6734324106
  O        10.3825784908        5.9271332732        8.2714059504
  H        10.4690192904        5.0932721452        8.7677837206
  H         7.9124708696        6.1988696761        6.6833265784
  O        12.9700128216        1.4932027893        8.2696171305
  H        13.0111392880        0.6568728085        8.7678687171
  H        10.4866512271        1.7562222930        6.6795925841
  O         2.7142912360       10.3876138980        8.2679260500
  H         2.7479985066        9.5592807537        8.7788483329
  H         0.2258932883       10.6262924763        6.6665242019
  O         5.4979941162        5.9418997699        8.2621948086
  H         5.8756273095        5.1568541242        8.6908639849
  H         2.8131148706        6.0433479897        6.6530428519
  O         7.7792413364        1.5111127690        8.2763962210
  H         7.8654602373        0.6822546873        8.7812509902
  H         5.3632595296        1.7396471710        6.6597473802
  O        -2.4302376210       10.3797804039        8.2693504586
  H        -2.3785405566        9.5510274499        8.7789515813
  H        -4.9027722719       10.6039845348        6.6789362445
  O         0.0054925913        5.9391626315        8.2654952011
  H         0.1749123393        5.1001204784        8.7358625407
  H        -2.3231053131        6.1822173180        6.6718468229
  O         2.7332280335        1.1380492529        8.3407565645
  H         2.7831321333        0.2190780412        8.6640836206
  H         0.2271615015        1.7229535020        6.6975154263
  C         3.5359605105        3.6478107133       10.2328490676
  C         2.9748997624        3.9570307870        8.9358159681
  H         4.0066921674        4.5504526939       10.6593810345
  H         2.7405026848        3.2863885168       10.9022481716
  H         4.2962362108        2.8469232864       10.1368959300
  N         2.5660126098        4.2248869593        7.8895218225
     168
 i =       36, E =     -8144.3674579135
 Fe         5.0938794100       11.8196869300        0.3885799900
 Fe         7.6575796300        7.3792284900        0.3885799900
 Fe        10.2212798400        2.9387700600        0.3885799900
 Fe        -0.0335205200       11.8196869300        0.3885799900
 Fe         2.5301797000        7.3792284900        0.3885799900
 Fe         5.0938799200        2.9387700600        0.3885799900
 Fe        -5.1609204400       11.8196869300        0.3885799900
 Fe        -2.5972202200        7.3792284900        0.3885799900
 Fe        -0.0335200000        2.9387700600        0.3885799900
  O         8.4519195100        8.9577468800        1.1642700400
  O        11.0156197300        4.5172884400        1.1642700400
  O        13.5793199500        0.0768300000        1.1642700400
  O         3.3245195900        8.9577468800        1.1642700400
  O         5.8882198100        4.5172884400        1.1642700400
  O         8.4519200300        0.0768300000        1.1642700400
  O        -1.8028803300        8.9577468800        1.1642700400
  O         0.7608198900        4.5172884400        1.1642700400
  O         3.3245201100        0.0768300000        1.1642700400
  O         8.4568493000       11.7183869300        1.1650400200
  O        11.0205495200        7.2779284900        1.1650400200
  O        13.5842497300        2.8374700500        1.1650400200
  O         3.3294493700       11.7183869300        1.1650400200
  O         5.8931495900        7.2779284900        1.1650400200
  O         8.4568498100        2.8374700500        1.1650400200
  O        -1.7979505500       11.7183869300        1.1650400200
  O         0.7657496700        7.2779284900        1.1650400200
  O         3.3294498900        2.8374700500        1.1650400200
  O         6.0627194200       10.3425368500        1.1660399400
  O         8.6264196400        5.9020784100        1.1660399400
  O        11.1901198600        1.4616199700        1.1660399400
  O         0.9353195000       10.3425368500        1.1660399400
  O         3.4990197200        5.9020784100        1.1660399400
  O         6.0627199400        1.4616199700        1.1660399400
  O        -4.1920804200       10.3425368500        1.1660399400
  O        -1.6283802000        5.9020784100        1.1660399400
  O         0.9353200200        1.4616199700        1.1660399400
 Fe         7.6576695000       13.2997167500        1.9292099500
 Fe        10.2213697200        8.8592583200        1.9292099500
 Fe        12.7850699400        4.4187998800        1.9292099500
 Fe         2.5302695800       13.2997167500        1.9292099500
 Fe         5.0939698000        8.8592583200        1.9292099500
 Fe         7.6576700200        4.4187998800        1.9292099500
 Fe        -2.5971303400       13.2997167500        1.9292099500
 Fe        -0.0334301200        8.8592583200        1.9292099500
 Fe         2.5302701000        4.4187998800        1.9292099500
 Fe         7.6573893600       10.3392168700        2.7128999200
 Fe        10.2210895800        5.8987584300        2.7128999200
 Fe        12.7847898000        1.4582999900        2.7128999200
 Fe         2.5299894400       10.3392168700        2.7128999200
 Fe         5.0936896600        5.8987584300        2.7128999200
 Fe         7.6573898800        1.4582999900        2.7128999200
 Fe        -2.5974104800       10.3392168700        2.7128999200
 Fe        -0.0337102600        5.8987584300        2.7128999200
 Fe         2.5299899600        1.4582999900        2.7128999200
  O         4.0902467604       13.3135898903        3.5125089315
  O         6.6548481781        8.8747019093        3.5072982769
  O         9.2198253537        4.4351201467        3.5250914864
  O        -1.0280794994       13.3070344847        3.5141391528
  O         1.5312514586        8.8700616267        3.5126936027
  O         4.0981652154        4.4127424588        3.5200570883
  O        -6.1626626636       13.3101291776        3.5132717531
  O        -3.6010587959        8.8723701139        3.5124670473
  O        -1.0481358261        4.4300925568        3.5028071777
  O         6.8204707974       11.8786741571        3.4966343186
  O         9.3757399737        7.4336121621        3.4959968478
  O        11.9409373627        2.9848226821        3.5070435792
  O         1.6953561899       11.8786408610        3.4991108728
  O         4.2560523184        7.4417744797        3.4845863130
  O         6.8220327967        2.9843802372        3.5151721827
  O        -3.4367246000       11.8668306498        3.5011700704
  O        -0.8764159711        7.4348457378        3.4922054793
  O         1.6987028817        2.9850410980        3.5020358313
  O         9.4307768596       10.2170275222        3.4861783614
  O        11.9867742394        5.7829908043        3.4938984306
  O        14.5621434166        1.3374793022        3.4889771508
  O         4.3056402165       10.2250501544        3.4847990359
  O         6.8603645639        5.7746224096        3.5014730840
  O         9.4296427047        1.3379823693        3.4908187091
  O        -0.8218097305       10.2212226765        3.4833798300
  O         1.7456951839        5.7794400717        3.4670778142
  O         4.3113448639        1.3188159621        3.4755485828
 Fe         5.0400670555       11.8366166351        4.4148322396
 Fe         7.5988806513        7.3967774666        4.4161735990
 Fe        10.1652976871        2.9521230189        4.4161962029
 Fe        -0.0830500835       11.8300552892        4.4154176057
 Fe         2.4772787820        7.3699303573        4.4167827619
 Fe         5.0438027674        2.9298440900        4.4182283767
 Fe        -5.2175966146       11.8237467477        4.4139771268
 Fe        -2.6523587879        7.3936624371        4.4186673150
 Fe        -0.0874682392        2.9584955267        4.4137102933
 Fe         7.6185900601       13.1884510784        4.8317336212
 Fe        10.1760681464        8.7397360967        4.8263947001
 Fe        12.7391044400        4.3029955624        4.8303163998
 Fe         2.4879132080       13.1832153940        4.8378018338
 Fe         5.0435754382        8.7461834482        4.8228624415
 Fe         7.6132345982        4.3012943791        4.8503397280
 Fe        -2.6410983733       13.1738002788        4.8250573481
 Fe        -0.0741645589        8.7400171140        4.8125532531
 Fe         2.5053687507        4.2560263930        4.8542516703
  O         5.8592365267       10.3452831459        5.8778707951
  O         8.4176313210        5.9094793876        5.8875377195
  O        10.9879106974        1.4679743424        5.8826387466
  O         0.7337290469       10.3447335025        5.8713975283
  O         3.3298981925        5.9104154943        5.8257272058
  O         5.8708779710        1.4440563639        5.8733214219
  O        -4.3957941145       10.3362686617        5.8784158203
  O        -1.8325559668        5.9117427711        5.8617588054
  O         0.7532193058        1.4556385501        5.9068504600
  O         5.9316637911       13.1740996065        5.6908576274
  O         8.4899723647        8.7313946066        5.6924725725
  O        11.0551718768        4.2897810741        5.6984448780
  O         0.8078560402       13.1671389332        5.7093063226
  O         3.3644707409        8.7363148986        5.6905189956
  O         5.9284962875        4.2746686633        5.7209608990
  O        -4.3258922948       13.1523423050        5.6900565478
  O        -1.7605648208        8.7332231868        5.6865857923
  O         0.7730876389        4.3116276554        5.6204411998
  O         3.4777130824       11.7752768058        5.6846277208
  O         6.0323292298        7.3346452628        5.6635581116
  O         8.6077960122        2.8912563089        5.6956719102
  O        -1.6504611016       11.7642388973        5.6745564997
  O         0.9067340639        7.3274903939        5.6709386694
  O         3.4893502268        2.8169021358        5.6899617845
  O        -6.7823594778       11.7680850174        5.6747818112
  O        -4.2207457794        7.3312138081        5.6793206741
  O        -1.6520090037        2.8860364955        5.6721637946
 Fe         7.7833719383       10.2692033063        6.4364757089
 Fe        10.3476933179        5.8297160904        6.4374115051
 Fe        12.9145799842        1.3893422625        6.4354490998
 Fe         2.6567980954       10.2704167696        6.4358683045
 Fe         5.2362129722        5.8326190082        6.4354304221
 Fe         7.7882543476        1.3855227316        6.4390857355
 Fe        -2.4697072325       10.2652289315        6.4360970420
 Fe         0.0951822266        5.8260701093        6.4351186138
 Fe         2.6740113742        1.3416332882        6.4994251791
  O         7.8527149993       10.3686049605        8.2688199786
  H         7.8839132702        9.5316747005        8.7670395746
  H         5.3511482860       10.6264161036        6.6723784707
  O        10.3823804554        5.9274055626        8.2711560858
  H        10.4698792846        5.0935419806        8.7674485414
  H         7.9127210999        6.1986278517        6.6823101835
  O        12.9708547227        1.4921590750        8.2684393967
  H        13.0111038674        0.6566787619        8.7681580257
  H        10.4865746867        1.7570122928        6.6780848806
  O         2.7134147992       10.3870632281        8.2679348403
  H         2.7473595902        9.5583908900        8.7785244215
  H         0.2251205796       10.6256677690        6.6653758345
  O         5.5063826324        5.9404476913        8.2621754009
  H         5.8884021725        5.1532096083        8.6872942724
  H         2.8131304339        6.0332565352        6.6556853730
  O         7.7778180852        1.5111866764        8.2759356218
  H         7.8635764308        0.6827838193        8.7816831103
  H         5.3628852179        1.7391588566        6.6612701822
  O        -2.4310524681       10.3798425008        8.2684841538
  H        -2.3790268472        9.5510037942        8.7781075078
  H        -4.9029670192       10.6044793421        6.6773555390
  O        -0.0124494280        5.9399927430        8.2638520571
  H         0.1761026688        5.1053816678        8.7356867059
  H        -2.3221549207        6.1812882221        6.6718633338
  O         2.7395383444        1.1407513838        8.3358405078
  H         2.7874132342        0.2182531509        8.6497436104
  H         0.2279178784        1.7234636695        6.6946826322
  C         3.5362223744        3.6513466071       10.2465538583
  C         2.9725511027        3.9735713590        8.9553890204
  H         4.0052629997        4.5506021026       10.6749714946
  H         2.7438960896        3.2885337846       10.9162586602
  H         4.2904537207        2.8530710544       10.1424638294
  N         2.5353070149        4.2549019739        7.9141898224
     168
 i =       37, E =     -8144.3674410802
 Fe         5.0938794100       11.8196869300        0.3885799900
 Fe         7.6575796300        7.3792284900        0.3885799900
 Fe        10.2212798400        2.9387700600        0.3885799900
 Fe        -0.0335205200       11.8196869300        0.3885799900
 Fe         2.5301797000        7.3792284900        0.3885799900
 Fe         5.0938799200        2.9387700600        0.3885799900
 Fe        -5.1609204400       11.8196869300        0.3885799900
 Fe        -2.5972202200        7.3792284900        0.3885799900
 Fe        -0.0335200000        2.9387700600        0.3885799900
  O         8.4519195100        8.9577468800        1.1642700400
  O        11.0156197300        4.5172884400        1.1642700400
  O        13.5793199500        0.0768300000        1.1642700400
  O         3.3245195900        8.9577468800        1.1642700400
  O         5.8882198100        4.5172884400        1.1642700400
  O         8.4519200300        0.0768300000        1.1642700400
  O        -1.8028803300        8.9577468800        1.1642700400
  O         0.7608198900        4.5172884400        1.1642700400
  O         3.3245201100        0.0768300000        1.1642700400
  O         8.4568493000       11.7183869300        1.1650400200
  O        11.0205495200        7.2779284900        1.1650400200
  O        13.5842497300        2.8374700500        1.1650400200
  O         3.3294493700       11.7183869300        1.1650400200
  O         5.8931495900        7.2779284900        1.1650400200
  O         8.4568498100        2.8374700500        1.1650400200
  O        -1.7979505500       11.7183869300        1.1650400200
  O         0.7657496700        7.2779284900        1.1650400200
  O         3.3294498900        2.8374700500        1.1650400200
  O         6.0627194200       10.3425368500        1.1660399400
  O         8.6264196400        5.9020784100        1.1660399400
  O        11.1901198600        1.4616199700        1.1660399400
  O         0.9353195000       10.3425368500        1.1660399400
  O         3.4990197200        5.9020784100        1.1660399400
  O         6.0627199400        1.4616199700        1.1660399400
  O        -4.1920804200       10.3425368500        1.1660399400
  O        -1.6283802000        5.9020784100        1.1660399400
  O         0.9353200200        1.4616199700        1.1660399400
 Fe         7.6576695000       13.2997167500        1.9292099500
 Fe        10.2213697200        8.8592583200        1.9292099500
 Fe        12.7850699400        4.4187998800        1.9292099500
 Fe         2.5302695800       13.2997167500        1.9292099500
 Fe         5.0939698000        8.8592583200        1.9292099500
 Fe         7.6576700200        4.4187998800        1.9292099500
 Fe        -2.5971303400       13.2997167500        1.9292099500
 Fe        -0.0334301200        8.8592583200        1.9292099500
 Fe         2.5302701000        4.4187998800        1.9292099500
 Fe         7.6573893600       10.3392168700        2.7128999200
 Fe        10.2210895800        5.8987584300        2.7128999200
 Fe        12.7847898000        1.4582999900        2.7128999200
 Fe         2.5299894400       10.3392168700        2.7128999200
 Fe         5.0936896600        5.8987584300        2.7128999200
 Fe         7.6573898800        1.4582999900        2.7128999200
 Fe        -2.5974104800       10.3392168700        2.7128999200
 Fe        -0.0337102600        5.8987584300        2.7128999200
 Fe         2.5299899600        1.4582999900        2.7128999200
  O         4.0902467604       13.3135898903        3.5125089315
  O         6.6548481781        8.8747019093        3.5072982769
  O         9.2198253537        4.4351201467        3.5250914864
  O        -1.0280794994       13.3070344847        3.5141391528
  O         1.5312514586        8.8700616267        3.5126936027
  O         4.0981652154        4.4127424588        3.5200570883
  O        -6.1626626636       13.3101291776        3.5132717531
  O        -3.6010587959        8.8723701139        3.5124670473
  O        -1.0481358261        4.4300925568        3.5028071777
  O         6.8204707974       11.8786741571        3.4966343186
  O         9.3757399737        7.4336121621        3.4959968478
  O        11.9409373627        2.9848226821        3.5070435792
  O         1.6953561899       11.8786408610        3.4991108728
  O         4.2560523184        7.4417744797        3.4845863130
  O         6.8220327967        2.9843802372        3.5151721827
  O        -3.4367246000       11.8668306498        3.5011700704
  O        -0.8764159711        7.4348457378        3.4922054793
  O         1.6987028817        2.9850410980        3.5020358313
  O         9.4307768596       10.2170275222        3.4861783614
  O        11.9867742394        5.7829908043        3.4938984306
  O        14.5621434166        1.3374793022        3.4889771508
  O         4.3056402165       10.2250501544        3.4847990359
  O         6.8603645639        5.7746224096        3.5014730840
  O         9.4296427047        1.3379823693        3.4908187091
  O        -0.8218097305       10.2212226765        3.4833798300
  O         1.7456951839        5.7794400717        3.4670778142
  O         4.3113448639        1.3188159621        3.4755485828
 Fe         5.0400670555       11.8366166351        4.4148322396
 Fe         7.5988806513        7.3967774666        4.4161735990
 Fe        10.1652976871        2.9521230189        4.4161962029
 Fe        -0.0830500835       11.8300552892        4.4154176057
 Fe         2.4772787820        7.3699303573        4.4167827619
 Fe         5.0438027674        2.9298440900        4.4182283767
 Fe        -5.2175966146       11.8237467477        4.4139771268
 Fe        -2.6523587879        7.3936624371        4.4186673150
 Fe        -0.0874682392        2.9584955267        4.4137102933
 Fe         7.6185900601       13.1884510784        4.8317336212
 Fe        10.1760681464        8.7397360967        4.8263947001
 Fe        12.7391044400        4.3029955624        4.8303163998
 Fe         2.4879132080       13.1832153940        4.8378018338
 Fe         5.0435754382        8.7461834482        4.8228624415
 Fe         7.6132345982        4.3012943791        4.8503397280
 Fe        -2.6410983733       13.1738002788        4.8250573481
 Fe        -0.0741645589        8.7400171140        4.8125532531
 Fe         2.5053687507        4.2560263930        4.8542516703
  O         5.8592365267       10.3452831459        5.8778707951
  O         8.4176313210        5.9094793876        5.8875377195
  O        10.9879106974        1.4679743424        5.8826387466
  O         0.7337290469       10.3447335025        5.8713975283
  O         3.3298981925        5.9104154943        5.8257272058
  O         5.8708779710        1.4440563639        5.8733214219
  O        -4.3957941145       10.3362686617        5.8784158203
  O        -1.8325559668        5.9117427711        5.8617588054
  O         0.7532193058        1.4556385501        5.9068504600
  O         5.9316637911       13.1740996065        5.6908576274
  O         8.4899723647        8.7313946066        5.6924725725
  O        11.0551718768        4.2897810741        5.6984448780
  O         0.8078560402       13.1671389332        5.7093063226
  O         3.3644707409        8.7363148986        5.6905189956
  O         5.9284962875        4.2746686633        5.7209608990
  O        -4.3258922948       13.1523423050        5.6900565478
  O        -1.7605648208        8.7332231868        5.6865857923
  O         0.7730876389        4.3116276554        5.6204411998
  O         3.4777130824       11.7752768058        5.6846277208
  O         6.0323292298        7.3346452628        5.6635581116
  O         8.6077960122        2.8912563089        5.6956719102
  O        -1.6504611016       11.7642388973        5.6745564997
  O         0.9067340639        7.3274903939        5.6709386694
  O         3.4893502268        2.8169021358        5.6899617845
  O        -6.7823594778       11.7680850174        5.6747818112
  O        -4.2207457794        7.3312138081        5.6793206741
  O        -1.6520090037        2.8860364955        5.6721637946
 Fe         7.7833719383       10.2692033063        6.4364757089
 Fe        10.3476933179        5.8297160904        6.4374115051
 Fe        12.9145799842        1.3893422625        6.4354490998
 Fe         2.6567980954       10.2704167696        6.4358683045
 Fe         5.2362129722        5.8326190082        6.4354304221
 Fe         7.7882543476        1.3855227316        6.4390857355
 Fe        -2.4697072325       10.2652289315        6.4360970420
 Fe         0.0951822266        5.8260701093        6.4351186138
 Fe         2.6740113742        1.3416332882        6.4994251791
  O         7.8527149993       10.3686049605        8.2688199786
  H         7.8839132702        9.5316747005        8.7670395746
  H         5.3511482860       10.6264161036        6.6723784707
  O        10.3823804554        5.9274055626        8.2711560858
  H        10.4698792846        5.0935419806        8.7674485414
  H         7.9127210999        6.1986278517        6.6823101835
  O        12.9708547227        1.4921590750        8.2684393967
  H        13.0111038674        0.6566787619        8.7681580257
  H        10.4865746867        1.7570122928        6.6780848806
  O         2.7134147992       10.3870632281        8.2679348403
  H         2.7473595902        9.5583908900        8.7785244215
  H         0.2251205796       10.6256677690        6.6653758345
  O         5.5063826324        5.9404476913        8.2621754009
  H         5.8884021725        5.1532096083        8.6872942724
  H         2.8131304339        6.0332565352        6.6556853730
  O         7.7778180852        1.5111866764        8.2759356218
  H         7.8635764308        0.6827838193        8.7816831103
  H         5.3628852179        1.7391588566        6.6612701822
  O        -2.4310524681       10.3798425008        8.2684841538
  H        -2.3790268472        9.5510037942        8.7781075078
  H        -4.9029670192       10.6044793421        6.6773555390
  O        -0.0124494280        5.9399927430        8.2638520571
  H         0.1761026688        5.1053816678        8.7356867059
  H        -2.3221549207        6.1812882221        6.6718633338
  O         2.7395383444        1.1407513838        8.3358405078
  H         2.7874132342        0.2182531509        8.6497436104
  H         0.2279178784        1.7234636695        6.6946826322
  C         3.5362223744        3.6513466071       10.2465538583
  C         2.9725511027        3.9735713590        8.9553890204
  H         4.0052629997        4.5506021026       10.6749714946
  H         2.7438960896        3.2885337846       10.9162586602
  H         4.2904537207        2.8530710544       10.1424638294
  N         2.5353070149        4.2549019739        7.9141898224
