 DBCSR| Multiplication driver                                               XSMM
 DBCSR| Multrec recursion limit                                              512
 DBCSR| Multiplication stack size                                           1000
 DBCSR| Maximum elements for images                                    UNLIMITED
 DBCSR| Multiplicative factor virtual images                                   1
 DBCSR| Multiplication size stacks                                             3
 DBCSR| Number of 3D layers                                               SINGLE
 DBCSR| Use MPI memory allocation                                              T
 DBCSR| Use RMA algorithm                                                      F
 DBCSR| Use Communication thread                                               T
 DBCSR| Communication thread load                                             87


  **** **** ******  **  PROGRAM STARTED AT               2020-10-07 11:23:59.208
 ***** ** ***  *** **   PROGRAM STARTED ON                             irene6025
 **    ****   ******    PROGRAM STARTED BY                              marticar
 ***** **    ** ** **   PROGRAM PROCESS ID                                229012
  **** **  *******  **  PROGRAM STARTED IN /ccc/scratch/cont003/gen0609/marticar
                                           /684117

 CP2K| version string:                                          CP2K version 6.1
 CP2K| source code revision number:                                    svn:18464
 CP2K| cp2kflags: libint fftw3 parallel mpi3 scalapack xsmm mkl                 
 CP2K| is freely available from                            https://www.cp2k.org/
 CP2K| Program compiled at                          Thu Dec 12 15:40:57 CET 2019
 CP2K| Program compiled on                                             cobalt175
 CP2K| Program compiled for                                   Linux-x86-64-iomkl
 CP2K| Data directory path          /tmp/cp2k/6.1/iomkl-195281.401/cp2k-6.1/data
 CP2K| Input file name                                             screening.inp
 
 GLOBAL| Force Environment number                                              1
 GLOBAL| Basis set file name            /ccc/work/cont003/gen0609/marticar/data/
 GLOBAL| Potential file name            /ccc/work/cont003/gen0609/marticar/data/
 GLOBAL| MM Potential file name                                     MM_POTENTIAL
 GLOBAL| Coordinate file name                                          coord.xyz
 GLOBAL| Method name                                                        CP2K
 GLOBAL| Project name                                                    PROJECT
 GLOBAL| Preferred FFT library                                             FFTW3
 GLOBAL| Preferred diagonalization lib.                                       SL
 GLOBAL| Run type                                                        GEO_OPT
 GLOBAL| All-to-all communication in single precision                          F
 GLOBAL| FFTs using library dependent lengths                                  F
 GLOBAL| Global print level                                                  LOW
 GLOBAL| Total number of message passing processes                            16
 GLOBAL| Number of threads for this process                                    1
 GLOBAL| This output is from process                                           0
 GLOBAL| CPU model name :  AMD EPYC 7H12 64-Core Processor

 MEMORY| system memory details [Kb]
 MEMORY|                        rank 0           min           max       average
 MEMORY| MemTotal            263246932     263246932     263246932     263246932
 MEMORY| MemFree             233678692     233678692     233678692     233678692
 MEMORY| Buffers                     0             0             0             0
 MEMORY| Cached                6718440       6718440       6718440       6718440
 MEMORY| Slab                  4691940       4691940       4691940       4691940
 MEMORY| SReclaimable          2193752       2193752       2193752       2193752
 MEMORY| MemLikelyFree       242590884     242590884     242590884     242590884

 
 GENERATE|  Preliminary Number of Bonds generated:                             0
 GENERATE|  Achieved consistency in connectivity generation.

 *******************************************************************************
 *******************************************************************************
 **                                                                           **
 **     #####                         ##              ##                      **
 **    ##   ##            ##          ##              ##                      **
 **   ##     ##                       ##            ######                    **
 **   ##     ##  ##   ##  ##   #####  ##  ##   ####   ##    #####    #####    **
 **   ##     ##  ##   ##  ##  ##      ## ##   ##      ##   ##   ##  ##   ##   **
 **   ##  ## ##  ##   ##  ##  ##      ####     ###    ##   ######   ######    **
 **    ##  ###   ##   ##  ##  ##      ## ##      ##   ##   ##       ##        **
 **     #######   #####   ##   #####  ##  ##  ####    ##    #####   ##        **
 **           ##                                                    ##        **
 **                                                                           **
 **                                                ... make the atoms dance   **
 **                                                                           **
 **            Copyright (C) by CP2K developers group (2000 - 2018)           **
 **                                                                           **
 *******************************************************************************


 TOTAL NUMBERS AND MAXIMUM NUMBERS

  Total number of            - Atomic kinds:                                   7
                             - Atoms:                                        168
                             - Shell sets:                                   168
                             - Shells:                                       960
                             - Primitive Cartesian functions:               1122
                             - Cartesian basis functions:                   3081
                             - Spherical basis functions:                   2718

  Maximum angular momentum of- Orbital basis functions:                        3
                             - Local part of the GTH pseudopotential:          2
                             - Non-local part of the GTH pseudopotential:      3


 SCF PARAMETERS         Density guess:                                   RESTART
                        --------------------------------------------------------
                        max_scf:                                             500
                        max_scf_history:                                       0
                        max_diis:                                              4
                        --------------------------------------------------------
                        eps_scf:                                        1.00E-05
                        eps_scf_history:                                0.00E+00
                        eps_diis:                                       1.00E-01
                        eps_eigval:                                     1.00E-05
                        --------------------------------------------------------
                        level_shift [a.u.]:                                 0.00
                        --------------------------------------------------------
                        Outer loop SCF in use 
                        No variables optimised in outer loop
                        eps_scf                                         1.00E-05
                        max_scf                                               10
                        No outer loop optimization
                        step_size                                       5.00E-01

 BFGS| Use rational function optimization for step estimation:                NO
 BFGS| Use model Hessian for initial guess:                                  YES
 BFGS| Restart Hessian:                                                       NO
 BFGS| Trust radius:                                                       0.472

 *******************************************************************************
 ***                     STARTING GEOMETRY OPTIMIZATION                      ***
 ***                                   BFGS                                  ***
 *******************************************************************************

 Spin 1

 Number of electrons:                                                        719
 Number of occupied orbitals:                                                719
 Number of molecular orbitals:                                               719

 Spin 2

 Number of electrons:                                                        719
 Number of occupied orbitals:                                                719
 Number of molecular orbitals:                                               719

 Number of orbital functions:                                               2718
 Number of independent orbital functions:                                   2718

 Extrapolation method: initial_guess

 *** WARNING in qs_initial_guess.F:263 :: User requested to restart the    ***
 *** wavefunction from the file named: PROJECT-RESTART.wfn. This file does ***
 *** not exist. Please check the existence of the file or change properly  ***
 *** the value of the keyword WFN_RESTART_FILE_NAME. Calculation continues ***
 *** using ATOMIC GUESS.                                                   ***



 SCF WAVEFUNCTION OPTIMIZATION

  ----------------------------------- OT ---------------------------------------
  Minimizer      : CG                  : conjugate gradient
  Preconditioner : FULL_ALL            : diagonalization, state selective
  Precond_solver : DEFAULT
  Line search    : 3PNT                : 3 energies
  stepsize       :    0.15000000                  energy_gap     :    0.08000000
  eps_taylor     :   0.10000E-15                  max_taylor     :             4
  ----------------------------------- OT ---------------------------------------

  Step     Update method      Time    Convergence         Total energy    Change
  ------------------------------------------------------------------------------
     1 OT CG       0.12E+00   11.5     0.01755289     -8058.4260355016 -8.06E+03
     2 OT LS       0.17E+00    7.1                    -8118.1382238182
     3 OT LS       0.13E+00    7.1                    -8111.3997764700
     4 OT CG       0.10E+00   13.6     0.00623512     -8117.8438724664 -5.94E+01
     5 OT LS       0.14E+00    7.0                    -8126.7358079366
     6 OT LS       0.14E+00    7.1                    -8127.4328182632
     7 OT CG       0.11E+00   13.6     0.00513049     -8127.4344538604 -9.59E+00
     8 OT LS       0.15E+00    7.1                    -8135.2977707606
     9 OT LS       0.18E+00    7.1                    -8136.4921741753
    10 OT CG       0.14E+00   13.6     0.00279238     -8136.7018604146 -9.27E+00
    11 OT LS       0.20E+00    7.1                    -8139.5304106761
    12 OT LS       0.20E+00    7.1                    -8139.7627894775
    13 OT CG       0.16E+00   13.6     0.00254977     -8139.7633417040 -3.06E+00
    14 OT LS       0.22E+00    7.1                    -8140.6321154046
    15 OT LS       0.10E+00    7.1                    -8139.2559157118
    16 OT CG       0.81E-01   13.6     0.00183798     -8141.0384674842 -1.28E+00
    17 OT LS       0.11E+00    7.1                    -8141.8123562234
    18 OT LS       0.15E+00    7.0                    -8141.9569869632
    19 OT CG       0.12E+00   13.6     0.00150931     -8142.0067631250 -9.68E-01
    20 OT LS       0.17E+00    7.1                    -8142.4608541321
    21 OT LS       0.10E+00    7.0                    -8142.3051016782
    22 OT CG       0.83E-01   13.6     0.00123225     -8142.4697576740 -4.63E-01
    23 OT LS       0.12E+00    7.1                    -8142.8019028118
    24 OT LS       0.13E+00    7.1                    -8142.8437245230
    25 OT CG       0.10E+00   13.6     0.00102853     -8142.8459663247 -3.76E-01
    26 OT LS       0.14E+00    7.1                    -8143.0817284825
    27 OT LS       0.12E+00    7.1                    -8143.0744943250
    28 OT CG       0.93E-01   13.6     0.00086957     -8143.0858764899 -2.40E-01
    29 OT LS       0.13E+00    7.0                    -8143.2758246826
    30 OT LS       0.15E+00    7.0                    -8143.3045229985
    31 OT CG       0.12E+00   13.6     0.00077385     -8143.3087143479 -2.23E-01
    32 OT LS       0.17E+00    7.1                    -8143.4541152353
    33 OT LS       0.12E+00    7.1                    -8143.4354388101
    34 OT CG       0.99E-01   13.6     0.00067427     -8143.4542491443 -1.46E-01
    35 OT LS       0.14E+00    7.1                    -8143.5665229563
    36 OT LS       0.14E+00    7.1                    -8143.5749522481
    37 OT CG       0.11E+00   13.6     0.00060552     -8143.5750598834 -1.21E-01
    38 OT LS       0.15E+00    7.1                    -8143.6604609632
    39 OT LS       0.12E+00    7.1                    -8143.6553274021
    40 OT CG       0.96E-01   13.6     0.00053267     -8143.6613100930 -8.63E-02
    41 OT LS       0.13E+00    7.0                    -8143.7278346591
    42 OT LS       0.13E+00    7.0                    -8143.7319762736
    43 OT CG       0.10E+00   13.6     0.00047298     -8143.7321834996 -7.09E-02
    44 OT LS       0.14E+00    7.1                    -8143.7847451050
    45 OT LS       0.12E+00    7.0                    -8143.7852754472
    46 OT CG       0.99E-01   13.6     0.00040298     -8143.7864891188 -5.43E-02
    47 OT LS       0.14E+00    7.0                    -8143.8261177766
    48 OT LS       0.13E+00    7.1                    -8143.8288333979
    49 OT CG       0.11E+00   13.6     0.00035289     -8143.8289058848 -4.24E-02
    50 OT LS       0.15E+00    7.1                    -8143.8595536740
    51 OT LS       0.13E+00    7.1                    -8143.8598240229
    52 OT CG       0.10E+00   13.6     0.00031887     -8143.8605523899 -3.16E-02
    53 OT LS       0.15E+00    7.1                    -8143.8850747238
    54 OT LS       0.13E+00    7.1                    -8143.8854689921
    55 OT CG       0.10E+00   13.6     0.00028461     -8143.8859597670 -2.54E-02
    56 OT LS       0.14E+00    7.1                    -8143.9052768069
    57 OT LS       0.13E+00    7.0                    -8143.9056972442
    58 OT CG       0.10E+00   13.6     0.00025314     -8143.9060301945 -2.01E-02
    59 OT LS       0.14E+00    7.1                    -8143.9216610885
    60 OT LS       0.13E+00    7.1                    -8143.9224426126
    61 OT CG       0.11E+00   13.6     0.00022390     -8143.9225403250 -1.65E-02
    62 OT LS       0.15E+00    7.1                    -8143.9350928315
    63 OT LS       0.13E+00    7.1                    -8143.9355647702
    64 OT CG       0.11E+00   13.6     0.00020368     -8143.9356968978 -1.32E-02
    65 OT LS       0.15E+00    7.1                    -8143.9461423773
    66 OT LS       0.13E+00    7.1                    -8143.9464109120
    67 OT CG       0.11E+00   13.6     0.00019129     -8143.9465725702 -1.09E-02
    68 OT LS       0.15E+00    7.1                    -8143.9555960037
    69 OT LS       0.13E+00    7.1                    -8143.9556644698
    70 OT CG       0.10E+00   13.6     0.00017945     -8143.9558848022 -9.31E-03
    71 OT LS       0.15E+00    7.1                    -8143.9639360330
    72 OT LS       0.13E+00    7.1                    -8143.9643240573
    73 OT CG       0.11E+00   13.6     0.00016824     -8143.9643791231 -8.49E-03
    74 OT LS       0.15E+00    7.1                    -8143.9717063905
    75 OT LS       0.14E+00    7.0                    -8143.9720507566
    76 OT CG       0.11E+00   13.6     0.00016015     -8143.9721037516 -7.72E-03
    77 OT LS       0.16E+00    7.1                    -8143.9790030816
    78 OT LS       0.15E+00    7.0                    -8143.9793503581
    79 OT CG       0.12E+00   13.6     0.00015514     -8143.9793933392 -7.29E-03
    80 OT LS       0.16E+00    7.1                    -8143.9858320863
    81 OT LS       0.14E+00    7.0                    -8143.9858785791
    82 OT CG       0.11E+00   13.6     0.00015066     -8143.9860378628 -6.64E-03
    83 OT LS       0.16E+00    7.1                    -8143.9919880994
    84 OT LS       0.14E+00    7.1                    -8143.9920846731
    85 OT CG       0.11E+00   13.6     0.00014893     -8143.9922041073 -6.17E-03
    86 OT LS       0.16E+00    7.1                    -8143.9979461116
    87 OT LS       0.14E+00    7.1                    -8143.9980632911
    88 OT CG       0.11E+00   13.6     0.00014430     -8143.9981668100 -5.96E-03
    89 OT LS       0.15E+00    7.1                    -8144.0036791753
    90 OT LS       0.14E+00    7.0                    -8144.0039582840
    91 OT CG       0.11E+00   13.6     0.00013958     -8144.0039922882 -5.83E-03
    92 OT LS       0.16E+00    7.1                    -8144.0093239060
    93 OT LS       0.15E+00    7.1                    -8144.0095575898
    94 OT CG       0.12E+00   13.6     0.00013745     -8144.0096023479 -5.61E-03
    95 OT LS       0.16E+00    7.1                    -8144.0146755559
    96 OT LS       0.14E+00    7.0                    -8144.0146674059
    97 OT CG       0.11E+00   13.6     0.00013347     -8144.0148182623 -5.22E-03
    98 OT LS       0.16E+00    7.1                    -8144.0195237111
    99 OT LS       0.14E+00    7.1                    -8144.0196354615
   100 OT CG       0.11E+00   13.6     0.00013109     -8144.0197131486 -4.89E-03
   101 OT LS       0.16E+00    7.1                    -8144.0242091534
   102 OT LS       0.14E+00    7.1                    -8144.0242988335
   103 OT CG       0.11E+00   13.6     0.00012729     -8144.0243809178 -4.67E-03
   104 OT LS       0.16E+00    7.1                    -8144.0285761782
   105 OT LS       0.14E+00    7.1                    -8144.0286632313
   106 OT CG       0.11E+00   13.6     0.00012272     -8144.0287380671 -4.36E-03
   107 OT LS       0.15E+00    7.1                    -8144.0327186007
   108 OT LS       0.14E+00    7.1                    -8144.0329117020
   109 OT CG       0.11E+00   13.6     0.00011850     -8144.0329388114 -4.20E-03
   110 OT LS       0.16E+00    7.1                    -8144.0366852690
   111 OT LS       0.14E+00    7.1                    -8144.0367720581
   112 OT CG       0.11E+00   13.6     0.00011461     -8144.0368347679 -3.90E-03
   113 OT LS       0.16E+00    7.1                    -8144.0403424764
   114 OT LS       0.14E+00    7.1                    -8144.0404433719
   115 OT CG       0.11E+00   13.6     0.00011291     -8144.0404933474 -3.66E-03
   116 OT LS       0.16E+00    7.1                    -8144.0438884829
   117 OT LS       0.14E+00    7.1                    -8144.0439662164
   118 OT CG       0.11E+00   13.6     0.00011127     -8144.0440235622 -3.53E-03
   119 OT LS       0.16E+00    7.1                    -8144.0473106396
   120 OT LS       0.14E+00    7.1                    -8144.0473934646
   121 OT CG       0.11E+00   13.6     0.00010993     -8144.0474456239 -3.42E-03
   122 OT LS       0.16E+00    7.1                    -8144.0506846977
   123 OT LS       0.14E+00    7.1                    -8144.0507995184
   124 OT CG       0.11E+00   13.6     0.00010893     -8144.0508370439 -3.39E-03
   125 OT LS       0.16E+00    7.1                    -8144.0540289094
   126 OT LS       0.14E+00    7.1                    -8144.0541067432
   127 OT CG       0.11E+00   13.6     0.00010795     -8144.0541589992 -3.32E-03
   128 OT LS       0.16E+00    7.1                    -8144.0572628887
   129 OT LS       0.14E+00    7.1                    -8144.0573182226
   130 OT CG       0.11E+00   13.6     0.00010689     -8144.0573787553 -3.22E-03
   131 OT LS       0.16E+00    7.1                    -8144.0603845530
   132 OT LS       0.14E+00    7.1                    -8144.0604433419
   133 OT CG       0.11E+00   13.6     0.00010437     -8144.0604993789 -3.12E-03
   134 OT LS       0.16E+00    7.1                    -8144.0633676526
   135 OT LS       0.14E+00    7.1                    -8144.0634589499
   136 OT CG       0.11E+00   13.6     0.00010149     -8144.0634964559 -3.00E-03
   137 OT LS       0.16E+00    7.1                    -8144.0661979534
   138 OT LS       0.14E+00    7.1                    -8144.0662558103
   139 OT CG       0.11E+00   13.6     0.00009791     -8144.0663034429 -2.81E-03
   140 OT LS       0.16E+00    7.1                    -8144.0688030238
   141 OT LS       0.14E+00    7.1                    -8144.0688648482
   142 OT CG       0.11E+00   13.6     0.00009432     -8144.0689049082 -2.60E-03
   143 OT LS       0.16E+00    7.1                    -8144.0712007160
   144 OT LS       0.14E+00    7.1                    -8144.0712438323
   145 OT CG       0.11E+00   13.6     0.00008948     -8144.0712868902 -2.38E-03
   146 OT LS       0.15E+00    7.1                    -8144.0733440072
   147 OT LS       0.14E+00    7.1                    -8144.0733998683
   148 OT CG       0.11E+00   13.6     0.00008486     -8144.0734303830 -2.14E-03
   149 OT LS       0.15E+00    7.1                    -8144.0752807822
   150 OT LS       0.14E+00    7.1                    -8144.0753304660
   151 OT CG       0.11E+00   13.6     0.00008018     -8144.0753581099 -1.93E-03
   152 OT LS       0.15E+00    7.1                    -8144.0770132719
   153 OT LS       0.14E+00    7.1                    -8144.0770602287
   154 OT CG       0.11E+00   13.6     0.00007539     -8144.0770838469 -1.73E-03
   155 OT LS       0.15E+00    7.1                    -8144.0785668555
   156 OT LS       0.14E+00    7.1                    -8144.0786236261
   157 OT CG       0.11E+00   13.6     0.00007173     -8144.0786388432 -1.55E-03
   158 OT LS       0.16E+00    7.1                    -8144.0799884511
   159 OT LS       0.14E+00    7.1                    -8144.0800224797
   160 OT CG       0.11E+00   13.6     0.00006844     -8144.0800436396 -1.40E-03
   161 OT LS       0.16E+00    7.0                    -8144.0812530322
   162 OT LS       0.14E+00    7.0                    -8144.0812683160
   163 OT CG       0.11E+00   13.7     0.00006519     -8144.0812946114 -1.25E-03
   164 OT LS       0.15E+00    7.1                    -8144.0823922683
   165 OT LS       0.14E+00    7.1                    -8144.0824289923
   166 OT CG       0.11E+00   13.7     0.00006210     -8144.0824423279 -1.15E-03
   167 OT LS       0.15E+00    7.1                    -8144.0834519902
   168 OT LS       0.14E+00    7.0                    -8144.0834882232
   169 OT CG       0.11E+00   13.7     0.00005929     -8144.0834995136 -1.06E-03
   170 OT LS       0.16E+00    7.1                    -8144.0844218634
   171 OT LS       0.14E+00    7.1                    -8144.0844437991
   172 OT CG       0.11E+00   13.7     0.00005663     -8144.0844588549 -9.59E-04
   173 OT LS       0.16E+00    7.1                    -8144.0852974879
   174 OT LS       0.14E+00    7.1                    -8144.0853183545
   175 OT CG       0.11E+00   13.7     0.00005413     -8144.0853316227 -8.73E-04
   176 OT LS       0.16E+00    7.1                    -8144.0860964810
   177 OT LS       0.14E+00    7.1                    -8144.0861162893
   178 OT CG       0.11E+00   13.7     0.00005185     -8144.0861280365 -7.96E-04
   179 OT LS       0.16E+00    7.1                    -8144.0868254102
   180 OT LS       0.14E+00    7.1                    -8144.0868403179
   181 OT CG       0.11E+00   13.6     0.00004901     -8144.0868524686 -7.24E-04
   182 OT LS       0.15E+00    7.1                    -8144.0874764393
   183 OT LS       0.14E+00    7.1                    -8144.0874956313
   184 OT CG       0.11E+00   13.6     0.00004673     -8144.0875038955 -6.51E-04
   185 OT LS       0.16E+00    7.1                    -8144.0880740530
   186 OT LS       0.14E+00    7.1                    -8144.0880906415
   187 OT CG       0.11E+00   13.6     0.00004421     -8144.0880985957 -5.95E-04
   188 OT LS       0.16E+00    7.1                    -8144.0886048635
   189 OT LS       0.14E+00    7.1                    -8144.0886138934
   190 OT CG       0.11E+00   13.6     0.00004180     -8144.0886235724 -5.25E-04
   191 OT LS       0.15E+00    7.1                    -8144.0890764186
   192 OT LS       0.14E+00    7.1                    -8144.0890906824
   193 OT CG       0.11E+00   13.6     0.00003991     -8144.0890965420 -4.73E-04
   194 OT LS       0.16E+00    7.1                    -8144.0895072501
   195 OT LS       0.14E+00    7.1                    -8144.0895151709
   196 OT CG       0.11E+00   13.6     0.00003776     -8144.0895227354 -4.26E-04
   197 OT LS       0.15E+00    7.1                    -8144.0898913762
   198 OT LS       0.14E+00    7.1                    -8144.0899034685
   199 OT CG       0.11E+00   13.6     0.00003589     -8144.0899080397 -3.85E-04
   200 OT LS       0.15E+00    7.1                    -8144.0902473530
   201 OT LS       0.14E+00    7.1                    -8144.0902612158
   202 OT CG       0.11E+00   13.7     0.00003421     -8144.0902643708 -3.56E-04
   203 OT LS       0.16E+00    7.1                    -8144.0905733468
   204 OT LS       0.14E+00    7.1                    -8144.0905799198
   205 OT CG       0.11E+00   13.7     0.00003287     -8144.0905853168 -3.21E-04
   206 OT LS       0.16E+00    7.1                    -8144.0908689354
   207 OT LS       0.14E+00    7.1                    -8144.0908758145
   208 OT CG       0.11E+00   13.6     0.00003182     -8144.0908803779 -2.95E-04
   209 OT LS       0.16E+00    7.1                    -8144.0911440814
   210 OT LS       0.14E+00    7.1                    -8144.0911494438
   211 OT CG       0.11E+00   13.7     0.00003044     -8144.0911541681 -2.74E-04
   212 OT LS       0.15E+00    7.1                    -8144.0913991389
   213 OT LS       0.14E+00    7.1                    -8144.0914097874
   214 OT CG       0.11E+00   13.7     0.00002938     -8144.0914118397 -2.58E-04
   215 OT LS       0.16E+00    7.1                    -8144.0916436609
   216 OT LS       0.14E+00    7.1                    -8144.0916511079
   217 OT CG       0.11E+00   13.7     0.00002848     -8144.0916540464 -2.42E-04
   218 OT LS       0.16E+00    7.1                    -8144.0918692358
   219 OT LS       0.14E+00    7.1                    -8144.0918720103
   220 OT CG       0.11E+00   13.6     0.00002756     -8144.0918766549 -2.23E-04
   221 OT LS       0.16E+00    7.0                    -8144.0920755385
   222 OT LS       0.14E+00    7.0                    -8144.0920796858
   223 OT CG       0.11E+00   13.6     0.00002659     -8144.0920831988 -2.07E-04
   224 OT LS       0.16E+00    7.0                    -8144.0922675241
   225 OT LS       0.14E+00    7.1                    -8144.0922721124
   226 OT CG       0.11E+00   13.6     0.00002552     -8144.0922750247 -1.92E-04
   227 OT LS       0.16E+00    7.0                    -8144.0924460513
   228 OT LS       0.14E+00    7.1                    -8144.0924518863
   229 OT CG       0.11E+00   13.7     0.00002445     -8144.0924539160 -1.79E-04
   230 OT LS       0.16E+00    7.1                    -8144.0926122663
   231 OT LS       0.14E+00    7.1                    -8144.0926171794
   232 OT CG       0.11E+00   13.7     0.00002346     -8144.0926192586 -1.65E-04
   233 OT LS       0.16E+00    7.1                    -8144.0927644456
   234 OT LS       0.14E+00    7.1                    -8144.0927675345
   235 OT CG       0.11E+00   13.7     0.00002257     -8144.0927700696 -1.51E-04
   236 OT LS       0.16E+00    7.1                    -8144.0929033962
   237 OT LS       0.14E+00    7.1                    -8144.0929062430
   238 OT CG       0.11E+00   13.7     0.00002167     -8144.0929085658 -1.38E-04
   239 OT LS       0.16E+00    7.1                    -8144.0930309640
   240 OT LS       0.14E+00    7.1                    -8144.0930341001
   241 OT CG       0.11E+00   13.6     0.00002073     -8144.0930359928 -1.27E-04
   242 OT LS       0.16E+00    7.1                    -8144.0931492645
   243 OT LS       0.14E+00    7.1                    -8144.0931534804
   244 OT CG       0.11E+00   13.7     0.00001993     -8144.0931546864 -1.19E-04
   245 OT LS       0.16E+00    7.1                    -8144.0932600949
   246 OT LS       0.14E+00    7.0                    -8144.0932630172
   247 OT CG       0.11E+00   13.6     0.00001923     -8144.0932645499 -1.10E-04
   248 OT LS       0.16E+00    7.1                    -8144.0933622307
   249 OT LS       0.14E+00    7.1                    -8144.0933643178
   250 OT CG       0.11E+00   13.6     0.00001862     -8144.0933660194 -1.01E-04
   251 OT LS       0.16E+00    7.0                    -8144.0934573530
   252 OT LS       0.14E+00    7.1                    -8144.0934597991
   253 OT CG       0.11E+00   13.6     0.00001793     -8144.0934611643 -9.51E-05
   254 OT LS       0.16E+00    7.1                    -8144.0935461943
   255 OT LS       0.14E+00    7.1                    -8144.0935487777
   256 OT CG       0.11E+00   13.6     0.00001733     -8144.0935499164 -8.88E-05
   257 OT LS       0.16E+00    7.1                    -8144.0936297704
   258 OT LS       0.14E+00    7.1                    -8144.0936321932
   259 OT CG       0.11E+00   13.6     0.00001678     -8144.0936332642 -8.33E-05
   260 OT LS       0.16E+00    7.1                    -8144.0937081575
   261 OT LS       0.14E+00    7.1                    -8144.0937100383
   262 OT CG       0.11E+00   13.6     0.00001625     -8144.0937112139 -7.79E-05
   263 OT LS       0.16E+00    7.0                    -8144.0937811521
   264 OT LS       0.14E+00    7.1                    -8144.0937827782
   265 OT CG       0.11E+00   13.6     0.00001580     -8144.0937839354 -7.27E-05
   266 OT LS       0.16E+00    7.1                    -8144.0938498670
   267 OT LS       0.14E+00    7.1                    -8144.0938515939
   268 OT CG       0.11E+00   13.6     0.00001529     -8144.0938525968 -6.87E-05
   269 OT LS       0.16E+00    7.1                    -8144.0939147403
   270 OT LS       0.14E+00    7.1                    -8144.0939167847
   271 OT CG       0.11E+00   13.6     0.00001484     -8144.0939175521 -6.50E-05
   272 OT LS       0.16E+00    7.1                    -8144.0939764210
   273 OT LS       0.14E+00    7.1                    -8144.0939780571
   274 OT CG       0.11E+00   13.6     0.00001444     -8144.0939789109 -6.14E-05
   275 OT LS       0.16E+00    7.1                    -8144.0940346352
   276 OT LS       0.14E+00    7.1                    -8144.0940360920
   277 OT CG       0.11E+00   13.7     0.00001411     -8144.0940369409 -5.80E-05
   278 OT LS       0.16E+00    7.1                    -8144.0940900353
   279 OT LS       0.14E+00    7.1                    -8144.0940913844
   280 OT CG       0.11E+00   13.6     0.00001379     -8144.0940922108 -5.53E-05
   281 OT LS       0.16E+00    7.0                    -8144.0941430798
   282 OT LS       0.14E+00    7.1                    -8144.0941446114
   283 OT CG       0.11E+00   13.7     0.00001349     -8144.0941452988 -5.31E-05
   284 OT LS       0.16E+00    7.1                    -8144.0941942737
   285 OT LS       0.14E+00    7.1                    -8144.0941957484
   286 OT CG       0.11E+00   13.6     0.00001323     -8144.0941964099 -5.11E-05
   287 OT LS       0.16E+00    7.1                    -8144.0942433680
   288 OT LS       0.14E+00    7.1                    -8144.0942443893
   289 OT CG       0.11E+00   13.6     0.00001303     -8144.0942451986 -4.88E-05
   290 OT LS       0.16E+00    7.1                    -8144.0942905999
   291 OT LS       0.14E+00    7.1                    -8144.0942917715
   292 OT CG       0.11E+00   13.6     0.00001281     -8144.0942924699 -4.73E-05
   293 OT LS       0.16E+00    7.1                    -8144.0943365049
   294 OT LS       0.14E+00    7.1                    -8144.0943378376
   295 OT CG       0.11E+00   13.6     0.00001262     -8144.0943384299 -4.60E-05
   296 OT LS       0.16E+00    7.1                    -8144.0943812074
   297 OT LS       0.14E+00    7.1                    -8144.0943823572
   298 OT CG       0.11E+00   13.6     0.00001239     -8144.0943829951 -4.46E-05
   299 OT LS       0.16E+00    7.1                    -8144.0944244961
   300 OT LS       0.14E+00    7.1                    -8144.0944258304
   301 OT CG       0.12E+00   13.6     0.00001222     -8144.0944263557 -4.34E-05
   302 OT LS       0.16E+00    7.1                    -8144.0944667243
   303 OT LS       0.14E+00    7.1                    -8144.0944676712
   304 OT CG       0.12E+00   13.6     0.00001199     -8144.0944683350 -4.20E-05
   305 OT LS       0.16E+00    7.1                    -8144.0945071777
   306 OT LS       0.14E+00    7.0                    -8144.0945082621
   307 OT CG       0.12E+00   13.7     0.00001182     -8144.0945088235 -4.05E-05
   308 OT LS       0.16E+00    7.1                    -8144.0945463510
   309 OT LS       0.14E+00    7.2                    -8144.0945471050
   310 OT CG       0.11E+00   13.7     0.00001164     -8144.0945477815 -3.90E-05
   311 OT LS       0.16E+00    7.1                    -8144.0945841055
   312 OT LS       0.14E+00    7.1                    -8144.0945851433
   313 OT CG       0.11E+00   13.7     0.00001141     -8144.0945856581 -3.79E-05
   314 OT LS       0.16E+00    7.1                    -8144.0946209253
   315 OT LS       0.15E+00    7.1                    -8144.0946221903
   316 OT CG       0.12E+00   13.8     0.00001125     -8144.0946225842 -3.69E-05
   317 OT LS       0.16E+00    7.1                    -8144.0946569560
   318 OT LS       0.14E+00    7.1                    -8144.0946577596
   319 OT CG       0.12E+00   13.7     0.00001114     -8144.0946583261 -3.57E-05
   320 OT LS       0.16E+00    7.1                    -8144.0946917581
   321 OT LS       0.14E+00    7.1                    -8144.0946924687
   322 OT CG       0.11E+00   13.7     0.00001095     -8144.0946930529 -3.47E-05
   323 OT LS       0.16E+00    7.1                    -8144.0947255494
   324 OT LS       0.15E+00    7.1                    -8144.0947266677
   325 OT CG       0.12E+00   13.6     0.00001086     -8144.0947270494 -3.40E-05
   326 OT LS       0.16E+00    7.1                    -8144.0947590782
   327 OT LS       0.14E+00    7.0                    -8144.0947598862
   328 OT CG       0.12E+00   13.6     0.00001076     -8144.0947603874 -3.33E-05
   329 OT LS       0.16E+00    7.1                    -8144.0947918021
   330 OT LS       0.14E+00    7.1                    -8144.0947926252
   331 OT CG       0.12E+00   13.6     0.00001067     -8144.0947931031 -3.27E-05
   332 OT LS       0.16E+00    7.1                    -8144.0948241657
   333 OT LS       0.15E+00    7.1                    -8144.0948251592
   334 OT CG       0.12E+00   13.6     0.00001068     -8144.0948255547 -3.25E-05
   335 OT LS       0.16E+00    7.1                    -8144.0948567069
   336 OT LS       0.15E+00    7.1                    -8144.0948574903
   337 OT CG       0.12E+00   13.6     0.00001068     -8144.0948579789 -3.24E-05
   338 OT LS       0.16E+00    7.1                    -8144.0948892109
   339 OT LS       0.15E+00    7.1                    -8144.0948901329
   340 OT CG       0.12E+00   13.6     0.00001073     -8144.0948905629 -3.26E-05
   341 OT LS       0.16E+00    7.0                    -8144.0949225359
   342 OT LS       0.15E+00    7.1                    -8144.0949237654
   343 OT CG       0.12E+00   13.6     0.00001087     -8144.0949240910 -3.35E-05
   344 OT LS       0.17E+00    7.1                    -8144.0949569151
   345 OT LS       0.15E+00    7.1                    -8144.0949575652
   346 OT CG       0.12E+00   13.6     0.00001108     -8144.0949581617 -3.41E-05
   347 OT LS       0.17E+00    7.0                    -8144.0949920600
   348 OT LS       0.15E+00    7.1                    -8144.0949929288
   349 OT CG       0.12E+00   13.6     0.00001132     -8144.0949934535 -3.53E-05
   350 OT LS       0.16E+00    7.0                    -8144.0950290458
   351 OT LS       0.15E+00    7.1                    -8144.0950301997
   352 OT CG       0.12E+00   13.6     0.00001152     -8144.0950306471 -3.72E-05
   353 OT LS       0.17E+00    7.1                    -8144.0950679390
   354 OT LS       0.15E+00    7.1                    -8144.0950691915
   355 OT CG       0.12E+00   13.6     0.00001186     -8144.0950696428 -3.90E-05
   356 OT LS       0.17E+00    7.0                    -8144.0951094732
   357 OT LS       0.15E+00    7.1                    -8144.0951107090
   358 OT CG       0.12E+00   13.6     0.00001227     -8144.0951112334 -4.16E-05
   359 OT LS       0.17E+00    7.1                    -8144.0951539408
   360 OT LS       0.15E+00    7.1                    -8144.0951550464
   361 OT CG       0.12E+00   13.6     0.00001272     -8144.0951557048 -4.45E-05
   362 OT LS       0.17E+00    7.1                    -8144.0952015555
   363 OT LS       0.15E+00    7.1                    -8144.0952027349
   364 OT CG       0.12E+00   13.6     0.00001332     -8144.0952034469 -4.77E-05
   365 OT LS       0.17E+00    7.1                    -8144.0952537774
   366 OT LS       0.15E+00    7.0                    -8144.0952551087
   367 OT CG       0.12E+00   13.6     0.00001391     -8144.0952558768 -5.24E-05
   368 OT LS       0.17E+00    7.1                    -8144.0953113837
   369 OT LS       0.15E+00    7.1                    -8144.0953133779
   370 OT CG       0.12E+00   13.6     0.00001462     -8144.0953140088 -5.81E-05
   371 OT LS       0.17E+00    7.1                    -8144.0953759453
   372 OT LS       0.15E+00    7.1                    -8144.0953778581
   373 OT CG       0.12E+00   13.6     0.00001542     -8144.0953786960 -6.47E-05
   374 OT LS       0.17E+00    7.1                    -8144.0954469080
   375 OT LS       0.15E+00    7.1                    -8144.0954477788
   376 OT CG       0.12E+00   13.6     0.00001622     -8144.0954492913 -7.06E-05
   377 OT LS       0.17E+00    7.1                    -8144.0955234528
   378 OT LS       0.15E+00    7.1                    -8144.0955244948
   379 OT CG       0.12E+00   13.6     0.00001687     -8144.0955260998 -7.68E-05
   380 OT LS       0.17E+00    7.1                    -8144.0956056006
   381 OT LS       0.15E+00    7.1                    -8144.0956074934
   382 OT CG       0.12E+00   13.6     0.00001731     -8144.0956088418 -8.27E-05
   383 OT LS       0.16E+00    7.1                    -8144.0956918632
   384 OT LS       0.15E+00    7.1                    -8144.0956935869
   385 OT CG       0.12E+00   13.6     0.00001761     -8144.0956951107 -8.63E-05
   386 OT LS       0.16E+00    7.1                    -8144.0957791306
   387 OT LS       0.14E+00    7.0                    -8144.0957799556
   388 OT CG       0.11E+00   13.6     0.00001767     -8144.0957819517 -8.68E-05
   389 OT LS       0.16E+00    7.1                    -8144.0958647418
   390 OT LS       0.14E+00    7.0                    -8144.0958660678
   391 OT CG       0.11E+00   13.6     0.00001741     -8144.0958677614 -8.58E-05
   392 OT LS       0.16E+00    7.1                    -8144.0959475295
   393 OT LS       0.14E+00    7.0                    -8144.0959495805
   394 OT CG       0.11E+00   13.6     0.00001693     -8144.0959508372 -8.31E-05
   395 OT LS       0.16E+00    7.0                    -8144.0960258860
   396 OT LS       0.14E+00    7.1                    -8144.0960276847
   397 OT CG       0.11E+00   13.6     0.00001637     -8144.0960289192 -7.81E-05
   398 OT LS       0.16E+00    7.1                    -8144.0960989267
   399 OT LS       0.14E+00    7.1                    -8144.0961008241
   400 OT CG       0.11E+00   13.6     0.00001566     -8144.0961018715 -7.30E-05
   401 OT LS       0.16E+00    7.1                    -8144.0961658352
   402 OT LS       0.14E+00    7.1                    -8144.0961675024
   403 OT CG       0.11E+00   13.6     0.00001496     -8144.0961684848 -6.66E-05
   404 OT LS       0.16E+00    7.1                    -8144.0962263474
   405 OT LS       0.14E+00    7.1                    -8144.0962274596
   406 OT CG       0.11E+00   13.6     0.00001422     -8144.0962285293 -6.00E-05
   407 OT LS       0.15E+00    7.1                    -8144.0962806118
   408 OT LS       0.14E+00    7.0                    -8144.0962820033
   409 OT CG       0.11E+00   13.6     0.00001346     -8144.0962827844 -5.43E-05
   410 OT LS       0.15E+00    7.0                    -8144.0963293630
   411 OT LS       0.14E+00    7.1                    -8144.0963305794
   412 OT CG       0.11E+00   13.6     0.00001270     -8144.0963312896 -4.85E-05
   413 OT LS       0.15E+00    7.0                    -8144.0963730409
   414 OT LS       0.14E+00    7.1                    -8144.0963743861
   415 OT CG       0.11E+00   13.6     0.00001202     -8144.0963749131 -4.36E-05
   416 OT LS       0.15E+00    7.1                    -8144.0964122976
   417 OT LS       0.14E+00    7.1                    -8144.0964131997
   418 OT CG       0.11E+00   13.6     0.00001136     -8144.0964138026 -3.89E-05
   419 OT LS       0.15E+00    7.0                    -8144.0964473170
   420 OT LS       0.14E+00    7.1                    -8144.0964483409
   421 OT CG       0.11E+00   13.6     0.00001076     -8144.0964487872 -3.50E-05
   422 OT LS       0.16E+00    7.0                    -8144.0964787929
   423 OT LS       0.14E+00    7.1                    -8144.0964794907
   424 OT CG       0.11E+00   13.6     0.00001022     -8144.0964799867 -3.12E-05
   425 OT LS       0.15E+00    7.0                    -8144.0965070781
   426 OT LS       0.14E+00    7.1                    -8144.0965078560
   427 OT CG       0.11E+00   13.6     0.00000971     -8144.0965082381 -2.83E-05

  *** SCF run converged in   427 steps ***


  Electronic density on regular grids:      -1437.9999923120        0.0000076880
  Core density on regular grids:             1437.9999996447       -0.0000003553
  Total charge density on r-space grids:        0.0000073327
  Total charge density g-space grids:           0.0000073327

  Overlap energy of the core charge distribution:               0.00000638850710
  Self energy of the core charge distribution:             -14650.93922905635191
  Core Hamiltonian energy:                                   4109.40558249826972
  Hartree energy:                                            3439.45714586926579
  Exchange-correlation energy:                              -1042.84638663843293
  Dispersion energy:                                           -0.58608379790999

  DFT+U energy:                                                 1.41245649859623

  Total energy:                                             -8144.09650823805532

  outer SCF iter =    1 RMS gradient =   0.97E-05 energy =      -8144.0965082381
  outer SCF loop converged in   1 iterations or  427 steps


  Integrated absolute spin density  :                             234.2134873461
  Ideal and single determinant S**2 :                    0.000000     127.283142

 ENERGY| Total FORCE_EVAL ( QS ) energy (a.u.):            -8144.096532846635455


 --------  Informations at step =     0 ------------
  Optimization Method        =                 BFGS
  Total Energy               =     -8144.0965328466
  Used time                  =             3990.314
 ---------------------------------------------------

 --------------------------
 OPTIMIZATION STEP:      1
 --------------------------

 Spin 1

 Number of electrons:                                                        719
 Number of occupied orbitals:                                                719
 Number of molecular orbitals:                                               719

 Spin 2

 Number of electrons:                                                        719
 Number of occupied orbitals:                                                719
 Number of molecular orbitals:                                               719

 Number of orbital functions:                                               2718
 Number of independent orbital functions:                                   2718

 Extrapolation method: PS Nth order


 SCF WAVEFUNCTION OPTIMIZATION

  ----------------------------------- OT ---------------------------------------
  Minimizer      : CG                  : conjugate gradient
  Preconditioner : FULL_ALL            : diagonalization, state selective
  Precond_solver : DEFAULT
  Line search    : 3PNT                : 3 energies
  stepsize       :    0.15000000                  energy_gap     :    0.08000000
  eps_taylor     :   0.10000E-15                  max_taylor     :             4
  ----------------------------------- OT ---------------------------------------

  Step     Update method      Time    Convergence         Total energy    Change
  ------------------------------------------------------------------------------
     1 OT CG       0.12E+00   11.7     0.00025215     -8144.1211286618 -8.14E+03
     2 OT LS       0.17E+00    6.9                    -8144.1447168946
     3 OT LS       0.29E+00    6.9                    -8144.1506838280
     4 OT CG       0.23E+00   13.9     0.00023835     -8144.1570378293 -3.59E-02
     5 OT LS       0.32E+00    7.1                    -8144.1637875547
     6 OT LS       0.13E+00    7.0                    -8144.1406956697
     7 OT CG       0.11E+00   14.0     0.00008586     -8144.1720410724 -1.50E-02
     8 OT LS       0.15E+00    7.0                    -8144.1737013634
     9 OT LS       0.12E+00    7.0                    -8144.1735780367
    10 OT CG       0.92E-01   13.9     0.00002991     -8144.1737127931 -1.67E-03
    11 OT LS       0.13E+00    7.0                    -8144.1739482250
    12 OT LS       0.17E+00    7.0                    -8144.1739934551
    13 OT CG       0.14E+00   14.0     0.00002102     -8144.1740108702 -2.98E-04
    14 OT LS       0.19E+00    7.0                    -8144.1741188381
    15 OT LS       0.13E+00    7.0                    -8144.1740907345
    16 OT CG       0.10E+00   14.0     0.00001175     -8144.1741195766 -1.09E-04
    17 OT LS       0.14E+00    7.0                    -8144.1741553414
    18 OT LS       0.15E+00    7.0                    -8144.1741592368
    19 OT CG       0.12E+00   14.0     0.00000891     -8144.1741593088 -3.97E-05

  *** SCF run converged in    19 steps ***


  Electronic density on regular grids:      -1437.9999922973        0.0000077027
  Core density on regular grids:             1437.9999996449       -0.0000003551
  Total charge density on r-space grids:        0.0000073477
  Total charge density g-space grids:           0.0000073477

  Overlap energy of the core charge distribution:               0.00000319087569
  Self energy of the core charge distribution:             -14650.93922905635191
  Core Hamiltonian energy:                                   4108.87805704026869
  Hartree energy:                                            3439.79612388435180
  Exchange-correlation energy:                              -1042.73461074300712
  Dispersion energy:                                           -0.58018673221700

  DFT+U energy:                                                 1.40568310729944

  Total energy:                                             -8144.17415930878087

  outer SCF iter =    1 RMS gradient =   0.89E-05 energy =      -8144.1741593088
  outer SCF loop converged in   1 iterations or   19 steps


  Integrated absolute spin density  :                             234.3062545405
  Ideal and single determinant S**2 :                    0.000000     127.310111

 ENERGY| Total FORCE_EVAL ( QS ) energy (a.u.):            -8144.174188836355825


 --------  Informations at step =     1 ------------
  Optimization Method        =                 BFGS
  Total Energy               =     -8144.1741888364
  Real energy change         =        -0.0776559897
  Predicted change in energy =        -0.0678390292
  Scaling factor             =         0.0000000000
  Step size                  =         0.2979618196
  Trust radius               =         0.4724315332
  Decrease in energy         =                  YES
  Used time                  =              212.598

  Convergence check :
  Max. step size             =         0.2979618196
  Conv. limit for step size  =         1.0000000000
  Convergence in step size   =                  YES
  RMS step size              =         0.0369407996
  Conv. limit for RMS step   =         1.0000000000
  Convergence in RMS step    =                  YES
  Max. gradient              =         0.0622327354
  Conv. limit for gradients  =         0.0100000000
  Conv. for gradients        =                   NO
  RMS gradient               =         0.0058653516
  Conv. limit for RMS grad.  =         1.0000000000
  Conv. in RMS gradients     =                  YES
 ---------------------------------------------------

 --------------------------
 OPTIMIZATION STEP:      2
 --------------------------

 Spin 1

 Number of electrons:                                                        719
 Number of occupied orbitals:                                                719
 Number of molecular orbitals:                                               719

 Spin 2

 Number of electrons:                                                        719
 Number of occupied orbitals:                                                719
 Number of molecular orbitals:                                               719

 Number of orbital functions:                                               2718
 Number of independent orbital functions:                                   2718

 Extrapolation method: PS Nth order


 SCF WAVEFUNCTION OPTIMIZATION

  ----------------------------------- OT ---------------------------------------
  Minimizer      : CG                  : conjugate gradient
  Preconditioner : FULL_ALL            : diagonalization, state selective
  Precond_solver : DEFAULT
  Line search    : 3PNT                : 3 energies
  stepsize       :    0.15000000                  energy_gap     :    0.08000000
  eps_taylor     :   0.10000E-15                  max_taylor     :             4
  ----------------------------------- OT ---------------------------------------

  Step     Update method      Time    Convergence         Total energy    Change
  ------------------------------------------------------------------------------
     1 OT CG       0.12E+00   11.7     0.00021203     -8144.1571382189 -8.14E+03
     2 OT LS       0.17E+00    6.9                    -8144.1727893172
     3 OT LS       0.23E+00    6.9                    -8144.1760290887
     4 OT CG       0.19E+00   13.8     0.00017578     -8144.1776946792 -2.06E-02
     5 OT LS       0.26E+00    6.9                    -8144.1890001744
     6 OT LS       0.19E+00    6.9                    -8144.1871513477
     7 OT CG       0.15E+00   13.9     0.00006755     -8144.1890003207 -1.13E-02
     8 OT LS       0.21E+00    6.9                    -8144.1900122219
     9 OT LS       0.12E+00    7.0                    -8144.1894888705
    10 OT CG       0.96E-01   13.9     0.00002501     -8144.1900746043 -1.07E-03
    11 OT LS       0.13E+00    6.9                    -8144.1902200728
    12 OT LS       0.13E+00    6.9                    -8144.1902279474
    13 OT CG       0.10E+00   13.9     0.00001533     -8144.1902286807 -1.54E-04
    14 OT LS       0.14E+00    6.9                    -8144.1902863041
    15 OT LS       0.13E+00    6.9                    -8144.1902897593
    16 OT CG       0.11E+00   13.9     0.00000830     -8144.1902899649 -6.13E-05

  *** SCF run converged in    16 steps ***


  Electronic density on regular grids:      -1437.9999923065        0.0000076935
  Core density on regular grids:             1437.9999996445       -0.0000003555
  Total charge density on r-space grids:        0.0000073380
  Total charge density g-space grids:           0.0000073380

  Overlap energy of the core charge distribution:               0.00000250577754
  Self energy of the core charge distribution:             -14650.93922905635191
  Core Hamiltonian energy:                                   4108.67714501273804
  Hartree energy:                                            3439.93076401317057
  Exchange-correlation energy:                              -1042.67844170119474
  Dispersion energy:                                           -0.58116095894137

  DFT+U energy:                                                 1.40063021986868

  Total energy:                                             -8144.19028996493307

  outer SCF iter =    1 RMS gradient =   0.83E-05 energy =      -8144.1902899649
  outer SCF loop converged in   1 iterations or   16 steps


  Integrated absolute spin density  :                             234.3834436256
  Ideal and single determinant S**2 :                    0.000000     127.329221

 ENERGY| Total FORCE_EVAL ( QS ) energy (a.u.):            -8144.190308143877701


 --------  Informations at step =     2 ------------
  Optimization Method        =                 BFGS
  Total Energy               =     -8144.1903081439
  Real energy change         =        -0.0161193075
  Predicted change in energy =        -0.0272836258
  Scaling factor             =         0.0000000000
  Step size                  =         0.2191874172
  Trust radius               =         0.4724315332
  Decrease in energy         =                  YES
  Used time                  =              183.377

  Convergence check :
  Max. step size             =         0.2191874172
  Conv. limit for step size  =         1.0000000000
  Convergence in step size   =                  YES
  RMS step size              =         0.0316051634
  Conv. limit for RMS step   =         1.0000000000
  Convergence in RMS step    =                  YES
  Max. gradient              =         0.0815227776
  Conv. limit for gradients  =         0.0100000000
  Conv. for gradients        =                   NO
  RMS gradient               =         0.0067933106
  Conv. limit for RMS grad.  =         1.0000000000
  Conv. in RMS gradients     =                  YES
 ---------------------------------------------------

 --------------------------
 OPTIMIZATION STEP:      3
 --------------------------

 Spin 1

 Number of electrons:                                                        719
 Number of occupied orbitals:                                                719
 Number of molecular orbitals:                                               719

 Spin 2

 Number of electrons:                                                        719
 Number of occupied orbitals:                                                719
 Number of molecular orbitals:                                               719

 Number of orbital functions:                                               2718
 Number of independent orbital functions:                                   2718

 Extrapolation method: PS Nth order


 SCF WAVEFUNCTION OPTIMIZATION

  ----------------------------------- OT ---------------------------------------
  Minimizer      : CG                  : conjugate gradient
  Preconditioner : FULL_ALL            : diagonalization, state selective
  Precond_solver : DEFAULT
  Line search    : 3PNT                : 3 energies
  stepsize       :    0.15000000                  energy_gap     :    0.08000000
  eps_taylor     :   0.10000E-15                  max_taylor     :             4
  ----------------------------------- OT ---------------------------------------

  Step     Update method      Time    Convergence         Total energy    Change
  ------------------------------------------------------------------------------
     1 OT CG       0.12E+00   11.7     0.00031029     -8144.1220461469 -8.14E+03
     2 OT LS       0.17E+00    6.9                    -8144.1544487865
     3 OT LS       0.21E+00    6.9                    -8144.1603213544
     4 OT CG       0.17E+00   13.8     0.00025086     -8144.1621860122 -4.01E-02
     5 OT LS       0.24E+00    6.9                    -8144.1866216615
     6 OT LS       0.20E+00    6.9                    -8144.1864394527
     7 OT CG       0.16E+00   13.8     0.00010421     -8144.1872457553 -2.51E-02
     8 OT LS       0.23E+00    6.9                    -8144.1887247509
     9 OT LS       0.10E+00    6.9                    -8144.1862721430
    10 OT CG       0.83E-01   13.9     0.00003611     -8144.1894414919 -2.20E-03
    11 OT LS       0.12E+00    6.9                    -8144.1897416775
    12 OT LS       0.14E+00    6.9                    -8144.1897939601
    13 OT CG       0.11E+00   13.9     0.00002339     -8144.1898079411 -3.66E-04
    14 OT LS       0.16E+00    6.9                    -8144.1899597117
    15 OT LS       0.15E+00    6.9                    -8144.1899677755
    16 OT CG       0.12E+00   13.9     0.00001287     -8144.1899685841 -1.61E-04
    17 OT LS       0.17E+00    6.9                    -8144.1900155100
    18 OT LS       0.15E+00    6.9                    -8144.1900170119
    19 OT CG       0.12E+00   13.9     0.00000959     -8144.1900176088 -4.90E-05

  *** SCF run converged in    19 steps ***


  Electronic density on regular grids:      -1437.9999923007        0.0000076993
  Core density on regular grids:             1437.9999996443       -0.0000003557
  Total charge density on r-space grids:        0.0000073436
  Total charge density g-space grids:           0.0000073436

  Overlap energy of the core charge distribution:               0.00000256904506
  Self energy of the core charge distribution:             -14650.93922905635191
  Core Hamiltonian energy:                                   4108.53043113698368
  Hartree energy:                                            3440.02411916426672
  Exchange-correlation energy:                              -1042.61971474498955
  Dispersion energy:                                           -0.58664535361193

  DFT+U energy:                                                 1.40101867587906

  Total energy:                                             -8144.19001760877927

  outer SCF iter =    1 RMS gradient =   0.96E-05 energy =      -8144.1900176088
  outer SCF loop converged in   1 iterations or   19 steps


  Integrated absolute spin density  :                             234.5049083472
  Ideal and single determinant S**2 :                    0.000000     127.377597

 ENERGY| Total FORCE_EVAL ( QS ) energy (a.u.):            -8144.190050777037868


 --------  Informations at step =     3 ------------
  Optimization Method        =                 BFGS
  Total Energy               =     -8144.1900507770
  Real energy change         =         0.0002573668
  Predicted change in energy =        -0.0312664415
  Scaling factor             =         0.0000000000
  Step size                  =         0.2696533076
  Trust radius               =         0.4724315332
  Decrease in energy         =                   NO
  Used time                  =              210.946

  Convergence check :
  Max. step size             =         0.2696533076
  Conv. limit for step size  =         1.0000000000
  Convergence in step size   =                  YES
  RMS step size              =         0.0404929384
  Conv. limit for RMS step   =         1.0000000000
  Convergence in RMS step    =                  YES
  Max. gradient              =         0.0773094459
  Conv. limit for gradients  =         0.0100000000
  Conv. for gradients        =                   NO
  RMS gradient               =         0.0061348145
  Conv. limit for RMS grad.  =         1.0000000000
  Conv. in RMS gradients     =                  YES
 ---------------------------------------------------

 --------------------------
 OPTIMIZATION STEP:      4
 --------------------------

 Spin 1

 Number of electrons:                                                        719
 Number of occupied orbitals:                                                719
 Number of molecular orbitals:                                               719

 Spin 2

 Number of electrons:                                                        719
 Number of occupied orbitals:                                                719
 Number of molecular orbitals:                                               719

 Number of orbital functions:                                               2718
 Number of independent orbital functions:                                   2718

 Extrapolation method: PS Nth order


 SCF WAVEFUNCTION OPTIMIZATION

  ----------------------------------- OT ---------------------------------------
  Minimizer      : CG                  : conjugate gradient
  Preconditioner : FULL_ALL            : diagonalization, state selective
  Precond_solver : DEFAULT
  Line search    : 3PNT                : 3 energies
  stepsize       :    0.15000000                  energy_gap     :    0.08000000
  eps_taylor     :   0.10000E-15                  max_taylor     :             4
  ----------------------------------- OT ---------------------------------------

  Step     Update method      Time    Convergence         Total energy    Change
  ------------------------------------------------------------------------------
     1 OT CG       0.12E+00   11.7     0.00044301     -8144.0775714634 -8.14E+03
     2 OT LS       0.17E+00    6.9                    -8144.1444582470
     3 OT LS       0.22E+00    6.9                    -8144.1572159110
     4 OT CG       0.18E+00   13.9     0.00036449     -8144.1620971973 -8.45E-02
     5 OT LS       0.25E+00    7.0                    -8144.2111972850
     6 OT LS       0.19E+00    6.9                    -8144.2067456645
     7 OT CG       0.15E+00   14.0     0.00016123     -8144.2114143103 -4.93E-02
     8 OT LS       0.21E+00    7.0                    -8144.2155551122
     9 OT LS       0.10E+00    7.0                    -8144.2109550127
    10 OT CG       0.83E-01   14.0     0.00005818     -8144.2166678928 -5.25E-03
    11 OT LS       0.12E+00    7.0                    -8144.2174455128
    12 OT LS       0.14E+00    7.0                    -8144.2175787831
    13 OT CG       0.11E+00   14.0     0.00003286     -8144.2176122495 -9.44E-04
    14 OT LS       0.16E+00    7.0                    -8144.2179226470
    15 OT LS       0.16E+00    7.0                    -8144.2179504232
    16 OT CG       0.13E+00   13.9     0.00001528     -8144.2179504238 -3.38E-04
    17 OT LS       0.18E+00    7.0                    -8144.2180105231
    18 OT LS       0.13E+00    7.0                    -8144.2180026905
    19 OT CG       0.11E+00   13.9     0.00001032     -8144.2180105677 -6.01E-05
    20 OT LS       0.15E+00    7.0                    -8144.2180416151
    21 OT LS       0.18E+00    6.9                    -8144.2180468435
    22 OT CG       0.14E+00   13.9     0.00000838     -8144.2180480678 -3.75E-05

  *** SCF run converged in    22 steps ***


  Electronic density on regular grids:      -1437.9999922888        0.0000077112
  Core density on regular grids:             1437.9999996446       -0.0000003554
  Total charge density on r-space grids:        0.0000073558
  Total charge density g-space grids:           0.0000073558

  Overlap energy of the core charge distribution:               0.00000490842662
  Self energy of the core charge distribution:             -14650.93922905635191
  Core Hamiltonian energy:                                   4108.35535366589102
  Hartree energy:                                            3440.13727644970822
  Exchange-correlation energy:                              -1042.59774427362072
  Dispersion energy:                                           -0.58710328276070

  DFT+U energy:                                                 1.41339352089430

  Total energy:                                             -8144.21804806781256

  outer SCF iter =    1 RMS gradient =   0.84E-05 energy =      -8144.2180480678
  outer SCF loop converged in   1 iterations or   22 steps


  Integrated absolute spin density  :                             234.7885597076
  Ideal and single determinant S**2 :                    0.000000     127.537646

 ENERGY| Total FORCE_EVAL ( QS ) energy (a.u.):            -8144.218072449722058


 --------  Informations at step =     4 ------------
  Optimization Method        =                 BFGS
  Total Energy               =     -8144.2180724497
  Real energy change         =        -0.0280216727
  Predicted change in energy =        -0.0212547232
  Scaling factor             =         0.0000000000
  Step size                  =         0.1541309536
  Trust radius               =         0.4724315332
  Decrease in energy         =                  YES
  Used time                  =              240.181

  Convergence check :
  Max. step size             =         0.1541309536
  Conv. limit for step size  =         1.0000000000
  Convergence in step size   =                  YES
  RMS step size              =         0.0213190695
  Conv. limit for RMS step   =         1.0000000000
  Convergence in RMS step    =                  YES
  Max. gradient              =         0.0340534664
  Conv. limit for gradients  =         0.0100000000
  Conv. for gradients        =                   NO
  RMS gradient               =         0.0038443004
  Conv. limit for RMS grad.  =         1.0000000000
  Conv. in RMS gradients     =                  YES
 ---------------------------------------------------

 --------------------------
 OPTIMIZATION STEP:      5
 --------------------------

 Spin 1

 Number of electrons:                                                        719
 Number of occupied orbitals:                                                719
 Number of molecular orbitals:                                               719

 Spin 2

 Number of electrons:                                                        719
 Number of occupied orbitals:                                                719
 Number of molecular orbitals:                                               719

 Number of orbital functions:                                               2718
 Number of independent orbital functions:                                   2718

 Extrapolation method: PS Nth order


 SCF WAVEFUNCTION OPTIMIZATION

  ----------------------------------- OT ---------------------------------------
  Minimizer      : CG                  : conjugate gradient
  Preconditioner : FULL_ALL            : diagonalization, state selective
  Precond_solver : DEFAULT
  Line search    : 3PNT                : 3 energies
  stepsize       :    0.15000000                  energy_gap     :    0.08000000
  eps_taylor     :   0.10000E-15                  max_taylor     :             4
  ----------------------------------- OT ---------------------------------------

  Step     Update method      Time    Convergence         Total energy    Change
  ------------------------------------------------------------------------------
     1 OT CG       0.12E+00   11.7     0.00036812     -8144.1209385189 -8.14E+03
     2 OT LS       0.17E+00    6.9                    -8144.1696890021
     3 OT LS       0.26E+00    6.9                    -8144.1809038777
     4 OT CG       0.21E+00   13.9     0.00032275     -8144.1892207457 -6.83E-02
     5 OT LS       0.29E+00    7.0                    -8144.2224960069
     6 OT LS       0.17E+00    7.0                    -8144.2068691428
     7 OT CG       0.14E+00   14.0     0.00009138     -8144.2240870308 -3.49E-02
     8 OT LS       0.19E+00    7.0                    -8144.2259745629
     9 OT LS       0.12E+00    7.0                    -8144.2252964868
    10 OT CG       0.94E-01   13.9     0.00005047     -8144.2260183061 -1.93E-03
    11 OT LS       0.13E+00    7.0                    -8144.2266340042
    12 OT LS       0.14E+00    7.0                    -8144.2266996200
    13 OT CG       0.11E+00   13.9     0.00003210     -8144.2267005809 -6.82E-04
    14 OT LS       0.15E+00    7.0                    -8144.2269798356
    15 OT LS       0.15E+00    7.0                    -8144.2270002983
    16 OT CG       0.12E+00   13.9     0.00001918     -8144.2270006091 -3.00E-04
    17 OT LS       0.17E+00    7.0                    -8144.2271286987
    18 OT LS       0.24E+00    6.9                    -8144.2271559521
    19 OT CG       0.19E+00   13.9     0.00001837     -8144.2271712241 -1.71E-04
    20 OT LS       0.27E+00    6.9                    -8144.2273120560
    21 OT LS       0.21E+00    6.9                    -8144.2273059617
    22 OT CG       0.17E+00   13.9     0.00001676     -8144.2273140337 -1.43E-04
    23 OT LS       0.24E+00    7.0                    -8144.2273726724
    24 OT LS       0.12E+00    7.0                    -8144.2273221924
    25 OT CG       0.99E-01   13.9     0.00000869     -8144.2273826953 -6.87E-05

  *** SCF run converged in    25 steps ***


  Electronic density on regular grids:      -1437.9999922921        0.0000077079
  Core density on regular grids:             1437.9999996448       -0.0000003552
  Total charge density on r-space grids:        0.0000073527
  Total charge density g-space grids:           0.0000073527

  Overlap energy of the core charge distribution:               0.00000460004884
  Self energy of the core charge distribution:             -14650.93922905635191
  Core Hamiltonian energy:                                   4107.64362184057336
  Hartree energy:                                            3440.66754616527032
  Exchange-correlation energy:                              -1042.46021968100672
  Dispersion energy:                                           -0.57340394827920

  DFT+U energy:                                                 1.43429738445683

  Total energy:                                             -8144.22738269528872

  outer SCF iter =    1 RMS gradient =   0.87E-05 energy =      -8144.2273826953
  outer SCF loop converged in   1 iterations or   25 steps


  Integrated absolute spin density  :                             235.3493672610
  Ideal and single determinant S**2 :                    0.000000     127.871530

 ENERGY| Total FORCE_EVAL ( QS ) energy (a.u.):            -8144.227403023294755


 --------  Informations at step =     5 ------------
  Optimization Method        =                 BFGS
  Total Energy               =     -8144.2274030233
  Real energy change         =        -0.0093305736
  Predicted change in energy =        -0.0280076595
  Scaling factor             =         0.0000000000
  Step size                  =         0.3149295601
  Trust radius               =         0.4724315332
  Decrease in energy         =                  YES
  Used time                  =              268.122

  Convergence check :
  Max. step size             =         0.3149295601
  Conv. limit for step size  =         1.0000000000
  Convergence in step size   =                  YES
  RMS step size              =         0.0431735414
  Conv. limit for RMS step   =         1.0000000000
  Convergence in RMS step    =                  YES
  Max. gradient              =         0.0445915398
  Conv. limit for gradients  =         0.0100000000
  Conv. for gradients        =                   NO
  RMS gradient               =         0.0057063094
  Conv. limit for RMS grad.  =         1.0000000000
  Conv. in RMS gradients     =                  YES
 ---------------------------------------------------

 --------------------------
 OPTIMIZATION STEP:      6
 --------------------------

 Spin 1

 Number of electrons:                                                        719
 Number of occupied orbitals:                                                719
 Number of molecular orbitals:                                               719

 Spin 2

 Number of electrons:                                                        719
 Number of occupied orbitals:                                                719
 Number of molecular orbitals:                                               719

 Number of orbital functions:                                               2718
 Number of independent orbital functions:                                   2718

 Extrapolation method: PS Nth order


 SCF WAVEFUNCTION OPTIMIZATION

  ----------------------------------- OT ---------------------------------------
  Minimizer      : CG                  : conjugate gradient
  Preconditioner : FULL_ALL            : diagonalization, state selective
  Precond_solver : DEFAULT
  Line search    : 3PNT                : 3 energies
  stepsize       :    0.15000000                  energy_gap     :    0.08000000
  eps_taylor     :   0.10000E-15                  max_taylor     :             4
  ----------------------------------- OT ---------------------------------------

  Step     Update method      Time    Convergence         Total energy    Change
  ------------------------------------------------------------------------------
     1 OT CG       0.12E+00   11.8     0.00083378     -8143.9629425620 -8.14E+03
     2 OT LS       0.17E+00    7.1                    -8144.1134606917
     3 OT LS       0.11E+00    6.9                    -8144.0766187411
     4 OT CG       0.90E-01   14.0     0.00043768     -8144.1143128295 -1.51E-01
     5 OT LS       0.13E+00    7.0                    -8144.1682328024
     6 OT LS       0.24E+00    7.1                    -8144.1827632777
     7 OT CG       0.19E+00   14.0     0.00028315     -8144.2032989683 -8.90E-02
     8 OT LS       0.27E+00    7.1                    -8144.2281137358
     9 OT LS       0.16E+00    7.1                    -8144.2176354944
    10 OT CG       0.13E+00   14.0     0.00012983     -8144.2290246230 -2.57E-02
    11 OT LS       0.18E+00    7.1                    -8144.2332469583
    12 OT LS       0.13E+00    7.1                    -8144.2325976200
    13 OT CG       0.10E+00   14.0     0.00007588     -8144.2332470497 -4.22E-03
    14 OT LS       0.14E+00    7.1                    -8144.2346864998
    15 OT LS       0.14E+00    7.1                    -8144.2347747011
    16 OT CG       0.11E+00   14.0     0.00005194     -8144.2347794198 -1.53E-03
    17 OT LS       0.15E+00    7.1                    -8144.2356708966
    18 OT LS       0.24E+00    7.1                    -8144.2358830421
    19 OT CG       0.19E+00   14.0     0.00004689     -8144.2360587791 -1.28E-03
    20 OT LS       0.27E+00    7.1                    -8144.2370072791
    21 OT LS       0.23E+00    7.1                    -8144.2369946629
    22 OT CG       0.18E+00   14.0     0.00003803     -8144.2370288014 -9.70E-04
    23 OT LS       0.26E+00    7.0                    -8144.2374884518
    24 OT LS       0.17E+00    7.1                    -8144.2373540352
    25 OT CG       0.13E+00   14.0     0.00003096     -8144.2374938106 -4.65E-04
    26 OT LS       0.19E+00    7.0                    -8144.2377591962
    27 OT LS       0.14E+00    7.1                    -8144.2377362128
    28 OT CG       0.11E+00   14.0     0.00001926     -8144.2377605258 -2.67E-04
    29 OT LS       0.16E+00    7.0                    -8144.2378728882
    30 OT LS       0.18E+00    7.1                    -8144.2378882798
    31 OT CG       0.14E+00   14.0     0.00001234     -8144.2378897059 -1.29E-04
    32 OT LS       0.20E+00    7.0                    -8144.2379477027
    33 OT LS       0.23E+00    7.0                    -8144.2379559313
    34 OT CG       0.18E+00   14.0     0.00000996     -8144.2379568502 -6.71E-05

  *** SCF run converged in    34 steps ***


  Electronic density on regular grids:      -1437.9999922977        0.0000077023
  Core density on regular grids:             1437.9999996448       -0.0000003552
  Total charge density on r-space grids:        0.0000073471
  Total charge density g-space grids:           0.0000073471

  Overlap energy of the core charge distribution:               0.00000294382761
  Self energy of the core charge distribution:             -14650.93922905635191
  Core Hamiltonian energy:                                   4107.55774731262136
  Hartree energy:                                            3440.71479511182315
  Exchange-correlation energy:                              -1042.42681532190204
  Dispersion energy:                                           -0.57675198132451

  DFT+U energy:                                                 1.43229414113582

  Total energy:                                             -8144.23795685017103

  outer SCF iter =    1 RMS gradient =   0.10E-04 energy =      -8144.2379568502
  outer SCF loop converged in   1 iterations or   34 steps


  Integrated absolute spin density  :                             235.3801422906
  Ideal and single determinant S**2 :                    0.000000     127.893273

 ENERGY| Total FORCE_EVAL ( QS ) energy (a.u.):            -8144.237992313270297


 --------  Informations at step =     6 ------------
  Optimization Method        =                 BFGS
  Total Energy               =     -8144.2379923133
  Real energy change         =        -0.0105892900
  Predicted change in energy =        -0.0223927597
  Scaling factor             =         0.0000000000
  Step size                  =         0.1987647951
  Trust radius               =         0.4724315332
  Decrease in energy         =                  YES
  Used time                  =              354.427

  Convergence check :
  Max. step size             =         0.1987647951
  Conv. limit for step size  =         1.0000000000
  Convergence in step size   =                  YES
  RMS step size              =         0.0230110788
  Conv. limit for RMS step   =         1.0000000000
  Convergence in RMS step    =                  YES
  Max. gradient              =         0.0673324572
  Conv. limit for gradients  =         0.0100000000
  Conv. for gradients        =                   NO
  RMS gradient               =         0.0048857616
  Conv. limit for RMS grad.  =         1.0000000000
  Conv. in RMS gradients     =                  YES
 ---------------------------------------------------

 --------------------------
 OPTIMIZATION STEP:      7
 --------------------------

 Spin 1

 Number of electrons:                                                        719
 Number of occupied orbitals:                                                719
 Number of molecular orbitals:                                               719

 Spin 2

 Number of electrons:                                                        719
 Number of occupied orbitals:                                                719
 Number of molecular orbitals:                                               719

 Number of orbital functions:                                               2718
 Number of independent orbital functions:                                   2718

 Extrapolation method: PS Nth order


 SCF WAVEFUNCTION OPTIMIZATION

  ----------------------------------- OT ---------------------------------------
  Minimizer      : CG                  : conjugate gradient
  Preconditioner : FULL_ALL            : diagonalization, state selective
  Precond_solver : DEFAULT
  Line search    : 3PNT                : 3 energies
  stepsize       :    0.15000000                  energy_gap     :    0.08000000
  eps_taylor     :   0.10000E-15                  max_taylor     :             4
  ----------------------------------- OT ---------------------------------------

  Step     Update method      Time    Convergence         Total energy    Change
  ------------------------------------------------------------------------------
     1 OT CG       0.12E+00   11.7     0.00037230     -8144.1453490369 -8.14E+03
     2 OT LS       0.17E+00    6.9                    -8144.1939999377
     3 OT LS       0.24E+00    6.9                    -8144.2042498621
     4 OT CG       0.19E+00   13.9     0.00031858     -8144.2096918298 -6.43E-02
     5 OT LS       0.27E+00    7.0                    -8144.2442070070
     6 OT LS       0.18E+00    7.0                    -8144.2359397443
     7 OT CG       0.14E+00   13.9     0.00013592     -8144.2443809180 -3.47E-02
     8 OT LS       0.20E+00    7.0                    -8144.2478722223
     9 OT LS       0.11E+00    7.0                    -8144.2454690892
    10 OT CG       0.86E-01   13.9     0.00006311     -8144.2482690923 -3.89E-03
    11 OT LS       0.12E+00    7.0                    -8144.2491974992
    12 OT LS       0.14E+00    7.1                    -8144.2493343948
    13 OT CG       0.11E+00   14.0     0.00004491     -8144.2493524431 -1.08E-03
    14 OT LS       0.16E+00    6.9                    -8144.2499504769
    15 OT LS       0.18E+00    7.0                    -8144.2500351166
    16 OT CG       0.14E+00   13.9     0.00002665     -8144.2500445408 -6.92E-04
    17 OT LS       0.20E+00    7.0                    -8144.2502688784
    18 OT LS       0.16E+00    7.0                    -8144.2502637853
    19 OT CG       0.13E+00   13.9     0.00001986     -8144.2502734189 -2.29E-04
    20 OT LS       0.18E+00    7.0                    -8144.2504077629
    21 OT LS       0.20E+00    7.0                    -8144.2504235736
    22 OT CG       0.16E+00   14.0     0.00001502     -8144.2504241341 -1.51E-04
    23 OT LS       0.22E+00    7.0                    -8144.2504728319
    24 OT LS       0.12E+00    7.0                    -8144.2504425901
    25 OT CG       0.97E-01   13.9     0.00000751     -8144.2504773657 -5.32E-05

  *** SCF run converged in    25 steps ***


  Electronic density on regular grids:      -1437.9999922953        0.0000077047
  Core density on regular grids:             1437.9999996445       -0.0000003555
  Total charge density on r-space grids:        0.0000073492
  Total charge density g-space grids:           0.0000073492

  Overlap energy of the core charge distribution:               0.00000935710152
  Self energy of the core charge distribution:             -14650.93922905635191
  Core Hamiltonian energy:                                   4107.92109345149129
  Hartree energy:                                            3440.44351110886100
  Exchange-correlation energy:                              -1042.51909933185584
  Dispersion energy:                                           -0.58082812693663

  DFT+U energy:                                                 1.42406523194302

  Total energy:                                             -8144.25047736574834

  outer SCF iter =    1 RMS gradient =   0.75E-05 energy =      -8144.2504773657
  outer SCF loop converged in   1 iterations or   25 steps


  Integrated absolute spin density  :                             235.3424863674
  Ideal and single determinant S**2 :                    0.000000     127.883029

 ENERGY| Total FORCE_EVAL ( QS ) energy (a.u.):            -8144.250491915885505


 --------  Informations at step =     7 ------------
  Optimization Method        =                 BFGS
  Total Energy               =     -8144.2504919159
  Real energy change         =        -0.0124996026
  Predicted change in energy =        -0.0155519192
  Scaling factor             =         0.0000000000
  Step size                  =         0.2293005904
  Trust radius               =         0.4724315332
  Decrease in energy         =                  YES
  Used time                  =              268.124

  Convergence check :
  Max. step size             =         0.2293005904
  Conv. limit for step size  =         1.0000000000
  Convergence in step size   =                  YES
  RMS step size              =         0.0246428443
  Conv. limit for RMS step   =         1.0000000000
  Convergence in RMS step    =                  YES
  Max. gradient              =         0.0738270321
  Conv. limit for gradients  =         0.0100000000
  Conv. for gradients        =                   NO
  RMS gradient               =         0.0071411368
  Conv. limit for RMS grad.  =         1.0000000000
  Conv. in RMS gradients     =                  YES
 ---------------------------------------------------

 --------------------------
 OPTIMIZATION STEP:      8
 --------------------------

 Spin 1

 Number of electrons:                                                        719
 Number of occupied orbitals:                                                719
 Number of molecular orbitals:                                               719

 Spin 2

 Number of electrons:                                                        719
 Number of occupied orbitals:                                                719
 Number of molecular orbitals:                                               719

 Number of orbital functions:                                               2718
 Number of independent orbital functions:                                   2718

 Extrapolation method: PS Nth order


 SCF WAVEFUNCTION OPTIMIZATION

  ----------------------------------- OT ---------------------------------------
  Minimizer      : CG                  : conjugate gradient
  Preconditioner : FULL_ALL            : diagonalization, state selective
  Precond_solver : DEFAULT
  Line search    : 3PNT                : 3 energies
  stepsize       :    0.15000000                  energy_gap     :    0.08000000
  eps_taylor     :   0.10000E-15                  max_taylor     :             4
  ----------------------------------- OT ---------------------------------------

  Step     Update method      Time    Convergence         Total energy    Change
  ------------------------------------------------------------------------------
     1 OT CG       0.12E+00   11.7     0.00035766     -8144.1302922256 -8.14E+03
     2 OT LS       0.17E+00    6.9                    -8144.1784753323
     3 OT LS       0.30E+00    6.9                    -8144.1910947476
     4 OT CG       0.24E+00   14.0     0.00029647     -8144.2060241678 -7.57E-02
     5 OT LS       0.34E+00    7.1                    -8144.2171727860
     6 OT LS       0.14E+00    7.0                    -8144.1820019679
     7 OT CG       0.11E+00   14.0     0.00011544     -8144.2298744829 -2.39E-02
     8 OT LS       0.16E+00    7.0                    -8144.2328115083
     9 OT LS       0.11E+00    7.0                    -8144.2323544729
    10 OT CG       0.90E-01   14.0     0.00005847     -8144.2328115723 -2.94E-03
    11 OT LS       0.13E+00    7.0                    -8144.2335690956
    12 OT LS       0.12E+00    7.0                    -8144.2336210718
    13 OT CG       0.97E-01   14.0     0.00002952     -8144.2336224161 -8.11E-04
    14 OT LS       0.14E+00    7.0                    -8144.2338313844
    15 OT LS       0.13E+00    7.0                    -8144.2338468013
    16 OT CG       0.11E+00   14.0     0.00001453     -8144.2338470132 -2.25E-04
    17 OT LS       0.15E+00    6.9                    -8144.2339086810
    18 OT LS       0.18E+00    7.0                    -8144.2339191530
    19 OT CG       0.14E+00   14.0     0.00001037     -8144.2339216941 -7.47E-05
    20 OT LS       0.20E+00    6.9                    -8144.2339519540
    21 OT LS       0.14E+00    7.0                    -8144.2339469088
    22 OT CG       0.12E+00   13.9     0.00000751     -8144.2339519551 -3.03E-05

  *** SCF run converged in    22 steps ***


  Electronic density on regular grids:      -1437.9999922912        0.0000077088
  Core density on regular grids:             1437.9999996443       -0.0000003557
  Total charge density on r-space grids:        0.0000073531
  Total charge density g-space grids:           0.0000073531

  Overlap energy of the core charge distribution:               0.00001315713847
  Self energy of the core charge distribution:             -14650.93922905635191
  Core Hamiltonian energy:                                   4108.30562884737355
  Hartree energy:                                            3440.15734184475377
  Exchange-correlation energy:                              -1042.58996266941563
  Dispersion energy:                                           -0.58286121672392

  DFT+U energy:                                                 1.41511713815580

  Total energy:                                             -8144.23395195507237

  outer SCF iter =    1 RMS gradient =   0.75E-05 energy =      -8144.2339519551
  outer SCF loop converged in   1 iterations or   22 steps


  Integrated absolute spin density  :                             235.2489953057
  Ideal and single determinant S**2 :                    0.000000     127.847687

 ENERGY| Total FORCE_EVAL ( QS ) energy (a.u.):            -8144.233968835937958


 --------  Informations at step =     8 ------------
  Optimization Method        =                 BFGS
  Total Energy               =     -8144.2339688359
  Real energy change         =         0.0165230799
  Predicted change in energy =        -0.0235342705
  Scaling factor             =         0.0000000000
  Step size                  =         0.2131352949
  Trust radius               =         0.4724315332
  Decrease in energy         =                   NO
  Used time                  =              240.805

  Convergence check :
  Max. step size             =         0.2131352949
  Conv. limit for step size  =         1.0000000000
  Convergence in step size   =                  YES
  RMS step size              =         0.0311398765
  Conv. limit for RMS step   =         1.0000000000
  Convergence in RMS step    =                  YES
  Max. gradient              =         0.1201991078
  Conv. limit for gradients  =         0.0100000000
  Conv. for gradients        =                   NO
  RMS gradient               =         0.0079276216
  Conv. limit for RMS grad.  =         1.0000000000
  Conv. in RMS gradients     =                  YES
 ---------------------------------------------------

 --------------------------
 OPTIMIZATION STEP:      9
 --------------------------

 Spin 1

 Number of electrons:                                                        719
 Number of occupied orbitals:                                                719
 Number of molecular orbitals:                                               719

 Spin 2

 Number of electrons:                                                        719
 Number of occupied orbitals:                                                719
 Number of molecular orbitals:                                               719

 Number of orbital functions:                                               2718
 Number of independent orbital functions:                                   2718

 Extrapolation method: PS Nth order


 SCF WAVEFUNCTION OPTIMIZATION

  ----------------------------------- OT ---------------------------------------
  Minimizer      : CG                  : conjugate gradient
  Preconditioner : FULL_ALL            : diagonalization, state selective
  Precond_solver : DEFAULT
  Line search    : 3PNT                : 3 energies
  stepsize       :    0.15000000                  energy_gap     :    0.08000000
  eps_taylor     :   0.10000E-15                  max_taylor     :             4
  ----------------------------------- OT ---------------------------------------

  Step     Update method      Time    Convergence         Total energy    Change
  ------------------------------------------------------------------------------
     1 OT CG       0.12E+00   11.7     0.00044767     -8144.1246666364 -8.14E+03
     2 OT LS       0.17E+00    6.9                    -8144.1911976515
     3 OT LS       0.21E+00    6.9                    -8144.2024702170
     4 OT CG       0.16E+00   13.9     0.00034625     -8144.2052007743 -8.05E-02
     5 OT LS       0.23E+00    6.9                    -8144.2518028097
     6 OT LS       0.21E+00    6.9                    -8144.2533707587
     7 OT CG       0.17E+00   13.9     0.00014666     -8144.2539284228 -4.87E-02
     8 OT LS       0.23E+00    7.0                    -8144.2581840572
     9 OT LS       0.12E+00    6.9                    -8144.2544421954
    10 OT CG       0.96E-01   13.9     0.00005180     -8144.2589543154 -5.03E-03
    11 OT LS       0.13E+00    6.9                    -8144.2596138407
    12 OT LS       0.14E+00    6.9                    -8144.2596852391
    13 OT CG       0.11E+00   13.9     0.00003654     -8144.2596864753 -7.32E-04
    14 OT LS       0.16E+00    6.9                    -8144.2600198952
    15 OT LS       0.13E+00    7.0                    -8144.2600131189
    16 OT CG       0.10E+00   13.9     0.00001544     -8144.2600268082 -3.40E-04
    17 OT LS       0.15E+00    6.9                    -8144.2600924623
    18 OT LS       0.16E+00    6.9                    -8144.2601010563
    19 OT CG       0.13E+00   14.0     0.00000974     -8144.2601016787 -7.49E-05

  *** SCF run converged in    19 steps ***


  Electronic density on regular grids:      -1437.9999922901        0.0000077099
  Core density on regular grids:             1437.9999996446       -0.0000003554
  Total charge density on r-space grids:        0.0000073545
  Total charge density g-space grids:           0.0000073545

  Overlap energy of the core charge distribution:               0.00000247043981
  Self energy of the core charge distribution:             -14650.93922905635191
  Core Hamiltonian energy:                                   4107.65584121845040
  Hartree energy:                                            3440.62598657458921
  Exchange-correlation energy:                              -1042.44496141407785
  Dispersion energy:                                           -0.58202092847944

  DFT+U energy:                                                 1.42427945677488

  Total energy:                                             -8144.26010167865388

  outer SCF iter =    1 RMS gradient =   0.97E-05 energy =      -8144.2601016787
  outer SCF loop converged in   1 iterations or   19 steps


  Integrated absolute spin density  :                             235.3168534486
  Ideal and single determinant S**2 :                    0.000000     127.879301

 ENERGY| Total FORCE_EVAL ( QS ) energy (a.u.):            -8144.260137914584448


 --------  Informations at step =     9 ------------
  Optimization Method        =                 BFGS
  Total Energy               =     -8144.2601379146
  Real energy change         =        -0.0261690786
  Predicted change in energy =        -0.0293145575
  Scaling factor             =         0.0000000000
  Step size                  =         0.2089106394
  Trust radius               =         0.4724315332
  Decrease in energy         =                  YES
  Used time                  =              211.567

  Convergence check :
  Max. step size             =         0.2089106394
  Conv. limit for step size  =         1.0000000000
  Convergence in step size   =                  YES
  RMS step size              =         0.0268519050
  Conv. limit for RMS step   =         1.0000000000
  Convergence in RMS step    =                  YES
  Max. gradient              =         0.0766837193
  Conv. limit for gradients  =         0.0100000000
  Conv. for gradients        =                   NO
  RMS gradient               =         0.0061118383
  Conv. limit for RMS grad.  =         1.0000000000
  Conv. in RMS gradients     =                  YES
 ---------------------------------------------------

 --------------------------
 OPTIMIZATION STEP:     10
 --------------------------

 Spin 1

 Number of electrons:                                                        719
 Number of occupied orbitals:                                                719
 Number of molecular orbitals:                                               719

 Spin 2

 Number of electrons:                                                        719
 Number of occupied orbitals:                                                719
 Number of molecular orbitals:                                               719

 Number of orbital functions:                                               2718
 Number of independent orbital functions:                                   2718

 Extrapolation method: PS Nth order


 SCF WAVEFUNCTION OPTIMIZATION

  ----------------------------------- OT ---------------------------------------
  Minimizer      : CG                  : conjugate gradient
  Preconditioner : FULL_ALL            : diagonalization, state selective
  Precond_solver : DEFAULT
  Line search    : 3PNT                : 3 energies
  stepsize       :    0.15000000                  energy_gap     :    0.08000000
  eps_taylor     :   0.10000E-15                  max_taylor     :             4
  ----------------------------------- OT ---------------------------------------

  Step     Update method      Time    Convergence         Total energy    Change
  ------------------------------------------------------------------------------
     1 OT CG       0.12E+00   11.7     0.00068026     -8143.9381184640 -8.14E+03
     2 OT LS       0.17E+00    6.9                    -8144.0991438726
     3 OT LS       0.23E+00    7.0                    -8144.1320144658
     4 OT CG       0.19E+00   14.0     0.00056156     -8144.1477979183 -2.10E-01
     5 OT LS       0.26E+00    7.1                    -8144.2549490642
     6 OT LS       0.18E+00    7.0                    -8144.2328023268
     7 OT CG       0.14E+00   14.0     0.00022213     -8144.2551820050 -1.07E-01
     8 OT LS       0.20E+00    7.0                    -8144.2641032896
     9 OT LS       0.10E+00    7.0                    -8144.2570849112
    10 OT CG       0.84E-01   14.0     0.00007595     -8144.2653717692 -1.02E-02
    11 OT LS       0.12E+00    7.1                    -8144.2668100212
    12 OT LS       0.17E+00    7.0                    -8144.2671254717
    13 OT CG       0.14E+00   14.0     0.00005420     -8144.2673209135 -1.95E-03
    14 OT LS       0.19E+00    7.0                    -8144.2679341437
    15 OT LS       0.11E+00    7.0                    -8144.2676409422
    16 OT CG       0.90E-01   14.0     0.00002390     -8144.2679658964 -6.45E-04
    17 OT LS       0.13E+00    7.0                    -8144.2681055635
    18 OT LS       0.15E+00    7.0                    -8144.2681270680
    19 OT CG       0.12E+00   14.0     0.00001399     -8144.2681305389 -1.65E-04
    20 OT LS       0.17E+00    7.0                    -8144.2681955236
    21 OT LS       0.21E+00    7.0                    -8144.2682073218
    22 OT CG       0.17E+00   14.1     0.00000978     -8144.2682110186 -8.05E-05

  *** SCF run converged in    22 steps ***


  Electronic density on regular grids:      -1437.9999922818        0.0000077182
  Core density on regular grids:             1437.9999996445       -0.0000003555
  Total charge density on r-space grids:        0.0000073627
  Total charge density g-space grids:           0.0000073627

  Overlap energy of the core charge distribution:               0.00000461929500
  Self energy of the core charge distribution:             -14650.93922905635191
  Core Hamiltonian energy:                                   4107.61628635424313
  Hartree energy:                                            3440.64749321975296
  Exchange-correlation energy:                              -1042.44125294995297
  Dispersion energy:                                           -0.58356782393977

  DFT+U energy:                                                 1.43205461837352

  Total energy:                                             -8144.26821101858150

  outer SCF iter =    1 RMS gradient =   0.98E-05 energy =      -8144.2682110186
  outer SCF loop converged in   1 iterations or   22 steps


  Integrated absolute spin density  :                             235.3032721833
  Ideal and single determinant S**2 :                    0.000000     127.873537

 ENERGY| Total FORCE_EVAL ( QS ) energy (a.u.):            -8144.268243735406031


 --------  Informations at step =    10 ------------
  Optimization Method        =                 BFGS
  Total Energy               =     -8144.2682437354
  Real energy change         =        -0.0081058208
  Predicted change in energy =        -0.0125922448
  Scaling factor             =         0.0000000000
  Step size                  =         0.0952309050
  Trust radius               =         0.4724315332
  Decrease in energy         =                  YES
  Used time                  =              241.877

  Convergence check :
  Max. step size             =         0.0952309050
  Conv. limit for step size  =         1.0000000000
  Convergence in step size   =                  YES
  RMS step size              =         0.0154106257
  Conv. limit for RMS step   =         1.0000000000
  Convergence in RMS step    =                  YES
  Max. gradient              =         0.0337705163
  Conv. limit for gradients  =         0.0100000000
  Conv. for gradients        =                   NO
  RMS gradient               =         0.0047825235
  Conv. limit for RMS grad.  =         1.0000000000
  Conv. in RMS gradients     =                  YES
 ---------------------------------------------------

 --------------------------
 OPTIMIZATION STEP:     11
 --------------------------

 Spin 1

 Number of electrons:                                                        719
 Number of occupied orbitals:                                                719
 Number of molecular orbitals:                                               719

 Spin 2

 Number of electrons:                                                        719
 Number of occupied orbitals:                                                719
 Number of molecular orbitals:                                               719

 Number of orbital functions:                                               2718
 Number of independent orbital functions:                                   2718

 Extrapolation method: PS Nth order


 SCF WAVEFUNCTION OPTIMIZATION

  ----------------------------------- OT ---------------------------------------
  Minimizer      : CG                  : conjugate gradient
  Preconditioner : FULL_ALL            : diagonalization, state selective
  Precond_solver : DEFAULT
  Line search    : 3PNT                : 3 energies
  stepsize       :    0.15000000                  energy_gap     :    0.08000000
  eps_taylor     :   0.10000E-15                  max_taylor     :             4
  ----------------------------------- OT ---------------------------------------

  Step     Update method      Time    Convergence         Total energy    Change
  ------------------------------------------------------------------------------
     1 OT CG       0.12E+00   11.7     0.00033809     -8144.1201181531 -8.14E+03
     2 OT LS       0.17E+00    6.9                    -8144.1584841964
     3 OT LS       0.21E+00    6.9                    -8144.1651725435
     4 OT CG       0.17E+00   13.9     0.00028846     -8144.1669036635 -4.68E-02
     5 OT LS       0.23E+00    6.9                    -8144.1963005553
     6 OT LS       0.19E+00    6.9                    -8144.1946279157
     7 OT CG       0.15E+00   13.9     0.00011726     -8144.1965894095 -2.97E-02
     8 OT LS       0.21E+00    6.9                    -8144.1994523810
     9 OT LS       0.12E+00    6.9                    -8144.1977101172
    10 OT CG       0.93E-01   13.9     0.00005181     -8144.1997044638 -3.12E-03
    11 OT LS       0.13E+00    6.9                    -8144.2003882793
    12 OT LS       0.16E+00    6.9                    -8144.2004998504
    13 OT CG       0.12E+00   13.9     0.00003511     -8144.2005227679 -8.18E-04
    14 OT LS       0.17E+00    6.9                    -8144.2008804646
    15 OT LS       0.15E+00    6.9                    -8144.2008881132
    16 OT CG       0.12E+00   13.9     0.00002779     -8144.2008943375 -3.72E-04
    17 OT LS       0.17E+00    6.9                    -8144.2011765891
    18 OT LS       0.25E+00    6.9                    -8144.2012388430
    19 OT CG       0.20E+00   13.9     0.00003082     -8144.2012785041 -3.84E-04
    20 OT LS       0.29E+00    7.0                    -8144.2018297093
    21 OT LS       0.37E+00    6.9                    -8144.2019338038
    22 OT CG       0.30E+00   13.9     0.00003900     -8144.2019702163 -6.92E-04
    23 OT LS       0.42E+00    7.0                    -8144.2023869480
    24 OT LS       0.19E+00    7.0                    -8144.2017927292
    25 OT CG       0.16E+00   13.9     0.00003380     -8144.2025485565 -5.78E-04
    26 OT LS       0.22E+00    7.0                    -8144.2029103421
    27 OT LS       0.16E+00    7.0                    -8144.2028690084
    28 OT CG       0.13E+00   13.9     0.00002783     -8144.2029109794 -3.62E-04
    29 OT LS       0.18E+00    7.0                    -8144.2031787081
    30 OT LS       0.20E+00    7.0                    -8144.2032160810
    31 OT CG       0.16E+00   13.9     0.00002104     -8144.2032199910 -3.09E-04
    32 OT LS       0.23E+00    7.0                    -8144.2034038836
    33 OT LS       0.23E+00    7.0                    -8144.2034221181
    34 OT CG       0.19E+00   14.0     0.00001771     -8144.2034222264 -2.02E-04
    35 OT LS       0.26E+00    7.0                    -8144.2035525985
    36 OT LS       0.22E+00    7.0                    -8144.2035489470
    37 OT CG       0.17E+00   14.0     0.00001501     -8144.2035549690 -1.33E-04
    38 OT LS       0.24E+00    7.0                    -8144.2036435072
    39 OT LS       0.21E+00    7.0                    -8144.2036436653
    40 OT CG       0.17E+00   14.0     0.00001291     -8144.2036460757 -9.11E-05
    41 OT LS       0.23E+00    6.9                    -8144.2037118723
    42 OT LS       0.21E+00    7.0                    -8144.2037144255
    43 OT CG       0.17E+00   14.0     0.00001219     -8144.2037150781 -6.90E-05
    44 OT LS       0.24E+00    7.0                    -8144.2037685412
    45 OT LS       0.19E+00    7.0                    -8144.2037645871
    46 OT CG       0.15E+00   14.0     0.00001050     -8144.2037689158 -5.38E-05
    47 OT LS       0.21E+00    7.0                    -8144.2038098242
    48 OT LS       0.21E+00    7.0                    -8144.2038133996
    49 OT CG       0.17E+00   14.0     0.00000992     -8144.2038133997 -4.45E-05

  *** SCF run converged in    49 steps ***


  Electronic density on regular grids:      -1437.9999922962        0.0000077038
  Core density on regular grids:             1437.9999996446       -0.0000003554
  Total charge density on r-space grids:        0.0000073485
  Total charge density g-space grids:           0.0000073485

  Overlap energy of the core charge distribution:               0.00003161107915
  Self energy of the core charge distribution:             -14650.93922905635191
  Core Hamiltonian energy:                                   4107.52174296526937
  Hartree energy:                                            3440.72375788708314
  Exchange-correlation energy:                              -1042.41302004499539
  Dispersion energy:                                           -0.57497520233807

  DFT+U energy:                                                 1.47787844054061

  Total energy:                                             -8144.20381339971300

  outer SCF iter =    1 RMS gradient =   0.99E-05 energy =      -8144.2038133997
  outer SCF loop converged in   1 iterations or   49 steps


  Integrated absolute spin density  :                             234.9929966693
  Ideal and single determinant S**2 :                    0.000000     127.876513

 ENERGY| Total FORCE_EVAL ( QS ) energy (a.u.):            -8144.203859154304155


 --------  Informations at step =    11 ------------
  Optimization Method        =                 BFGS
  Total Energy               =     -8144.2038591543
  Real energy change         =         0.0643845811
  Predicted change in energy =        -0.0358023051
  Scaling factor             =         0.0000000000
  Step size                  =         0.3947727394
  Trust radius               =         0.4724315332
  Decrease in energy         =                   NO
  Used time                  =              489.776

  Convergence check :
  Max. step size             =         0.3947727394
  Conv. limit for step size  =         1.0000000000
  Convergence in step size   =                  YES
  RMS step size              =         0.0554162319
  Conv. limit for RMS step   =         1.0000000000
  Convergence in RMS step    =                  YES
  Max. gradient              =         0.2313948540
  Conv. limit for gradients  =         0.0100000000
  Conv. for gradients        =                   NO
  RMS gradient               =         0.0149261353
  Conv. limit for RMS grad.  =         1.0000000000
  Conv. in RMS gradients     =                  YES
 ---------------------------------------------------

 --------------------------
 OPTIMIZATION STEP:     12
 --------------------------

 Spin 1

 Number of electrons:                                                        719
 Number of occupied orbitals:                                                719
 Number of molecular orbitals:                                               719

 Spin 2

 Number of electrons:                                                        719
 Number of occupied orbitals:                                                719
 Number of molecular orbitals:                                               719

 Number of orbital functions:                                               2718
 Number of independent orbital functions:                                   2718

 Extrapolation method: PS Nth order


 SCF WAVEFUNCTION OPTIMIZATION

  ----------------------------------- OT ---------------------------------------
  Minimizer      : CG                  : conjugate gradient
  Preconditioner : FULL_ALL            : diagonalization, state selective
  Precond_solver : DEFAULT
  Line search    : 3PNT                : 3 energies
  stepsize       :    0.15000000                  energy_gap     :    0.08000000
  eps_taylor     :   0.10000E-15                  max_taylor     :             4
  ----------------------------------- OT ---------------------------------------

  Step     Update method      Time    Convergence         Total energy    Change
  ------------------------------------------------------------------------------
     1 OT CG       0.12E+00   11.8     0.00127776     -8143.5283962957 -8.14E+03
     2 OT LS       0.17E+00    7.0                    -8143.9647789304
     3 OT LS       0.14E+00    7.1                    -8143.9616034367
     4 OT CG       0.11E+00   14.0     0.00069419     -8143.9753321952 -4.47E-01
     5 OT LS       0.16E+00    7.0                    -8144.1415671839
     6 OT LS       0.26E+00    7.1                    -8144.1813301743
     7 OT CG       0.20E+00   14.0     0.00045777     -8144.2154543852 -2.40E-01
     8 OT LS       0.29E+00    7.0                    -8144.2424451240
     9 OT LS       0.12E+00    7.1                    -8144.1810454253
    10 OT CG       0.99E-01   14.0     0.00015610     -8144.2638255644 -4.84E-02
    11 OT LS       0.14E+00    7.0                    -8144.2696468793
    12 OT LS       0.13E+00    7.1                    -8144.2700793770
    13 OT CG       0.11E+00   14.0     0.00009322     -8144.2700847042 -6.26E-03
    14 OT LS       0.15E+00    7.0                    -8144.2722710848
    15 OT LS       0.13E+00    7.1                    -8144.2723264633
    16 OT CG       0.11E+00   14.0     0.00005718     -8144.2723603908 -2.28E-03
    17 OT LS       0.15E+00    7.0                    -8144.2732765621
    18 OT LS       0.16E+00    7.0                    -8144.2733876064
    19 OT CG       0.13E+00   14.0     0.00003307     -8144.2733925220 -1.03E-03
    20 OT LS       0.18E+00    7.1                    -8144.2737650961
    21 OT LS       0.20E+00    7.0                    -8144.2738137255
    22 OT CG       0.16E+00   14.0     0.00002453     -8144.2738171911 -4.25E-04
    23 OT LS       0.22E+00    7.1                    -8144.2740393164
    24 OT LS       0.20E+00    7.0                    -8144.2740429964
    25 OT CG       0.16E+00   14.0     0.00002078     -8144.2740473839 -2.30E-04
    26 OT LS       0.22E+00    7.1                    -8144.2741609800
    27 OT LS       0.14E+00    7.1                    -8144.2741222840
    28 OT CG       0.11E+00   14.0     0.00001436     -8144.2741632229 -1.16E-04
    29 OT LS       0.15E+00    7.1                    -8144.2742286788
    30 OT LS       0.21E+00    7.1                    -8144.2742419321
    31 OT CG       0.17E+00   14.0     0.00001237     -8144.2742481114 -8.49E-05
    32 OT LS       0.24E+00    7.1                    -8144.2743142637
    33 OT LS       0.25E+00    7.1                    -8144.2743212893
    34 OT CG       0.20E+00   14.0     0.00001046     -8144.2743213859 -7.33E-05
    35 OT LS       0.27E+00    7.1                    -8144.2743533255
    36 OT LS       0.16E+00    7.1                    -8144.2743370389
    37 OT CG       0.13E+00   14.0     0.00000826     -8144.2743552421 -3.39E-05

  *** SCF run converged in    37 steps ***


  Electronic density on regular grids:      -1437.9999923132        0.0000076868
  Core density on regular grids:             1437.9999996446       -0.0000003554
  Total charge density on r-space grids:        0.0000073315
  Total charge density g-space grids:           0.0000073315

  Overlap energy of the core charge distribution:               0.00000634625153
  Self energy of the core charge distribution:             -14650.93922905635191
  Core Hamiltonian energy:                                   4107.18232435051050
  Hartree energy:                                            3440.96532287489754
  Exchange-correlation energy:                              -1042.37291224323985
  Dispersion energy:                                           -0.58120994581947

  DFT+U energy:                                                 1.47134243165127

  Total energy:                                             -8144.27435524209886

  outer SCF iter =    1 RMS gradient =   0.83E-05 energy =      -8144.2743552421
  outer SCF loop converged in   1 iterations or   37 steps


  Integrated absolute spin density  :                             235.0041751022
  Ideal and single determinant S**2 :                    0.000000     127.907630

 ENERGY| Total FORCE_EVAL ( QS ) energy (a.u.):            -8144.274378421569963


 --------  Informations at step =    12 ------------
  Optimization Method        =                 BFGS
  Total Energy               =     -8144.2743784216
  Real energy change         =        -0.0705192673
  Predicted change in energy =        -0.0472933301
  Scaling factor             =         0.0000000000
  Step size                  =         0.1604067364
  Trust radius               =         0.4724315332
  Decrease in energy         =                  YES
  Used time                  =              383.312

  Convergence check :
  Max. step size             =         0.1604067364
  Conv. limit for step size  =         1.0000000000
  Convergence in step size   =                  YES
  RMS step size              =         0.0292880632
  Conv. limit for RMS step   =         1.0000000000
  Convergence in RMS step    =                  YES
  Max. gradient              =         0.0404035645
  Conv. limit for gradients  =         0.0100000000
  Conv. for gradients        =                   NO
  RMS gradient               =         0.0061828381
  Conv. limit for RMS grad.  =         1.0000000000
  Conv. in RMS gradients     =                  YES
 ---------------------------------------------------

 --------------------------
 OPTIMIZATION STEP:     13
 --------------------------

  Step is scaled; Scaling factor =  0.72611

 Spin 1

 Number of electrons:                                                        719
 Number of occupied orbitals:                                                719
 Number of molecular orbitals:                                               719

 Spin 2

 Number of electrons:                                                        719
 Number of occupied orbitals:                                                719
 Number of molecular orbitals:                                               719

 Number of orbital functions:                                               2718
 Number of independent orbital functions:                                   2718

 Extrapolation method: PS Nth order


 SCF WAVEFUNCTION OPTIMIZATION

  ----------------------------------- OT ---------------------------------------
  Minimizer      : CG                  : conjugate gradient
  Preconditioner : FULL_ALL            : diagonalization, state selective
  Precond_solver : DEFAULT
  Line search    : 3PNT                : 3 energies
  stepsize       :    0.15000000                  energy_gap     :    0.08000000
  eps_taylor     :   0.10000E-15                  max_taylor     :             4
  ----------------------------------- OT ---------------------------------------

  Step     Update method      Time    Convergence         Total energy    Change
  ------------------------------------------------------------------------------
     1 OT CG       0.12E+00   11.7     0.00113158     -8143.8759414650 -8.14E+03
     2 OT LS       0.17E+00    7.0                    -8144.0028602054
     3 OT LS       0.85E-01    7.0                    -8143.8824597365
     4 OT CG       0.68E-01   13.9     0.00048558     -8144.0519829876 -1.76E-01
     5 OT LS       0.95E-01    7.0                    -8144.0942080446
     6 OT LS       0.23E+00    7.0                    -8144.1069227788
     7 OT CG       0.18E+00   13.9     0.00038133     -8144.1349353907 -8.30E-02
     8 OT LS       0.25E+00    7.0                    -8144.1653017649
     9 OT LS       0.13E+00    7.0                    -8144.1364118621
    10 OT CG       0.10E+00   13.9     0.00013950     -8144.1715531708 -3.66E-02
    11 OT LS       0.14E+00    7.0                    -8144.1762961264
    12 OT LS       0.13E+00    7.0                    -8144.1764864367
    13 OT CG       0.10E+00   13.9     0.00007723     -8144.1765314480 -4.98E-03
    14 OT LS       0.15E+00    7.0                    -8144.1782400256
    15 OT LS       0.17E+00    7.0                    -8144.1785147749
    16 OT CG       0.14E+00   13.9     0.00005617     -8144.1785689945 -2.04E-03
    17 OT LS       0.20E+00    7.0                    -8144.1795833350
    18 OT LS       0.17E+00    7.1                    -8144.1795846680
    19 OT CG       0.13E+00   13.9     0.00004136     -8144.1796131355 -1.04E-03
    20 OT LS       0.19E+00    7.0                    -8144.1801007831
    21 OT LS       0.15E+00    6.9                    -8144.1800646497
    22 OT CG       0.12E+00   13.9     0.00003111     -8144.1801041750 -4.91E-04
    23 OT LS       0.16E+00    6.9                    -8144.1804334698
    24 OT LS       0.23E+00    7.0                    -8144.1805010868
    25 OT CG       0.18E+00   13.9     0.00002507     -8144.1805347026 -4.31E-04
    26 OT LS       0.26E+00    7.0                    -8144.1807644057
    27 OT LS       0.19E+00    7.0                    -8144.1807336205
    28 OT CG       0.15E+00   13.9     0.00001755     -8144.1807645346 -2.30E-04
    29 OT LS       0.21E+00    7.0                    -8144.1808697872
    30 OT LS       0.18E+00    7.0                    -8144.1808702307
    31 OT CG       0.14E+00   13.9     0.00001475     -8144.1808729890 -1.08E-04
    32 OT LS       0.20E+00    7.0                    -8144.1809472731
    33 OT LS       0.18E+00    7.0                    -8144.1809499404
    34 OT CG       0.15E+00   13.9     0.00001097     -8144.1809507686 -7.78E-05
    35 OT LS       0.20E+00    6.9                    -8144.1809886448
    36 OT LS       0.16E+00    7.0                    -8144.1809864915
    37 OT CG       0.13E+00   13.9     0.00000733     -8144.1809890379 -3.83E-05

  *** SCF run converged in    37 steps ***


  Electronic density on regular grids:      -1437.9999923043        0.0000076957
  Core density on regular grids:             1437.9999996453       -0.0000003547
  Total charge density on r-space grids:        0.0000073410
  Total charge density g-space grids:           0.0000073410

  Overlap energy of the core charge distribution:               0.00000120365636
  Self energy of the core charge distribution:             -14650.93922905635191
  Core Hamiltonian energy:                                   4106.93497917921286
  Hartree energy:                                            3441.19927068516517
  Exchange-correlation energy:                              -1042.27467361904883
  Dispersion energy:                                           -0.56876589688512

  DFT+U energy:                                                 1.46742846636684

  Total energy:                                             -8144.18098903788450

  outer SCF iter =    1 RMS gradient =   0.73E-05 energy =      -8144.1809890379
  outer SCF loop converged in   1 iterations or   37 steps


  Integrated absolute spin density  :                             234.9809108085
  Ideal and single determinant S**2 :                    0.000000     127.883548

 ENERGY| Total FORCE_EVAL ( QS ) energy (a.u.):            -8144.181008213357927


 --------  Informations at step =    13 ------------
  Optimization Method        =                 BFGS
  Total Energy               =     -8144.1810082134
  Real energy change         =         0.0933702082
  Predicted change in energy =        -0.1116374253
  Scaling factor             =         0.7261119794
  Step size                  =         0.4724315332
  Trust radius               =         0.4724315332
  Decrease in energy         =                   NO
  Used time                  =              379.792

  Convergence check :
  Max. step size             =         0.4724315332
  Conv. limit for step size  =         1.0000000000
  Convergence in step size   =                  YES
  RMS step size              =         0.0792078357
  Conv. limit for RMS step   =         1.0000000000
  Convergence in RMS step    =                  YES
  Max. gradient              =         0.1853004244
  Conv. limit for gradients  =         0.0100000000
  Conv. for gradients        =                   NO
  RMS gradient               =         0.0149159379
  Conv. limit for RMS grad.  =         1.0000000000
  Conv. in RMS gradients     =                  YES
 ---------------------------------------------------

 --------------------------
 OPTIMIZATION STEP:     14
 --------------------------

 Spin 1

 Number of electrons:                                                        719
 Number of occupied orbitals:                                                719
 Number of molecular orbitals:                                               719

 Spin 2

 Number of electrons:                                                        719
 Number of occupied orbitals:                                                719
 Number of molecular orbitals:                                               719

 Number of orbital functions:                                               2718
 Number of independent orbital functions:                                   2718

 Extrapolation method: PS Nth order


 SCF WAVEFUNCTION OPTIMIZATION

  ----------------------------------- OT ---------------------------------------
  Minimizer      : CG                  : conjugate gradient
  Preconditioner : FULL_ALL            : diagonalization, state selective
  Precond_solver : DEFAULT
  Line search    : 3PNT                : 3 energies
  stepsize       :    0.15000000                  energy_gap     :    0.08000000
  eps_taylor     :   0.10000E-15                  max_taylor     :             4
  ----------------------------------- OT ---------------------------------------

  Step     Update method      Time    Convergence         Total energy    Change
  ------------------------------------------------------------------------------
     1 OT CG       0.12E+00   11.8     0.00127353     -8143.1628995047 -8.14E+03
     2 OT LS       0.17E+00    7.0                    -8143.7207539858
     3 OT LS       0.23E+00    7.0                    -8143.8317506380
     4 OT CG       0.18E+00   14.0     0.00102213     -8143.8823877430 -7.19E-01
     5 OT LS       0.25E+00    7.0                    -8144.2407405577
     6 OT LS       0.18E+00    7.1                    -8144.1706847428
     7 OT CG       0.14E+00   14.0     0.00044078     -8144.2411663846 -3.59E-01
     8 OT LS       0.20E+00    7.1                    -8144.2810674735
     9 OT LS       0.11E+00    7.0                    -8144.2585906980
    10 OT CG       0.89E-01   14.0     0.00020102     -8144.2839415940 -4.28E-02
    11 OT LS       0.12E+00    7.1                    -8144.2939374679
    12 OT LS       0.15E+00    7.1                    -8144.2956019956
    13 OT CG       0.12E+00   14.0     0.00013896     -8144.2959764428 -1.20E-02
    14 OT LS       0.17E+00    7.1                    -8144.3008692040
    15 OT LS       0.13E+00    7.1                    -8144.3004328284
    16 OT CG       0.10E+00   14.0     0.00006809     -8144.3008917872 -4.92E-03
    17 OT LS       0.15E+00    7.0                    -8144.3021906453
    18 OT LS       0.17E+00    7.0                    -8144.3023802192
    19 OT CG       0.13E+00   14.0     0.00004326     -8144.3024039623 -1.51E-03
    20 OT LS       0.19E+00    7.0                    -8144.3030693847
    21 OT LS       0.21E+00    7.0                    -8144.3031618068
    22 OT CG       0.17E+00   14.0     0.00003376     -8144.3031708277 -7.67E-04
    23 OT LS       0.23E+00    7.0                    -8144.3033988704
    24 OT LS       0.12E+00    7.0                    -8144.3032003991
    25 OT CG       0.97E-01   14.0     0.00001978     -8144.3034393589 -2.69E-04
    26 OT LS       0.14E+00    7.0                    -8144.3035390340
    27 OT LS       0.15E+00    7.0                    -8144.3035519049
    28 OT CG       0.12E+00   14.0     0.00001262     -8144.3035527629 -1.13E-04
    29 OT LS       0.17E+00    7.0                    -8144.3036035740
    30 OT LS       0.19E+00    7.0                    -8144.3036109803
    31 OT CG       0.15E+00   14.0     0.00000813     -8144.3036119146 -5.92E-05

  *** SCF run converged in    31 steps ***


  Electronic density on regular grids:      -1437.9999923060        0.0000076940
  Core density on regular grids:             1437.9999996444       -0.0000003556
  Total charge density on r-space grids:        0.0000073384
  Total charge density g-space grids:           0.0000073384

  Overlap energy of the core charge distribution:               0.00000470479123
  Self energy of the core charge distribution:             -14650.93922905635191
  Core Hamiltonian energy:                                   4107.09794137193239
  Hartree energy:                                            3441.01170094871168
  Exchange-correlation energy:                              -1042.36716667969063
  Dispersion energy:                                           -0.57433683465434

  DFT+U energy:                                                 1.46747363069057

  Total energy:                                             -8144.30361191457268

  outer SCF iter =    1 RMS gradient =   0.81E-05 energy =      -8144.3036119146
  outer SCF loop converged in   1 iterations or   31 steps


  Integrated absolute spin density  :                             235.0790736579
  Ideal and single determinant S**2 :                    0.000000     127.927630

 ENERGY| Total FORCE_EVAL ( QS ) energy (a.u.):            -8144.303635129164832


 --------  Informations at step =    14 ------------
  Optimization Method        =                 BFGS
  Total Energy               =     -8144.3036351292
  Real energy change         =        -0.1226269158
  Predicted change in energy =        -0.0958021297
  Scaling factor             =         0.7261119794
  Step size                  =         0.2465256598
  Trust radius               =         0.4724315332
  Decrease in energy         =                  YES
  Used time                  =              326.140

  Convergence check :
  Max. step size             =         0.2465256598
  Conv. limit for step size  =         1.0000000000
  Convergence in step size   =                  YES
  RMS step size              =         0.0451697785
  Conv. limit for RMS step   =         1.0000000000
  Convergence in RMS step    =                  YES
  Max. gradient              =         0.0486205476
  Conv. limit for gradients  =         0.0100000000
  Conv. for gradients        =                   NO
  RMS gradient               =         0.0068111941
  Conv. limit for RMS grad.  =         1.0000000000
  Conv. in RMS gradients     =                  YES
 ---------------------------------------------------

 --------------------------
 OPTIMIZATION STEP:     15
 --------------------------

  Step is scaled; Scaling factor =  0.76397

 Spin 1

 Number of electrons:                                                        719
 Number of occupied orbitals:                                                719
 Number of molecular orbitals:                                               719

 Spin 2

 Number of electrons:                                                        719
 Number of occupied orbitals:                                                719
 Number of molecular orbitals:                                               719

 Number of orbital functions:                                               2718
 Number of independent orbital functions:                                   2718

 Extrapolation method: PS Nth order


 SCF WAVEFUNCTION OPTIMIZATION

  ----------------------------------- OT ---------------------------------------
  Minimizer      : CG                  : conjugate gradient
  Preconditioner : FULL_ALL            : diagonalization, state selective
  Precond_solver : DEFAULT
  Line search    : 3PNT                : 3 energies
  stepsize       :    0.15000000                  energy_gap     :    0.08000000
  eps_taylor     :   0.10000E-15                  max_taylor     :             4
  ----------------------------------- OT ---------------------------------------

  Step     Update method      Time    Convergence         Total energy    Change
  ------------------------------------------------------------------------------
     1 OT CG       0.12E+00   11.6     0.00079841     -8143.7917798045 -8.14E+03
     2 OT LS       0.17E+00    6.9                    -8143.9956436399
     3 OT LS       0.19E+00    6.8                    -8144.0251878876
     4 OT CG       0.15E+00   14.0     0.00056080     -8144.0291397041 -2.37E-01
     5 OT LS       0.21E+00    7.0                    -8144.1517211274
     6 OT LS       0.21E+00    7.0                    -8144.1623575043
     7 OT CG       0.17E+00   14.0     0.00027047     -8144.1623625490 -1.33E-01
     8 OT LS       0.24E+00    7.0                    -8144.1695607825
     9 OT LS       0.10E+00    7.0                    -8144.1496801717
    10 OT CG       0.81E-01   13.9     0.00014105     -8144.1765776618 -1.42E-02
    11 OT LS       0.11E+00    7.0                    -8144.1810575862
    12 OT LS       0.14E+00    7.0                    -8144.1818711676
    13 OT CG       0.11E+00   14.0     0.00006938     -8144.1821266456 -5.55E-03
    14 OT LS       0.16E+00    7.0                    -8144.1833192066
    15 OT LS       0.13E+00    7.0                    -8144.1832551036
    16 OT CG       0.10E+00   14.0     0.00003107     -8144.1833324008 -1.21E-03
    17 OT LS       0.14E+00    7.0                    -8144.1835978752
    18 OT LS       0.16E+00    7.0                    -8144.1836358741
    19 OT CG       0.13E+00   14.0     0.00002314     -8144.1836402573 -3.08E-04
    20 OT LS       0.18E+00    7.0                    -8144.1837809433
    21 OT LS       0.13E+00    7.0                    -8144.1837630221
    22 OT CG       0.11E+00   13.9     0.00001352     -8144.1837810703 -1.41E-04
    23 OT LS       0.15E+00    7.1                    -8144.1838296389
    24 OT LS       0.15E+00    7.0                    -8144.1838331960
    25 OT CG       0.12E+00   13.9     0.00000812     -8144.1838332489 -5.22E-05

  *** SCF run converged in    25 steps ***


  Electronic density on regular grids:      -1437.9999922886        0.0000077114
  Core density on regular grids:             1437.9999996453       -0.0000003547
  Total charge density on r-space grids:        0.0000073567
  Total charge density g-space grids:           0.0000073567

  Overlap energy of the core charge distribution:               0.00003155661982
  Self energy of the core charge distribution:             -14650.93922905635191
  Core Hamiltonian energy:                                   4107.52683442518901
  Hartree energy:                                            3440.72878589058701
  Exchange-correlation energy:                              -1042.41363440983287
  Dispersion energy:                                           -0.57107286871394

  DFT+U energy:                                                 1.48445121364012

  Total energy:                                             -8144.18383324886236

  outer SCF iter =    1 RMS gradient =   0.81E-05 energy =      -8144.1838332489
  outer SCF loop converged in   1 iterations or   25 steps


  Integrated absolute spin density  :                             235.0568144611
  Ideal and single determinant S**2 :                    0.000000     127.900490

 ENERGY| Total FORCE_EVAL ( QS ) energy (a.u.):            -8144.183855211024820


 --------  Informations at step =    15 ------------
  Optimization Method        =                 BFGS
  Total Energy               =     -8144.1838552110
  Real energy change         =         0.1197799181
  Predicted change in energy =        -0.1448089643
  Scaling factor             =         0.7639682617
  Step size                  =         0.4724315332
  Trust radius               =         0.4724315332
  Decrease in energy         =                   NO
  Used time                  =              268.558

  Convergence check :
  Max. step size             =         0.4724315332
  Conv. limit for step size  =         1.0000000000
  Convergence in step size   =                  YES
  RMS step size              =         0.0962879881
  Conv. limit for RMS step   =         1.0000000000
  Convergence in RMS step    =                  YES
  Max. gradient              =         0.2299390727
  Conv. limit for gradients  =         0.0100000000
  Conv. for gradients        =                   NO
  RMS gradient               =         0.0159621780
  Conv. limit for RMS grad.  =         1.0000000000
  Conv. in RMS gradients     =                  YES
 ---------------------------------------------------

 --------------------------
 OPTIMIZATION STEP:     16
 --------------------------

 Spin 1

 Number of electrons:                                                        719
 Number of occupied orbitals:                                                719
 Number of molecular orbitals:                                               719

 Spin 2

 Number of electrons:                                                        719
 Number of occupied orbitals:                                                719
 Number of molecular orbitals:                                               719

 Number of orbital functions:                                               2718
 Number of independent orbital functions:                                   2718

 Extrapolation method: PS Nth order


 SCF WAVEFUNCTION OPTIMIZATION

  ----------------------------------- OT ---------------------------------------
  Minimizer      : CG                  : conjugate gradient
  Preconditioner : FULL_ALL            : diagonalization, state selective
  Precond_solver : DEFAULT
  Line search    : 3PNT                : 3 energies
  stepsize       :    0.15000000                  energy_gap     :    0.08000000
  eps_taylor     :   0.10000E-15                  max_taylor     :             4
  ----------------------------------- OT ---------------------------------------

  Step     Update method      Time    Convergence         Total energy    Change
  ------------------------------------------------------------------------------
     1 OT CG       0.12E+00   11.6     0.00146079     -8142.9057632002 -8.14E+03
     2 OT LS       0.17E+00    7.0                    -8143.5898331129
     3 OT LS       0.19E+00    7.0                    -8143.6888674985
     4 OT CG       0.15E+00   14.0     0.00118434     -8143.7017881028 -7.96E-01
     5 OT LS       0.21E+00    7.0                    -8144.1760967494
     6 OT LS       0.19E+00    7.0                    -8144.1850874225
     7 OT CG       0.15E+00   14.0     0.00064900     -8144.1924354491 -4.91E-01
     8 OT LS       0.21E+00    7.0                    -8144.2733772634
     9 OT LS       0.11E+00    7.1                    -8144.2043057985
    10 OT CG       0.88E-01   14.0     0.00023793     -8144.2860640487 -9.36E-02
    11 OT LS       0.12E+00    7.1                    -8144.2999293756
    12 OT LS       0.15E+00    7.0                    -8144.3022241034
    13 OT CG       0.12E+00   14.0     0.00016162     -8144.3027006752 -1.66E-02
    14 OT LS       0.17E+00    7.1                    -8144.3090333941
    15 OT LS       0.13E+00    7.0                    -8144.3084135799
    16 OT CG       0.10E+00   14.0     0.00008600     -8144.3090541476 -6.35E-03
    17 OT LS       0.14E+00    7.1                    -8144.3109161487
    18 OT LS       0.14E+00    7.1                    -8144.3110708462
    19 OT CG       0.11E+00   14.0     0.00004368     -8144.3110711395 -2.02E-03
    20 OT LS       0.16E+00    7.1                    -8144.3116744825
    21 OT LS       0.20E+00    7.0                    -8144.3117869315
    22 OT CG       0.16E+00   14.0     0.00003763     -8144.3118255743 -7.54E-04
    23 OT LS       0.23E+00    7.1                    -8144.3122048515
    24 OT LS       0.14E+00    7.0                    -8144.3120674178
    25 OT CG       0.11E+00   14.0     0.00002247     -8144.3122139137 -3.88E-04
    26 OT LS       0.16E+00    7.1                    -8144.3123453943
    27 OT LS       0.14E+00    7.0                    -8144.3123475600
    28 OT CG       0.11E+00   14.0     0.00001459     -8144.3123501567 -1.36E-04
    29 OT LS       0.15E+00    7.1                    -8144.3124161149
    30 OT LS       0.20E+00    7.0                    -8144.3124279014
    31 OT CG       0.16E+00   14.0     0.00001147     -8144.3124313648 -8.12E-05
    32 OT LS       0.22E+00    7.0                    -8144.3124780715
    33 OT LS       0.19E+00    7.0                    -8144.3124780213
    34 OT CG       0.15E+00   14.0     0.00000815     -8144.3124793828 -4.80E-05

  *** SCF run converged in    34 steps ***


  Electronic density on regular grids:      -1437.9999923049        0.0000076951
  Core density on regular grids:             1437.9999996445       -0.0000003555
  Total charge density on r-space grids:        0.0000073396
  Total charge density g-space grids:           0.0000073396

  Overlap energy of the core charge distribution:               0.00000907258439
  Self energy of the core charge distribution:             -14650.93922905635191
  Core Hamiltonian energy:                                   4107.25978357584427
  Hartree energy:                                            3440.88044684973556
  Exchange-correlation energy:                              -1042.40756332342630
  Dispersion energy:                                           -0.57399706792427

  DFT+U energy:                                                 1.46807056671808

  Total energy:                                             -8144.31247938282013

  outer SCF iter =    1 RMS gradient =   0.82E-05 energy =      -8144.3124793828
  outer SCF loop converged in   1 iterations or   34 steps


  Integrated absolute spin density  :                             235.0615963304
  Ideal and single determinant S**2 :                    0.000000     127.917682

 ENERGY| Total FORCE_EVAL ( QS ) energy (a.u.):            -8144.312501373999112


 --------  Informations at step =    16 ------------
  Optimization Method        =                 BFGS
  Total Energy               =     -8144.3125013740
  Real energy change         =        -0.1286461630
  Predicted change in energy =        -0.1034725903
  Scaling factor             =         0.7639682617
  Step size                  =         0.2892371346
  Trust radius               =         0.4724315332
  Decrease in energy         =                  YES
  Used time                  =              354.148

  Convergence check :
  Max. step size             =         0.2892371346
  Conv. limit for step size  =         1.0000000000
  Convergence in step size   =                  YES
  RMS step size              =         0.0548144658
  Conv. limit for RMS step   =         1.0000000000
  Convergence in RMS step    =                  YES
  Max. gradient              =         0.0472487067
  Conv. limit for gradients  =         0.0100000000
  Conv. for gradients        =                   NO
  RMS gradient               =         0.0052755896
  Conv. limit for RMS grad.  =         1.0000000000
  Conv. in RMS gradients     =                  YES
 ---------------------------------------------------

 --------------------------
 OPTIMIZATION STEP:     17
 --------------------------

 Spin 1

 Number of electrons:                                                        719
 Number of occupied orbitals:                                                719
 Number of molecular orbitals:                                               719

 Spin 2

 Number of electrons:                                                        719
 Number of occupied orbitals:                                                719
 Number of molecular orbitals:                                               719

 Number of orbital functions:                                               2718
 Number of independent orbital functions:                                   2718

 Extrapolation method: PS Nth order


 SCF WAVEFUNCTION OPTIMIZATION

  ----------------------------------- OT ---------------------------------------
  Minimizer      : CG                  : conjugate gradient
  Preconditioner : FULL_ALL            : diagonalization, state selective
  Precond_solver : DEFAULT
  Line search    : 3PNT                : 3 energies
  stepsize       :    0.15000000                  energy_gap     :    0.08000000
  eps_taylor     :   0.10000E-15                  max_taylor     :             4
  ----------------------------------- OT ---------------------------------------

  Step     Update method      Time    Convergence         Total energy    Change
  ------------------------------------------------------------------------------
     1 OT CG       0.12E+00   11.6     0.00115313     -8143.4840946455 -8.14E+03
     2 OT LS       0.17E+00    6.9                    -8143.8878547068
     3 OT LS       0.17E+00    7.0                    -8143.9308470150
     4 OT CG       0.14E+00   14.0     0.00076223     -8143.9316858434 -4.48E-01
     5 OT LS       0.20E+00    7.0                    -8144.1646437816
     6 OT LS       0.26E+00    7.0                    -8144.2088557305
     7 OT CG       0.20E+00   14.0     0.00038126     -8144.2246581105 -2.93E-01
     8 OT LS       0.10E+00    7.0                    -8144.2242945542
     9 OT LS       0.10E+00    7.0                    -8144.2532513220
    10 OT CG       0.82E-01   14.0     0.00017412     -8144.2532521329 -2.86E-02
    11 OT LS       0.11E+00    7.0                    -8144.2597773242
    12 OT LS       0.13E+00    7.0                    -8144.2606370994
    13 OT CG       0.10E+00   14.0     0.00010284     -8144.2607008576 -7.45E-03
    14 OT LS       0.14E+00    7.0                    -8144.2635557162
    15 OT LS       0.16E+00    7.0                    -8144.2639686966
    16 OT CG       0.13E+00   14.0     0.00005641     -8144.2640195396 -3.32E-03
    17 OT LS       0.18E+00    7.0                    -8144.2649377290
    18 OT LS       0.15E+00    7.0                    -8144.2649206603
    19 OT CG       0.12E+00   14.0     0.00003386     -8144.2649573918 -9.38E-04
    20 OT LS       0.17E+00    7.0                    -8144.2653047938
    21 OT LS       0.17E+00    7.0                    -8144.2653363041
    22 OT CG       0.14E+00   14.0     0.00002875     -8144.2653363097 -3.79E-04
    23 OT LS       0.19E+00    7.0                    -8144.2655694272
    24 OT LS       0.14E+00    7.0                    -8144.2655483457
    25 OT CG       0.12E+00   14.0     0.00001433     -8144.2655704590 -2.34E-04
    26 OT LS       0.16E+00    7.1                    -8144.2656281834
    27 OT LS       0.15E+00    7.0                    -8144.2656314949
    28 OT CG       0.12E+00   14.0     0.00000781     -8144.2656317369 -6.13E-05

  *** SCF run converged in    28 steps ***


  Electronic density on regular grids:      -1437.9999922845        0.0000077155
  Core density on regular grids:             1437.9999996439       -0.0000003561
  Total charge density on r-space grids:        0.0000073594
  Total charge density g-space grids:           0.0000073594

  Overlap energy of the core charge distribution:               0.00000204163981
  Self energy of the core charge distribution:             -14650.93922905635191
  Core Hamiltonian energy:                                   4107.15310519077502
  Hartree energy:                                            3440.99850621120686
  Exchange-correlation energy:                              -1042.37247427343823
  Dispersion energy:                                           -0.56893396023375

  DFT+U energy:                                                 1.46339210946346

  Total energy:                                             -8144.26563173694012

  outer SCF iter =    1 RMS gradient =   0.78E-05 energy =      -8144.2656317369
  outer SCF loop converged in   1 iterations or   28 steps


  Integrated absolute spin density  :                             234.9932564496
  Ideal and single determinant S**2 :                    0.000000     127.886834

 ENERGY| Total FORCE_EVAL ( QS ) energy (a.u.):            -8144.265653596061384


 --------  Informations at step =    17 ------------
  Optimization Method        =                 BFGS
  Total Energy               =     -8144.2656535961
  Real energy change         =         0.0468477779
  Predicted change in energy =        -0.0678224631
  Scaling factor             =         0.7639682617
  Step size                  =         0.4503653481
  Trust radius               =         0.4724315332
  Decrease in energy         =                   NO
  Used time                  =              297.626

  Convergence check :
  Max. step size             =         0.4503653481
  Conv. limit for step size  =         1.0000000000
  Convergence in step size   =                  YES
  RMS step size              =         0.0695120039
  Conv. limit for RMS step   =         1.0000000000
  Convergence in RMS step    =                  YES
  Max. gradient              =         0.1261857025
  Conv. limit for gradients  =         0.0100000000
  Conv. for gradients        =                   NO
  RMS gradient               =         0.0107491808
  Conv. limit for RMS grad.  =         1.0000000000
  Conv. in RMS gradients     =                  YES
 ---------------------------------------------------

 --------------------------
 OPTIMIZATION STEP:     18
 --------------------------

 Spin 1

 Number of electrons:                                                        719
 Number of occupied orbitals:                                                719
 Number of molecular orbitals:                                               719

 Spin 2

 Number of electrons:                                                        719
 Number of occupied orbitals:                                                719
 Number of molecular orbitals:                                               719

 Number of orbital functions:                                               2718
 Number of independent orbital functions:                                   2718

 Extrapolation method: PS Nth order


 SCF WAVEFUNCTION OPTIMIZATION

  ----------------------------------- OT ---------------------------------------
  Minimizer      : CG                  : conjugate gradient
  Preconditioner : FULL_ALL            : diagonalization, state selective
  Precond_solver : DEFAULT
  Line search    : 3PNT                : 3 energies
  stepsize       :    0.15000000                  energy_gap     :    0.08000000
  eps_taylor     :   0.10000E-15                  max_taylor     :             4
  ----------------------------------- OT ---------------------------------------

  Step     Update method      Time    Convergence         Total energy    Change
  ------------------------------------------------------------------------------
     1 OT CG       0.12E+00   11.7     0.00085900     -8143.7913425460 -8.14E+03
     2 OT LS       0.17E+00    6.9                    -8144.0423933313
     3 OT LS       0.22E+00    7.0                    -8144.0907215490
     4 OT CG       0.18E+00   14.1     0.00069811     -8144.1106022935 -3.19E-01
     5 OT LS       0.25E+00    7.1                    -8144.2935266317
     6 OT LS       0.19E+00    7.0                    -8144.2772693591
     7 OT CG       0.15E+00   14.1     0.00029584     -8144.2943781974 -1.84E-01
     8 OT LS       0.21E+00    7.0                    -8144.3067362469
     9 OT LS       0.10E+00    7.0                    -8144.2894106607
    10 OT CG       0.80E-01   14.0     0.00012190     -8144.3114611970 -1.71E-02
    11 OT LS       0.11E+00    7.1                    -8144.3146988292
    12 OT LS       0.13E+00    7.0                    -8144.3152063681
    13 OT CG       0.11E+00   14.0     0.00007752     -8144.3152942213 -3.83E-03
    14 OT LS       0.15E+00    7.0                    -8144.3168665767
    15 OT LS       0.14E+00    7.0                    -8144.3169913209
    16 OT CG       0.12E+00   14.0     0.00003707     -8144.3169919399 -1.70E-03
    17 OT LS       0.16E+00    7.0                    -8144.3173851766
    18 OT LS       0.16E+00    7.0                    -8144.3174136737
    19 OT CG       0.13E+00   14.1     0.00002446     -8144.3174141480 -4.22E-04
    20 OT LS       0.18E+00    7.1                    -8144.3176161648
    21 OT LS       0.20E+00    7.0                    -8144.3176456465
    22 OT CG       0.16E+00   14.0     0.00002325     -8144.3176494033 -2.35E-04
    23 OT LS       0.23E+00    7.0                    -8144.3177986123
    24 OT LS       0.14E+00    7.1                    -8144.3177508145
    25 OT CG       0.11E+00   14.0     0.00001374     -8144.3178009664 -1.52E-04
    26 OT LS       0.16E+00    7.1                    -8144.3178602371
    27 OT LS       0.19E+00    7.1                    -8144.3178698351
    28 OT CG       0.15E+00   14.0     0.00001057     -8144.3178717605 -7.08E-05
    29 OT LS       0.21E+00    7.1                    -8144.3179191031
    30 OT LS       0.26E+00    7.0                    -8144.3179270239
    31 OT CG       0.21E+00   14.0     0.00000836     -8144.3179288301 -5.71E-05

  *** SCF run converged in    31 steps ***


  Electronic density on regular grids:      -1437.9999923026        0.0000076974
  Core density on regular grids:             1437.9999996442       -0.0000003558
  Total charge density on r-space grids:        0.0000073416
  Total charge density g-space grids:           0.0000073416

  Overlap energy of the core charge distribution:               0.00000503398766
  Self energy of the core charge distribution:             -14650.93922905635191
  Core Hamiltonian energy:                                   4107.24046396897938
  Hartree energy:                                            3440.89362492933788
  Exchange-correlation energy:                              -1042.40309705927211
  Dispersion energy:                                           -0.57437932697346

  DFT+U energy:                                                 1.46468268021437

  Total energy:                                             -8144.31792883007711

  outer SCF iter =    1 RMS gradient =   0.84E-05 energy =      -8144.3179288301
  outer SCF loop converged in   1 iterations or   31 steps


  Integrated absolute spin density  :                             235.0248690262
  Ideal and single determinant S**2 :                    0.000000     127.902919

 ENERGY| Total FORCE_EVAL ( QS ) energy (a.u.):            -8144.317953772103465


 --------  Informations at step =    18 ------------
  Optimization Method        =                 BFGS
  Total Energy               =     -8144.3179537721
  Real energy change         =        -0.0523001760
  Predicted change in energy =        -0.0572636501
  Scaling factor             =         0.7639682617
  Step size                  =         0.1852282198
  Trust radius               =         0.4724315332
  Decrease in energy         =                  YES
  Used time                  =              327.106

  Convergence check :
  Max. step size             =         0.1852282198
  Conv. limit for step size  =         1.0000000000
  Convergence in step size   =                  YES
  RMS step size              =         0.0351349886
  Conv. limit for RMS step   =         1.0000000000
  Convergence in RMS step    =                  YES
  Max. gradient              =         0.0402837995
  Conv. limit for gradients  =         0.0100000000
  Conv. for gradients        =                   NO
  RMS gradient               =         0.0052491096
  Conv. limit for RMS grad.  =         1.0000000000
  Conv. in RMS gradients     =                  YES
 ---------------------------------------------------

 --------------------------
 OPTIMIZATION STEP:     19
 --------------------------

 Spin 1

 Number of electrons:                                                        719
 Number of occupied orbitals:                                                719
 Number of molecular orbitals:                                               719

 Spin 2

 Number of electrons:                                                        719
 Number of occupied orbitals:                                                719
 Number of molecular orbitals:                                               719

 Number of orbital functions:                                               2718
 Number of independent orbital functions:                                   2718

 Extrapolation method: PS Nth order


 SCF WAVEFUNCTION OPTIMIZATION

  ----------------------------------- OT ---------------------------------------
  Minimizer      : CG                  : conjugate gradient
  Preconditioner : FULL_ALL            : diagonalization, state selective
  Precond_solver : DEFAULT
  Line search    : 3PNT                : 3 energies
  stepsize       :    0.15000000                  energy_gap     :    0.08000000
  eps_taylor     :   0.10000E-15                  max_taylor     :             4
  ----------------------------------- OT ---------------------------------------

  Step     Update method      Time    Convergence         Total energy    Change
  ------------------------------------------------------------------------------
     1 OT CG       0.12E+00   11.7     0.00064467     -8143.9866985428 -8.14E+03
     2 OT LS       0.17E+00    6.9                    -8144.1191194031
     3 OT LS       0.19E+00    6.9                    -8144.1377654305
     4 OT CG       0.15E+00   13.9     0.00047979     -8144.1399049316 -1.53E-01
     5 OT LS       0.21E+00    7.0                    -8144.2299802270
     6 OT LS       0.22E+00    7.1                    -8144.2394170733
     7 OT CG       0.18E+00   14.0     0.00022506     -8144.2395223902 -9.96E-02
     8 OT LS       0.25E+00    7.0                    -8144.2428945244
     9 OT LS       0.97E-01    7.1                    -8144.2265509774
    10 OT CG       0.78E-01   13.9     0.00009776     -8144.2491672189 -9.64E-03
    11 OT LS       0.11E+00    7.0                    -8144.2512517284
    12 OT LS       0.14E+00    7.0                    -8144.2516228956
    13 OT CG       0.11E+00   13.9     0.00005700     -8144.2517308852 -2.56E-03
    14 OT LS       0.15E+00    7.0                    -8144.2525862286
    15 OT LS       0.14E+00    7.0                    -8144.2526280732
    16 OT CG       0.11E+00   13.9     0.00002460     -8144.2526336757 -9.03E-04
    17 OT LS       0.16E+00    7.0                    -8144.2528092817
    18 OT LS       0.16E+00    7.0                    -8144.2528269496
    19 OT CG       0.13E+00   13.9     0.00001574     -8144.2528270646 -1.93E-04
    20 OT LS       0.18E+00    7.0                    -8144.2529120318
    21 OT LS       0.20E+00    7.0                    -8144.2529227523
    22 OT CG       0.16E+00   13.9     0.00001258     -8144.2529233776 -9.63E-05
    23 OT LS       0.22E+00    7.0                    -8144.2529596607
    24 OT LS       0.13E+00    7.0                    -8144.2529392479
    25 OT CG       0.10E+00   13.9     0.00000784     -8144.2529623813 -3.90E-05

  *** SCF run converged in    25 steps ***


  Electronic density on regular grids:      -1437.9999922895        0.0000077105
  Core density on regular grids:             1437.9999996445       -0.0000003555
  Total charge density on r-space grids:        0.0000073550
  Total charge density g-space grids:           0.0000073550

  Overlap energy of the core charge distribution:               0.00000817434147
  Self energy of the core charge distribution:             -14650.93922905635191
  Core Hamiltonian energy:                                   4107.31493392801076
  Hartree energy:                                            3440.84789288044840
  Exchange-correlation energy:                              -1042.37455141804890
  Dispersion energy:                                           -0.57821866814421

  DFT+U energy:                                                 1.47620177845230

  Total energy:                                             -8144.25296238129249

  outer SCF iter =    1 RMS gradient =   0.78E-05 energy =      -8144.2529623813
  outer SCF loop converged in   1 iterations or   25 steps


  Integrated absolute spin density  :                             235.0027257186
  Ideal and single determinant S**2 :                    0.000000     127.881967

 ENERGY| Total FORCE_EVAL ( QS ) energy (a.u.):            -8144.252979881423016


 --------  Informations at step =    19 ------------
  Optimization Method        =                 BFGS
  Total Energy               =     -8144.2529798814
  Real energy change         =         0.0649738907
  Predicted change in energy =        -0.0655779351
  Scaling factor             =         0.7639682617
  Step size                  =         0.4447545176
  Trust radius               =         0.4724315332
  Decrease in energy         =                   NO
  Used time                  =              268.216

  Convergence check :
  Max. step size             =         0.4447545176
  Conv. limit for step size  =         1.0000000000
  Convergence in step size   =                  YES
  RMS step size              =         0.0825916426
  Conv. limit for RMS step   =         1.0000000000
  Convergence in RMS step    =                  YES
  Max. gradient              =         0.0299336700
  Conv. limit for gradients  =         0.0100000000
  Conv. for gradients        =                   NO
  RMS gradient               =         0.0062551794
  Conv. limit for RMS grad.  =         1.0000000000
  Conv. in RMS gradients     =                  YES
 ---------------------------------------------------

 --------------------------
 OPTIMIZATION STEP:     20
 --------------------------

 Spin 1

 Number of electrons:                                                        719
 Number of occupied orbitals:                                                719
 Number of molecular orbitals:                                               719

 Spin 2

 Number of electrons:                                                        719
 Number of occupied orbitals:                                                719
 Number of molecular orbitals:                                               719

 Number of orbital functions:                                               2718
 Number of independent orbital functions:                                   2718

 Extrapolation method: PS Nth order


 SCF WAVEFUNCTION OPTIMIZATION

  ----------------------------------- OT ---------------------------------------
  Minimizer      : CG                  : conjugate gradient
  Preconditioner : FULL_ALL            : diagonalization, state selective
  Precond_solver : DEFAULT
  Line search    : 3PNT                : 3 energies
  stepsize       :    0.15000000                  energy_gap     :    0.08000000
  eps_taylor     :   0.10000E-15                  max_taylor     :             4
  ----------------------------------- OT ---------------------------------------

  Step     Update method      Time    Convergence         Total energy    Change
  ------------------------------------------------------------------------------
     1 OT CG       0.12E+00   11.4     0.00122812     -8143.3110956293 -8.14E+03
     2 OT LS       0.17E+00    6.9                    -8143.8055887212
     3 OT LS       0.20E+00    7.0                    -8143.8867936484
     4 OT CG       0.16E+00   14.0     0.00098498     -8143.9052459340 -5.94E-01
     5 OT LS       0.23E+00    7.0                    -8144.2538504248
     6 OT LS       0.19E+00    7.0                    -8144.2493408045
     7 OT CG       0.15E+00   13.9     0.00051726     -8144.2615545630 -3.56E-01
     8 OT LS       0.21E+00    7.1                    -8144.3092748655
     9 OT LS       0.11E+00    7.0                    -8144.2620091626
    10 OT CG       0.86E-01   13.9     0.00018903     -8144.3191414657 -5.76E-02
    11 OT LS       0.12E+00    7.0                    -8144.3274161901
    12 OT LS       0.14E+00    7.0                    -8144.3286013226
    13 OT CG       0.11E+00   13.9     0.00012330     -8144.3287397773 -9.60E-03
    14 OT LS       0.15E+00    7.0                    -8144.3326238934
    15 OT LS       0.14E+00    7.0                    -8144.3327239534
    16 OT CG       0.11E+00   13.9     0.00006775     -8144.3327837555 -4.04E-03
    17 OT LS       0.15E+00    7.0                    -8144.3340122596
    18 OT LS       0.15E+00    7.0                    -8144.3340974675
    19 OT CG       0.12E+00   13.9     0.00003410     -8144.3340995337 -1.32E-03
    20 OT LS       0.16E+00    7.0                    -8144.3344916580
    21 OT LS       0.22E+00    7.0                    -8144.3345695347
    22 OT CG       0.18E+00   13.9     0.00003166     -8144.3346033057 -5.04E-04
    23 OT LS       0.25E+00    7.0                    -8144.3348708945
    24 OT LS       0.14E+00    7.0                    -8144.3347401053
    25 OT CG       0.12E+00   13.9     0.00001905     -8144.3348855305 -2.82E-04
    26 OT LS       0.16E+00    7.0                    -8144.3349808399
    27 OT LS       0.14E+00    7.0                    -8144.3349805234
    28 OT CG       0.11E+00   13.9     0.00001282     -8144.3349834335 -9.79E-05
    29 OT LS       0.15E+00    7.0                    -8144.3350367592
    30 OT LS       0.22E+00    7.0                    -8144.3350481959
    31 OT CG       0.18E+00   13.9     0.00001117     -8144.3350547638 -7.13E-05
    32 OT LS       0.25E+00    7.0                    -8144.3350989677
    33 OT LS       0.18E+00    7.0                    -8144.3350928660
    34 OT CG       0.14E+00   13.8     0.00000799     -8144.3350989859 -4.42E-05

  *** SCF run converged in    34 steps ***


  Electronic density on regular grids:      -1437.9999922964        0.0000077036
  Core density on regular grids:             1437.9999996446       -0.0000003554
  Total charge density on r-space grids:        0.0000073482
  Total charge density g-space grids:           0.0000073482

  Overlap energy of the core charge distribution:               0.00000730788128
  Self energy of the core charge distribution:             -14650.93922905635191
  Core Hamiltonian energy:                                   4107.21740379342555
  Hartree energy:                                            3440.89269394845087
  Exchange-correlation energy:                              -1042.39167646477267
  Dispersion energy:                                           -0.58348482301353

  DFT+U energy:                                                 1.46918630848707

  Total energy:                                             -8144.33509898589364

  outer SCF iter =    1 RMS gradient =   0.80E-05 energy =      -8144.3350989859
  outer SCF loop converged in   1 iterations or   34 steps


  Integrated absolute spin density  :                             235.0321576627
  Ideal and single determinant S**2 :                    0.000000     127.907156

 ENERGY| Total FORCE_EVAL ( QS ) energy (a.u.):            -8144.335118058932494


 --------  Informations at step =    20 ------------
  Optimization Method        =                 BFGS
  Total Energy               =     -8144.3351180589
  Real energy change         =        -0.0821381775
  Predicted change in energy =        -0.0622414669
  Scaling factor             =         0.7639682617
  Step size                  =         0.2724472596
  Trust radius               =         0.4724315332
  Decrease in energy         =                  YES
  Used time                  =              350.888

  Convergence check :
  Max. step size             =         0.2724472596
  Conv. limit for step size  =         1.0000000000
  Convergence in step size   =                  YES
  RMS step size              =         0.0491502628
  Conv. limit for RMS step   =         1.0000000000
  Convergence in RMS step    =                  YES
  Max. gradient              =         0.0270724424
  Conv. limit for gradients  =         0.0100000000
  Conv. for gradients        =                   NO
  RMS gradient               =         0.0039785667
  Conv. limit for RMS grad.  =         1.0000000000
  Conv. in RMS gradients     =                  YES
 ---------------------------------------------------

 --------------------------
 OPTIMIZATION STEP:     21
 --------------------------

  Step is scaled; Scaling factor =  0.95168

 Spin 1

 Number of electrons:                                                        719
 Number of occupied orbitals:                                                719
 Number of molecular orbitals:                                               719

 Spin 2

 Number of electrons:                                                        719
 Number of occupied orbitals:                                                719
 Number of molecular orbitals:                                               719

 Number of orbital functions:                                               2718
 Number of independent orbital functions:                                   2718

 Extrapolation method: PS Nth order


 SCF WAVEFUNCTION OPTIMIZATION

  ----------------------------------- OT ---------------------------------------
  Minimizer      : CG                  : conjugate gradient
  Preconditioner : FULL_ALL            : diagonalization, state selective
  Precond_solver : DEFAULT
  Line search    : 3PNT                : 3 energies
  stepsize       :    0.15000000                  energy_gap     :    0.08000000
  eps_taylor     :   0.10000E-15                  max_taylor     :             4
  ----------------------------------- OT ---------------------------------------

  Step     Update method      Time    Convergence         Total energy    Change
  ------------------------------------------------------------------------------
     1 OT CG       0.12E+00   11.4     0.00092755     -8143.7844692852 -8.14E+03
     2 OT LS       0.17E+00    6.8                    -8144.0434122605
     3 OT LS       0.17E+00    6.8                    -8144.0688156091
     4 OT CG       0.14E+00   13.8     0.00060830     -8144.0689829298 -2.85E-01
     5 OT LS       0.19E+00    7.0                    -8144.2160323253
     6 OT LS       0.26E+00    7.0                    -8144.2452106597
     7 OT CG       0.21E+00   13.9     0.00032450     -8144.2575028035 -1.89E-01
     8 OT LS       0.10E+00    7.0                    -8144.2498913980
     9 OT LS       0.95E-01    7.0                    -8144.2764831626
    10 OT CG       0.76E-01   13.8     0.00013808     -8144.2766644982 -1.92E-02
    11 OT LS       0.11E+00    7.0                    -8144.2806554401
    12 OT LS       0.13E+00    7.0                    -8144.2813342281
    13 OT CG       0.10E+00   13.8     0.00008104     -8144.2814984500 -4.83E-03
    14 OT LS       0.15E+00    7.0                    -8144.2833113477
    15 OT LS       0.16E+00    7.0                    -8144.2835547705
    16 OT CG       0.13E+00   13.8     0.00004144     -8144.2835753076 -2.08E-03
    17 OT LS       0.18E+00    7.0                    -8144.2840515403
    18 OT LS       0.14E+00    7.0                    -8144.2840204802
    19 OT CG       0.11E+00   13.8     0.00002575     -8144.2840556670 -4.80E-04
    20 OT LS       0.16E+00    7.0                    -8144.2842483108
    21 OT LS       0.16E+00    7.0                    -8144.2842673299
    22 OT CG       0.13E+00   13.8     0.00002137     -8144.2842674199 -2.12E-04
    23 OT LS       0.18E+00    7.0                    -8144.2843979654
    24 OT LS       0.15E+00    7.0                    -8144.2843925714
    25 OT CG       0.12E+00   13.8     0.00001040     -8144.2843998270 -1.32E-04
    26 OT LS       0.17E+00    7.0                    -8144.2844309777
    27 OT LS       0.16E+00    7.0                    -8144.2844328236
    28 OT CG       0.13E+00   13.8     0.00000577     -8144.2844329396 -3.31E-05

  *** SCF run converged in    28 steps ***


  Electronic density on regular grids:      -1437.9999922918        0.0000077082
  Core density on regular grids:             1437.9999996439       -0.0000003561
  Total charge density on r-space grids:        0.0000073521
  Total charge density g-space grids:           0.0000073521

  Overlap energy of the core charge distribution:               0.00000434667286
  Self energy of the core charge distribution:             -14650.93922905635191
  Core Hamiltonian energy:                                   4107.19744162115239
  Hartree energy:                                            3440.94691502494607
  Exchange-correlation energy:                              -1042.38761150964342
  Dispersion energy:                                           -0.57077240656073

  DFT+U energy:                                                 1.46881904016786

  Total energy:                                             -8144.28443293961664

  outer SCF iter =    1 RMS gradient =   0.58E-05 energy =      -8144.2844329396
  outer SCF loop converged in   1 iterations or   28 steps


  Integrated absolute spin density  :                             235.0306675462
  Ideal and single determinant S**2 :                    0.000000     127.896807

 ENERGY| Total FORCE_EVAL ( QS ) energy (a.u.):            -8144.284444830215762


 --------  Informations at step =    21 ------------
  Optimization Method        =                 BFGS
  Total Energy               =     -8144.2844448302
  Real energy change         =         0.0506732287
  Predicted change in energy =        -0.0559372391
  Scaling factor             =         0.9516836885
  Step size                  =         0.4724315332
  Trust radius               =         0.4724315332
  Decrease in energy         =                   NO
  Used time                  =              294.266

  Convergence check :
  Max. step size             =         0.4724315332
  Conv. limit for step size  =         1.0000000000
  Convergence in step size   =                  YES
  RMS step size              =         0.0707125300
  Conv. limit for RMS step   =         1.0000000000
  Convergence in RMS step    =                  YES
  Max. gradient              =         0.0485346076
  Conv. limit for gradients  =         0.0100000000
  Conv. for gradients        =                   NO
  RMS gradient               =         0.0064162774
  Conv. limit for RMS grad.  =         1.0000000000
  Conv. in RMS gradients     =                  YES
 ---------------------------------------------------

 --------------------------
 OPTIMIZATION STEP:     22
 --------------------------

 Spin 1

 Number of electrons:                                                        719
 Number of occupied orbitals:                                                719
 Number of molecular orbitals:                                               719

 Spin 2

 Number of electrons:                                                        719
 Number of occupied orbitals:                                                719
 Number of molecular orbitals:                                               719

 Number of orbital functions:                                               2718
 Number of independent orbital functions:                                   2718

 Extrapolation method: PS Nth order


 SCF WAVEFUNCTION OPTIMIZATION

  ----------------------------------- OT ---------------------------------------
  Minimizer      : CG                  : conjugate gradient
  Preconditioner : FULL_ALL            : diagonalization, state selective
  Precond_solver : DEFAULT
  Line search    : 3PNT                : 3 energies
  stepsize       :    0.15000000                  energy_gap     :    0.08000000
  eps_taylor     :   0.10000E-15                  max_taylor     :             4
  ----------------------------------- OT ---------------------------------------

  Step     Update method      Time    Convergence         Total energy    Change
  ------------------------------------------------------------------------------
     1 OT CG       0.12E+00   11.3     0.00088601     -8143.7691527757 -8.14E+03
     2 OT LS       0.17E+00    6.8                    -8144.0352618455
     3 OT LS       0.22E+00    7.0                    -8144.0856753413
     4 OT CG       0.18E+00   13.9     0.00076847     -8144.1051738031 -3.36E-01
     5 OT LS       0.25E+00    7.0                    -8144.3132933528
     6 OT LS       0.18E+00    7.0                    -8144.2869213050
     7 OT CG       0.14E+00   13.8     0.00033425     -8144.3134420008 -2.08E-01
     8 OT LS       0.20E+00    7.0                    -8144.3304502950
     9 OT LS       0.99E-01    7.0                    -8144.3112241368
    10 OT CG       0.79E-01   13.9     0.00012069     -8144.3350769692 -2.16E-02
    11 OT LS       0.11E+00    7.0                    -8144.3381923807
    12 OT LS       0.13E+00    7.0                    -8144.3386491553
    13 OT CG       0.10E+00   13.9     0.00007965     -8144.3387073715 -3.63E-03
    14 OT LS       0.14E+00    7.0                    -8144.3403803555
    15 OT LS       0.15E+00    7.0                    -8144.3405786715
    16 OT CG       0.12E+00   13.9     0.00004046     -8144.3405864294 -1.88E-03
    17 OT LS       0.17E+00    7.0                    -8144.3410528097
    18 OT LS       0.15E+00    7.0                    -8144.3410640346
    19 OT CG       0.12E+00   13.9     0.00002415     -8144.3410715939 -4.85E-04
    20 OT LS       0.17E+00    7.0                    -8144.3412640368
    21 OT LS       0.20E+00    7.0                    -8144.3412943034
    22 OT CG       0.16E+00   13.9     0.00002469     -8144.3412996977 -2.28E-04
    23 OT LS       0.22E+00    7.0                    -8144.3414903917
    24 OT LS       0.16E+00    7.0                    -8144.3414590600
    25 OT CG       0.13E+00   13.8     0.00001465     -8144.3414903935 -1.91E-04
    26 OT LS       0.18E+00    7.0                    -8144.3415601067
    27 OT LS       0.18E+00    7.0                    -8144.3415670187
    28 OT CG       0.15E+00   13.9     0.00001153     -8144.3415670545 -7.67E-05
    29 OT LS       0.20E+00    7.0                    -8144.3416217317
    30 OT LS       0.26E+00    7.0                    -8144.3416316547
    31 OT CG       0.21E+00   13.8     0.00000969     -8144.3416347446 -6.77E-05

  *** SCF run converged in    31 steps ***


  Electronic density on regular grids:      -1437.9999922891        0.0000077109
  Core density on regular grids:             1437.9999996440       -0.0000003560
  Total charge density on r-space grids:        0.0000073549
  Total charge density g-space grids:           0.0000073549

  Overlap energy of the core charge distribution:               0.00000656313608
  Self energy of the core charge distribution:             -14650.93922905635191
  Core Hamiltonian energy:                                   4107.18331524211862
  Hartree energy:                                            3440.92195392590975
  Exchange-correlation energy:                              -1042.39389007780642
  Dispersion energy:                                           -0.58206128472660

  DFT+U energy:                                                 1.46826994310588

  Total energy:                                             -8144.34163474461457

  outer SCF iter =    1 RMS gradient =   0.97E-05 energy =      -8144.3416347446
  outer SCF loop converged in   1 iterations or   31 steps


  Integrated absolute spin density  :                             235.0330154804
  Ideal and single determinant S**2 :                    0.000000     127.908205

 ENERGY| Total FORCE_EVAL ( QS ) energy (a.u.):            -8144.341663546211748


 --------  Informations at step =    22 ------------
  Optimization Method        =                 BFGS
  Total Energy               =     -8144.3416635462
  Real energy change         =        -0.0572187160
  Predicted change in energy =        -0.0438061387
  Scaling factor             =         0.9516836885
  Step size                  =         0.2472344873
  Trust radius               =         0.4724315332
  Decrease in energy         =                  YES
  Used time                  =              322.530

  Convergence check :
  Max. step size             =         0.2472344873
  Conv. limit for step size  =         1.0000000000
  Convergence in step size   =                  YES
  RMS step size              =         0.0394281916
  Conv. limit for RMS step   =         1.0000000000
  Convergence in RMS step    =                  YES
  Max. gradient              =         0.0317620286
  Conv. limit for gradients  =         0.0100000000
  Conv. for gradients        =                   NO
  RMS gradient               =         0.0050428751
  Conv. limit for RMS grad.  =         1.0000000000
  Conv. in RMS gradients     =                  YES
 ---------------------------------------------------

 --------------------------
 OPTIMIZATION STEP:     23
 --------------------------

  Step is scaled; Scaling factor =  0.15057

 Spin 1

 Number of electrons:                                                        719
 Number of occupied orbitals:                                                719
 Number of molecular orbitals:                                               719

 Spin 2

 Number of electrons:                                                        719
 Number of occupied orbitals:                                                719
 Number of molecular orbitals:                                               719

 Number of orbital functions:                                               2718
 Number of independent orbital functions:                                   2718

 Extrapolation method: PS Nth order


 SCF WAVEFUNCTION OPTIMIZATION

  ----------------------------------- OT ---------------------------------------
  Minimizer      : CG                  : conjugate gradient
  Preconditioner : FULL_ALL            : diagonalization, state selective
  Precond_solver : DEFAULT
  Line search    : 3PNT                : 3 energies
  stepsize       :    0.15000000                  energy_gap     :    0.08000000
  eps_taylor     :   0.10000E-15                  max_taylor     :             4
  ----------------------------------- OT ---------------------------------------

  Step     Update method      Time    Convergence         Total energy    Change
  ------------------------------------------------------------------------------
     1 OT CG       0.12E+00   11.4     0.00060160     -8144.0592292763 -8.14E+03
     2 OT LS       0.17E+00    6.8                    -8144.1620309999
     3 OT LS       0.16E+00    6.8                    -8144.1669200241
     4 OT CG       0.12E+00   13.7     0.00037855     -8144.1675744335 -1.08E-01
     5 OT LS       0.17E+00    6.8                    -8144.2218119285
     6 OT LS       0.28E+00    6.8                    -8144.2347781350
     7 OT CG       0.22E+00   13.9     0.00019660     -8144.2456331065 -7.81E-02
     8 OT LS       0.11E+00    6.8                    -8144.2404846911
     9 OT LS       0.96E-01    6.8                    -8144.2526658997
    10 OT CG       0.77E-01   13.7     0.00008089     -8144.2528444440 -7.21E-03
    11 OT LS       0.11E+00    6.9                    -8144.2541693697
    12 OT LS       0.12E+00    6.9                    -8144.2543385995
    13 OT CG       0.94E-01   13.8     0.00004535     -8144.2543491164 -1.50E-03
    14 OT LS       0.13E+00    6.9                    -8144.2549075833
    15 OT LS       0.18E+00    6.9                    -8144.2550194177
    16 OT CG       0.14E+00   13.8     0.00002549     -8144.2550696962 -7.21E-04
    17 OT LS       0.20E+00    6.9                    -8144.2552513361
    18 OT LS       0.14E+00    6.9                    -8144.2552215029
    19 OT CG       0.11E+00   13.8     0.00001594     -8144.2552513385 -1.82E-04
    20 OT LS       0.16E+00    6.9                    -8144.2553269587
    21 OT LS       0.17E+00    6.9                    -8144.2553359218
    22 OT CG       0.14E+00   13.8     0.00001361     -8144.2553362646 -8.49E-05
    23 OT LS       0.19E+00    6.9                    -8144.2553920968
    24 OT LS       0.16E+00    6.9                    -8144.2553902510
    25 OT CG       0.13E+00   13.8     0.00000716     -8144.2553930251 -5.68E-05

  *** SCF run converged in    25 steps ***


  Electronic density on regular grids:      -1437.9999923035        0.0000076965
  Core density on regular grids:             1437.9999996447       -0.0000003553
  Total charge density on r-space grids:        0.0000073412
  Total charge density g-space grids:           0.0000073412

  Overlap energy of the core charge distribution:               0.00000871674617
  Self energy of the core charge distribution:             -14650.93922905635191
  Core Hamiltonian energy:                                   4107.29990268026995
  Hartree energy:                                            3440.85500620079574
  Exchange-correlation energy:                              -1042.37342067513850
  Dispersion energy:                                           -0.57483389313968

  DFT+U energy:                                                 1.47717300172713

  Total energy:                                             -8144.25539302509060

  outer SCF iter =    1 RMS gradient =   0.72E-05 energy =      -8144.2553930251
  outer SCF loop converged in   1 iterations or   25 steps


  Integrated absolute spin density  :                             235.0202531087
  Ideal and single determinant S**2 :                    0.000000     127.881528

 ENERGY| Total FORCE_EVAL ( QS ) energy (a.u.):            -8144.255409044328189


 --------  Informations at step =    23 ------------
  Optimization Method        =                 BFGS
  Total Energy               =     -8144.2554090443
  Real energy change         =         0.0862545019
  Predicted change in energy =        -0.1426030182
  Scaling factor             =         0.1505729074
  Step size                  =         0.4724315332
  Trust radius               =         0.4724315332
  Decrease in energy         =                   NO
  Used time                  =              265.686

  Convergence check :
  Max. step size             =         0.4724315332
  Conv. limit for step size  =         1.0000000000
  Convergence in step size   =                  YES
  RMS step size              =         0.0819223229
  Conv. limit for RMS step   =         1.0000000000
  Convergence in RMS step    =                  YES
  Max. gradient              =         0.0337469536
  Conv. limit for gradients  =         0.0100000000
  Conv. for gradients        =                   NO
  RMS gradient               =         0.0060172302
  Conv. limit for RMS grad.  =         1.0000000000
  Conv. in RMS gradients     =                  YES
 ---------------------------------------------------

 --------------------------
 OPTIMIZATION STEP:     24
 --------------------------

 Spin 1

 Number of electrons:                                                        719
 Number of occupied orbitals:                                                719
 Number of molecular orbitals:                                               719

 Spin 2

 Number of electrons:                                                        719
 Number of occupied orbitals:                                                719
 Number of molecular orbitals:                                               719

 Number of orbital functions:                                               2718
 Number of independent orbital functions:                                   2718

 Extrapolation method: PS Nth order


 SCF WAVEFUNCTION OPTIMIZATION

  ----------------------------------- OT ---------------------------------------
  Minimizer      : CG                  : conjugate gradient
  Preconditioner : FULL_ALL            : diagonalization, state selective
  Precond_solver : DEFAULT
  Line search    : 3PNT                : 3 energies
  stepsize       :    0.15000000                  energy_gap     :    0.08000000
  eps_taylor     :   0.10000E-15                  max_taylor     :             4
  ----------------------------------- OT ---------------------------------------

  Step     Update method      Time    Convergence         Total energy    Change
  ------------------------------------------------------------------------------
     1 OT CG       0.12E+00   11.4     0.00108348     -8143.5035964927 -8.14E+03
     2 OT LS       0.17E+00    6.9                    -8143.8922275578
     3 OT LS       0.21E+00    7.0                    -8143.9584701528
     4 OT CG       0.17E+00   13.9     0.00092938     -8143.9755971083 -4.72E-01
     5 OT LS       0.23E+00    7.0                    -8144.2726279251
     6 OT LS       0.18E+00    7.0                    -8144.2554157665
     7 OT CG       0.15E+00   13.9     0.00047840     -8144.2751368666 -3.00E-01
     8 OT LS       0.21E+00    7.0                    -8144.3122585172
     9 OT LS       0.10E+00    7.0                    -8144.2717225824
    10 OT CG       0.81E-01   13.9     0.00016202     -8144.3213107055 -4.62E-02
    11 OT LS       0.11E+00    7.0                    -8144.3271379009
    12 OT LS       0.13E+00    7.0                    -8144.3280465088
    13 OT CG       0.11E+00   13.9     0.00010322     -8144.3281970036 -6.89E-03
    14 OT LS       0.15E+00    7.0                    -8144.3310060831
    15 OT LS       0.15E+00    7.0                    -8144.3312367984
    16 OT CG       0.12E+00   13.9     0.00005940     -8144.3312372969 -3.04E-03
    17 OT LS       0.16E+00    7.0                    -8144.3321907852
    18 OT LS       0.14E+00    7.0                    -8144.3321972171
    19 OT CG       0.11E+00   13.9     0.00002996     -8144.3322208970 -9.84E-04
    20 OT LS       0.16E+00    7.0                    -8144.3325103471
    21 OT LS       0.21E+00    7.0                    -8144.3325641738
    22 OT CG       0.16E+00   13.9     0.00002881     -8144.3325825279 -3.62E-04
    23 OT LS       0.23E+00    7.0                    -8144.3328588128
    24 OT LS       0.17E+00    7.0                    -8144.3328252854
    25 OT CG       0.14E+00   13.9     0.00001766     -8144.3328591582 -2.77E-04
    26 OT LS       0.19E+00    7.0                    -8144.3329500685
    27 OT LS       0.15E+00    7.0                    -8144.3329439076
    28 OT CG       0.12E+00   13.9     0.00001325     -8144.3329508110 -9.17E-05
    29 OT LS       0.17E+00    7.0                    -8144.3330112816
    30 OT LS       0.23E+00    7.0                    -8144.3330231328
    31 OT CG       0.18E+00   13.9     0.00001223     -8144.3330280624 -7.73E-05
    32 OT LS       0.25E+00    7.0                    -8144.3330763192
    33 OT LS       0.17E+00    7.0                    -8144.3330635206
    34 OT CG       0.13E+00   13.9     0.00000830     -8144.3330766729 -4.86E-05

  *** SCF run converged in    34 steps ***


  Electronic density on regular grids:      -1437.9999923013        0.0000076987
  Core density on regular grids:             1437.9999996449       -0.0000003551
  Total charge density on r-space grids:        0.0000073436
  Total charge density g-space grids:           0.0000073436

  Overlap energy of the core charge distribution:               0.00000714983271
  Self energy of the core charge distribution:             -14650.93922905635191
  Core Hamiltonian energy:                                   4107.23193274718869
  Hartree energy:                                            3440.87481704127640
  Exchange-correlation energy:                              -1042.39175068139525
  Dispersion energy:                                           -0.57934675083460

  DFT+U energy:                                                 1.47049287734457

  Total energy:                                             -8144.33307667293957

  outer SCF iter =    1 RMS gradient =   0.83E-05 energy =      -8144.3330766729
  outer SCF loop converged in   1 iterations or   34 steps


  Integrated absolute spin density  :                             235.0192311938
  Ideal and single determinant S**2 :                    0.000000     127.900262

 ENERGY| Total FORCE_EVAL ( QS ) energy (a.u.):            -8144.333097766948413


 --------  Informations at step =    24 ------------
  Optimization Method        =                 BFGS
  Total Energy               =     -8144.3330977669
  Real energy change         =        -0.0776887226
  Predicted change in energy =        -0.0546870433
  Scaling factor             =         0.1505729074
  Step size                  =         0.2604220221
  Trust radius               =         0.4724315332
  Decrease in energy         =                   NO
  Used time                  =              350.982

  Convergence check :
  Max. step size             =         0.2604220221
  Conv. limit for step size  =         1.0000000000
  Convergence in step size   =                  YES
  RMS step size              =         0.0453071798
  Conv. limit for RMS step   =         1.0000000000
  Convergence in RMS step    =                  YES
  Max. gradient              =         0.0130720795
  Conv. limit for gradients  =         0.0100000000
  Conv. for gradients        =                   NO
  RMS gradient               =         0.0026510370
  Conv. limit for RMS grad.  =         1.0000000000
  Conv. in RMS gradients     =                  YES
 ---------------------------------------------------

 --------------------------
 OPTIMIZATION STEP:     25
 --------------------------

 Spin 1

 Number of electrons:                                                        719
 Number of occupied orbitals:                                                719
 Number of molecular orbitals:                                               719

 Spin 2

 Number of electrons:                                                        719
 Number of occupied orbitals:                                                719
 Number of molecular orbitals:                                               719

 Number of orbital functions:                                               2718
 Number of independent orbital functions:                                   2718

 Extrapolation method: PS Nth order


 SCF WAVEFUNCTION OPTIMIZATION

  ----------------------------------- OT ---------------------------------------
  Minimizer      : CG                  : conjugate gradient
  Preconditioner : FULL_ALL            : diagonalization, state selective
  Precond_solver : DEFAULT
  Line search    : 3PNT                : 3 energies
  stepsize       :    0.15000000                  energy_gap     :    0.08000000
  eps_taylor     :   0.10000E-15                  max_taylor     :             4
  ----------------------------------- OT ---------------------------------------

  Step     Update method      Time    Convergence         Total energy    Change
  ------------------------------------------------------------------------------
     1 OT CG       0.12E+00   11.4     0.00095319     -8143.7626532870 -8.14E+03
     2 OT LS       0.17E+00    6.8                    -8144.0506885168
     3 OT LS       0.19E+00    6.8                    -8144.0910240286
     4 OT CG       0.15E+00   13.9     0.00069784     -8144.0957469520 -3.33E-01
     5 OT LS       0.21E+00    7.0                    -8144.2926048111
     6 OT LS       0.23E+00    7.0                    -8144.3183167345
     7 OT CG       0.19E+00   13.9     0.00035290     -8144.3201035522 -2.24E-01
     8 OT LS       0.26E+00    7.0                    -8144.3215840243
     9 OT LS       0.95E-01    7.0                    -8144.2726512704
    10 OT CG       0.76E-01   13.9     0.00013328     -8144.3430712933 -2.30E-02
    11 OT LS       0.11E+00    7.0                    -8144.3467305019
    12 OT LS       0.12E+00    7.0                    -8144.3472941541
    13 OT CG       0.99E-01   13.9     0.00008351     -8144.3473840391 -4.31E-03
    14 OT LS       0.14E+00    7.0                    -8144.3492811473
    15 OT LS       0.17E+00    7.0                    -8144.3495896858
    16 OT CG       0.13E+00   13.9     0.00004608     -8144.3496533094 -2.27E-03
    17 OT LS       0.19E+00    7.0                    -8144.3502794838
    18 OT LS       0.15E+00    7.0                    -8144.3502580648
    19 OT CG       0.12E+00   13.9     0.00002673     -8144.3502897136 -6.36E-04
    20 OT LS       0.17E+00    7.0                    -8144.3505089170
    21 OT LS       0.17E+00    7.0                    -8144.3505280645
    22 OT CG       0.14E+00   13.9     0.00002505     -8144.3505280666 -2.38E-04
    23 OT LS       0.19E+00    7.0                    -8144.3507148177
    24 OT LS       0.15E+00    7.0                    -8144.3507063812
    25 OT CG       0.12E+00   13.9     0.00001200     -8144.3507172919 -1.89E-04
    26 OT LS       0.17E+00    7.0                    -8144.3507635559
    27 OT LS       0.18E+00    7.0                    -8144.3507690855
    28 OT CG       0.15E+00   13.9     0.00000848     -8144.3507693097 -5.20E-05

  *** SCF run converged in    28 steps ***


  Electronic density on regular grids:      -1437.9999922907        0.0000077093
  Core density on regular grids:             1437.9999996446       -0.0000003554
  Total charge density on r-space grids:        0.0000073539
  Total charge density g-space grids:           0.0000073539

  Overlap energy of the core charge distribution:               0.00000512240326
  Self energy of the core charge distribution:             -14650.93922905635191
  Core Hamiltonian energy:                                   4107.00640261213084
  Hartree energy:                                            3441.05935258370846
  Exchange-correlation energy:                              -1042.36464387425644
  Dispersion energy:                                           -0.58239578541406

  DFT+U energy:                                                 1.46973908811360

  Total energy:                                             -8144.35076930966534

  outer SCF iter =    1 RMS gradient =   0.85E-05 energy =      -8144.3507693097
  outer SCF loop converged in   1 iterations or   28 steps


  Integrated absolute spin density  :                             235.0360391413
  Ideal and single determinant S**2 :                    0.000000     127.912896

 ENERGY| Total FORCE_EVAL ( QS ) energy (a.u.):            -8144.350799729679238


 --------  Informations at step =    25 ------------
  Optimization Method        =                 BFGS
  Total Energy               =     -8144.3507997297
  Real energy change         =        -0.0177019627
  Predicted change in energy =        -0.0184257205
  Scaling factor             =         0.1505729074
  Step size                  =         0.2026401208
  Trust radius               =         0.4724315332
  Decrease in energy         =                  YES
  Used time                  =              295.140

  Convergence check :
  Max. step size             =         0.2026401208
  Conv. limit for step size  =         1.0000000000
  Convergence in step size   =                  YES
  RMS step size              =         0.0342693890
  Conv. limit for RMS step   =         1.0000000000
  Convergence in RMS step    =                  YES
  Max. gradient              =         0.0347425756
  Conv. limit for gradients  =         0.0100000000
  Conv. for gradients        =                   NO
  RMS gradient               =         0.0041419173
  Conv. limit for RMS grad.  =         1.0000000000
  Conv. in RMS gradients     =                  YES
 ---------------------------------------------------

 --------------------------
 OPTIMIZATION STEP:     26
 --------------------------

 Spin 1

 Number of electrons:                                                        719
 Number of occupied orbitals:                                                719
 Number of molecular orbitals:                                               719

 Spin 2

 Number of electrons:                                                        719
 Number of occupied orbitals:                                                719
 Number of molecular orbitals:                                               719

 Number of orbital functions:                                               2718
 Number of independent orbital functions:                                   2718

 Extrapolation method: PS Nth order


 SCF WAVEFUNCTION OPTIMIZATION

  ----------------------------------- OT ---------------------------------------
  Minimizer      : CG                  : conjugate gradient
  Preconditioner : FULL_ALL            : diagonalization, state selective
  Precond_solver : DEFAULT
  Line search    : 3PNT                : 3 energies
  stepsize       :    0.15000000                  energy_gap     :    0.08000000
  eps_taylor     :   0.10000E-15                  max_taylor     :             4
  ----------------------------------- OT ---------------------------------------

  Step     Update method      Time    Convergence         Total energy    Change
  ------------------------------------------------------------------------------
     1 OT CG       0.12E+00   11.4     0.00027896     -8144.2938842189 -8.14E+03
     2 OT LS       0.17E+00    6.8                    -8144.3209123137
     3 OT LS       0.23E+00    6.8                    -8144.3263958974
     4 OT CG       0.18E+00   13.7     0.00025164     -8144.3289451898 -3.51E-02
     5 OT LS       0.26E+00    6.8                    -8144.3500397948
     6 OT LS       0.17E+00    6.8                    -8144.3450128060
     7 OT CG       0.14E+00   13.7     0.00009952     -8144.3501371481 -2.12E-02
     8 OT LS       0.19E+00    6.8                    -8144.3515923771
     9 OT LS       0.95E-01    6.8                    -8144.3500137847
    10 OT CG       0.76E-01   13.7     0.00003990     -8144.3519700952 -1.83E-03
    11 OT LS       0.11E+00    6.8                    -8144.3522929597
    12 OT LS       0.12E+00    6.8                    -8144.3523376465
    13 OT CG       0.96E-01   13.7     0.00002285     -8144.3523419992 -3.72E-04
    14 OT LS       0.13E+00    6.8                    -8144.3524849685
    15 OT LS       0.18E+00    6.8                    -8144.3525127548
    16 OT CG       0.14E+00   13.7     0.00001373     -8144.3525239566 -1.82E-04
    17 OT LS       0.20E+00    6.8                    -8144.3525894107
    18 OT LS       0.19E+00    6.8                    -8144.3525933170
    19 OT CG       0.15E+00   13.7     0.00001256     -8144.3525935555 -6.96E-05
    20 OT LS       0.21E+00    6.8                    -8144.3526580205
    21 OT LS       0.25E+00    6.8                    -8144.3526678537
    22 OT CG       0.20E+00   13.7     0.00001385     -8144.3526693945 -7.58E-05
    23 OT LS       0.28E+00    6.8                    -8144.3527233286
    24 OT LS       0.15E+00    6.8                    -8144.3526918965
    25 OT CG       0.12E+00   13.7     0.00000782     -8144.3527276591 -5.83E-05

  *** SCF run converged in    25 steps ***


  Electronic density on regular grids:      -1437.9999923021        0.0000076979
  Core density on regular grids:             1437.9999996443       -0.0000003557
  Total charge density on r-space grids:        0.0000073422
  Total charge density g-space grids:           0.0000073422

  Overlap energy of the core charge distribution:               0.00000627092425
  Self energy of the core charge distribution:             -14650.93922905635191
  Core Hamiltonian energy:                                   4107.15391844336500
  Hartree energy:                                            3440.93563653584033
  Exchange-correlation energy:                              -1042.38874856933080
  Dispersion energy:                                           -0.58348921050681

  DFT+U energy:                                                 1.46917792697206

  Total energy:                                             -8144.35272765908667

  outer SCF iter =    1 RMS gradient =   0.78E-05 energy =      -8144.3527276591
  outer SCF loop converged in   1 iterations or   25 steps


  Integrated absolute spin density  :                             235.0242973705
  Ideal and single determinant S**2 :                    0.000000     127.905775

 ENERGY| Total FORCE_EVAL ( QS ) energy (a.u.):            -8144.352747727952192


 --------  Informations at step =    26 ------------
  Optimization Method        =                 BFGS
  Total Energy               =     -8144.3527477280
  Real energy change         =        -0.0019479983
  Predicted change in energy =        -0.0118862228
  Scaling factor             =         0.1505729074
  Step size                  =         0.1161338750
  Trust radius               =         0.4724315332
  Decrease in energy         =                  YES
  Used time                  =              263.691

  Convergence check :
  Max. step size             =         0.1161338750
  Conv. limit for step size  =         1.0000000000
  Convergence in step size   =                  YES
  RMS step size              =         0.0158988537
  Conv. limit for RMS step   =         1.0000000000
  Convergence in RMS step    =                  YES
  Max. gradient              =         0.0356847044
  Conv. limit for gradients  =         0.0100000000
  Conv. for gradients        =                   NO
  RMS gradient               =         0.0047105187
  Conv. limit for RMS grad.  =         1.0000000000
  Conv. in RMS gradients     =                  YES
 ---------------------------------------------------

 --------------------------
 OPTIMIZATION STEP:     27
 --------------------------

 Spin 1

 Number of electrons:                                                        719
 Number of occupied orbitals:                                                719
 Number of molecular orbitals:                                               719

 Spin 2

 Number of electrons:                                                        719
 Number of occupied orbitals:                                                719
 Number of molecular orbitals:                                               719

 Number of orbital functions:                                               2718
 Number of independent orbital functions:                                   2718

 Extrapolation method: PS Nth order


 SCF WAVEFUNCTION OPTIMIZATION

  ----------------------------------- OT ---------------------------------------
  Minimizer      : CG                  : conjugate gradient
  Preconditioner : FULL_ALL            : diagonalization, state selective
  Precond_solver : DEFAULT
  Line search    : 3PNT                : 3 energies
  stepsize       :    0.15000000                  energy_gap     :    0.08000000
  eps_taylor     :   0.10000E-15                  max_taylor     :             4
  ----------------------------------- OT ---------------------------------------

  Step     Update method      Time    Convergence         Total energy    Change
  ------------------------------------------------------------------------------
     1 OT CG       0.12E+00   11.3     0.00031577     -8144.2740602281 -8.14E+03
     2 OT LS       0.17E+00    6.8                    -8144.3080250805
     3 OT LS       0.22E+00    6.8                    -8144.3144885480
     4 OT CG       0.18E+00   13.7     0.00026490     -8144.3169378626 -4.29E-02
     5 OT LS       0.25E+00    6.8                    -8144.3429943433
     6 OT LS       0.19E+00    6.8                    -8144.3407706589
     7 OT CG       0.15E+00   13.7     0.00011975     -8144.3431309002 -2.62E-02
     8 OT LS       0.21E+00    6.8                    -8144.3448694378
     9 OT LS       0.95E-01    6.8                    -8144.3417427082
    10 OT CG       0.76E-01   13.7     0.00004439     -8144.3458107384 -2.68E-03
    11 OT LS       0.11E+00    6.8                    -8144.3462123464
    12 OT LS       0.12E+00    6.8                    -8144.3462688285
    13 OT CG       0.96E-01   13.7     0.00002418     -8144.3462748429 -4.64E-04
    14 OT LS       0.13E+00    6.8                    -8144.3464331268
    15 OT LS       0.17E+00    6.8                    -8144.3464618461
    16 OT CG       0.14E+00   13.7     0.00001371     -8144.3464708205 -1.96E-04
    17 OT LS       0.19E+00    6.8                    -8144.3465333407
    18 OT LS       0.18E+00    6.8                    -8144.3465369092
    19 OT CG       0.14E+00   13.7     0.00000927     -8144.3465371760 -6.64E-05

  *** SCF run converged in    19 steps ***


  Electronic density on regular grids:      -1437.9999923058        0.0000076942
  Core density on regular grids:             1437.9999996444       -0.0000003556
  Total charge density on r-space grids:        0.0000073386
  Total charge density g-space grids:           0.0000073386

  Overlap energy of the core charge distribution:               0.00000927574703
  Self energy of the core charge distribution:             -14650.93922905635191
  Core Hamiltonian energy:                                   4107.35992902286125
  Hartree energy:                                            3440.78468273802036
  Exchange-correlation energy:                              -1042.43200303915432
  Dispersion energy:                                           -0.58522655545619

  DFT+U energy:                                                 1.46530043835638

  Total energy:                                             -8144.34653717597757

  outer SCF iter =    1 RMS gradient =   0.93E-05 energy =      -8144.3465371760
  outer SCF loop converged in   1 iterations or   19 steps


  Integrated absolute spin density  :                             234.9887094941
  Ideal and single determinant S**2 :                    0.000000     127.889620

 ENERGY| Total FORCE_EVAL ( QS ) energy (a.u.):            -8144.346574788291946


 --------  Informations at step =    27 ------------
  Optimization Method        =                 BFGS
  Total Energy               =     -8144.3465747883
  Real energy change         =         0.0061729397
  Predicted change in energy =        -0.0119511212
  Scaling factor             =         0.1505729074
  Step size                  =         0.1359960356
  Trust radius               =         0.4724315332
  Decrease in energy         =                   NO
  Used time                  =              208.928

  Convergence check :
  Max. step size             =         0.1359960356
  Conv. limit for step size  =         1.0000000000
  Convergence in step size   =                  YES
  RMS step size              =         0.0195128687
  Conv. limit for RMS step   =         1.0000000000
  Convergence in RMS step    =                  YES
  Max. gradient              =         0.0350487900
  Conv. limit for gradients  =         0.0100000000
  Conv. for gradients        =                   NO
  RMS gradient               =         0.0041907007
  Conv. limit for RMS grad.  =         1.0000000000
  Conv. in RMS gradients     =                  YES
 ---------------------------------------------------

 --------------------------
 OPTIMIZATION STEP:     28
 --------------------------

 Spin 1

 Number of electrons:                                                        719
 Number of occupied orbitals:                                                719
 Number of molecular orbitals:                                               719

 Spin 2

 Number of electrons:                                                        719
 Number of occupied orbitals:                                                719
 Number of molecular orbitals:                                               719

 Number of orbital functions:                                               2718
 Number of independent orbital functions:                                   2718

 Extrapolation method: PS Nth order


 SCF WAVEFUNCTION OPTIMIZATION

  ----------------------------------- OT ---------------------------------------
  Minimizer      : CG                  : conjugate gradient
  Preconditioner : FULL_ALL            : diagonalization, state selective
  Precond_solver : DEFAULT
  Line search    : 3PNT                : 3 energies
  stepsize       :    0.15000000                  energy_gap     :    0.08000000
  eps_taylor     :   0.10000E-15                  max_taylor     :             4
  ----------------------------------- OT ---------------------------------------

  Step     Update method      Time    Convergence         Total energy    Change
  ------------------------------------------------------------------------------
     1 OT CG       0.12E+00   11.4     0.00031186     -8144.2807087624 -8.14E+03
     2 OT LS       0.17E+00    6.8                    -8144.3152127234
     3 OT LS       0.25E+00    6.8                    -8144.3228137274
     4 OT CG       0.20E+00   13.7     0.00026535     -8144.3276514757 -4.69E-02
     5 OT LS       0.28E+00    6.8                    -8144.3522685462
     6 OT LS       0.18E+00    6.8                    -8144.3453288932
     7 OT CG       0.14E+00   13.7     0.00009510     -8144.3525059839 -2.49E-02
     8 OT LS       0.20E+00    6.8                    -8144.3541759058
     9 OT LS       0.11E+00    6.8                    -8144.3529243941
    10 OT CG       0.86E-01   13.7     0.00003900     -8144.3544006362 -1.89E-03
    11 OT LS       0.12E+00    6.8                    -8144.3547452556
    12 OT LS       0.13E+00    6.8                    -8144.3547908305
    13 OT CG       0.11E+00   13.7     0.00002594     -8144.3547943174 -3.94E-04
    14 OT LS       0.15E+00    6.8                    -8144.3549811055
    15 OT LS       0.16E+00    6.8                    -8144.3550045818
    16 OT CG       0.13E+00   13.7     0.00001432     -8144.3550059212 -2.12E-04
    17 OT LS       0.18E+00    6.8                    -8144.3550766808
    18 OT LS       0.20E+00    6.8                    -8144.3550867801
    19 OT CG       0.16E+00   13.7     0.00001230     -8144.3550879285 -8.20E-05
    20 OT LS       0.23E+00    6.8                    -8144.3551610435
    21 OT LS       0.33E+00    6.8                    -8144.3551770447
    22 OT CG       0.27E+00   13.7     0.00001234     -8144.3551869535 -9.90E-05
    23 OT LS       0.38E+00    6.8                    -8144.3551911947
    24 OT LS       0.14E+00    6.8                    -8144.3551052152
    25 OT CG       0.11E+00   13.7     0.00000785     -8144.3552280508 -4.11E-05

  *** SCF run converged in    25 steps ***


  Electronic density on regular grids:      -1437.9999922899        0.0000077101
  Core density on regular grids:             1437.9999996443       -0.0000003557
  Total charge density on r-space grids:        0.0000073544
  Total charge density g-space grids:           0.0000073544

  Overlap energy of the core charge distribution:               0.00000831378066
  Self energy of the core charge distribution:             -14650.93922905635191
  Core Hamiltonian energy:                                   4107.28119580975181
  Hartree energy:                                            3440.84671243108141
  Exchange-correlation energy:                              -1042.42294122589510
  Dispersion energy:                                           -0.58633422558081

  DFT+U energy:                                                 1.46535990239675

  Total energy:                                             -8144.35522805081837

  outer SCF iter =    1 RMS gradient =   0.79E-05 energy =      -8144.3552280508
  outer SCF loop converged in   1 iterations or   25 steps


  Integrated absolute spin density  :                             234.9954477962
  Ideal and single determinant S**2 :                    0.000000     127.893240

 ENERGY| Total FORCE_EVAL ( QS ) energy (a.u.):            -8144.355244731706989


 --------  Informations at step =    28 ------------
  Optimization Method        =                 BFGS
  Total Energy               =     -8144.3552447317
  Real energy change         =        -0.0086699434
  Predicted change in energy =        -0.0120457797
  Scaling factor             =         0.1505729074
  Step size                  =         0.0947439455
  Trust radius               =         0.4724315332
  Decrease in energy         =                  YES
  Used time                  =              263.590

  Convergence check :
  Max. step size             =         0.0947439455
  Conv. limit for step size  =         1.0000000000
  Convergence in step size   =                  YES
  RMS step size              =         0.0165823484
  Conv. limit for RMS step   =         1.0000000000
  Convergence in RMS step    =                  YES
  Max. gradient              =         0.0278501805
  Conv. limit for gradients  =         0.0100000000
  Conv. for gradients        =                   NO
  RMS gradient               =         0.0024247805
  Conv. limit for RMS grad.  =         1.0000000000
  Conv. in RMS gradients     =                  YES
 ---------------------------------------------------

 --------------------------
 OPTIMIZATION STEP:     29
 --------------------------

 Spin 1

 Number of electrons:                                                        719
 Number of occupied orbitals:                                                719
 Number of molecular orbitals:                                               719

 Spin 2

 Number of electrons:                                                        719
 Number of occupied orbitals:                                                719
 Number of molecular orbitals:                                               719

 Number of orbital functions:                                               2718
 Number of independent orbital functions:                                   2718

 Extrapolation method: PS Nth order


 SCF WAVEFUNCTION OPTIMIZATION

  ----------------------------------- OT ---------------------------------------
  Minimizer      : CG                  : conjugate gradient
  Preconditioner : FULL_ALL            : diagonalization, state selective
  Precond_solver : DEFAULT
  Line search    : 3PNT                : 3 energies
  stepsize       :    0.15000000                  energy_gap     :    0.08000000
  eps_taylor     :   0.10000E-15                  max_taylor     :             4
  ----------------------------------- OT ---------------------------------------

  Step     Update method      Time    Convergence         Total energy    Change
  ------------------------------------------------------------------------------
     1 OT CG       0.12E+00   11.4     0.00024737     -8144.3097170125 -8.14E+03
     2 OT LS       0.17E+00    6.8                    -8144.3309503388
     3 OT LS       0.23E+00    6.8                    -8144.3352782316
     4 OT CG       0.19E+00   13.7     0.00021113     -8144.3373660170 -2.76E-02
     5 OT LS       0.26E+00    6.8                    -8144.3537118288
     6 OT LS       0.19E+00    6.8                    -8144.3512715794
     7 OT CG       0.15E+00   13.8     0.00007712     -8144.3537135445 -1.63E-02
     8 OT LS       0.21E+00    6.8                    -8144.3546339006
     9 OT LS       0.10E+00    6.8                    -8144.3535729080
    10 OT CG       0.81E-01   13.8     0.00003486     -8144.3548951493 -1.18E-03
    11 OT LS       0.11E+00    6.8                    -8144.3551685696
    12 OT LS       0.14E+00    6.8                    -8144.3552147636
    13 OT CG       0.11E+00   13.8     0.00002284     -8144.3552257075 -3.31E-04
    14 OT LS       0.16E+00    6.8                    -8144.3553699881
    15 OT LS       0.15E+00    6.8                    -8144.3553813727
    16 OT CG       0.12E+00   13.8     0.00001209     -8144.3553814366 -1.56E-04
    17 OT LS       0.17E+00    6.8                    -8144.3554302686
    18 OT LS       0.20E+00    6.8                    -8144.3554380256
    19 OT CG       0.16E+00   13.8     0.00001099     -8144.3554394560 -5.80E-05
    20 OT LS       0.23E+00    6.8                    -8144.3554912104
    21 OT LS       0.25E+00    6.8                    -8144.3554979586
    22 OT CG       0.20E+00   13.7     0.00001191     -8144.3554984414 -5.90E-05
    23 OT LS       0.28E+00    6.8                    -8144.3555262887
    24 OT LS       0.13E+00    6.8                    -8144.3554906730
    25 OT CG       0.11E+00   13.8     0.00000625     -8144.3555355175 -3.71E-05

  *** SCF run converged in    25 steps ***


  Electronic density on regular grids:      -1437.9999922848        0.0000077152
  Core density on regular grids:             1437.9999996448       -0.0000003552
  Total charge density on r-space grids:        0.0000073600
  Total charge density g-space grids:           0.0000073600

  Overlap energy of the core charge distribution:               0.00000401875799
  Self energy of the core charge distribution:             -14650.93922905635191
  Core Hamiltonian energy:                                   4107.08539791639305
  Hartree energy:                                            3440.99416289794635
  Exchange-correlation energy:                              -1042.38143566129202
  Dispersion energy:                                           -0.58213500255580

  DFT+U energy:                                                 1.46769936955936

  Total energy:                                             -8144.35553551754219

  outer SCF iter =    1 RMS gradient =   0.62E-05 energy =      -8144.3555355175
  outer SCF loop converged in   1 iterations or   25 steps


  Integrated absolute spin density  :                             235.0272141613
  Ideal and single determinant S**2 :                    0.000000     127.907438

 ENERGY| Total FORCE_EVAL ( QS ) energy (a.u.):            -8144.355547025202213


 --------  Informations at step =    29 ------------
  Optimization Method        =                 BFGS
  Total Energy               =     -8144.3555470252
  Real energy change         =        -0.0003022935
  Predicted change in energy =        -0.0057794649
  Scaling factor             =         0.1505729074
  Step size                  =         0.1698481852
  Trust radius               =         0.4724315332
  Decrease in energy         =                  YES
  Used time                  =              263.939

  Convergence check :
  Max. step size             =         0.1698481852
  Conv. limit for step size  =         1.0000000000
  Convergence in step size   =                  YES
  RMS step size              =         0.0161691390
  Conv. limit for RMS step   =         1.0000000000
  Convergence in RMS step    =                  YES
  Max. gradient              =         0.0557739483
  Conv. limit for gradients  =         0.0100000000
  Conv. for gradients        =                   NO
  RMS gradient               =         0.0063813613
  Conv. limit for RMS grad.  =         1.0000000000
  Conv. in RMS gradients     =                  YES
 ---------------------------------------------------

 --------------------------
 OPTIMIZATION STEP:     30
 --------------------------

 Spin 1

 Number of electrons:                                                        719
 Number of occupied orbitals:                                                719
 Number of molecular orbitals:                                               719

 Spin 2

 Number of electrons:                                                        719
 Number of occupied orbitals:                                                719
 Number of molecular orbitals:                                               719

 Number of orbital functions:                                               2718
 Number of independent orbital functions:                                   2718

 Extrapolation method: PS Nth order


 SCF WAVEFUNCTION OPTIMIZATION

  ----------------------------------- OT ---------------------------------------
  Minimizer      : CG                  : conjugate gradient
  Preconditioner : FULL_ALL            : diagonalization, state selective
  Precond_solver : DEFAULT
  Line search    : 3PNT                : 3 energies
  stepsize       :    0.15000000                  energy_gap     :    0.08000000
  eps_taylor     :   0.10000E-15                  max_taylor     :             4
  ----------------------------------- OT ---------------------------------------

  Step     Update method      Time    Convergence         Total energy    Change
  ------------------------------------------------------------------------------
     1 OT CG       0.12E+00   11.4     0.00022445     -8144.3207341224 -8.14E+03
     2 OT LS       0.17E+00    6.8                    -8144.3388601384
     3 OT LS       0.26E+00    6.8                    -8144.3430296471
     4 OT CG       0.21E+00   13.7     0.00019098     -8144.3461040200 -2.54E-02
     5 OT LS       0.29E+00    6.8                    -8144.3577602132
     6 OT LS       0.17E+00    6.8                    -8144.3525011262
     7 OT CG       0.14E+00   13.7     0.00007349     -8144.3582800181 -1.22E-02
     8 OT LS       0.19E+00    6.8                    -8144.3590255376
     9 OT LS       0.92E-01    6.8                    -8144.3581306160
    10 OT CG       0.74E-01   13.7     0.00002978     -8144.3592516343 -9.72E-04
    11 OT LS       0.10E+00    6.8                    -8144.3594258152
    12 OT LS       0.12E+00    6.8                    -8144.3594498590
    13 OT CG       0.93E-01   13.7     0.00001597     -8144.3594521751 -2.01E-04
    14 OT LS       0.13E+00    6.8                    -8144.3595189851
    15 OT LS       0.17E+00    6.8                    -8144.3595314372
    16 OT CG       0.13E+00   13.7     0.00000674     -8144.3595357392 -8.36E-05

  *** SCF run converged in    16 steps ***


  Electronic density on regular grids:      -1437.9999922983        0.0000077017
  Core density on regular grids:             1437.9999996446       -0.0000003554
  Total charge density on r-space grids:        0.0000073464
  Total charge density g-space grids:           0.0000073464

  Overlap energy of the core charge distribution:               0.00000414097245
  Self energy of the core charge distribution:             -14650.93922905635191
  Core Hamiltonian energy:                                   4107.07805751153501
  Hartree energy:                                            3440.99990291015547
  Exchange-correlation energy:                              -1042.37978431918850
  Dispersion energy:                                           -0.58576697967747

  DFT+U energy:                                                 1.46728005333648

  Total energy:                                             -8144.35953573921870

  outer SCF iter =    1 RMS gradient =   0.67E-05 energy =      -8144.3595357392
  outer SCF loop converged in   1 iterations or   16 steps


  Integrated absolute spin density  :                             235.0240175404
  Ideal and single determinant S**2 :                    0.000000     127.906595

 ENERGY| Total FORCE_EVAL ( QS ) energy (a.u.):            -8144.359548957768311


 --------  Informations at step =    30 ------------
  Optimization Method        =                 BFGS
  Total Energy               =     -8144.3595489578
  Real energy change         =        -0.0040019326
  Predicted change in energy =        -0.0088935404
  Scaling factor             =         0.1505729074
  Step size                  =         0.0595425640
  Trust radius               =         0.4724315332
  Decrease in energy         =                  YES
  Used time                  =              180.991

  Convergence check :
  Max. step size             =         0.0595425640
  Conv. limit for step size  =         1.0000000000
  Convergence in step size   =                  YES
  RMS step size              =         0.0085103453
  Conv. limit for RMS step   =         1.0000000000
  Convergence in RMS step    =                  YES
  Max. gradient              =         0.0529399710
  Conv. limit for gradients  =         0.0100000000
  Conv. for gradients        =                   NO
  RMS gradient               =         0.0041117830
  Conv. limit for RMS grad.  =         1.0000000000
  Conv. in RMS gradients     =                  YES
 ---------------------------------------------------

 --------------------------
 OPTIMIZATION STEP:     31
 --------------------------

 Spin 1

 Number of electrons:                                                        719
 Number of occupied orbitals:                                                719
 Number of molecular orbitals:                                               719

 Spin 2

 Number of electrons:                                                        719
 Number of occupied orbitals:                                                719
 Number of molecular orbitals:                                               719

 Number of orbital functions:                                               2718
 Number of independent orbital functions:                                   2718

 Extrapolation method: PS Nth order


 SCF WAVEFUNCTION OPTIMIZATION

  ----------------------------------- OT ---------------------------------------
  Minimizer      : CG                  : conjugate gradient
  Preconditioner : FULL_ALL            : diagonalization, state selective
  Precond_solver : DEFAULT
  Line search    : 3PNT                : 3 energies
  stepsize       :    0.15000000                  energy_gap     :    0.08000000
  eps_taylor     :   0.10000E-15                  max_taylor     :             4
  ----------------------------------- OT ---------------------------------------

  Step     Update method      Time    Convergence         Total energy    Change
  ------------------------------------------------------------------------------
     1 OT CG       0.12E+00   11.4     0.00015864     -8144.3322436362 -8.14E+03
     2 OT LS       0.17E+00    6.8                    -8144.3407234985
     3 OT LS       0.21E+00    6.8                    -8144.3422555798
     4 OT CG       0.17E+00   13.7     0.00013092     -8144.3427278660 -1.05E-02
     5 OT LS       0.24E+00    6.8                    -8144.3491049581
     6 OT LS       0.19E+00    6.8                    -8144.3488236119
     7 OT CG       0.15E+00   13.7     0.00006054     -8144.3491911554 -6.46E-03
     8 OT LS       0.22E+00    6.8                    -8144.3495876043
     9 OT LS       0.94E-01    6.8                    -8144.3487247730
    10 OT CG       0.75E-01   13.7     0.00002188     -8144.3498655010 -6.74E-04
    11 OT LS       0.11E+00    6.8                    -8144.3499588544
    12 OT LS       0.11E+00    6.8                    -8144.3499697044
    13 OT CG       0.89E-01   13.7     0.00001068     -8144.3499700612 -1.05E-04
    14 OT LS       0.13E+00    6.8                    -8144.3500001213
    15 OT LS       0.18E+00    6.8                    -8144.3500066803
    16 OT CG       0.15E+00   13.7     0.00000572     -8144.3500106784 -4.06E-05

  *** SCF run converged in    16 steps ***


  Electronic density on regular grids:      -1437.9999923027        0.0000076973
  Core density on regular grids:             1437.9999996446       -0.0000003554
  Total charge density on r-space grids:        0.0000073419
  Total charge density g-space grids:           0.0000073419

  Overlap energy of the core charge distribution:               0.00001118095803
  Self energy of the core charge distribution:             -14650.93922905635191
  Core Hamiltonian energy:                                   4107.32556329456565
  Hartree energy:                                            3440.81240773589070
  Exchange-correlation energy:                              -1042.43359729960025
  Dispersion energy:                                           -0.58039079896453

  DFT+U energy:                                                 1.46522426513555

  Total energy:                                             -8144.35001067836674

  outer SCF iter =    1 RMS gradient =   0.57E-05 energy =      -8144.3500106784
  outer SCF loop converged in   1 iterations or   16 steps


  Integrated absolute spin density  :                             235.0009713365
  Ideal and single determinant S**2 :                    0.000000     127.895806

 ENERGY| Total FORCE_EVAL ( QS ) energy (a.u.):            -8144.350019068296206


 --------  Informations at step =    31 ------------
  Optimization Method        =                 BFGS
  Total Energy               =     -8144.3500190683
  Real energy change         =         0.0095298895
  Predicted change in energy =        -0.0082827319
  Scaling factor             =         0.1505729074
  Step size                  =         0.1276286966
  Trust radius               =         0.4724315332
  Decrease in energy         =                   NO
  Used time                  =              180.966

  Convergence check :
  Max. step size             =         0.1276286966
  Conv. limit for step size  =         1.0000000000
  Convergence in step size   =                  YES
  RMS step size              =         0.0169625268
  Conv. limit for RMS step   =         1.0000000000
  Convergence in RMS step    =                  YES
  Max. gradient              =         0.0677667627
  Conv. limit for gradients  =         0.0100000000
  Conv. for gradients        =                   NO
  RMS gradient               =         0.0052773143
  Conv. limit for RMS grad.  =         1.0000000000
  Conv. in RMS gradients     =                  YES
 ---------------------------------------------------

 --------------------------
 OPTIMIZATION STEP:     32
 --------------------------

 Spin 1

 Number of electrons:                                                        719
 Number of occupied orbitals:                                                719
 Number of molecular orbitals:                                               719

 Spin 2

 Number of electrons:                                                        719
 Number of occupied orbitals:                                                719
 Number of molecular orbitals:                                               719

 Number of orbital functions:                                               2718
 Number of independent orbital functions:                                   2718

 Extrapolation method: PS Nth order


 SCF WAVEFUNCTION OPTIMIZATION

  ----------------------------------- OT ---------------------------------------
  Minimizer      : CG                  : conjugate gradient
  Preconditioner : FULL_ALL            : diagonalization, state selective
  Precond_solver : DEFAULT
  Line search    : 3PNT                : 3 energies
  stepsize       :    0.15000000                  energy_gap     :    0.08000000
  eps_taylor     :   0.10000E-15                  max_taylor     :             4
  ----------------------------------- OT ---------------------------------------

  Step     Update method      Time    Convergence         Total energy    Change
  ------------------------------------------------------------------------------
     1 OT CG       0.12E+00   11.4     0.00030680     -8144.2847522035 -8.14E+03
     2 OT LS       0.17E+00    6.8                    -8144.3196304755
     3 OT LS       0.29E+00    6.8                    -8144.3283773178
     4 OT CG       0.23E+00   13.7     0.00026506     -8144.3371908971 -5.24E-02
     5 OT LS       0.32E+00    6.8                    -8144.3510370902
     6 OT LS       0.15E+00    6.8                    -8144.3294487169
     7 OT CG       0.12E+00   13.7     0.00009945     -8144.3572426053 -2.01E-02
     8 OT LS       0.16E+00    6.8                    -8144.3591933793
     9 OT LS       0.10E+00    6.8                    -8144.3585176640
    10 OT CG       0.82E-01   13.8     0.00004733     -8144.3592331092 -1.99E-03
    11 OT LS       0.12E+00    6.8                    -8144.3597229280
    12 OT LS       0.13E+00    6.8                    -8144.3597899163
    13 OT CG       0.10E+00   13.8     0.00002524     -8144.3597961218 -5.63E-04
    14 OT LS       0.14E+00    6.8                    -8144.3599493540
    15 OT LS       0.13E+00    6.8                    -8144.3599530959
    16 OT CG       0.10E+00   13.8     0.00001021     -8144.3599555497 -1.59E-04
    17 OT LS       0.14E+00    6.8                    -8144.3599842785
    18 OT LS       0.16E+00    6.8                    -8144.3599884931
    19 OT CG       0.13E+00   13.8     0.00000756     -8144.3599890420 -3.35E-05

  *** SCF run converged in    19 steps ***


  Electronic density on regular grids:      -1437.9999922954        0.0000077046
  Core density on regular grids:             1437.9999996448       -0.0000003552
  Total charge density on r-space grids:        0.0000073494
  Total charge density g-space grids:           0.0000073494

  Overlap energy of the core charge distribution:               0.00000742912033
  Self energy of the core charge distribution:             -14650.93922905635191
  Core Hamiltonian energy:                                   4107.31029755484815
  Hartree energy:                                            3440.82640892154541
  Exchange-correlation energy:                              -1042.43347788203482
  Dispersion energy:                                           -0.58639064557937

  DFT+U energy:                                                 1.46239463650195

  Total energy:                                             -8144.35998904195094

  outer SCF iter =    1 RMS gradient =   0.76E-05 energy =      -8144.3599890420
  outer SCF loop converged in   1 iterations or   19 steps


  Integrated absolute spin density  :                             234.9833232424
  Ideal and single determinant S**2 :                    0.000000     127.889674

 ENERGY| Total FORCE_EVAL ( QS ) energy (a.u.):            -8144.360007706096440


 --------  Informations at step =    32 ------------
  Optimization Method        =                 BFGS
  Total Energy               =     -8144.3600077061
  Real energy change         =        -0.0099886378
  Predicted change in energy =        -0.0087115504
  Scaling factor             =         0.1505729074
  Step size                  =         0.0738081615
  Trust radius               =         0.4724315332
  Decrease in energy         =                  YES
  Used time                  =              209.125

  Convergence check :
  Max. step size             =         0.0738081615
  Conv. limit for step size  =         1.0000000000
  Convergence in step size   =                  YES
  RMS step size              =         0.0120175579
  Conv. limit for RMS step   =         1.0000000000
  Convergence in RMS step    =                  YES
  Max. gradient              =         0.0130072443
  Conv. limit for gradients  =         0.0100000000
  Conv. for gradients        =                   NO
  RMS gradient               =         0.0018347646
  Conv. limit for RMS grad.  =         1.0000000000
  Conv. in RMS gradients     =                  YES
 ---------------------------------------------------

 --------------------------
 OPTIMIZATION STEP:     33
 --------------------------

 Spin 1

 Number of electrons:                                                        719
 Number of occupied orbitals:                                                719
 Number of molecular orbitals:                                               719

 Spin 2

 Number of electrons:                                                        719
 Number of occupied orbitals:                                                719
 Number of molecular orbitals:                                               719

 Number of orbital functions:                                               2718
 Number of independent orbital functions:                                   2718

 Extrapolation method: PS Nth order


 SCF WAVEFUNCTION OPTIMIZATION

  ----------------------------------- OT ---------------------------------------
  Minimizer      : CG                  : conjugate gradient
  Preconditioner : FULL_ALL            : diagonalization, state selective
  Precond_solver : DEFAULT
  Line search    : 3PNT                : 3 energies
  stepsize       :    0.15000000                  energy_gap     :    0.08000000
  eps_taylor     :   0.10000E-15                  max_taylor     :             4
  ----------------------------------- OT ---------------------------------------

  Step     Update method      Time    Convergence         Total energy    Change
  ------------------------------------------------------------------------------
     1 OT CG       0.12E+00   11.4     0.00021858     -8144.3263011149 -8.14E+03
     2 OT LS       0.17E+00    6.8                    -8144.3428993410
     3 OT LS       0.23E+00    6.8                    -8144.3462925229
     4 OT CG       0.19E+00   13.7     0.00018360     -8144.3479414468 -2.16E-02
     5 OT LS       0.26E+00    6.8                    -8144.3602433634
     6 OT LS       0.19E+00    6.8                    -8144.3583233675
     7 OT CG       0.15E+00   13.7     0.00007460     -8144.3602435633 -1.23E-02
     8 OT LS       0.21E+00    6.8                    -8144.3608835682
     9 OT LS       0.93E-01    6.8                    -8144.3596901616
    10 OT CG       0.74E-01   13.7     0.00002976     -8144.3612517278 -1.01E-03
    11 OT LS       0.10E+00    6.8                    -8144.3614260429
    12 OT LS       0.12E+00    6.8                    -8144.3614494933
    13 OT CG       0.92E-01   13.7     0.00001590     -8144.3614514666 -2.00E-04
    14 OT LS       0.13E+00    6.8                    -8144.3615159301
    15 OT LS       0.16E+00    6.8                    -8144.3615266780
    16 OT CG       0.13E+00   13.7     0.00000753     -8144.3615291016 -7.76E-05

  *** SCF run converged in    16 steps ***


  Electronic density on regular grids:      -1437.9999922913        0.0000077087
  Core density on regular grids:             1437.9999996447       -0.0000003553
  Total charge density on r-space grids:        0.0000073534
  Total charge density g-space grids:           0.0000073534

  Overlap energy of the core charge distribution:               0.00000382400416
  Self energy of the core charge distribution:             -14650.93922905635191
  Core Hamiltonian energy:                                   4107.05718699368572
  Hartree energy:                                            3441.01556234241707
  Exchange-correlation energy:                              -1042.37680729023305
  Dispersion energy:                                           -0.58479982943794

  DFT+U energy:                                                 1.46655391433471

  Total energy:                                             -8144.36152910158125

  outer SCF iter =    1 RMS gradient =   0.75E-05 energy =      -8144.3615291016
  outer SCF loop converged in   1 iterations or   16 steps


  Integrated absolute spin density  :                             235.0216891606
  Ideal and single determinant S**2 :                    0.000000     127.906979

 ENERGY| Total FORCE_EVAL ( QS ) energy (a.u.):            -8144.361545715342800


 --------  Informations at step =    33 ------------
  Optimization Method        =                 BFGS
  Total Energy               =     -8144.3615457153
  Real energy change         =        -0.0015380092
  Predicted change in energy =        -0.0046495203
  Scaling factor             =         0.1505729074
  Step size                  =         0.1572973000
  Trust radius               =         0.4724315332
  Decrease in energy         =                  YES
  Used time                  =              283.734

  Convergence check :
  Max. step size             =         0.1572973000
  Conv. limit for step size  =         1.0000000000
  Convergence in step size   =                  YES
  RMS step size              =         0.0150485074
  Conv. limit for RMS step   =         1.0000000000
  Convergence in RMS step    =                  YES
  Max. gradient              =         0.0606679321
  Conv. limit for gradients  =         0.0100000000
  Conv. for gradients        =                   NO
  RMS gradient               =         0.0056003301
  Conv. limit for RMS grad.  =         1.0000000000
  Conv. in RMS gradients     =                  YES
 ---------------------------------------------------

 --------------------------
 OPTIMIZATION STEP:     34
 --------------------------

 Spin 1

 Number of electrons:                                                        719
 Number of occupied orbitals:                                                719
 Number of molecular orbitals:                                               719

 Spin 2

 Number of electrons:                                                        719
 Number of occupied orbitals:                                                719
 Number of molecular orbitals:                                               719

 Number of orbital functions:                                               2718
 Number of independent orbital functions:                                   2718

 Extrapolation method: PS Nth order


 SCF WAVEFUNCTION OPTIMIZATION

  ----------------------------------- OT ---------------------------------------
  Minimizer      : CG                  : conjugate gradient
  Preconditioner : FULL_ALL            : diagonalization, state selective
  Precond_solver : DEFAULT
  Line search    : 3PNT                : 3 energies
  stepsize       :    0.15000000                  energy_gap     :    0.08000000
  eps_taylor     :   0.10000E-15                  max_taylor     :             4
  ----------------------------------- OT ---------------------------------------

  Step     Update method      Time    Convergence         Total energy    Change
  ------------------------------------------------------------------------------
     1 OT CG       0.12E+00  926.6     0.00021307     -8144.3281646566 -8.14E+03
     2 OT LS       0.17E+00    6.8                    -8144.3448697024
     3 OT LS       0.28E+00    6.8                    -8144.3489832103
     4 OT CG       0.22E+00   13.8     0.00018246     -8144.3528779212 -2.47E-02
     5 OT LS       0.31E+00    6.9                    -8144.3616182240
     6 OT LS       0.16E+00    6.9                    -8144.3538105615
     7 OT CG       0.13E+00   13.9     0.00006012     -8144.3632488490 -1.04E-02
     8 OT LS       0.18E+00    6.9                    -8144.3639931979
     9 OT LS       0.11E+00    6.9                    -8144.3636978410
    10 OT CG       0.87E-01   13.9     0.00002869     -8144.3640165282 -7.68E-04
    11 OT LS       0.12E+00    6.9                    -8144.3641986243
    12 OT LS       0.12E+00    6.9                    -8144.3642166674
    13 OT CG       0.10E+00   13.9     0.00001558     -8144.3642167584 -2.00E-04
    14 OT LS       0.14E+00   51.0                    -8144.3642765230
    15 OT LS       0.14E+00    6.9                    -8144.3642810063
    16 OT CG       0.11E+00   13.9     0.00000537     -8144.3642810574 -6.43E-05

  *** SCF run converged in    16 steps ***


  Electronic density on regular grids:      -1437.9999922900        0.0000077100
  Core density on regular grids:             1437.9999996448       -0.0000003552
  Total charge density on r-space grids:        0.0000073548
  Total charge density g-space grids:           0.0000073548

  Overlap energy of the core charge distribution:               0.00000477698612
  Self energy of the core charge distribution:             -14650.93922905635191
  Core Hamiltonian energy:                                   4107.08529429471673
  Hartree energy:                                            3440.99142485241919
  Exchange-correlation energy:                              -1042.38376991460314
  Dispersion energy:                                           -0.58595246944651

  DFT+U energy:                                                 1.46794645885012

  Total energy:                                             -8144.36428105742925

  outer SCF iter =    1 RMS gradient =   0.54E-05 energy =      -8144.3642810574
  outer SCF loop converged in   1 iterations or   16 steps


  Integrated absolute spin density  :                             235.0302857674
  Ideal and single determinant S**2 :                    0.000000     127.909332

 ENERGY| Total FORCE_EVAL ( QS ) energy (a.u.):            -8144.364289592968817


 --------  Informations at step =    34 ------------
  Optimization Method        =                 BFGS
  Total Energy               =     -8144.3642895930
  Real energy change         =        -0.0027438776
  Predicted change in energy =        -0.0060006307
  Scaling factor             =         0.1505729074
  Step size                  =         0.0555173817
  Trust radius               =         0.4724315332
  Decrease in energy         =                  YES
  Used time                  =             1312.024

  Convergence check :
  Max. step size             =         0.0555173817
  Conv. limit for step size  =         1.0000000000
  Convergence in step size   =                  YES
  RMS step size              =         0.0079424338
  Conv. limit for RMS step   =         1.0000000000
  Convergence in RMS step    =                  YES
  Max. gradient              =         0.0391568921
  Conv. limit for gradients  =         0.0100000000
  Conv. for gradients        =                   NO
  RMS gradient               =         0.0025858440
  Conv. limit for RMS grad.  =         1.0000000000
  Conv. in RMS gradients     =                  YES
 ---------------------------------------------------

 --------------------------
 OPTIMIZATION STEP:     35
 --------------------------

 Spin 1

 Number of electrons:                                                        719
 Number of occupied orbitals:                                                719
 Number of molecular orbitals:                                               719

 Spin 2

 Number of electrons:                                                        719
 Number of occupied orbitals:                                                719
 Number of molecular orbitals:                                               719

 Number of orbital functions:                                               2718
 Number of independent orbital functions:                                   2718

 Extrapolation method: PS Nth order


 SCF WAVEFUNCTION OPTIMIZATION

  ----------------------------------- OT ---------------------------------------
  Minimizer      : CG                  : conjugate gradient
  Preconditioner : FULL_ALL            : diagonalization, state selective
  Precond_solver : DEFAULT
  Line search    : 3PNT                : 3 energies
  stepsize       :    0.15000000                  energy_gap     :    0.08000000
  eps_taylor     :   0.10000E-15                  max_taylor     :             4
  ----------------------------------- OT ---------------------------------------

  Step     Update method      Time    Convergence         Total energy    Change
  ------------------------------------------------------------------------------
     1 OT CG       0.12E+00   11.6     0.00014117     -8144.3497861083 -8.14E+03
     2 OT LS       0.17E+00    6.9                    -8144.3570589089
     3 OT LS       0.27E+00    6.9                    -8144.3588059769
     4 OT CG       0.22E+00   13.8     0.00012483     -8144.3603122104 -1.05E-02
     5 OT LS       0.30E+00    6.9                    -8144.3645721557
     6 OT LS       0.16E+00    6.9                    -8144.3612817776
     7 OT CG       0.13E+00   13.8     0.00004472     -8144.3651791552 -4.87E-03
     8 OT LS       0.18E+00    6.9                    -8144.3655336389
     9 OT LS       0.99E-01    6.9                    -8144.3653133062
    10 OT CG       0.79E-01   13.8     0.00001916     -8144.3655665123 -3.87E-04
    11 OT LS       0.11E+00    6.9                    -8144.3656456459
    12 OT LS       0.13E+00    6.9                    -8144.3656580002
    13 OT CG       0.10E+00   13.8     0.00001129     -8144.3656601248 -9.36E-05
    14 OT LS       0.15E+00    6.8                    -8144.3656946572
    15 OT LS       0.16E+00    6.9                    -8144.3656986900
    16 OT CG       0.12E+00   13.8     0.00000579     -8144.3656988270 -3.87E-05

  *** SCF run converged in    16 steps ***


  Electronic density on regular grids:      -1437.9999922925        0.0000077075
  Core density on regular grids:             1437.9999996444       -0.0000003556
  Total charge density on r-space grids:        0.0000073519
  Total charge density g-space grids:           0.0000073519

  Overlap energy of the core charge distribution:               0.00000811778519
  Self energy of the core charge distribution:             -14650.93922905635191
  Core Hamiltonian energy:                                   4107.28772333816050
  Hartree energy:                                            3440.83932806445637
  Exchange-correlation energy:                              -1042.43149911593332
  Dispersion energy:                                           -0.58615986809837

  DFT+U energy:                                                 1.46412969300211

  Total energy:                                             -8144.36569882697950

  outer SCF iter =    1 RMS gradient =   0.58E-05 energy =      -8144.3656988270
  outer SCF loop converged in   1 iterations or   16 steps


  Integrated absolute spin density  :                             235.0059985036
  Ideal and single determinant S**2 :                    0.000000     127.898947

 ENERGY| Total FORCE_EVAL ( QS ) energy (a.u.):            -8144.365709735709061


 --------  Informations at step =    35 ------------
  Optimization Method        =                 BFGS
  Total Energy               =     -8144.3657097357
  Real energy change         =        -0.0014201427
  Predicted change in energy =        -0.0026204185
  Scaling factor             =         0.1505729074
  Step size                  =         0.0634338849
  Trust radius               =         0.4724315332
  Decrease in energy         =                  YES
  Used time                  =              182.958

  Convergence check :
  Max. step size             =         0.0634338849
  Conv. limit for step size  =         1.0000000000
  Convergence in step size   =                  YES
  RMS step size              =         0.0090500464
  Conv. limit for RMS step   =         1.0000000000
  Convergence in RMS step    =                  YES
  Max. gradient              =         0.0242988721
  Conv. limit for gradients  =         0.0100000000
  Conv. for gradients        =                   NO
  RMS gradient               =         0.0019043483
  Conv. limit for RMS grad.  =         1.0000000000
  Conv. in RMS gradients     =                  YES
 ---------------------------------------------------

 --------------------------
 OPTIMIZATION STEP:     36
 --------------------------

 Spin 1

 Number of electrons:                                                        719
 Number of occupied orbitals:                                                719
 Number of molecular orbitals:                                               719

 Spin 2

 Number of electrons:                                                        719
 Number of occupied orbitals:                                                719
 Number of molecular orbitals:                                               719

 Number of orbital functions:                                               2718
 Number of independent orbital functions:                                   2718

 Extrapolation method: PS Nth order


 SCF WAVEFUNCTION OPTIMIZATION

  ----------------------------------- OT ---------------------------------------
  Minimizer      : CG                  : conjugate gradient
  Preconditioner : FULL_ALL            : diagonalization, state selective
  Precond_solver : DEFAULT
  Line search    : 3PNT                : 3 energies
  stepsize       :    0.15000000                  energy_gap     :    0.08000000
  eps_taylor     :   0.10000E-15                  max_taylor     :             4
  ----------------------------------- OT ---------------------------------------

  Step     Update method      Time    Convergence         Total energy    Change
  ------------------------------------------------------------------------------
     1 OT CG       0.12E+00   11.8     0.00015288     -8144.3489455638 -8.14E+03
     2 OT LS       0.17E+00    6.9                    -8144.3576138440
     3 OT LS       0.29E+00    6.9                    -8144.3597967790
     4 OT CG       0.23E+00   13.8     0.00012510     -8144.3620439911 -1.31E-02
     5 OT LS       0.32E+00    6.9                    -8144.3656901880
     6 OT LS       0.15E+00    6.9                    -8144.3613255072
     7 OT CG       0.12E+00   13.8     0.00004510     -8144.3667852350 -4.74E-03
     8 OT LS       0.17E+00    6.9                    -8144.3672689167
     9 OT LS       0.12E+00    6.9                    -8144.3671809793
    10 OT CG       0.97E-01   13.8     0.00002521     -8144.3672690890 -4.84E-04
    11 OT LS       0.14E+00    6.9                    -8144.3674108438
    12 OT LS       0.12E+00    6.8                    -8144.3674116577
    13 OT CG       0.94E-01   13.9     0.00001212     -8144.3674152492 -1.46E-04
    14 OT LS       0.13E+00    6.9                    -8144.3674491984
    15 OT LS       0.13E+00    6.9                    -8144.3674514774
    16 OT CG       0.10E+00   13.8     0.00000480     -8144.3674515473 -3.63E-05

  *** SCF run converged in    16 steps ***


  Electronic density on regular grids:      -1437.9999922962        0.0000077038
  Core density on regular grids:             1437.9999996448       -0.0000003552
  Total charge density on r-space grids:        0.0000073485
  Total charge density g-space grids:           0.0000073485

  Overlap energy of the core charge distribution:               0.00000685241520
  Self energy of the core charge distribution:             -14650.93922905635191
  Core Hamiltonian energy:                                   4107.25222816091809
  Hartree energy:                                            3440.86788467679980
  Exchange-correlation energy:                              -1042.42572911975572
  Dispersion energy:                                           -0.58575115930475

  DFT+U energy:                                                 1.46313809796127

  Total energy:                                             -8144.36745154731852

  outer SCF iter =    1 RMS gradient =   0.48E-05 energy =      -8144.3674515473
  outer SCF loop converged in   1 iterations or   16 steps


  Integrated absolute spin density  :                             235.0060010145
  Ideal and single determinant S**2 :                    0.000000     127.899719

 ENERGY| Total FORCE_EVAL ( QS ) energy (a.u.):            -8144.367457913508588


 --------  Informations at step =    36 ------------
  Optimization Method        =                 BFGS
  Total Energy               =     -8144.3674579135
  Real energy change         =        -0.0017481778
  Predicted change in energy =        -0.0012374608
  Scaling factor             =         0.1505729074
  Step size                  =         0.0580251651
  Trust radius               =         0.4724315332
  Decrease in energy         =                  YES
  Used time                  =              183.405

  Convergence check :
  Max. step size             =         0.0580251651
  Conv. limit for step size  =         1.0000000000
  Convergence in step size   =                  YES
  RMS step size              =         0.0067623069
  Conv. limit for RMS step   =         1.0000000000
  Convergence in RMS step    =                  YES
  Max. gradient              =         0.0077921612
  Conv. limit for gradients  =         0.0100000000
  Conv. in gradients         =                  YES
  RMS gradient               =         0.0011781208
  Conv. limit for RMS grad.  =         1.0000000000
  Conv. in RMS gradients     =                  YES
 ---------------------------------------------------

 *******************************************************************************
 ***                    GEOMETRY OPTIMIZATION COMPLETED                      ***
 *******************************************************************************

                    Reevaluating energy at the minimum

 Spin 1

 Number of electrons:                                                        719
 Number of occupied orbitals:                                                719
 Number of molecular orbitals:                                               719

 Spin 2

 Number of electrons:                                                        719
 Number of occupied orbitals:                                                719
 Number of molecular orbitals:                                               719

 Number of orbital functions:                                               2718
 Number of independent orbital functions:                                   2718

 Extrapolation method: PS Nth order


 SCF WAVEFUNCTION OPTIMIZATION

  ----------------------------------- OT ---------------------------------------
  Minimizer      : CG                  : conjugate gradient
  Preconditioner : FULL_ALL            : diagonalization, state selective
  Precond_solver : DEFAULT
  Line search    : 3PNT                : 3 energies
  stepsize       :    0.15000000                  energy_gap     :    0.08000000
  eps_taylor     :   0.10000E-15                  max_taylor     :             4
  ----------------------------------- OT ---------------------------------------

  Step     Update method      Time    Convergence         Total energy    Change
  ------------------------------------------------------------------------------
     1 OT CG       0.12E+00   11.7     0.00011395     -8144.3568174745 -8.14E+03
     2 OT LS       0.17E+00    6.9                    -8144.3617339640
     3 OT LS       0.31E+00    6.9                    -8144.3630438090
     4 OT CG       0.25E+00   13.8     0.00009178     -8144.3647241381 -7.91E-03
     5 OT LS       0.35E+00    6.9                    -8144.3659049594
     6 OT LS       0.15E+00    6.9                    -8144.3624384552
     7 OT CG       0.12E+00   13.8     0.00003428     -8144.3671221949 -2.40E-03
     8 OT LS       0.16E+00    6.8                    -8144.3673641469
     9 OT LS       0.11E+00    6.9                    -8144.3672972660
    10 OT CG       0.85E-01   13.8     0.00001734     -8144.3673663248 -2.44E-04
    11 OT LS       0.12E+00    6.8                    -8144.3674328805
    12 OT LS       0.13E+00    6.9                    -8144.3674407778
    13 OT CG       0.10E+00   13.8     0.00000874     -8144.3674410802 -7.48E-05

  *** SCF run converged in    13 steps ***


  Electronic density on regular grids:      -1437.9999922960        0.0000077040
  Core density on regular grids:             1437.9999996448       -0.0000003552
  Total charge density on r-space grids:        0.0000073487
  Total charge density g-space grids:           0.0000073487

  Overlap energy of the core charge distribution:               0.00000685241520
  Self energy of the core charge distribution:             -14650.93922905635191
  Core Hamiltonian energy:                                   4107.27946658964811
  Hartree energy:                                            3440.84398346304442
  Exchange-correlation energy:                              -1042.42983387777963
  Dispersion energy:                                           -0.58575115930475

  DFT+U energy:                                                 1.46391610816047

  Total energy:                                             -8144.36744108016774

  outer SCF iter =    1 RMS gradient =   0.87E-05 energy =      -8144.3674410802
  outer SCF loop converged in   1 iterations or   13 steps


  Integrated absolute spin density  :                             235.0071149920
  Ideal and single determinant S**2 :                    0.000000     127.900581

 ENERGY| Total FORCE_EVAL ( QS ) energy (a.u.):            -8144.367441080167737


 -------------------------------------------------------------------------------
 -                                                                             -
 -                                DBCSR STATISTICS                             -
 -                                                                             -
 -------------------------------------------------------------------------------
 COUNTER                                    TOTAL       BLAS       SMM       ACC
 flops     5 x    15 x    15              3591000       0.0%    100.0%      0.0%
 flops    13 x    15 x    15             41347800       0.0%    100.0%      0.0%
 flops    26 x    15 x    15             48016800       0.0%    100.0%      0.0%
 flops     5 x    32 x    32            359546880       0.0%    100.0%      0.0%
 flops     5 x    15 x     5           1442731500       0.0%    100.0%      0.0%
 flops    13 x    32 x    32           4139925504       0.0%    100.0%      0.0%
 flops    26 x    32 x    32           4807655424       0.0%    100.0%      0.0%
 flops     5 x     5 x   160           5263104000       0.0%    100.0%      0.0%
 flops     5 x     5 x   175           5756520000       0.0%    100.0%      0.0%
 flops     5 x     5 x   192          12631449600       0.0%    100.0%      0.0%
 flops     5 x    15 x    13          16612022700       0.0%    100.0%      0.0%
 flops    13 x    15 x     5          16612022700       0.0%    100.0%      0.0%
 flops     5 x    15 x    26          19291381200       0.0%    100.0%      0.0%
 flops    26 x    15 x     5          19291381200       0.0%    100.0%      0.0%
 flops    13 x     5 x   160          57816678400       0.0%    100.0%      0.0%
 flops     5 x    13 x   160          57875916800       0.0%    100.0%      0.0%
 flops    13 x     5 x   175          63236992000       0.0%    100.0%      0.0%
 flops     5 x    13 x   175          63301784000       0.0%    100.0%      0.0%
 flops     5 x    26 x   160          67057868800       0.0%    100.0%      0.0%
 flops    26 x     5 x   160          67294822400       0.0%    100.0%      0.0%
 flops     5 x    32 x     5          67712198400       0.0%    100.0%      0.0%
 flops     5 x    26 x   175          73344544000       0.0%    100.0%      0.0%
 flops    26 x     5 x   175          73603712000       0.0%    100.0%      0.0%
 flops   160 x   160 x   160          95027200000     100.0%      0.0%      0.0%
 flops   160 x   160 x   175         103936000000     100.0%      0.0%      0.0%
 flops   160 x   175 x   160         103936000000     100.0%      0.0%      0.0%
 flops   175 x   160 x   160         103936000000     100.0%      0.0%      0.0%
 flops   160 x   175 x   175         113680000000     100.0%      0.0%      0.0%
 flops   175 x   160 x   175         113680000000     100.0%      0.0%      0.0%
 flops   175 x   175 x   160         113680000000     100.0%      0.0%      0.0%
 flops   175 x   175 x   175         124337500000     100.0%      0.0%      0.0%
 flops    13 x     5 x   192         138760028160       0.0%    100.0%      0.0%
 flops     5 x    13 x   192         138902200320       0.0%    100.0%      0.0%
 flops     5 x    26 x   192         160938885120       0.0%    100.0%      0.0%
 flops    26 x     5 x   192         161507573760       0.0%    100.0%      0.0%
 flops    13 x    15 x    13         191275575660       0.0%    100.0%      0.0%
 flops   160 x   160 x   678         195229286400     100.0%      0.0%      0.0%
 flops   160 x   175 x   678         213532032000     100.0%      0.0%      0.0%
 flops   175 x   160 x   678         213532032000     100.0%      0.0%      0.0%
 flops    26 x    15 x    13         222126474960       0.0%    100.0%      0.0%
 flops    13 x    15 x    26         222126474960       0.0%    100.0%      0.0%
 flops   160 x   160 x   192         228065280000     100.0%      0.0%      0.0%
 flops   160 x   192 x   160         228065280000     100.0%      0.0%      0.0%
 flops   192 x   160 x   160         228065280000     100.0%      0.0%      0.0%
 flops   175 x   175 x   678         233550660000     100.0%      0.0%      0.0%
 flops   160 x   175 x   192         249446400000     100.0%      0.0%      0.0%
 flops   160 x   192 x   175         249446400000     100.0%      0.0%      0.0%
 flops   175 x   160 x   192         249446400000     100.0%      0.0%      0.0%
 flops   175 x   192 x   160         249446400000     100.0%      0.0%      0.0%
 flops   192 x   160 x   175         249446400000     100.0%      0.0%      0.0%
 flops   192 x   175 x   160         249446400000     100.0%      0.0%      0.0%
 flops    26 x    15 x    26         257953325760       0.0%    100.0%      0.0%
 flops   175 x   175 x   192         272832000000     100.0%      0.0%      0.0%
 flops   175 x   192 x   175         272832000000     100.0%      0.0%      0.0%
 flops   192 x   175 x   175         272832000000     100.0%      0.0%      0.0%
 flops   678 x   160 x   160         286248345600     100.0%      0.0%      0.0%
 flops   678 x   160 x   678         301846901760     100.0%      0.0%      0.0%
 flops   678 x   160 x   175         313084128000     100.0%      0.0%      0.0%
 flops   678 x   175 x   160         313084128000     100.0%      0.0%      0.0%
 flops   678 x   175 x   678         330145048800     100.0%      0.0%      0.0%
 flops   678 x   175 x   175         342435765000     100.0%      0.0%      0.0%
 flops   160 x   192 x   678         468550287360     100.0%      0.0%      0.0%
 flops   192 x   160 x   678         468550287360     100.0%      0.0%      0.0%
 flops   175 x   192 x   678         512476876800     100.0%      0.0%      0.0%
 flops   192 x   175 x   678         512476876800     100.0%      0.0%      0.0%
 flops   192 x   192 x   160         547356672000     100.0%      0.0%      0.0%
 flops   160 x   192 x   192         547356672000     100.0%      0.0%      0.0%
 flops   192 x   160 x   192         547356672000     100.0%      0.0%      0.0%
 flops   160 x   160 x   680         587415552000     100.0%      0.0%      0.0%
 flops   192 x   192 x   175         598671360000     100.0%      0.0%      0.0%
 flops   175 x   192 x   192         598671360000     100.0%      0.0%      0.0%
 flops   192 x   175 x   192         598671360000     100.0%      0.0%      0.0%
 flops   160 x   175 x   680         642485760000     100.0%      0.0%      0.0%
 flops   175 x   160 x   680         642485760000     100.0%      0.0%      0.0%
 flops    13 x    13 x   160         673220720640       0.0%    100.0%      0.0%
 flops   678 x   160 x   192         686996029440     100.0%      0.0%      0.0%
 flops   678 x   192 x   160         686996029440     100.0%      0.0%      0.0%
 flops   175 x   175 x   680         702718800000     100.0%      0.0%      0.0%
 flops   678 x   192 x   678         724432564224     100.0%      0.0%      0.0%
 flops    13 x    13 x   175         736335163200       0.0%    100.0%      0.0%
 flops   678 x   175 x   192         751401907200     100.0%      0.0%      0.0%
 flops   678 x   192 x   175         751401907200     100.0%      0.0%      0.0%
 flops    26 x    13 x   160         772871557120       0.0%    100.0%      0.0%
 flops    13 x    26 x   160         774103715840       0.0%    100.0%      0.0%
 flops     5 x    32 x    13         779657598720       0.0%    100.0%      0.0%
 flops    13 x    32 x     5         779657598720       0.0%    100.0%      0.0%
 flops    26 x    13 x   175         845328265600       0.0%    100.0%      0.0%
 flops    13 x    26 x   175         846675939200       0.0%    100.0%      0.0%
 flops   680 x   160 x   160         861278208000     100.0%      0.0%      0.0%
 flops     5 x    32 x    26         905408824320       0.0%    100.0%      0.0%
 flops    26 x    32 x     5         905408824320       0.0%    100.0%      0.0%
 flops   678 x   160 x   680         908211916800     100.0%      0.0%      0.0%
 flops   680 x   160 x   678         908211916800     100.0%      0.0%      0.0%
 flops    26 x    26 x   160         914877849600       0.0%    100.0%      0.0%
 flops   680 x   160 x   175         942023040000     100.0%      0.0%      0.0%
 flops   680 x   175 x   160         942023040000     100.0%      0.0%      0.0%
 flops   678 x   175 x   680         993356784000     100.0%      0.0%      0.0%
 flops   680 x   175 x   678         993356784000     100.0%      0.0%      0.0%
 flops    26 x    26 x   175        1000647648000       0.0%    100.0%      0.0%
 flops   680 x   175 x   175        1030337700000     100.0%      0.0%      0.0%
 flops   192 x   192 x   678        1124520689664     100.0%      0.0%      0.0%
 flops   192 x   192 x   192        1313656012800     100.0%      0.0%      0.0%
 flops   160 x   192 x   680        1409797324800     100.0%      0.0%      0.0%
 flops   192 x   160 x   680        1409797324800     100.0%      0.0%      0.0%
 flops   175 x   192 x   680        1541965824000     100.0%      0.0%      0.0%
 flops   192 x   175 x   680        1541965824000     100.0%      0.0%      0.0%
 flops    13 x    13 x   192        1615729729536       0.0%    100.0%      0.0%
 flops   678 x   192 x   192        1648790470656     100.0%      0.0%      0.0%
 flops    26 x    13 x   192        1854891737088       0.0%    100.0%      0.0%
 flops    13 x    26 x   192        1857848918016       0.0%    100.0%      0.0%
 flops   680 x   192 x   160        2067067699200     100.0%      0.0%      0.0%
 flops   680 x   160 x   192        2067067699200     100.0%      0.0%      0.0%
 flops   680 x   192 x   678        2179708600320     100.0%      0.0%      0.0%
 flops   678 x   192 x   680        2179708600320     100.0%      0.0%      0.0%
 flops    26 x    26 x   192        2195706839040       0.0%    100.0%      0.0%
 flops   680 x   192 x   175        2260855296000     100.0%      0.0%      0.0%
 flops   680 x   175 x   192        2260855296000     100.0%      0.0%      0.0%
 flops   680 x   160 x   680        2732673024000     100.0%      0.0%      0.0%
 flops   680 x   175 x   680        2988861120000     100.0%      0.0%      0.0%
 flops   192 x   192 x   680        3383513579520     100.0%      0.0%      0.0%
 flops   680 x   192 x   192        4960962478080     100.0%      0.0%      0.0%
 flops   680 x   192 x   680        6558415257600     100.0%      0.0%      0.0%
 flops    13 x    32 x    13        8977200350976       0.0%    100.0%      0.0%
 flops    26 x    32 x    13       10425135891456       0.0%    100.0%      0.0%
 flops    13 x    32 x    26       10425135891456       0.0%    100.0%      0.0%
 flops    26 x    32 x    26       12106609422336       0.0%    100.0%      0.0%
 flops inhomo. stacks                           0       0.0%      0.0%      0.0%
 flops total                       130.983314E+12      53.0%     47.0%      0.0%
 flops max/rank                      8.824675E+12      53.8%     46.2%      0.0%
 matmuls inhomo. stacks                         0       0.0%      0.0%      0.0%
 matmuls total                         2995376928       0.1%     99.9%      0.0%
 number of processed stacks               8117376      21.7%     78.3%      0.0%
 average stack size                                     1.0     471.0       0.0
 marketing flops                   146.423455E+12
 -------------------------------------------------------------------------------
 # multiplications                          34884
 max memory usage/rank               1.086448E+09
 # max total images/rank                        1
 # max 3D layers                                1
 # MPI messages exchanged                 3348864
 MPI messages size (bytes):
  total size                         3.013534E+12
  min size                           0.000000E+00
  max size                           3.699200E+06
  average size                     899.867562E+03
 MPI breakdown and total messages size (bytes):
             size <=      128               10032                        0
       128 < size <=     8192                   0                        0
      8192 < size <=    32768                   0                        0
     32768 < size <=   131072                 912                 41501472
    131072 < size <=  4194304             3337920            3013207706448
   4194304 < size <= 16777216                   0                        0
  16777216 < size                               0                        0
 -------------------------------------------------------------------------------
 
 MEMORY| Estimated peak process memory [MiB]                                1043

 -------------------------------------------------------------------------------
 -                                                                             -
 -                         MESSAGE PASSING PERFORMANCE                         -
 -                                                                             -
 -------------------------------------------------------------------------------

 ROUTINE             CALLS      AVE VOLUME [Bytes]
 MP_Group             3171
 MP_Bcast           114877                  12339.
 MP_Allreduce       481590                    582.
 MP_Sync              2021
 MP_Alltoall        163581                3011552.
 MP_SendRecv         32588                 515915.
 MP_ISendRecv       170910                 105472.
 MP_Wait           2044563
 MP_comm_split        2016
 MP_ISend           726452                 463709.
 MP_IRecv           726452                 459206.
 MP_Recv              4068                 620571.
 MP_Memory         1523696
 -------------------------------------------------------------------------------


 -------------------------------------------------------------------------------
 -                                                                             -
 -                           R E F E R E N C E S                               -
 -                                                                             -
 -------------------------------------------------------------------------------
 
 CP2K version 6.1, the CP2K developers group (2018).
 CP2K is freely available from https://www.cp2k.org/ .

 Schuett, Ole; Messmer, Peter; Hutter, Juerg; VandeVondele, Joost. 
 Electronic Structure Calculations on Graphics Processing Units, John Wiley & Sons, Ltd, 173-190 (2016). 
 GPU-Accelerated Sparse Matrix-Matrix Multiplication for Linear Scaling Density Functional Theory.
 http://dx.doi.org/10.1002/9781118670712.ch8


 Borstnik, U; VandeVondele, J; Weber, V; Hutter, J. 
 PARALLEL COMPUTING, 40 (5-6), 47-58 (2014). 
 Sparse matrix multiplication: The distributed block-compressed sparse
 row library.
 http://dx.doi.org/10.1016/j.parco.2014.03.012


 Hutter, J; Iannuzzi, M; Schiffmann, F; VandeVondele, J. 
 WILEY INTERDISCIPLINARY REVIEWS-COMPUTATIONAL MOLECULAR SCIENCE, 4 (1), 15-25 (2014). 
 CP2K: atomistic simulations of condensed matter systems.
 http://dx.doi.org/10.1002/wcms.1159


 Grimme, S; Ehrlich, S; Goerigk, L. 
 JOURNAL OF COMPUTATIONAL CHEMISTRY, 32, 1456 (2011). 
 Effect of the damping function in dispersion corrected density functional theory.
 http://dx.doi.org/10.1002/jcc.21759


 Grimme, S; Antony, J; Ehrlich, S; Krieg, H. 
 JOURNAL OF CHEMICAL PHYSICS, 132 (15), 154104 (2010). 
 A consistent and accurate ab initio parametrization of density
 functional dispersion correction (DFT-D) for the 94 elements H-Pu.
 http://dx.doi.org/10.1063/1.3382344


 VandeVondele, J; Hutter, J. 
 JOURNAL OF CHEMICAL PHYSICS, 127 (11), 114105 (2007). 
 Gaussian basis sets for accurate calculations on molecular systems in
 gas and condensed phases.
 http://dx.doi.org/10.1063/1.2770708


 Krack, M. 
 THEORETICAL CHEMISTRY ACCOUNTS, 114 (1-3), 145-152 (2005). 
 Pseudopotentials for H to Kr optimized for gradient-corrected
 exchange-correlation functionals.
 http://dx.doi.org/10.1007/s00214-005-0655-y


 VandeVondele, J; Krack, M; Mohamed, F; Parrinello, M; Chassaing, T;
 Hutter, J. COMPUTER PHYSICS COMMUNICATIONS, 167 (2), 103-128 (2005). 
 QUICKSTEP: Fast and accurate density functional calculations using a
 mixed Gaussian and plane waves approach.
 http://dx.doi.org/10.1016/j.cpc.2004.12.014


 Frigo, M; Johnson, SG. 
 PROCEEDINGS OF THE IEEE, 93 (2), 216-231 (2005). 
 The design and implementation of FFTW3.
 http://dx.doi.org/10.1109/JPROC.2004.840301


 VandeVondele, J; Hutter, J. 
 JOURNAL OF CHEMICAL PHYSICS, 118 (10), 4365-4369 (2003). 
 An efficient orbital transformation method for electronic structure
 calculations.
 http://dx.doi.org/10.1063/1.1543154


 Hartwigsen, C; Goedecker, S; Hutter, J. 
 PHYSICAL REVIEW B, 58 (7), 3641-3662 (1998). 
 Relativistic separable dual-space Gaussian pseudopotentials from H to Rn.
 http://dx.doi.org/10.1103/PhysRevB.58.3641


 Dudarev, SL; Botton, GA; Savrasov, SY; Humphreys, CJ; Sutton, AP. 
 PHYSICAL REVIEW B, 57 (3), 1505-1509 (1998). 
 Electron-energy-loss spectra and the structural stability of
 nickel oxide: An LSDA+U study.
 http://dx.doi.org/10.1103/PhysRevB.57.1505


 Lippert, G; Hutter, J; Parrinello, M. 
 MOLECULAR PHYSICS, 92 (3), 477-487 (1997). 
 A hybrid Gaussian and plane wave density functional scheme.
 http://dx.doi.org/10.1080/002689797170220


 Dudarev, SL; Manh, DN; Sutton, AP. 
 PHILOSOPHICAL MAGAZINE B, 75 (5), 613-628 (1997). 
 Effect of Mott-Hubbard correlations on the electronic
 structure and structural stability of uranium dioxide.
 http://dx.doi.org/10.1080/13642819708202343


 Perdew, JP; Burke, K; Ernzerhof, M. 
 PHYSICAL REVIEW LETTERS, 77 (18), 3865-3868 (1996). 
 Generalized gradient approximation made simple.
 http://dx.doi.org/10.1103/PhysRevLett.77.3865


 Goedecker, S; Teter, M; Hutter, J. 
 PHYSICAL REVIEW B, 54 (3), 1703-1710 (1996). 
 Separable dual-space Gaussian pseudopotentials.
 http://dx.doi.org/10.1103/PhysRevB.54.1703


 -------------------------------------------------------------------------------
 -                                                                             -
 -                                T I M I N G                                  -
 -                                                                             -
 -------------------------------------------------------------------------------
 SUBROUTINE                       CALLS  ASD         SELF TIME        TOTAL TIME
                                MAXIMUM       AVERAGE  MAXIMUM  AVERAGE  MAXIMUM
 CP2K                                 1  1.0     0.02     0.05 15066.83 15067.09
 cp_geo_opt                           1  2.0     0.00     0.00 15065.94 15066.20
 geoopt_bfgs                          1  3.0     0.03     0.04 15065.94 15066.20
 cp_eval_at                          38  4.0     0.01     0.01 14959.05 14959.31
 qs_forces                           37  5.0     0.01     0.01 14823.06 14823.32
 qs_energies                         38  6.0     0.01     0.01 14370.34 14370.56
 scf_env_do_scf                      38  7.0     0.01     0.01 13941.46 13941.71
 scf_env_do_scf_inner_loop         1349  8.0     2.88    44.76 12624.08 12624.40
 qs_rho_update_rho                 1387  9.0     0.02     0.02  8212.13  8212.80
 calculate_rho_elec                2774 10.0  6102.22  6522.74  8212.11  8212.78
 rebuild_ks_matrix                 1386  9.9     0.02     0.02  5254.20  5255.22
 qs_ks_build_kohn_sham_matrix      1386 10.9     0.30     0.33  5254.19  5255.20
 qs_ks_update_qs_env               1387  9.0     0.02     0.03  4772.88  4776.60
 sum_up_and_integrate               512 11.8    20.12    20.35  3865.80  3866.04
 integrate_v_rspace                1024 12.8  2203.72  2428.22  3845.67  3846.00
 pw_transfer                      25086 12.7     2.83     3.04  2035.38  2505.22
 fft_wrap_pw1pw2                  22314 13.6     0.26     0.29  1985.21  2454.74
 density_rs2pw                     2774 11.0     0.22     0.25  1934.50  2228.14
 fft3d_ps                         22314 15.6   854.34  1545.95  1428.09  2012.12
 fft_wrap_pw1pw2_200               7122 14.4   191.94   197.79  1427.22  1442.15
 potential_pw2rs                   1024 13.8     0.77     0.81  1391.21  1392.61
 init_scf_loop                       38  8.0     0.00     0.00  1316.51  1316.54
 rs_pw_transfer                   19065 12.7     0.25     0.29   914.92  1204.86
 x_to_yz                           7382 17.5   160.34   167.90   336.20  1132.37
 mp_alltoall_z22v                 22314 17.6   258.48  1073.68   258.48  1073.68
 fft_wrap_pw1pw2_70                3798 14.8   125.01   925.56   542.37  1019.44
 pw_copy                           9427 14.0   539.76   999.10   539.76   999.10
 qs_vxc_create                     1386 11.9     0.03     0.04   987.09   990.56
 rs_pw_transfer_RS2PW_200          2812 13.0   125.19   170.33   578.02   864.50
 qs_scf_new_mos                    1349  9.0     0.02     0.03   861.57   864.24
 qs_scf_loop_do_ot                 1349 10.0     0.02     0.03   861.56   864.22
 dbcsr_multiply_generic           34884 13.7     2.02     2.14   792.52   796.37
 mp_waitany                      168612 14.7   512.59   777.34   512.59   777.34
 ot_scf_mini                       1349 11.0     0.17     0.21   766.24   767.89
 xc_rho_set_and_dset_create        1386 13.9    75.45    75.97   648.95   657.90
 xc_vxc_pw_create                   512 12.8   205.17   208.48   582.43   585.90
 multiply_cannon                  34884 14.7     4.69     5.70   532.27   557.63
 qs_ks_update_qs_env_forces          37  6.0     0.00     0.00   529.77   529.84
 xc_exc_calc                        874 13.0     2.69     2.69   404.62   404.63
 rs_distribute_matrix              3872 11.7    32.58    49.90   309.95   401.02
 multiply_cannon_multrec         139536 15.7   362.10   379.64   362.41   379.97
 mp_alltoall_d11v                 35329 15.7   264.72   364.26   264.72   364.26
 -------------------------------------------------------------------------------

 The number of warnings for this run is : 1
 
 -------------------------------------------------------------------------------
  **** **** ******  **  PROGRAM ENDED AT                 2020-10-07 15:35:12.072
 ***** ** ***  *** **   PROGRAM RAN ON                                 irene6025
 **    ****   ******    PROGRAM RAN BY                                  marticar
 ***** **    ** ** **   PROGRAM PROCESS ID                                229012
  **** **  *******  **  PROGRAM STOPPED IN /ccc/scratch/cont003/gen0609/marticar
                                           /684117
