 DBCSR| Multiplication driver                                               XSMM
 DBCSR| Multrec recursion limit                                              512
 DBCSR| Multiplication stack size                                           1000
 DBCSR| Maximum elements for images                                    UNLIMITED
 DBCSR| Multiplicative factor virtual images                                   1
 DBCSR| Multiplication size stacks                                             3
 DBCSR| Number of 3D layers                                               SINGLE
 DBCSR| Use MPI memory allocation                                              T
 DBCSR| Use RMA algorithm                                                      F
 DBCSR| Use Communication thread                                               T
 DBCSR| Communication thread load                                             87


  **** **** ******  **  PROGRAM STARTED AT               2020-10-07 12:23:55.619
 ***** ** ***  *** **   PROGRAM STARTED ON                             irene6279
 **    ****   ******    PROGRAM STARTED BY                              marticar
 ***** **    ** ** **   PROGRAM PROCESS ID                                 32791
  **** **  *******  **  PROGRAM STARTED IN /ccc/scratch/cont003/gen0609/marticar
                                           /684132

 CP2K| version string:                                          CP2K version 6.1
 CP2K| source code revision number:                                    svn:18464
 CP2K| cp2kflags: libint fftw3 parallel mpi3 scalapack xsmm mkl                 
 CP2K| is freely available from                            https://www.cp2k.org/
 CP2K| Program compiled at                          Thu Dec 12 15:40:57 CET 2019
 CP2K| Program compiled on                                             cobalt175
 CP2K| Program compiled for                                   Linux-x86-64-iomkl
 CP2K| Data directory path          /tmp/cp2k/6.1/iomkl-195281.401/cp2k-6.1/data
 CP2K| Input file name                                             screening.inp
 
 GLOBAL| Force Environment number                                              1
 GLOBAL| Basis set file name            /ccc/work/cont003/gen0609/marticar/data/
 GLOBAL| Potential file name            /ccc/work/cont003/gen0609/marticar/data/
 GLOBAL| MM Potential file name                                     MM_POTENTIAL
 GLOBAL| Coordinate file name                                          coord.xyz
 GLOBAL| Method name                                                        CP2K
 GLOBAL| Project name                                                    PROJECT
 GLOBAL| Preferred FFT library                                             FFTW3
 GLOBAL| Preferred diagonalization lib.                                       SL
 GLOBAL| Run type                                                        GEO_OPT
 GLOBAL| All-to-all communication in single precision                          F
 GLOBAL| FFTs using library dependent lengths                                  F
 GLOBAL| Global print level                                                  LOW
 GLOBAL| Total number of message passing processes                            16
 GLOBAL| Number of threads for this process                                    1
 GLOBAL| This output is from process                                           0
 GLOBAL| CPU model name :  AMD EPYC 7H12 64-Core Processor

 MEMORY| system memory details [Kb]
 MEMORY|                        rank 0           min           max       average
 MEMORY| MemTotal            263246936     263246936     263246936     263246936
 MEMORY| MemFree             249273324     249273324     249273324     249273324
 MEMORY| Buffers                     0             0             0             0
 MEMORY| Cached                2182376       2182376       2182376       2182376
 MEMORY| Slab                  1953640       1953640       1953640       1953640
 MEMORY| SReclaimable           296904        296904        296904        296904
 MEMORY| MemLikelyFree       251752604     251752604     251752604     251752604

 
 GENERATE|  Preliminary Number of Bonds generated:                             0
 GENERATE|  Achieved consistency in connectivity generation.

 *******************************************************************************
 *******************************************************************************
 **                                                                           **
 **     #####                         ##              ##                      **
 **    ##   ##            ##          ##              ##                      **
 **   ##     ##                       ##            ######                    **
 **   ##     ##  ##   ##  ##   #####  ##  ##   ####   ##    #####    #####    **
 **   ##     ##  ##   ##  ##  ##      ## ##   ##      ##   ##   ##  ##   ##   **
 **   ##  ## ##  ##   ##  ##  ##      ####     ###    ##   ######   ######    **
 **    ##  ###   ##   ##  ##  ##      ## ##      ##   ##   ##       ##        **
 **     #######   #####   ##   #####  ##  ##  ####    ##    #####   ##        **
 **           ##                                                    ##        **
 **                                                                           **
 **                                                ... make the atoms dance   **
 **                                                                           **
 **            Copyright (C) by CP2K developers group (2000 - 2018)           **
 **                                                                           **
 *******************************************************************************


 TOTAL NUMBERS AND MAXIMUM NUMBERS

  Total number of            - Atomic kinds:                                   7
                             - Atoms:                                        168
                             - Shell sets:                                   168
                             - Shells:                                       960
                             - Primitive Cartesian functions:               1122
                             - Cartesian basis functions:                   3081
                             - Spherical basis functions:                   2718

  Maximum angular momentum of- Orbital basis functions:                        3
                             - Local part of the GTH pseudopotential:          2
                             - Non-local part of the GTH pseudopotential:      3


 SCF PARAMETERS         Density guess:                                   RESTART
                        --------------------------------------------------------
                        max_scf:                                             500
                        max_scf_history:                                       0
                        max_diis:                                              4
                        --------------------------------------------------------
                        eps_scf:                                        1.00E-05
                        eps_scf_history:                                0.00E+00
                        eps_diis:                                       1.00E-01
                        eps_eigval:                                     1.00E-05
                        --------------------------------------------------------
                        level_shift [a.u.]:                                 0.00
                        --------------------------------------------------------
                        Outer loop SCF in use 
                        No variables optimised in outer loop
                        eps_scf                                         1.00E-05
                        max_scf                                               10
                        No outer loop optimization
                        step_size                                       5.00E-01

 BFGS| Use rational function optimization for step estimation:                NO
 BFGS| Use model Hessian for initial guess:                                  YES
 BFGS| Restart Hessian:                                                       NO
 BFGS| Trust radius:                                                       0.472

 *******************************************************************************
 ***                     STARTING GEOMETRY OPTIMIZATION                      ***
 ***                                   BFGS                                  ***
 *******************************************************************************

 Spin 1

 Number of electrons:                                                        719
 Number of occupied orbitals:                                                719
 Number of molecular orbitals:                                               719

 Spin 2

 Number of electrons:                                                        719
 Number of occupied orbitals:                                                719
 Number of molecular orbitals:                                               719

 Number of orbital functions:                                               2718
 Number of independent orbital functions:                                   2718

 Extrapolation method: initial_guess

 *** WARNING in qs_initial_guess.F:263 :: User requested to restart the    ***
 *** wavefunction from the file named: PROJECT-RESTART.wfn. This file does ***
 *** not exist. Please check the existence of the file or change properly  ***
 *** the value of the keyword WFN_RESTART_FILE_NAME. Calculation continues ***
 *** using ATOMIC GUESS.                                                   ***



 SCF WAVEFUNCTION OPTIMIZATION

  ----------------------------------- OT ---------------------------------------
  Minimizer      : CG                  : conjugate gradient
  Preconditioner : FULL_ALL            : diagonalization, state selective
  Precond_solver : DEFAULT
  Line search    : 3PNT                : 3 energies
  stepsize       :    0.15000000                  energy_gap     :    0.08000000
  eps_taylor     :   0.10000E-15                  max_taylor     :             4
  ----------------------------------- OT ---------------------------------------

  Step     Update method      Time    Convergence         Total energy    Change
  ------------------------------------------------------------------------------
     1 OT CG       0.12E+00   12.3     0.01795468     -8057.5596861622 -8.06E+03
     2 OT LS       0.17E+00    7.7                    -8118.6789312693
     3 OT LS       0.12E+00    7.7                    -8109.6610241983
     4 OT CG       0.97E-01   14.7     0.00607464     -8118.5766483749 -6.10E+01
     5 OT LS       0.14E+00    7.7                    -8127.1355475779
     6 OT LS       0.15E+00    7.7                    -8128.2362848302
     7 OT CG       0.12E+00   14.7     0.00521682     -8128.3119391587 -9.74E+00
     8 OT LS       0.17E+00    7.7                    -8136.3958445253
     9 OT LS       0.17E+00    7.7                    -8137.1765898563
    10 OT CG       0.14E+00   14.7     0.00282911     -8137.1824142502 -8.87E+00
    11 OT LS       0.19E+00    7.7                    -8139.9213394871
    12 OT LS       0.19E+00    7.7                    -8140.1510039924
    13 OT CG       0.15E+00   14.6     0.00264148     -8140.1512949204 -2.97E+00
    14 OT LS       0.21E+00    7.7                    -8141.0266246165
    15 OT LS       0.96E-01    7.7                    -8139.6262221746
    16 OT CG       0.77E-01   14.6     0.00184285     -8141.4425031946 -1.29E+00
    17 OT LS       0.11E+00    7.7                    -8142.1831478085
    18 OT LS       0.14E+00    7.6                    -8142.3258224821
    19 OT CG       0.11E+00   14.5     0.00153274     -8142.3807030863 -9.38E-01
    20 OT LS       0.16E+00    7.7                    -8142.8465858036
    21 OT LS       0.10E+00    7.6                    -8142.7045258156
    22 OT CG       0.82E-01   14.6     0.00118978     -8142.8524764841 -4.72E-01
    23 OT LS       0.11E+00    7.7                    -8143.1679194814
    24 OT LS       0.13E+00    7.7                    -8143.2157557408
    25 OT CG       0.11E+00   14.6     0.00102921     -8143.2226633846 -3.70E-01
    26 OT LS       0.15E+00    7.8                    -8143.4463026838
    27 OT LS       0.11E+00    7.7                    -8143.4140283189
    28 OT CG       0.86E-01   14.6     0.00085764     -8143.4463586306 -2.24E-01
    29 OT LS       0.12E+00    7.8                    -8143.6201115154
    30 OT LS       0.14E+00    7.7                    -8143.6475046226
    31 OT CG       0.11E+00   14.6     0.00078252     -8143.6522941402 -2.06E-01
    32 OT LS       0.16E+00    7.8                    -8143.7896800767
    33 OT LS       0.11E+00    7.7                    -8143.7680150466
    34 OT CG       0.92E-01   14.6     0.00066020     -8143.7896816855 -1.37E-01
    35 OT LS       0.13E+00    7.7                    -8143.8948818123
    36 OT LS       0.14E+00    7.7                    -8143.9079746791
    37 OT CG       0.11E+00   14.6     0.00059698     -8143.9086255686 -1.19E-01
    38 OT LS       0.16E+00    7.7                    -8143.9904546250
    39 OT LS       0.12E+00    7.7                    -8143.9820475302
    40 OT CG       0.94E-01   14.6     0.00051043     -8143.9907097138 -8.21E-02
    41 OT LS       0.13E+00    7.7                    -8144.0536068429
    42 OT LS       0.14E+00    7.7                    -8144.0602214192
    43 OT CG       0.11E+00   14.6     0.00047150     -8144.0602979106 -6.96E-02
    44 OT LS       0.15E+00    7.7                    -8144.1109481156
    45 OT LS       0.12E+00    7.7                    -8144.1065177944
    46 OT CG       0.94E-01   14.6     0.00040396     -8144.1111963969 -5.09E-02
    47 OT LS       0.13E+00    7.7                    -8144.1497031474
    48 OT LS       0.13E+00    7.7                    -8144.1531634450
    49 OT CG       0.11E+00   14.6     0.00036781     -8144.1531635088 -4.20E-02
    50 OT LS       0.15E+00    7.7                    -8144.1855608209
    51 OT LS       0.13E+00    7.6                    -8144.1854713922
    52 OT CG       0.10E+00   14.5     0.00032782     -8144.1864551230 -3.33E-02
    53 OT LS       0.14E+00    7.8                    -8144.2130669150
    54 OT LS       0.14E+00    7.7                    -8144.2149095549
    55 OT CG       0.11E+00   14.5     0.00030586     -8144.2149568965 -2.85E-02
    56 OT LS       0.15E+00    7.7                    -8144.2377238530
    57 OT LS       0.13E+00    7.6                    -8144.2373707540
    58 OT CG       0.10E+00   14.5     0.00027204     -8144.2382389580 -2.33E-02
    59 OT LS       0.14E+00    7.7                    -8144.2564805950
    60 OT LS       0.13E+00    7.6                    -8144.2575037918
    61 OT CG       0.11E+00   14.5     0.00024762     -8144.2575874577 -1.93E-02
    62 OT LS       0.15E+00    7.8                    -8144.2724746032
    63 OT LS       0.13E+00    7.6                    -8144.2724113212
    64 OT CG       0.10E+00   14.6     0.00021976     -8144.2728747015 -1.53E-02
    65 OT LS       0.14E+00    7.7                    -8144.2845482165
    66 OT LS       0.13E+00    7.7                    -8144.2849638260
    67 OT CG       0.10E+00   14.6     0.00019555     -8144.2850961738 -1.22E-02
    68 OT LS       0.14E+00    7.7                    -8144.2943432054
    69 OT LS       0.13E+00    7.7                    -8144.2945540927
    70 OT CG       0.10E+00   14.7     0.00017502     -8144.2947094254 -9.61E-03
    71 OT LS       0.14E+00    7.7                    -8144.3020837655
    72 OT LS       0.13E+00    7.7                    -8144.3022675413
    73 OT CG       0.10E+00   14.6     0.00015526     -8144.3023840162 -7.67E-03
    74 OT LS       0.14E+00    7.7                    -8144.3081045307
    75 OT LS       0.13E+00    7.7                    -8144.3081864103
    76 OT CG       0.10E+00   14.6     0.00013681     -8144.3083056931 -5.92E-03
    77 OT LS       0.14E+00    7.7                    -8144.3128308818
    78 OT LS       0.13E+00    7.7                    -8144.3130552270
    79 OT CG       0.10E+00   14.6     0.00012100     -8144.3130840850 -4.78E-03
    80 OT LS       0.15E+00    7.7                    -8144.3166176518
    81 OT LS       0.13E+00    7.7                    -8144.3166602880
    82 OT CG       0.10E+00   14.6     0.00010670     -8144.3167380671 -3.65E-03
    83 OT LS       0.14E+00    7.7                    -8144.3194879726
    84 OT LS       0.13E+00    7.7                    -8144.3195815920
    85 OT CG       0.10E+00   14.6     0.00009405     -8144.3196143024 -2.88E-03
    86 OT LS       0.14E+00    7.7                    -8144.3217278441
    87 OT LS       0.13E+00    7.7                    -8144.3217550293
    88 OT CG       0.10E+00   14.6     0.00008357     -8144.3218006755 -2.19E-03
    89 OT LS       0.14E+00    7.7                    -8144.3234716431
    90 OT LS       0.13E+00    7.7                    -8144.3235290405
    91 OT CG       0.10E+00   14.6     0.00007407     -8144.3235486997 -1.75E-03
    92 OT LS       0.14E+00    7.7                    -8144.3248496624
    93 OT LS       0.13E+00    7.7                    -8144.3248681959
    94 OT CG       0.10E+00   14.6     0.00006385     -8144.3248953766 -1.35E-03
    95 OT LS       0.14E+00    7.7                    -8144.3258819656
    96 OT LS       0.13E+00    7.7                    -8144.3259322682
    97 OT CG       0.10E+00   14.6     0.00005669     -8144.3259381464 -1.04E-03
    98 OT LS       0.15E+00    7.7                    -8144.3267197616
    99 OT LS       0.13E+00    7.7                    -8144.3267335839
   100 OT CG       0.10E+00   14.6     0.00004982     -8144.3267485814 -8.10E-04
   101 OT LS       0.14E+00    7.7                    -8144.3273513095
   102 OT LS       0.13E+00    7.7                    -8144.3273691983
   103 OT CG       0.10E+00   14.6     0.00004436     -8144.3273774521 -6.29E-04
   104 OT LS       0.15E+00    7.7                    -8144.3278498450
   105 OT LS       0.13E+00    7.7                    -8144.3278567251
   106 OT CG       0.10E+00   14.6     0.00003949     -8144.3278665176 -4.89E-04
   107 OT LS       0.14E+00    7.7                    -8144.3282366754
   108 OT LS       0.13E+00    7.7                    -8144.3282447219
   109 OT CG       0.10E+00   14.7     0.00003490     -8144.3282511048 -3.85E-04
   110 OT LS       0.14E+00    7.7                    -8144.3285458953
   111 OT LS       0.13E+00    7.7                    -8144.3285597176
   112 OT CG       0.10E+00   14.7     0.00003105     -8144.3285618485 -3.11E-04
   113 OT LS       0.15E+00    7.8                    -8144.3287965093
   114 OT LS       0.13E+00    7.7                    -8144.3288014243
   115 OT CG       0.10E+00   14.6     0.00002777     -8144.3288055585 -2.44E-04
   116 OT LS       0.14E+00    7.7                    -8144.3289940954
   117 OT LS       0.13E+00    7.7                    -8144.3290004117
   118 OT CG       0.10E+00   14.6     0.00002499     -8144.3290026944 -1.97E-04
   119 OT LS       0.15E+00    7.7                    -8144.3291561636
   120 OT LS       0.13E+00    7.7                    -8144.3291604641
   121 OT CG       0.10E+00   14.5     0.00002240     -8144.3291626748 -1.60E-04
   122 OT LS       0.15E+00    7.7                    -8144.3292861382
   123 OT LS       0.13E+00    7.7                    -8144.3292894929
   124 OT CG       0.10E+00   14.5     0.00002048     -8144.3292913174 -1.29E-04
   125 OT LS       0.15E+00    7.7                    -8144.3293934732
   126 OT LS       0.13E+00    7.7                    -8144.3293952054
   127 OT CG       0.10E+00   14.5     0.00001862     -8144.3293972016 -1.06E-04
   128 OT LS       0.14E+00    7.7                    -8144.3294804407
   129 OT LS       0.13E+00    7.7                    -8144.3294818907
   130 OT CG       0.10E+00   14.6     0.00001671     -8144.3294834983 -8.63E-05
   131 OT LS       0.14E+00    7.7                    -8144.3295524707
   132 OT LS       0.13E+00    7.7                    -8144.3295564431
   133 OT CG       0.11E+00   14.5     0.00001523     -8144.3295567285 -7.32E-05
   134 OT LS       0.15E+00    7.7                    -8144.3296147352
   135 OT LS       0.13E+00    7.7                    -8144.3296159211
   136 OT CG       0.11E+00   14.5     0.00001382     -8144.3296169566 -6.02E-05
   137 OT LS       0.15E+00    7.7                    -8144.3296647360
   138 OT LS       0.13E+00    7.7                    -8144.3296661693
   139 OT CG       0.11E+00   14.5     0.00001275     -8144.3296668171 -4.99E-05
   140 OT LS       0.15E+00    7.7                    -8144.3297077393
   141 OT LS       0.13E+00    7.7                    -8144.3297089846
   142 OT CG       0.11E+00   14.5     0.00001170     -8144.3297095319 -4.27E-05
   143 OT LS       0.15E+00    7.7                    -8144.3297441017
   144 OT LS       0.13E+00    7.7                    -8144.3297450826
   145 OT CG       0.11E+00   14.5     0.00001090     -8144.3297455754 -3.60E-05
   146 OT LS       0.15E+00    7.7                    -8144.3297757428
   147 OT LS       0.14E+00    7.7                    -8144.3297766607
   148 OT CG       0.11E+00   14.6     0.00001025     -8144.3297770643 -3.15E-05
   149 OT LS       0.15E+00    7.7                    -8144.3298035758
   150 OT LS       0.13E+00    7.6                    -8144.3298040988
   151 OT CG       0.11E+00   14.6     0.00000959     -8144.3298045811 -2.75E-05

  *** SCF run converged in   151 steps ***


  Electronic density on regular grids:      -1437.9999923216        0.0000076784
  Core density on regular grids:             1437.9999996448       -0.0000003552
  Total charge density on r-space grids:        0.0000073232
  Total charge density g-space grids:           0.0000073232

  Overlap energy of the core charge distribution:               0.00000638850627
  Self energy of the core charge distribution:             -14650.93922905635191
  Core Hamiltonian energy:                                   4107.74694791586717
  Hartree energy:                                            3440.55190937496036
  Exchange-correlation energy:                              -1042.55770396503635
  Dispersion energy:                                           -0.58571294160856

  DFT+U energy:                                                 1.45397770253230

  Total energy:                                             -8144.32980458113070

  outer SCF iter =    1 RMS gradient =   0.96E-05 energy =      -8144.3298045811
  outer SCF loop converged in   1 iterations or  151 steps


  Integrated absolute spin density  :                             235.0113713276
  Ideal and single determinant S**2 :                    0.000000     127.896517

 ENERGY| Total FORCE_EVAL ( QS ) energy (a.u.):            -8144.329827877158095


 --------  Informations at step =     0 ------------
  Optimization Method        =                 BFGS
  Total Energy               =     -8144.3298278772
  Used time                  =             1549.513
 ---------------------------------------------------

 --------------------------
 OPTIMIZATION STEP:      1
 --------------------------

 Spin 1

 Number of electrons:                                                        719
 Number of occupied orbitals:                                                719
 Number of molecular orbitals:                                               719

 Spin 2

 Number of electrons:                                                        719
 Number of occupied orbitals:                                                719
 Number of molecular orbitals:                                               719

 Number of orbital functions:                                               2718
 Number of independent orbital functions:                                   2718

 Extrapolation method: PS Nth order


 SCF WAVEFUNCTION OPTIMIZATION

  ----------------------------------- OT ---------------------------------------
  Minimizer      : CG                  : conjugate gradient
  Preconditioner : FULL_ALL            : diagonalization, state selective
  Precond_solver : DEFAULT
  Line search    : 3PNT                : 3 energies
  stepsize       :    0.15000000                  energy_gap     :    0.08000000
  eps_taylor     :   0.10000E-15                  max_taylor     :             4
  ----------------------------------- OT ---------------------------------------

  Step     Update method      Time    Convergence         Total energy    Change
  ------------------------------------------------------------------------------
     1 OT CG       0.12E+00   12.4     0.00013912     -8144.3373049810 -8.14E+03
     2 OT LS       0.17E+00    7.5                    -8144.3450707713
     3 OT LS       0.41E+00    7.4                    -8144.3474398881
     4 OT CG       0.33E+00   14.9     0.00009118     -8144.3529069977 -1.56E-02
     5 OT LS       0.17E+00    7.5                    -8144.3488205767
     6 OT LS       0.12E+00    7.4                    -8144.3545196207
     7 OT CG       0.95E-01   15.0     0.00002685     -8144.3548135843 -1.91E-03
     8 OT LS       0.13E+00    7.4                    -8144.3549902264
     9 OT LS       0.14E+00    7.4                    -8144.3550097816
    10 OT CG       0.11E+00   15.0     0.00001126     -8144.3550101976 -1.97E-04
    11 OT LS       0.16E+00    7.4                    -8144.3550437476
    12 OT LS       0.14E+00    7.3                    -8144.3550448688
    13 OT CG       0.11E+00   15.0     0.00000589     -8144.3550452762 -3.51E-05

  *** SCF run converged in    13 steps ***


  Electronic density on regular grids:      -1437.9999923173        0.0000076827
  Core density on regular grids:             1437.9999996452       -0.0000003548
  Total charge density on r-space grids:        0.0000073279
  Total charge density g-space grids:           0.0000073279

  Overlap energy of the core charge distribution:               0.00000647577227
  Self energy of the core charge distribution:             -14650.93922905635191
  Core Hamiltonian energy:                                   4107.57531998632385
  Hartree energy:                                            3440.65699681150545
  Exchange-correlation energy:                              -1042.51490096400198
  Dispersion energy:                                           -0.58579604060914

  DFT+U energy:                                                 1.45255751120221

  Total energy:                                             -8144.35504527616104

  outer SCF iter =    1 RMS gradient =   0.59E-05 energy =      -8144.3550452762
  outer SCF loop converged in   1 iterations or   13 steps


  Integrated absolute spin density  :                             234.9868337217
  Ideal and single determinant S**2 :                    0.000000     127.891509

 ENERGY| Total FORCE_EVAL ( QS ) energy (a.u.):            -8144.355052446738227


 --------  Informations at step =     1 ------------
  Optimization Method        =                 BFGS
  Total Energy               =     -8144.3550524467
  Real energy change         =        -0.0252245696
  Predicted change in energy =        -0.0206970211
  Scaling factor             =         0.0000000000
  Step size                  =         0.3715589985
  Trust radius               =         0.4724315332
  Decrease in energy         =                  YES
  Used time                  =              167.904

  Convergence check :
  Max. step size             =         0.3715589985
  Conv. limit for step size  =         1.0000000000
  Convergence in step size   =                  YES
  RMS step size              =         0.0265649219
  Conv. limit for RMS step   =         1.0000000000
  Convergence in RMS step    =                  YES
  Max. gradient              =         0.0133048374
  Conv. limit for gradients  =         0.0100000000
  Conv. for gradients        =                   NO
  RMS gradient               =         0.0014266536
  Conv. limit for RMS grad.  =         1.0000000000
  Conv. in RMS gradients     =                  YES
 ---------------------------------------------------

 --------------------------
 OPTIMIZATION STEP:      2
 --------------------------

 Spin 1

 Number of electrons:                                                        719
 Number of occupied orbitals:                                                719
 Number of molecular orbitals:                                               719

 Spin 2

 Number of electrons:                                                        719
 Number of occupied orbitals:                                                719
 Number of molecular orbitals:                                               719

 Number of orbital functions:                                               2718
 Number of independent orbital functions:                                   2718

 Extrapolation method: PS Nth order


 SCF WAVEFUNCTION OPTIMIZATION

  ----------------------------------- OT ---------------------------------------
  Minimizer      : CG                  : conjugate gradient
  Preconditioner : FULL_ALL            : diagonalization, state selective
  Precond_solver : DEFAULT
  Line search    : 3PNT                : 3 energies
  stepsize       :    0.15000000                  energy_gap     :    0.08000000
  eps_taylor     :   0.10000E-15                  max_taylor     :             4
  ----------------------------------- OT ---------------------------------------

  Step     Update method      Time    Convergence         Total energy    Change
  ------------------------------------------------------------------------------
     1 OT CG       0.12E+00   12.3     0.00012335     -8144.3497855151 -8.14E+03
     2 OT LS       0.17E+00    7.5                    -8144.3551332552
     3 OT LS       0.24E+00    7.5                    -8144.3562833354
     4 OT CG       0.19E+00   14.9     0.00010575     -8144.3569689437 -7.18E-03
     5 OT LS       0.27E+00    7.5                    -8144.3610426574
     6 OT LS       0.18E+00    7.5                    -8144.3601362156
     7 OT CG       0.15E+00   14.8     0.00003391     -8144.3610528640 -4.08E-03
     8 OT LS       0.21E+00    7.5                    -8144.3612489752
     9 OT LS       0.10E+00    7.4                    -8144.3610658191
    10 OT CG       0.83E-01   14.9     0.00001586     -8144.3612882090 -2.35E-04
    11 OT LS       0.12E+00    7.5                    -8144.3613376039
    12 OT LS       0.10E+00    7.4                    -8144.3613390868
    13 OT CG       0.84E-01   14.9     0.00000710     -8144.3613397550 -5.15E-05

  *** SCF run converged in    13 steps ***


  Electronic density on regular grids:      -1437.9999923062        0.0000076938
  Core density on regular grids:             1437.9999996447       -0.0000003553
  Total charge density on r-space grids:        0.0000073384
  Total charge density g-space grids:           0.0000073384

  Overlap energy of the core charge distribution:               0.00000684121674
  Self energy of the core charge distribution:             -14650.93922905635191
  Core Hamiltonian energy:                                   4107.52779198865755
  Hartree energy:                                            3440.68538438843962
  Exchange-correlation energy:                              -1042.50125839487237
  Dispersion energy:                                           -0.58531734278891

  DFT+U energy:                                                 1.45128182070376

  Total energy:                                             -8144.36133975499342

  outer SCF iter =    1 RMS gradient =   0.71E-05 energy =      -8144.3613397550
  outer SCF loop converged in   1 iterations or   13 steps


  Integrated absolute spin density  :                             234.9629430472
  Ideal and single determinant S**2 :                    0.000000     127.884334

 ENERGY| Total FORCE_EVAL ( QS ) energy (a.u.):            -8144.361352041702048


 --------  Informations at step =     2 ------------
  Optimization Method        =                 BFGS
  Total Energy               =     -8144.3613520417
  Real energy change         =        -0.0062995950
  Predicted change in energy =        -0.0060417870
  Scaling factor             =         0.0000000000
  Step size                  =         0.2257705202
  Trust radius               =         0.4724315332
  Decrease in energy         =                  YES
  Used time                  =              167.917

  Convergence check :
  Max. step size             =         0.2257705202
  Conv. limit for step size  =         1.0000000000
  Convergence in step size   =                  YES
  RMS step size              =         0.0195944924
  Conv. limit for RMS step   =         1.0000000000
  Convergence in RMS step    =                  YES
  Max. gradient              =         0.0233192580
  Conv. limit for gradients  =         0.0100000000
  Conv. for gradients        =                   NO
  RMS gradient               =         0.0031364343
  Conv. limit for RMS grad.  =         1.0000000000
  Conv. in RMS gradients     =                  YES
 ---------------------------------------------------

 --------------------------
 OPTIMIZATION STEP:      3
 --------------------------

  Step is scaled; Scaling factor =  0.56390

 Spin 1

 Number of electrons:                                                        719
 Number of occupied orbitals:                                                719
 Number of molecular orbitals:                                               719

 Spin 2

 Number of electrons:                                                        719
 Number of occupied orbitals:                                                719
 Number of molecular orbitals:                                               719

 Number of orbital functions:                                               2718
 Number of independent orbital functions:                                   2718

 Extrapolation method: PS Nth order


 SCF WAVEFUNCTION OPTIMIZATION

  ----------------------------------- OT ---------------------------------------
  Minimizer      : CG                  : conjugate gradient
  Preconditioner : FULL_ALL            : diagonalization, state selective
  Precond_solver : DEFAULT
  Line search    : 3PNT                : 3 energies
  stepsize       :    0.15000000                  energy_gap     :    0.08000000
  eps_taylor     :   0.10000E-15                  max_taylor     :             4
  ----------------------------------- OT ---------------------------------------

  Step     Update method      Time    Convergence         Total energy    Change
  ------------------------------------------------------------------------------
     1 OT CG       0.12E+00   12.3     0.00016754     -8144.3381016831 -8.14E+03
     2 OT LS       0.17E+00    7.4                    -8144.3481280741
     3 OT LS       0.25E+00    7.5                    -8144.3503558219
     4 OT CG       0.20E+00   14.8     0.00015335     -8144.3517566827 -1.37E-02
     5 OT LS       0.28E+00    7.5                    -8144.3586046511
     6 OT LS       0.16E+00    7.6                    -8144.3552598535
     7 OT CG       0.13E+00   14.8     0.00005003     -8144.3590005760 -7.24E-03
     8 OT LS       0.18E+00    7.4                    -8144.3595399204
     9 OT LS       0.11E+00    7.6                    -8144.3593506641
    10 OT CG       0.91E-01   14.9     0.00002028     -8144.3595515657 -5.51E-04
    11 OT LS       0.13E+00    7.4                    -8144.3596446722
    12 OT LS       0.13E+00    7.5                    -8144.3596523952
    13 OT CG       0.10E+00   14.9     0.00001251     -8144.3596524104 -1.01E-04
    14 OT LS       0.14E+00    7.4                    -8144.3596893356
    15 OT LS       0.13E+00    7.5                    -8144.3596903948
    16 OT CG       0.10E+00   14.9     0.00000466     -8144.3596909159 -3.85E-05

  *** SCF run converged in    16 steps ***


  Electronic density on regular grids:      -1437.9999923123        0.0000076877
  Core density on regular grids:             1437.9999996446       -0.0000003554
  Total charge density on r-space grids:        0.0000073323
  Total charge density g-space grids:           0.0000073323

  Overlap energy of the core charge distribution:               0.00000757094743
  Self energy of the core charge distribution:             -14650.93922905635191
  Core Hamiltonian energy:                                   4107.44445249777709
  Hartree energy:                                            3440.73623163847424
  Exchange-correlation energy:                              -1042.46553823458021
  Dispersion energy:                                           -0.58611556886083

  DFT+U energy:                                                 1.45050023673237

  Total energy:                                             -8144.35969091586230

  outer SCF iter =    1 RMS gradient =   0.47E-05 energy =      -8144.3596909159
  outer SCF loop converged in   1 iterations or   16 steps


  Integrated absolute spin density  :                             234.9080427858
  Ideal and single determinant S**2 :                    0.000000     127.863595

 ENERGY| Total FORCE_EVAL ( QS ) energy (a.u.):            -8144.359696684398841


 --------  Informations at step =     3 ------------
  Optimization Method        =                 BFGS
  Total Energy               =     -8144.3596966844
  Real energy change         =         0.0016553573
  Predicted change in energy =        -0.0166436156
  Scaling factor             =         0.5639010134
  Step size                  =         0.4724315332
  Trust radius               =         0.4724315332
  Decrease in energy         =                   NO
  Used time                  =              198.311

  Convergence check :
  Max. step size             =         0.4724315332
  Conv. limit for step size  =         1.0000000000
  Convergence in step size   =                  YES
  RMS step size              =         0.0423766391
  Conv. limit for RMS step   =         1.0000000000
  Convergence in RMS step    =                  YES
  Max. gradient              =         0.0360457155
  Conv. limit for gradients  =         0.0100000000
  Conv. for gradients        =                   NO
  RMS gradient               =         0.0040547893
  Conv. limit for RMS grad.  =         1.0000000000
  Conv. in RMS gradients     =                  YES
 ---------------------------------------------------

 --------------------------
 OPTIMIZATION STEP:      4
 --------------------------

 Spin 1

 Number of electrons:                                                        719
 Number of occupied orbitals:                                                719
 Number of molecular orbitals:                                               719

 Spin 2

 Number of electrons:                                                        719
 Number of occupied orbitals:                                                719
 Number of molecular orbitals:                                               719

 Number of orbital functions:                                               2718
 Number of independent orbital functions:                                   2718

 Extrapolation method: PS Nth order


 SCF WAVEFUNCTION OPTIMIZATION

  ----------------------------------- OT ---------------------------------------
  Minimizer      : CG                  : conjugate gradient
  Preconditioner : FULL_ALL            : diagonalization, state selective
  Precond_solver : DEFAULT
  Line search    : 3PNT                : 3 energies
  stepsize       :    0.15000000                  energy_gap     :    0.08000000
  eps_taylor     :   0.10000E-15                  max_taylor     :             4
  ----------------------------------- OT ---------------------------------------

  Step     Update method      Time    Convergence         Total energy    Change
  ------------------------------------------------------------------------------
     1 OT CG       0.12E+00   12.5     0.00035452     -8144.2776127958 -8.14E+03
     2 OT LS       0.17E+00    7.5                    -8144.3202755866
     3 OT LS       0.22E+00    7.4                    -8144.3285123260
     4 OT CG       0.18E+00   15.0     0.00028903     -8144.3320248301 -5.44E-02
     5 OT LS       0.25E+00    7.5                    -8144.3649893243
     6 OT LS       0.20E+00    7.6                    -8144.3628945625
     7 OT CG       0.16E+00   15.0     0.00010994     -8144.3653121737 -3.33E-02
     8 OT LS       0.22E+00    7.5                    -8144.3676566511
     9 OT LS       0.11E+00    7.7                    -8144.3657253943
    10 OT CG       0.92E-01   15.1     0.00004436     -8144.3680320626 -2.72E-03
    11 OT LS       0.13E+00    7.5                    -8144.3684454275
    12 OT LS       0.11E+00    7.6                    -8144.3684478835
    13 OT CG       0.89E-01   15.0     0.00002491     -8144.3684582956 -4.26E-04
    14 OT LS       0.12E+00    7.5                    -8144.3686152315
    15 OT LS       0.16E+00    7.6                    -8144.3686454416
    16 OT CG       0.13E+00   15.1     0.00001399     -8144.3686571921 -1.99E-04
    17 OT LS       0.18E+00    7.5                    -8144.3687146553
    18 OT LS       0.15E+00    7.6                    -8144.3687135125
    19 OT CG       0.12E+00   15.0     0.00000806     -8144.3687158566 -5.87E-05

  *** SCF run converged in    19 steps ***


  Electronic density on regular grids:      -1437.9999923026        0.0000076974
  Core density on regular grids:             1437.9999996452       -0.0000003548
  Total charge density on r-space grids:        0.0000073426
  Total charge density g-space grids:           0.0000073426

  Overlap energy of the core charge distribution:               0.00000707209138
  Self energy of the core charge distribution:             -14650.93922905635191
  Core Hamiltonian energy:                                   4107.45412967448556
  Hartree energy:                                            3440.72703938334416
  Exchange-correlation energy:                              -1042.47961446447903
  Dispersion energy:                                           -0.58493276948779

  DFT+U energy:                                                 1.45388430380173

  Total energy:                                             -8144.36871585659719

  outer SCF iter =    1 RMS gradient =   0.81E-05 energy =      -8144.3687158566
  outer SCF loop converged in   1 iterations or   19 steps


  Integrated absolute spin density  :                             234.9519844822
  Ideal and single determinant S**2 :                    0.000000     127.880519

 ENERGY| Total FORCE_EVAL ( QS ) energy (a.u.):            -8144.368736602509671


 --------  Informations at step =     4 ------------
  Optimization Method        =                 BFGS
  Total Energy               =     -8144.3687366025
  Real energy change         =        -0.0090399181
  Predicted change in energy =        -0.0078449706
  Scaling factor             =         0.5639010134
  Step size                  =         0.1176662922
  Trust radius               =         0.4724315332
  Decrease in energy         =                  YES
  Used time                  =              229.470

  Convergence check :
  Max. step size             =         0.1176662922
  Conv. limit for step size  =         1.0000000000
  Convergence in step size   =                  YES
  RMS step size              =         0.0121339559
  Conv. limit for RMS step   =         1.0000000000
  Convergence in RMS step    =                  YES
  Max. gradient              =         0.0164751549
  Conv. limit for gradients  =         0.0100000000
  Conv. for gradients        =                   NO
  RMS gradient               =         0.0028528341
  Conv. limit for RMS grad.  =         1.0000000000
  Conv. in RMS gradients     =                  YES
 ---------------------------------------------------

 --------------------------
 OPTIMIZATION STEP:      5
 --------------------------

 Spin 1

 Number of electrons:                                                        719
 Number of occupied orbitals:                                                719
 Number of molecular orbitals:                                               719

 Spin 2

 Number of electrons:                                                        719
 Number of occupied orbitals:                                                719
 Number of molecular orbitals:                                               719

 Number of orbital functions:                                               2718
 Number of independent orbital functions:                                   2718

 Extrapolation method: PS Nth order


 SCF WAVEFUNCTION OPTIMIZATION

  ----------------------------------- OT ---------------------------------------
  Minimizer      : CG                  : conjugate gradient
  Preconditioner : FULL_ALL            : diagonalization, state selective
  Precond_solver : DEFAULT
  Line search    : 3PNT                : 3 energies
  stepsize       :    0.15000000                  energy_gap     :    0.08000000
  eps_taylor     :   0.10000E-15                  max_taylor     :             4
  ----------------------------------- OT ---------------------------------------

  Step     Update method      Time    Convergence         Total energy    Change
  ------------------------------------------------------------------------------
     1 OT CG       0.12E+00   12.4     0.00024080     -8144.3132995320 -8.14E+03
     2 OT LS       0.17E+00    7.5                    -8144.3342207761
     3 OT LS       0.26E+00    7.5                    -8144.3390938552
     4 OT CG       0.21E+00   14.8     0.00020993     -8144.3428960575 -2.96E-02
     5 OT LS       0.29E+00    7.5                    -8144.3563744100
     6 OT LS       0.17E+00    7.5                    -8144.3490214593
     7 OT CG       0.13E+00   14.9     0.00006391     -8144.3573126471 -1.44E-02
     8 OT LS       0.19E+00    7.4                    -8144.3582105738
     9 OT LS       0.12E+00    7.5                    -8144.3578813971
    10 OT CG       0.92E-01   14.9     0.00002587     -8144.3582328466 -9.20E-04
    11 OT LS       0.13E+00    7.5                    -8144.3583867382
    12 OT LS       0.13E+00    7.5                    -8144.3583995038
    13 OT CG       0.10E+00   15.0     0.00001727     -8144.3583995291 -1.67E-04
    14 OT LS       0.14E+00    7.4                    -8144.3584728996
    15 OT LS       0.13E+00    7.5                    -8144.3584768134
    16 OT CG       0.11E+00   14.9     0.00000704     -8144.3584771997 -7.77E-05

  *** SCF run converged in    16 steps ***


  Electronic density on regular grids:      -1437.9999923070        0.0000076930
  Core density on regular grids:             1437.9999996446       -0.0000003554
  Total charge density on r-space grids:        0.0000073376
  Total charge density g-space grids:           0.0000073376

  Overlap energy of the core charge distribution:               0.00000611545683
  Self energy of the core charge distribution:             -14650.93922905635191
  Core Hamiltonian energy:                                   4107.54361525439890
  Hartree energy:                                            3440.66738078488197
  Exchange-correlation energy:                              -1042.50441269889166
  Dispersion energy:                                           -0.58294335860809

  DFT+U energy:                                                 1.45710575940909

  Total energy:                                             -8144.35847719970388

  outer SCF iter =    1 RMS gradient =   0.70E-05 energy =      -8144.3584771997
  outer SCF loop converged in   1 iterations or   16 steps


  Integrated absolute spin density  :                             234.9933948835
  Ideal and single determinant S**2 :                    0.000000     127.889385

 ENERGY| Total FORCE_EVAL ( QS ) energy (a.u.):            -8144.358489758214091


 --------  Informations at step =     5 ------------
  Optimization Method        =                 BFGS
  Total Energy               =     -8144.3584897582
  Real energy change         =         0.0102468443
  Predicted change in energy =        -0.0097833971
  Scaling factor             =         0.5639010134
  Step size                  =         0.1591791484
  Trust radius               =         0.4724315332
  Decrease in energy         =                   NO
  Used time                  =              198.521

  Convergence check :
  Max. step size             =         0.1591791484
  Conv. limit for step size  =         1.0000000000
  Convergence in step size   =                  YES
  RMS step size              =         0.0222359337
  Conv. limit for RMS step   =         1.0000000000
  Convergence in RMS step    =                  YES
  Max. gradient              =         0.0492640940
  Conv. limit for gradients  =         0.0100000000
  Conv. for gradients        =                   NO
  RMS gradient               =         0.0044764615
  Conv. limit for RMS grad.  =         1.0000000000
  Conv. in RMS gradients     =                  YES
 ---------------------------------------------------

 --------------------------
 OPTIMIZATION STEP:      6
 --------------------------

 Spin 1

 Number of electrons:                                                        719
 Number of occupied orbitals:                                                719
 Number of molecular orbitals:                                               719

 Spin 2

 Number of electrons:                                                        719
 Number of occupied orbitals:                                                719
 Number of molecular orbitals:                                               719

 Number of orbital functions:                                               2718
 Number of independent orbital functions:                                   2718

 Extrapolation method: PS Nth order


 SCF WAVEFUNCTION OPTIMIZATION

  ----------------------------------- OT ---------------------------------------
  Minimizer      : CG                  : conjugate gradient
  Preconditioner : FULL_ALL            : diagonalization, state selective
  Precond_solver : DEFAULT
  Line search    : 3PNT                : 3 energies
  stepsize       :    0.15000000                  energy_gap     :    0.08000000
  eps_taylor     :   0.10000E-15                  max_taylor     :             4
  ----------------------------------- OT ---------------------------------------

  Step     Update method      Time    Convergence         Total energy    Change
  ------------------------------------------------------------------------------
     1 OT CG       0.12E+00   12.4     0.00033063     -8144.2864530495 -8.14E+03
     2 OT LS       0.17E+00    7.4                    -8144.3246778590
     3 OT LS       0.24E+00    7.5                    -8144.3326524426
     4 OT CG       0.19E+00   14.9     0.00028462     -8144.3367817645 -5.03E-02
     5 OT LS       0.26E+00    7.5                    -8144.3643654329
     6 OT LS       0.18E+00    7.5                    -8144.3576406328
     7 OT CG       0.14E+00   14.9     0.00011173     -8144.3645062031 -2.77E-02
     8 OT LS       0.20E+00    7.4                    -8144.3668141617
     9 OT LS       0.11E+00    7.5                    -8144.3651763202
    10 OT CG       0.85E-01   15.0     0.00004924     -8144.3670933312 -2.59E-03
    11 OT LS       0.12E+00    7.4                    -8144.3676184874
    12 OT LS       0.12E+00    7.5                    -8144.3676720472
    13 OT CG       0.98E-01   14.9     0.00002678     -8144.3676724841 -5.79E-04
    14 OT LS       0.14E+00    7.5                    -8144.3678541367
    15 OT LS       0.15E+00    7.4                    -8144.3678751845
    16 OT CG       0.12E+00   15.2     0.00001185     -8144.3678758590 -2.03E-04
    17 OT LS       0.16E+00    7.5                    -8144.3679169963
    18 OT LS       0.16E+00    7.4                    -8144.3679207681
    19 OT CG       0.13E+00   15.0     0.00000729     -8144.3679207696 -4.49E-05

  *** SCF run converged in    19 steps ***


  Electronic density on regular grids:      -1437.9999923089        0.0000076911
  Core density on regular grids:             1437.9999996447       -0.0000003553
  Total charge density on r-space grids:        0.0000073358
  Total charge density g-space grids:           0.0000073358

  Overlap energy of the core charge distribution:               0.00000648579589
  Self energy of the core charge distribution:             -14650.93922905635191
  Core Hamiltonian energy:                                   4107.45279603755080
  Hartree energy:                                            3440.72402468100290
  Exchange-correlation energy:                              -1042.47932324818817
  Dispersion energy:                                           -0.58254729526024

  DFT+U energy:                                                 1.45635162583114

  Total energy:                                             -8144.36792076961865

  outer SCF iter =    1 RMS gradient =   0.73E-05 energy =      -8144.3679207696
  outer SCF loop converged in   1 iterations or   19 steps


  Integrated absolute spin density  :                             234.9871016555
  Ideal and single determinant S**2 :                    0.000000     127.889264

 ENERGY| Total FORCE_EVAL ( QS ) energy (a.u.):            -8144.367939147118705


 --------  Informations at step =     6 ------------
  Optimization Method        =                 BFGS
  Total Energy               =     -8144.3679391471
  Real energy change         =        -0.0094493889
  Predicted change in energy =        -0.0072939140
  Scaling factor             =         0.5639010134
  Step size                  =         0.1485504656
  Trust radius               =         0.4724315332
  Decrease in energy         =                   NO
  Used time                  =              228.313

  Convergence check :
  Max. step size             =         0.1485504656
  Conv. limit for step size  =         1.0000000000
  Convergence in step size   =                  YES
  RMS step size              =         0.0123112031
  Conv. limit for RMS step   =         1.0000000000
  Convergence in RMS step    =                  YES
  Max. gradient              =         0.0067358255
  Conv. limit for gradients  =         0.0100000000
  Conv. in gradients         =                  YES
  RMS gradient               =         0.0015326179
  Conv. limit for RMS grad.  =         1.0000000000
  Conv. in RMS gradients     =                  YES
 ---------------------------------------------------

 *******************************************************************************
 ***                    GEOMETRY OPTIMIZATION COMPLETED                      ***
 *******************************************************************************

                    Reevaluating energy at the minimum

 Spin 1

 Number of electrons:                                                        719
 Number of occupied orbitals:                                                719
 Number of molecular orbitals:                                               719

 Spin 2

 Number of electrons:                                                        719
 Number of occupied orbitals:                                                719
 Number of molecular orbitals:                                               719

 Number of orbital functions:                                               2718
 Number of independent orbital functions:                                   2718

 Extrapolation method: PS Nth order


 SCF WAVEFUNCTION OPTIMIZATION

  ----------------------------------- OT ---------------------------------------
  Minimizer      : CG                  : conjugate gradient
  Preconditioner : FULL_ALL            : diagonalization, state selective
  Precond_solver : DEFAULT
  Line search    : 3PNT                : 3 energies
  stepsize       :    0.15000000                  energy_gap     :    0.08000000
  eps_taylor     :   0.10000E-15                  max_taylor     :             4
  ----------------------------------- OT ---------------------------------------

  Step     Update method      Time    Convergence         Total energy    Change
  ------------------------------------------------------------------------------
     1 OT CG       0.12E+00   12.4     0.00033037     -8144.2888368503 -8.14E+03
     2 OT LS       0.17E+00    7.5                    -8144.3265276330
     3 OT LS       0.23E+00    7.5                    -8144.3341543092
     4 OT CG       0.18E+00   14.8     0.00026527     -8144.3378375000 -4.90E-02
     5 OT LS       0.26E+00    7.5                    -8144.3646166618
     6 OT LS       0.19E+00    7.5                    -8144.3615175915
     7 OT CG       0.15E+00   14.8     0.00010792     -8144.3646663800 -2.68E-02
     8 OT LS       0.21E+00    7.5                    -8144.3668589143
     9 OT LS       0.11E+00    7.4                    -8144.3650423228
    10 OT CG       0.89E-01   14.8     0.00004925     -8144.3672149567 -2.55E-03
    11 OT LS       0.13E+00    7.5                    -8144.3677125221
    12 OT LS       0.11E+00    7.5                    -8144.3677155012
    13 OT CG       0.87E-01   14.8     0.00002244     -8144.3677280563 -5.13E-04
    14 OT LS       0.12E+00    7.6                    -8144.3678508941
    15 OT LS       0.16E+00    7.5                    -8144.3678734190
    16 OT CG       0.12E+00   14.8     0.00001197     -8144.3678807462 -1.53E-04
    17 OT LS       0.17E+00    7.6                    -8144.3679236383
    18 OT LS       0.16E+00    7.4                    -8144.3679258802
    19 OT CG       0.13E+00   14.8     0.00000665     -8144.3679261197 -4.54E-05

  *** SCF run converged in    19 steps ***


  Electronic density on regular grids:      -1437.9999923088        0.0000076912
  Core density on regular grids:             1437.9999996447       -0.0000003553
  Total charge density on r-space grids:        0.0000073359
  Total charge density g-space grids:           0.0000073359

  Overlap energy of the core charge distribution:               0.00000648579589
  Self energy of the core charge distribution:             -14650.93922905635191
  Core Hamiltonian energy:                                   4107.44064898761644
  Hartree energy:                                            3440.73326940397646
  Exchange-correlation energy:                              -1042.47649343504781
  Dispersion energy:                                           -0.58254729526024

  DFT+U energy:                                                 1.45641878960110

  Total energy:                                             -8144.36792611967030

  outer SCF iter =    1 RMS gradient =   0.67E-05 energy =      -8144.3679261197
  outer SCF loop converged in   1 iterations or   19 steps


  Integrated absolute spin density  :                             234.9828478139
  Ideal and single determinant S**2 :                    0.000000     127.888958

 ENERGY| Total FORCE_EVAL ( QS ) energy (a.u.):            -8144.367926119670301


 -------------------------------------------------------------------------------
 -                                                                             -
 -                                DBCSR STATISTICS                             -
 -                                                                             -
 -------------------------------------------------------------------------------
 COUNTER                                    TOTAL       BLAS       SMM       ACC
 flops     5 x    15 x    15               756000       0.0%    100.0%      0.0%
 flops    13 x    15 x    15              8704800       0.0%    100.0%      0.0%
 flops    26 x    15 x    15             10108800       0.0%    100.0%      0.0%
 flops     5 x    32 x    32             75694080       0.0%    100.0%      0.0%
 flops     5 x    15 x     5            285768000       0.0%    100.0%      0.0%
 flops    13 x    32 x    32            871563264       0.0%    100.0%      0.0%
 flops    26 x    32 x    32           1012137984       0.0%    100.0%      0.0%
 flops     5 x     5 x   160           1038576000       0.0%    100.0%      0.0%
 flops     5 x     5 x   175           1135942500       0.0%    100.0%      0.0%
 flops     5 x     5 x   192           2492582400       0.0%    100.0%      0.0%
 flops     5 x    15 x    13           3290414400       0.0%    100.0%      0.0%
 flops    13 x    15 x     5           3290414400       0.0%    100.0%      0.0%
 flops     5 x    15 x    26           3821126400       0.0%    100.0%      0.0%
 flops    26 x    15 x     5           3821126400       0.0%    100.0%      0.0%
 flops    13 x     5 x   160          11409049600       0.0%    100.0%      0.0%
 flops     5 x    13 x   160          11420739200       0.0%    100.0%      0.0%
 flops    13 x     5 x   175          12478648000       0.0%    100.0%      0.0%
 flops     5 x    13 x   175          12491433500       0.0%    100.0%      0.0%
 flops     5 x    26 x   160          13232627200       0.0%    100.0%      0.0%
 flops    26 x     5 x   160          13279385600       0.0%    100.0%      0.0%
 flops     5 x    32 x     5          13412044800       0.0%    100.0%      0.0%
 flops     5 x    26 x   175          14473186000       0.0%    100.0%      0.0%
 flops    26 x     5 x   175          14524328000       0.0%    100.0%      0.0%
 flops   160 x   160 x   160          18145280000     100.0%      0.0%      0.0%
 flops   160 x   160 x   175          19846400000     100.0%      0.0%      0.0%
 flops   160 x   175 x   160          19846400000     100.0%      0.0%      0.0%
 flops   175 x   160 x   160          19846400000     100.0%      0.0%      0.0%
 flops   160 x   175 x   175          21707000000     100.0%      0.0%      0.0%
 flops   175 x   160 x   175          21707000000     100.0%      0.0%      0.0%
 flops   175 x   175 x   160          21707000000     100.0%      0.0%      0.0%
 flops   175 x   175 x   175          23742031250     100.0%      0.0%      0.0%
 flops    13 x     5 x   192          27381719040       0.0%    100.0%      0.0%
 flops     5 x    13 x   192          27409774080       0.0%    100.0%      0.0%
 flops     5 x    26 x   192          31758305280       0.0%    100.0%      0.0%
 flops    26 x     5 x   192          31870525440       0.0%    100.0%      0.0%
 flops    13 x    15 x    13          37886771520       0.0%    100.0%      0.0%
 flops   160 x   160 x   678          38601523200     100.0%      0.0%      0.0%
 flops   160 x   175 x   678          42220416000     100.0%      0.0%      0.0%
 flops   175 x   160 x   678          42220416000     100.0%      0.0%      0.0%
 flops   160 x   160 x   192          43548672000     100.0%      0.0%      0.0%
 flops   160 x   192 x   160          43548672000     100.0%      0.0%      0.0%
 flops   192 x   160 x   160          43548672000     100.0%      0.0%      0.0%
 flops    26 x    15 x    13          43997541120       0.0%    100.0%      0.0%
 flops    13 x    15 x    26          43997541120       0.0%    100.0%      0.0%
 flops   175 x   175 x   678          46178580000     100.0%      0.0%      0.0%
 flops   160 x   175 x   192          47631360000     100.0%      0.0%      0.0%
 flops   160 x   192 x   175          47631360000     100.0%      0.0%      0.0%
 flops   175 x   160 x   192          47631360000     100.0%      0.0%      0.0%
 flops   175 x   192 x   160          47631360000     100.0%      0.0%      0.0%
 flops   192 x   160 x   175          47631360000     100.0%      0.0%      0.0%
 flops   192 x   175 x   160          47631360000     100.0%      0.0%      0.0%
 flops    26 x    15 x    26          51093918720       0.0%    100.0%      0.0%
 flops   175 x   175 x   192          52096800000     100.0%      0.0%      0.0%
 flops   175 x   192 x   175          52096800000     100.0%      0.0%      0.0%
 flops   192 x   175 x   175          52096800000     100.0%      0.0%      0.0%
 flops   678 x   160 x   160          56513740800     100.0%      0.0%      0.0%
 flops   678 x   160 x   678          60016343040     100.0%      0.0%      0.0%
 flops   678 x   160 x   175          61811904000     100.0%      0.0%      0.0%
 flops   678 x   175 x   160          61811904000     100.0%      0.0%      0.0%
 flops   678 x   175 x   678          65642875200     100.0%      0.0%      0.0%
 flops   678 x   175 x   175          67606770000     100.0%      0.0%      0.0%
 flops   160 x   192 x   678          92643655680     100.0%      0.0%      0.0%
 flops   192 x   160 x   678          92643655680     100.0%      0.0%      0.0%
 flops   175 x   192 x   678         101328998400     100.0%      0.0%      0.0%
 flops   192 x   175 x   678         101328998400     100.0%      0.0%      0.0%
 flops   192 x   192 x   160         104516812800     100.0%      0.0%      0.0%
 flops   160 x   192 x   192         104516812800     100.0%      0.0%      0.0%
 flops   192 x   160 x   192         104516812800     100.0%      0.0%      0.0%
 flops   192 x   192 x   175         114315264000     100.0%      0.0%      0.0%
 flops   175 x   192 x   192         114315264000     100.0%      0.0%      0.0%
 flops   192 x   175 x   192         114315264000     100.0%      0.0%      0.0%
 flops   160 x   160 x   680         116146176000     100.0%      0.0%      0.0%
 flops   160 x   175 x   680         127034880000     100.0%      0.0%      0.0%
 flops   175 x   160 x   680         127034880000     100.0%      0.0%      0.0%
 flops    13 x    13 x   160         132847628160       0.0%    100.0%      0.0%
 flops   678 x   160 x   192         135632977920     100.0%      0.0%      0.0%
 flops   678 x   192 x   160         135632977920     100.0%      0.0%      0.0%
 flops   175 x   175 x   680         138944400000     100.0%      0.0%      0.0%
 flops   678 x   192 x   678         144039223296     100.0%      0.0%      0.0%
 flops    13 x    13 x   175         145302093300       0.0%    100.0%      0.0%
 flops   678 x   175 x   192         148348569600     100.0%      0.0%      0.0%
 flops   678 x   192 x   175         148348569600     100.0%      0.0%      0.0%
 flops    26 x    13 x   160         152511873280       0.0%    100.0%      0.0%
 flops    13 x    26 x   160         152755016960       0.0%    100.0%      0.0%
 flops     5 x    32 x    13         154430115840       0.0%    100.0%      0.0%
 flops    13 x    32 x     5         154430115840       0.0%    100.0%      0.0%
 flops    26 x    13 x   175         166809861400       0.0%    100.0%      0.0%
 flops    13 x    26 x   175         167075799800       0.0%    100.0%      0.0%
 flops   680 x   160 x   160         170041344000     100.0%      0.0%      0.0%
 flops     5 x    32 x    26         179338199040       0.0%    100.0%      0.0%
 flops    26 x    32 x     5         179338199040       0.0%    100.0%      0.0%
 flops    26 x    26 x   160         180534182400       0.0%    100.0%      0.0%
 flops   678 x   160 x   680         180580147200     100.0%      0.0%      0.0%
 flops   680 x   160 x   678         180580147200     100.0%      0.0%      0.0%
 flops   680 x   160 x   175         185982720000     100.0%      0.0%      0.0%
 flops   680 x   175 x   160         185982720000     100.0%      0.0%      0.0%
 flops    26 x    26 x   175         197459262000       0.0%    100.0%      0.0%
 flops   678 x   175 x   680         197509536000     100.0%      0.0%      0.0%
 flops   680 x   175 x   678         197509536000     100.0%      0.0%      0.0%
 flops   680 x   175 x   175         203418600000     100.0%      0.0%      0.0%
 flops   192 x   192 x   678         222344773632     100.0%      0.0%      0.0%
 flops   192 x   192 x   192         250840350720     100.0%      0.0%      0.0%
 flops   160 x   192 x   680         278750822400     100.0%      0.0%      0.0%
 flops   192 x   160 x   680         278750822400     100.0%      0.0%      0.0%
 flops   175 x   192 x   680         304883712000     100.0%      0.0%      0.0%
 flops   192 x   175 x   680         304883712000     100.0%      0.0%      0.0%
 flops    13 x    13 x   192         318834307584       0.0%    100.0%      0.0%
 flops   678 x   192 x   192         325519147008     100.0%      0.0%      0.0%
 flops    26 x    13 x   192         366028495872       0.0%    100.0%      0.0%
 flops    13 x    26 x   192         366612040704       0.0%    100.0%      0.0%
 flops   680 x   192 x   160         408099225600     100.0%      0.0%      0.0%
 flops   680 x   160 x   192         408099225600     100.0%      0.0%      0.0%
 flops    26 x    26 x   192         433282037760       0.0%    100.0%      0.0%
 flops   680 x   192 x   678         433392353280     100.0%      0.0%      0.0%
 flops   678 x   192 x   680         433392353280     100.0%      0.0%      0.0%
 flops   680 x   192 x   175         446358528000     100.0%      0.0%      0.0%
 flops   680 x   175 x   192         446358528000     100.0%      0.0%      0.0%
 flops   680 x   160 x   680         543338496000     100.0%      0.0%      0.0%
 flops   680 x   175 x   680         594276480000     100.0%      0.0%      0.0%
 flops   192 x   192 x   680         669001973760     100.0%      0.0%      0.0%
 flops   680 x   192 x   192         979438141440     100.0%      0.0%      0.0%
 flops   680 x   192 x   680        1304012390400     100.0%      0.0%      0.0%
 flops    13 x    32 x    13        1778152476672       0.0%    100.0%      0.0%
 flops    26 x    32 x    13        2064951263232       0.0%    100.0%      0.0%
 flops    13 x    32 x    26        2064951263232       0.0%    100.0%      0.0%
 flops    26 x    32 x    26        2398007918592       0.0%    100.0%      0.0%
 flops inhomo. stacks                           0       0.0%      0.0%      0.0%
 flops total                        25.867771E+12      52.9%     47.1%      0.0%
 flops max/rank                      1.742545E+12      53.7%     46.3%      0.0%
 matmuls inhomo. stacks                         0       0.0%      0.0%      0.0%
 matmuls total                          593184992       0.1%     99.9%      0.0%
 number of processed stacks               1601024      21.4%     78.6%      0.0%
 average stack size                                     1.0     471.3       0.0
 marketing flops                    28.919323E+12
 -------------------------------------------------------------------------------
 # multiplications                           6821
 max memory usage/rank             999.010304E+06
 # max total images/rank                        1
 # max 3D layers                                1
 # MPI messages exchanged                  654816
 MPI messages size (bytes):
  total size                       594.482299E+09
  min size                           0.000000E+00
  max size                           3.699200E+06
  average size                     907.861625E+03
 MPI breakdown and total messages size (bytes):
             size <=      128                2112                        0
       128 < size <=     8192                   0                        0
      8192 < size <=    32768                   0                        0
     32768 < size <=   131072                 192                  8737152
    131072 < size <=  4194304              652512             594481251696
   4194304 < size <= 16777216                   0                        0
  16777216 < size                               0                        0
 -------------------------------------------------------------------------------
 
 MEMORY| Estimated peak process memory [MiB]                                 955

 -------------------------------------------------------------------------------
 -                                                                             -
 -                         MESSAGE PASSING PERFORMANCE                         -
 -                                                                             -
 -------------------------------------------------------------------------------

 ROUTINE             CALLS      AVE VOLUME [Bytes]
 MP_Group              596
 MP_Bcast            21317                  61925.
 MP_Allreduce        90940                    598.
 MP_Sync               364
 MP_Alltoall         31622                3074997.
 MP_SendRecv          6404                 517295.
 MP_ISendRecv        33750                 105472.
 MP_Wait            400503
 MP_comm_split         359
 MP_ISend           142372                 466958.
 MP_IRecv           142372                 462475.
 MP_Recv               720                 624960.
 MP_Memory          297888
 -------------------------------------------------------------------------------


 -------------------------------------------------------------------------------
 -                                                                             -
 -                           R E F E R E N C E S                               -
 -                                                                             -
 -------------------------------------------------------------------------------
 
 CP2K version 6.1, the CP2K developers group (2018).
 CP2K is freely available from https://www.cp2k.org/ .

 Schuett, Ole; Messmer, Peter; Hutter, Juerg; VandeVondele, Joost. 
 Electronic Structure Calculations on Graphics Processing Units, John Wiley & Sons, Ltd, 173-190 (2016). 
 GPU-Accelerated Sparse Matrix-Matrix Multiplication for Linear Scaling Density Functional Theory.
 http://dx.doi.org/10.1002/9781118670712.ch8


 Borstnik, U; VandeVondele, J; Weber, V; Hutter, J. 
 PARALLEL COMPUTING, 40 (5-6), 47-58 (2014). 
 Sparse matrix multiplication: The distributed block-compressed sparse
 row library.
 http://dx.doi.org/10.1016/j.parco.2014.03.012


 Hutter, J; Iannuzzi, M; Schiffmann, F; VandeVondele, J. 
 WILEY INTERDISCIPLINARY REVIEWS-COMPUTATIONAL MOLECULAR SCIENCE, 4 (1), 15-25 (2014). 
 CP2K: atomistic simulations of condensed matter systems.
 http://dx.doi.org/10.1002/wcms.1159


 Grimme, S; Ehrlich, S; Goerigk, L. 
 JOURNAL OF COMPUTATIONAL CHEMISTRY, 32, 1456 (2011). 
 Effect of the damping function in dispersion corrected density functional theory.
 http://dx.doi.org/10.1002/jcc.21759


 Grimme, S; Antony, J; Ehrlich, S; Krieg, H. 
 JOURNAL OF CHEMICAL PHYSICS, 132 (15), 154104 (2010). 
 A consistent and accurate ab initio parametrization of density
 functional dispersion correction (DFT-D) for the 94 elements H-Pu.
 http://dx.doi.org/10.1063/1.3382344


 VandeVondele, J; Hutter, J. 
 JOURNAL OF CHEMICAL PHYSICS, 127 (11), 114105 (2007). 
 Gaussian basis sets for accurate calculations on molecular systems in
 gas and condensed phases.
 http://dx.doi.org/10.1063/1.2770708


 Krack, M. 
 THEORETICAL CHEMISTRY ACCOUNTS, 114 (1-3), 145-152 (2005). 
 Pseudopotentials for H to Kr optimized for gradient-corrected
 exchange-correlation functionals.
 http://dx.doi.org/10.1007/s00214-005-0655-y


 VandeVondele, J; Krack, M; Mohamed, F; Parrinello, M; Chassaing, T;
 Hutter, J. COMPUTER PHYSICS COMMUNICATIONS, 167 (2), 103-128 (2005). 
 QUICKSTEP: Fast and accurate density functional calculations using a
 mixed Gaussian and plane waves approach.
 http://dx.doi.org/10.1016/j.cpc.2004.12.014


 Frigo, M; Johnson, SG. 
 PROCEEDINGS OF THE IEEE, 93 (2), 216-231 (2005). 
 The design and implementation of FFTW3.
 http://dx.doi.org/10.1109/JPROC.2004.840301


 VandeVondele, J; Hutter, J. 
 JOURNAL OF CHEMICAL PHYSICS, 118 (10), 4365-4369 (2003). 
 An efficient orbital transformation method for electronic structure
 calculations.
 http://dx.doi.org/10.1063/1.1543154


 Hartwigsen, C; Goedecker, S; Hutter, J. 
 PHYSICAL REVIEW B, 58 (7), 3641-3662 (1998). 
 Relativistic separable dual-space Gaussian pseudopotentials from H to Rn.
 http://dx.doi.org/10.1103/PhysRevB.58.3641


 Dudarev, SL; Botton, GA; Savrasov, SY; Humphreys, CJ; Sutton, AP. 
 PHYSICAL REVIEW B, 57 (3), 1505-1509 (1998). 
 Electron-energy-loss spectra and the structural stability of
 nickel oxide: An LSDA+U study.
 http://dx.doi.org/10.1103/PhysRevB.57.1505


 Lippert, G; Hutter, J; Parrinello, M. 
 MOLECULAR PHYSICS, 92 (3), 477-487 (1997). 
 A hybrid Gaussian and plane wave density functional scheme.
 http://dx.doi.org/10.1080/002689797170220


 Dudarev, SL; Manh, DN; Sutton, AP. 
 PHILOSOPHICAL MAGAZINE B, 75 (5), 613-628 (1997). 
 Effect of Mott-Hubbard correlations on the electronic
 structure and structural stability of uranium dioxide.
 http://dx.doi.org/10.1080/13642819708202343


 Perdew, JP; Burke, K; Ernzerhof, M. 
 PHYSICAL REVIEW LETTERS, 77 (18), 3865-3868 (1996). 
 Generalized gradient approximation made simple.
 http://dx.doi.org/10.1103/PhysRevLett.77.3865


 Goedecker, S; Teter, M; Hutter, J. 
 PHYSICAL REVIEW B, 54 (3), 1703-1710 (1996). 
 Separable dual-space Gaussian pseudopotentials.
 http://dx.doi.org/10.1103/PhysRevB.54.1703


 -------------------------------------------------------------------------------
 -                                                                             -
 -                                T I M I N G                                  -
 -                                                                             -
 -------------------------------------------------------------------------------
 SUBROUTINE                       CALLS  ASD         SELF TIME        TOTAL TIME
                                MAXIMUM       AVERAGE  MAXIMUM  AVERAGE  MAXIMUM
 CP2K                                 1  1.0    0.085    0.109 2948.111 2948.120
 cp_geo_opt                           1  2.0    0.001    0.001 2946.851 2946.860
 geoopt_bfgs                          1  3.0    0.030    0.033 2946.850 2946.859
 cp_eval_at                           8  4.0    0.006    0.007 2946.183 2946.192
 qs_energies                          8  5.9    0.003    0.005 2824.379 2824.392
 qs_forces                            7  5.0    0.006    0.006 2739.286 2739.294
 scf_env_do_scf                       8  6.9    0.002    0.003 2727.695 2727.706
 scf_env_do_scf_inner_loop          266  7.9    0.024    0.129 2636.938 2636.998
 qs_rho_update_rho                  274  9.0    0.004    0.004 1777.196 1777.311
 calculate_rho_elec                 548 10.0 1353.368 1441.002 1777.192 1777.307
 rebuild_ks_matrix                  273  9.9    0.003    0.003  899.392  899.619
 qs_ks_build_kohn_sham_matrix       273 10.9    0.071    0.079  899.389  899.617
 qs_ks_update_qs_env                274  8.9    0.004    0.006  791.765  791.988
 sum_up_and_integrate               101 11.7    3.982    4.027  625.512  625.566
 integrate_v_rspace                 202 12.7  473.812  521.642  621.529  621.579
 density_rs2pw                      548 11.0    0.045    0.052  389.155  452.491
 pw_transfer                       4953 12.6    0.591    0.643  313.555  315.384
 fft_wrap_pw1pw2                   4407 13.6    0.050    0.052  303.619  305.401
 fft_wrap_pw1pw2_200               1407 14.3   38.590   39.523  283.428  285.600
 rs_pw_transfer                    3765 12.7    0.050    0.060  186.446  248.788
 fft3d_ps                          4407 15.6  124.620  125.698  215.462  218.153
 qs_vxc_create                      273 11.9    0.007    0.007  193.656  193.864
 rs_pw_transfer_RS2PW_200           556 12.9   25.475   34.118  119.403  180.958
 qs_scf_new_mos                     266  8.9    0.004    0.005  177.686  178.268
 qs_scf_loop_do_ot                  266  9.9    0.008    0.018  177.683  178.265
 dbcsr_multiply_generic            6821 13.6    0.437    0.478  166.208  167.225
 mp_waitany                       33300 14.7  105.318  164.359  105.318  164.359
 ot_scf_mini                        266 10.9    0.035    0.049  157.583  158.042
 xc_rho_set_and_dset_create         273 13.9   14.906   15.059  135.058  136.490
 multiply_cannon                   6821 14.6    0.951    1.181  113.879  120.009
 xc_vxc_pw_create                   101 12.7   31.608   32.354  109.176  109.383
 qs_ks_update_qs_env_forces           7  6.0    0.000    0.000  109.009  109.027
 potential_pw2rs                    202 13.7    0.249    0.261   94.513   94.776
 init_scf_loop                        8  7.9    0.001    0.001   90.565   90.568
 xc_exc_calc                        172 12.9    0.573    0.575   84.474   84.474
 multiply_cannon_multrec          27284 15.6   80.172   83.893   80.239   83.980
 rs_distribute_matrix               764 11.7    6.602   10.334   64.953   83.966
 mp_alltoall_d11v                  6709 15.6   55.876   77.281   55.876   77.281
 pw_nn_compose_r                   2992 14.5   53.820   55.913   60.180   62.681
 -------------------------------------------------------------------------------

 The number of warnings for this run is : 1
 
 -------------------------------------------------------------------------------
  **** **** ******  **  PROGRAM ENDED AT                 2020-10-07 13:13:14.456
 ***** ** ***  *** **   PROGRAM RAN ON                                 irene6279
 **    ****   ******    PROGRAM RAN BY                                  marticar
 ***** **    ** ** **   PROGRAM PROCESS ID                                 32791
  **** **  *******  **  PROGRAM STOPPED IN /ccc/scratch/cont003/gen0609/marticar
                                           /684132
