46

Cu      0.316335621328457     -0.397649998870680     15.933060576253453
Cu      2.674523860906328     -0.262511390556825     15.690825218784378
Cu      5.104834826795518      0.148039359824021     15.602003376466213
Cu      1.106323524235538      1.797685934645771     15.497363405343719
Cu      3.470294678517309      1.985378913203947     15.794706659696425
Cu      5.831147832206733      2.471096920656781     15.527289092216725
Cu      2.130601648111309      3.874031137815603     14.894607139450621
Cu      4.251595250150493      4.395646375727081     15.830004692099816
Cu      6.621228744588435      4.670945284875386     15.042997826997780
Cu      1.582997514883883      0.781143922428364     17.600095453047434
Cu      4.005227371103436      0.427120857001636     17.723384361503381
Cu      6.418873903470646      1.158678447196921     17.485195929502979
Cu      2.202772287908459      3.420184895721960     17.278042363719674
Cu      4.683194524154363      2.892082666562647     17.756941038016691
Cu      7.664764689828099      3.277287862203123     16.905278935567363
Cu      3.808462575862563      5.194751008171322     18.168754872033087
Cu      6.110715921398183      5.018046455546610     17.343277600893465
Cu      8.351615677480655      5.540122011501749     16.437913820566511
Cu      0.464820930197670      2.558602843363942     18.877441890332864
Cu      2.842245176282646      1.990321580258919     19.298981746934427
Cu      5.246285799729486      1.279987102258270     19.648669639340685
Cu      2.049002818440185      4.331355103073657     19.621741941034898
Cu      4.405161936060367      3.645447134451447     20.145530291001748
Cu      6.723375170143107      3.149865397658992     19.171751356731590
Cu      3.654253127861218      6.039559106176735     20.459950302185558
Cu      5.906916783656251      5.507971552287864     19.686409102662932
Cu      8.149445056521630      5.048631472844994     18.752539334685583
Cu      1.076575265354397      0.428884254398533     19.965611538287558
Cu      3.434935546443574     -0.197679857119561     20.225579502712943
Cu      5.418790128684093      0.115031490446883     21.691379885115897
Cu      1.316607525129099      2.553866238789174     21.160039422029776
Cu      3.713317674533644      1.824292229494805     21.702714315848198
Cu      6.152805102985607      2.498783639903287     21.548356721855928
Cu      2.838641435425414      4.365860893300854     22.011643552858281
Cu      5.343921516068975      4.858495966926229     22.014244270593046
Cu      7.571522565155607      4.452606453342695     21.070367053575172
O       3.377333185549101      2.098724356512674     23.554154043175711
C       3.242915268291434      3.363601404420455     23.814611034415901
C       4.385573632661906      4.126826140522335     24.450409793842088
C       1.864788749132496      3.969813429635113     23.977592324566821
H       4.481912413834951      5.146762778790167     24.023111207634180
H       4.167997583032895      4.267263095694586     25.518495551742333
H       5.329558701669526      3.584848428405398     24.327977962788218
H       1.091372302231114      3.198833421316569     23.897275555729756
H       1.607324474184834      4.779788594390321     23.242336228942698
H       1.834201415327702      4.480922898745304     24.947925815126187
