46

Cu      0.456561040929954     -0.045622486275316     15.154212890766876
Cu      2.819944469613523      0.059639645913710     15.352796304123205
Cu      5.264751810960271      0.205705666473261     15.522142105241688
Cu      1.442070987164864      2.109910855639496     15.232930805709787
Cu      3.853157054879595      2.257412135248290     15.375130195336709
Cu      6.295384207235506      2.361255758155198     15.386177284881352
Cu      2.510791190728290      4.360851958060211     15.369765233701520
Cu      4.891303602938333      4.499340792354400     15.372257098489985
Cu      7.323602364188205      4.524165711789967     15.074083906312687
Cu      1.384599021488782      0.635203729771901     17.252105908098368
Cu      3.921498014414011      0.820579745324657     17.418530234631522
Cu      6.386967417146078      1.091384690497873     17.582408470287671
Cu      2.462803405897879      2.938962134121016     17.296408156553543
Cu      5.050870275856677      3.091475196076535     17.413802249504290
Cu      7.627617801437395      3.269857327900297     17.193820410635542
Cu      3.687368533077618      5.104664917115883     17.605684072728906
Cu      6.330690495494220      5.293910300408463     17.148366147622156
Cu      8.750174945808668      5.378021089356983     16.788221915676761
Cu      0.212799584533078      2.253342387258003     18.610464530662682
Cu      2.512826003470744      1.569555135954507     19.250895684976623
Cu      4.905980000522814      1.073318217457090     19.684333855588370
Cu      1.666107218207494      4.073148350146528     19.282668080155986
Cu      4.019706088357629      3.455401585408821     19.608053783574029
Cu      6.556466376528746      2.961658552399836     19.369000962432377
Cu      3.244487656877414      5.801689990157064     19.987581916840806
Cu      5.548558296628431      5.301102367231229     19.394679266142685
Cu      7.952748052127037      4.948693246674005     19.004880641604061
Cu      0.678967207321530      0.100281910033923     19.644526667163333
Cu      2.825157539215579     -0.151201829161759     20.848185932101405
Cu      4.896521532289592      0.214923856064024     21.980348278578550
Cu      0.986706737595092      2.252022272639253     20.940349212671734
Cu      3.430681275901860      2.100011805860950     21.560956411730878
Cu      5.834834276918464      2.369914446626463     21.570317140452811
Cu      2.252455689564088      4.242581534249649     21.612146492037638
Cu      4.638564607632605      4.588120172766674     21.724785525720325
Cu      7.070362426509013      4.563357481081876     21.251444477181575
O       6.102038215841410      5.202793965699580     22.827319035744654
C       6.019807370384550      5.409309489303304     24.083892394982104
C       7.240428948730171      5.788857251811106     24.831772314854618
C       4.721541872703538      5.257430739366810     24.767912892219954
H       7.685897026782714      6.707893190327011     24.423496250655102
H       6.970942537374202      5.957787635370271     25.878305892518135
H       7.993727646087086      4.988119177347958     24.786937684475948
H       4.425170569841256      4.195357483867232     24.810392603127738
H       3.920055276501066      5.807846898925351     24.250246142967619
H       4.815325672731732      5.629488370638075     25.793845432902557
