46

Cu      0.461266811676777     -0.344923564460110     15.386154694755422
Cu      2.824472329650335     -0.212501450793006     15.589706529003653
Cu      5.259747450317430     -0.033809355796609     15.799364736656019
Cu      1.445494696727410      1.813089884015126     15.236317262111584
Cu      3.857387726059593      1.990188991719152     15.418913800375616
Cu      6.284935676662283      2.115828550169037     15.482122316561616
Cu      2.517702668659068      4.082699542205861     15.140080974915582
Cu      4.880735192225869      4.237657998376609     15.254536159085623
Cu      7.312204547306582      4.237635199804354     14.964884656856448
Cu      1.365258773370492      0.576362437417748     17.399313852306502
Cu      3.865383265735898      0.754392624397248     17.605047380884400
Cu      6.345585111549592      1.072385503236431     17.759098593093629
Cu      2.420392694802909      2.886221541420170     17.191633953996277
Cu      4.980813076389831      3.035170527488350     17.445602389311084
Cu      7.575449572156902      3.220594210156893     17.194465487187298
Cu      3.633819617546082      5.061987616158786     17.366139189671131
Cu      6.290039708861364      5.236076340617032     16.921115560435922
Cu      8.711474373132525      5.286571513221630     16.583287053146247
Cu      0.176408433851820      2.393920242842396     18.484322879526999
Cu      2.431869182547675      1.794532718418707     19.291108841288196
Cu      4.847292078552633      1.274092685679961     19.805382604566240
Cu      1.649456314091551      4.274631739453518     19.022801588664048
Cu      3.956902644907105      3.647164307856616     19.637430062992767
Cu      6.510236705059345      3.066406481615555     19.389630789278176
Cu      3.198090054840322      6.067541367450574     19.598038966815590
Cu      5.526909013223137      5.402821409153776     19.157222425431783
Cu      7.924492919932939      5.035547449698548     18.822420707336928
Cu      0.611611431318336      0.368011397629923     19.799939448530701
Cu      2.914641439028667     -0.066474934604736     20.699560815254049
Cu      4.810287324201399      0.533601551895525     22.091281360394710
Cu      0.797060138010826      2.690588395522878     20.826053490025153
Cu      3.132473418658410      2.221430172221375     21.600954665296825
Cu      5.474982522732875      2.932670872197586     21.608819620852216
Cu      2.315326061435971      4.546308065272011     21.344213783957212
Cu      4.636060134230503      5.261054037446187     21.424860077324301
Cu      6.985109868556005      4.801940374589374     21.050185333729445
O       5.368539442525495      0.077953466615446     23.825781892920755
C       5.039329652439748      1.141281050410009     24.465620988718410
C       6.077707545371482      2.104336024276304     24.945994980207654
C       3.618024464920381      1.449305636133843     24.812150754768449
H       6.045501739928087      3.029848922778880     24.344839457357899
H       5.877413719295503      2.379275884923218     25.990140627067461
H       7.072941424842349      1.654410998211060     24.859140668657183
H       2.989399544937688      0.564298600837379     24.662435758052631
H       3.232838544454885      2.264906702404908     24.168132295311587
H       3.554998034472784      1.797052797694758     25.852333748703494
