46

Cu     -0.181838925044253      0.805352965923033     15.561387296221747
Cu      2.111714527362996      0.273236375716143     15.816066128722701
Cu      4.419638595753727     -0.359025790915943     15.834555267512849
Cu      1.453169381897917      2.299378201590836     14.711725186166898
Cu      3.867295193817484      1.933304212501019     15.244696875791297
Cu      6.236196248140304      1.213862758257379     15.316675789825760
Cu      3.260159321607602      3.978497418670054     14.163827211218260
Cu      5.707230736658572      3.622963687339516     14.753950142014444
Cu      7.731877635191118      3.004805450796368     16.146077081502852
Cu      1.012907489425310      1.797369143597211     17.384695890009667
Cu      3.473095630915982      1.303228413113537     17.583569534136295
Cu      5.803290098408039      0.394802711763835     17.609131056491989
Cu      2.421439947113605      3.527713763972047     16.467803272356900
Cu      5.413385575208002      2.771617093734271     17.029599876148804
Cu      7.401539482453205      2.041100735841804     18.403896235636861
Cu      4.264536610407281      4.994881141563046     16.156210052587863
Cu      6.576600591406160      5.040456184271071     16.775177464762937
Cu      8.437219068487401      4.287928408786628     18.204466031061219
Cu      0.044331334101498      2.179019622149318     19.574950390647256
Cu      2.462298398365524      1.921427097943416     19.736964964126951
Cu      5.066656326347869      1.826333517362747     19.464371720847208
Cu      1.335093293322285      3.948873497375219     18.630657954108298
Cu      3.751354079576030      3.764809260331372     18.508056144447480
Cu      6.155897275244388      4.049057625701650     19.001659483048389
Cu      2.468109238894910      5.820435640567179     17.602484626839864
Cu      4.766794669585140      6.048016404193484     18.336932420365841
Cu      7.131764913532723      6.334094357867214     18.801467140485641
Cu      0.183283549084044      1.794971814851022     21.865988344247711
Cu      2.534454288261027      1.876703417550914     22.272741405472384
Cu      4.801960560907402      1.377060598219964     21.831647286904758
Cu      1.453411668201124      3.733613342343642     21.016035891703325
Cu      3.942921103751994      3.485315707991605     21.013602151442257
Cu      6.341703595782985      3.135625234456995     21.244015602191009
Cu      2.919478302775294      5.507322467669025     20.015629528891814
Cu      5.388008319103468      5.523605844563146     20.678340141505828
Cu      7.840208307350414      4.900486195202894     20.570448150721450
O       1.107629447975672      1.208329034542301     23.398103157058884
C       1.068826219300291      0.886079228163615     24.632189744453093
C       2.221895498954603      1.192262034094513     25.504815339693433
C      -0.137343421718145      0.231947895845913     25.190599821844067
H       2.196460710819129      2.249476972516788     25.817971863728555
H       2.159630485616199      0.568867136252926     26.402893153178166
H       3.178206594566912      1.012434416090889     24.991678847245961
H      -0.671279499616319     -0.352113968855718     24.430828827690522
H      -0.824575893715350      0.987981863730519     25.601051690420757
H       0.168563620791795     -0.419421479688058     26.018948867509707
