46

Cu      0.225421471534317     -0.311337745711562     16.008539746582066
Cu      2.592594776924908     -0.152513373052502     15.603739755175743
Cu      5.018569056341653      0.093607139660820     15.235570399905823
Cu      1.168276636653935      1.856913766327566     16.028481166481747
Cu      3.571175770267540      2.070845284979018     15.559138992142952
Cu      5.992413405312957      2.300349352088523     15.100431447041085
Cu      2.187254349804229      4.081512367369587     16.144324963403943
Cu      4.562565235204616      4.331049011776720     15.373409550884041
Cu      6.965419588751988      4.485501129340867     14.797552650100398
Cu      1.678351893473142      0.227301861673888     17.811621108500528
Cu      4.156142851837701      0.465015766883490     17.443743058301063
Cu      6.535194008690695      0.909355747939443     17.065812365181085
Cu      2.741403002618867      2.459206619585113     17.892721383974326
Cu      5.117736506944814      2.879405807233390     17.369766854492006
Cu      7.612064404506986      3.132334368704279     16.765362398722168
Cu      3.849475252504338      5.031414716600624     17.622897434083836
Cu      6.271134372783474      5.114476457276645     17.014683294536347
Cu      8.604579191505305      5.294131672181246     16.375404192333232
Cu      0.361390056566409      2.259309852667250     18.337156045292112
Cu      3.189921135430762      0.777802916590354     19.709537647418436
Cu      5.520285826629755      1.325536434385310     19.322024665107516
Cu      1.757006768761829      4.485561075888099     18.812294218069681
Cu      4.063053023546106      3.513508426112800     19.662162945680581
Cu      6.816601948155652      3.367414066475918     19.069133405763331
Cu      3.359319350720987      6.137448303375836     19.733935222083112
Cu      5.633483081209698      5.502011820396503     19.290623751053513
Cu      8.038791633615602      5.384124056280196     18.702768581500091
Cu      0.739046791395501      0.427681201377181     20.007192642207755
Cu      2.265871045586389      0.623129666083843     21.904889794242838
Cu      4.757706510899448      0.708993314464966     21.578444209381317
Cu      1.698128040050610      2.578403938909895     20.370547377619321
Cu      3.552923619530461      2.750013417871573     21.986027291777344
Cu      5.917868743607017      2.825090578979965     21.257983851234627
Cu      2.292418629130699      4.724324604309911     21.293007698319684
Cu      4.745675977255713      4.974453102497214     21.515999024618100
Cu      7.201950750880983      4.882023529920854     20.986889740188456
O       2.071549172990730     -0.014600192648576     23.664255899218166
C       2.066203968405915      1.090773980351849     24.311627783374743
C       3.316041370629518      1.795231253906928     24.724395111199662
C       0.779823685509245      1.715084019031445     24.753679167275841
H       3.342599248156490      2.819413650390211     24.304894163699917
H       3.318529977880667      1.905861437858285     25.816882650369930
H       4.200770200944552      1.246181983514729     24.386819836129114
H      -0.058542198922496      1.036381663226742     24.563311703016748
H       0.609975408888633      2.660019237076628     24.214545099148729
H       0.837990192421816      1.954339469901777     25.824353170040624
