46

Cu      0.483017832260983     -0.216640209113744     15.311076087014845
Cu      2.835277845683359     -0.126601725179176     15.608757436666991
Cu      5.268780608239140     -0.002719811958687     15.871590571253986
Cu      1.512811520929419      1.923358115716744     15.236251212883147
Cu      3.918464646182162      2.043449606335992     15.430463465478242
Cu      6.377734529017295      2.094114836377775     15.522871362508750
Cu      2.644779531074960      4.144542098410921     15.150259565953053
Cu      5.027443830126036      4.246452101968376     15.182425155483001
Cu      7.454515183790922      4.201009183517335     15.028977421742310
Cu      1.326334586768325      0.655145607884768     17.372735098362863
Cu      3.854308840158776      0.865000314504057     17.621242680880446
Cu      6.331087572625919      1.100233583713329     17.841703411244314
Cu      2.453110739576616      2.964032597024394     17.243821175584333
Cu      5.053319206345504      3.096444447386354     17.380238713045078
Cu      7.612919544166452      3.225070412441015     17.290980744612291
Cu      3.740401986097276      5.145908023063707     17.251843266381719
Cu      6.354623773208631      5.258122163116090     16.935403745486649
Cu      8.788493385611778      5.264613436985185     16.697456147404420
Cu      0.023964259370137      2.241454787759748     18.646976121109915
Cu      2.353160494222000      1.727751019906743     19.318073196092229
Cu      4.793231097472234      1.317042117318537     19.852488335177881
Cu      1.429229169834761      4.137020984690121     19.121885182944499
Cu      3.825978741389364      3.621579188072116     19.410279723559441
Cu      6.423032249292409      3.134418092484269     19.447199365174143
Cu      3.047862042882738      5.948042794881378     19.525346541166574
Cu      5.434054136673082      5.431940512419822     19.149480824849736
Cu      7.858632356124091      5.092917250768012     18.890012190991442
Cu      0.616560106074352      0.220945723472892     19.836172552549158
Cu      2.821627149152468      0.097976847742865     20.987855874516185
Cu      4.812697259520468      0.572495616434803     22.206277883872396
Cu      0.819963808000620      2.509808608365431     20.953577482670010
Cu      3.278148034986573      2.470440148299712     21.541403689267810
Cu      5.723887952353980      2.850521996610382     21.773072215187060
Cu      2.077284355544136      4.603273372813495     21.365841822135035
Cu      4.463719402385000      4.906977246312900     21.372468984886702
Cu      6.863827959806761      4.908640034244784     21.093533907830601
O       6.083867388834305      1.584645187398271     23.261949543186013
C       5.701799487666255      2.366901848110063     24.234782672988782
C       6.722729472307470      3.171554891798802     24.941288228939879
C       4.291904368213814      2.433343855193098     24.667965888931899
H       6.769699988681722      4.194056972221517     24.534462514180944
H       6.438401238394664      3.256694592249940     25.997145674862196
H       7.716347505267023      2.714159207279213     24.859947977374254
H       3.766333099911035      1.478524718206843     24.505226056532372
H       3.741181111393515      3.218626966074050     24.112756967522706
H       4.261994702825983      2.699428665915691     25.733014406909572
