46

Cu      0.252509688993522     -0.027675643838062     15.527664234880801
Cu      2.618758965539056      0.084049457916955     15.533482323436459
Cu      5.082217085910467      0.205344078911451     15.425565518152842
Cu      1.250626313976551      2.127603399793977     15.531337893967613
Cu      3.678022881489877      2.263377105541969     15.405518098945269
Cu      6.116820204365165      2.364627494518077     15.186005666056653
Cu      2.361866035954337      4.361811758999733     15.585339670949820
Cu      4.729142406090412      4.515344619955642     15.282050354023159
Cu      7.124265441585328      4.530060318442541     14.799173967423441
Cu      1.327019054291809      0.687780555911364     17.550621568876778
Cu      3.943191456754229      0.839815456903622     17.437612227316738
Cu      6.398998632413393      1.121339030474160     17.357613755867668
Cu      2.486235296235942      2.897867249620996     17.513472012906938
Cu      5.052872570655532      3.129023861680496     17.316373788336421
Cu      7.578145526586156      3.312858746029768     16.885845735500691
Cu      3.723498903378992      5.179701658803583     17.584196410223150
Cu      6.277226646528178      5.343537035906881     16.942019681279810
Cu      8.651730246500605      5.442744578763700     16.396055465647233
Cu      0.628625286890005      2.427899470977054     19.208414386559571
Cu      2.756609255350802      1.366073443206902     19.444246459080414
Cu      5.176099945403334      1.129972839887248     19.585139197831019
Cu      1.745792220978637      4.606040169334054     19.080562390123458
Cu      3.959694984824108      3.473302299242889     19.482644774529888
Cu      6.715628530664276      2.953993445194782     19.153010505604851
Cu      3.526433325917629      5.887898850938531     20.050458324500521
Cu      5.696171643020600      5.209303808917863     19.262601798783695
Cu      8.051997749356159      4.972177713496746     18.663170532544999
Cu      0.828589203948476      0.038600750940533     19.911811110918109
Cu      2.985984277343120     -0.155054705165085     21.248877514993417
Cu      5.318850948687149      0.161273912630603     21.817464831227252
Cu      1.469557364807471      1.801581066346637     21.441148393574487
Cu      3.916775727593690      2.083647587824633     21.552104453092777
Cu      6.315387456841110      2.344904485668184     21.470898056733560
Cu      2.451154826487843      4.092204082876394     21.428865601101794
Cu      4.950438857305055      4.398862045956830     21.503955066944464
Cu      7.332065479667352      4.503887192660454     20.948419071725557
O       1.371776678146069      4.320364863833395     22.949223103265965
C       1.734030797511671      4.616470393130882     24.122371874246081
C       3.143149571636477      4.951643045857105     24.463396978460668
C       0.698675575556010      4.632018286271368     25.206700474767949
H       3.467164219199485      5.846531816859390     23.909135365496702
H       3.217868826003252      5.148104011315991     25.539699132523911
H       3.825011990796762      4.125526442861405     24.198609498194433
H       0.124760686939759      3.696716320457088     25.201243551665105
H      -0.001019682203207      5.462422106997793     25.039512131731563
H       1.185732266023750      4.764861462611686     26.174949427472910
