46

Cu      0.161848927330853     -0.295624809600915     16.206080055189457
Cu      2.506731971232436     -0.152145132241154     15.667844019851188
Cu      4.899893532302132      0.125884863985526     15.135053696720588
Cu      1.116024097763818      1.862680500607962     16.153279426724161
Cu      3.491328510816471      2.077474628722726     15.582756594438415
Cu      5.893742690529186      2.336962626428499     14.980224178419792
Cu      2.100295591015362      4.097251613027715     16.223342453676970
Cu      4.454999660803519      4.341817418287011     15.471460811373836
Cu      6.823787300743030      4.593603692694089     14.886738036960502
Cu      1.718164676308671      0.258833990434235     17.922622066126735
Cu      4.193986830054411      0.448811433730351     17.429564205850909
Cu      6.565995924168303      0.804080583232065     16.825214700157062
Cu      2.781757911224082      2.486030511682804     17.961071428399816
Cu      5.176308475159596      2.762208753169270     17.300662378277625
Cu      7.546255224271081      3.098435608457107     16.653633716608585
Cu      3.812479142703672      4.783326240322479     17.842413959286070
Cu      6.124663478671222      5.103961636489859     17.158081548369513
Cu      8.429080024797491      5.334408999662415     16.562569521644637
Cu      0.412729312872816      2.335588598286285     18.474411342736282
Cu      3.353813842301529      0.723108412159802     19.724171298154680
Cu      5.840726865089223      1.163626076633326     19.200961396024109
Cu      1.591508328305981      4.573655649936619     18.728844182639595
Cu      4.472406953620526      3.117890806559585     19.670890950102283
Cu      6.845988597933474      3.589257973699603     18.959604216906101
Cu      3.040416788740254      6.642016116480432     19.077518272199811
Cu      5.349107498968733      5.521785133597556     19.581077119704556
Cu      7.723713654173674      5.859107666808588     18.800046313749675
Cu      0.899772121993801      0.584234882716179     20.142380085196745
Cu      2.400689896131504      0.846650635042556     21.993184763051175
Cu      4.694799752808277      1.602843698788716     21.557177602648114
Cu      2.023196977999093      2.715368060580596     20.364038674640966
Cu      3.057177137030103      3.276295451047829     22.520998618610829
Cu      6.844911337145827      2.486398722468389     21.083447642667036
Cu      3.124444260997473      4.901138320424279     20.647486519963621
Cu      5.188833272884830      4.142358574839068     21.758559283873460
Cu      7.314406954794889      4.902626915270694     20.964429908906371
O       2.487276958332584      0.818520893354266     23.855199499371583
C       2.584218333317042      2.082835812983873     24.191681814938065
C       3.828042363730384      2.567747483256392     24.894418347139695
C       1.326955092624056      2.885578914944267     24.428751606969012
H       4.082325914999022      3.601559933577261     24.608329095412227
H       3.653138553096438      2.577065105111549     25.980581142392186
H       4.679496391629808      1.921909453779009     24.658570548759521
H       0.446088053258413      2.266911916684994     24.230056747758073
H       1.259409583833970      3.783351597371072     23.789494090082236
H       1.313697694259351      3.235283662256554     25.469657877514692
