46

Cu      0.009591012923867      0.415163798090051     15.844282237866716
Cu      2.341293003841906      0.280385743996554     15.439927231932169
Cu      4.711704774264553      0.149607394643964     14.858878400398378
Cu      1.212042009067082      2.396273644095009     15.334013433184269
Cu      3.698306234738865      2.341809031239586     15.048561909860522
Cu      6.110750560748014      2.191376452966286     14.658903037877044
Cu      2.565149320023881      4.445110142140418     14.906251088733864
Cu      5.075427898278571      4.454412724046366     14.893185260382326
Cu      7.391394824615607      4.034089782516624     15.703694136294079
Cu      1.455451807066834      1.096025391437410     17.625470269863030
Cu      3.949307523048775      1.006640610046286     17.090684671899677
Cu      6.316777403395450      0.685478979896368     16.564580495155997
Cu      2.621717564941033      3.182246268960645     17.078403550545961
Cu      5.381920269076688      3.042565216985014     16.878159248463472
Cu      7.744782159382203      2.389370337919702     17.475287507071272
Cu      3.840929137987607      5.245432369795703     16.811388580989501
Cu      6.177338458394305      5.448226944671606     17.235948763891670
Cu      8.411175426558410      4.754733856874965     17.887599984912736
Cu      0.994144501063034      0.728340623257797     20.068513573946674
Cu      3.309266679285155      1.008868010710149     19.385048132334607
Cu      5.726699059682330      1.423704962925527     18.845639700793104
Cu      1.726110089492905      2.909950102044176     19.353270601316719
Cu      4.113428567693659      3.411208536591705     18.975622067900833
Cu      6.526300920134400      3.772235064780062     19.023341389971069
Cu      2.250940650453441      5.187696429034816     18.623538217676472
Cu      4.578073899871134      5.815180642110604     19.098308767790694
Cu      6.987377455920925      6.096641474381144     19.490298249423134
Cu      0.570180107167137      0.400707525413969     22.381650311874768
Cu      2.830704274644696      0.301104407830583     21.662105033885748
Cu      5.154923247382865      0.261955554616519     20.929526397083578
Cu      1.699768816878694      2.455711851614848     21.726502382332438
Cu      4.091230845656110      2.406915667599705     21.239885564404712
Cu      6.505329904974930      2.326548137834880     21.019958220030887
Cu      2.899565071479719      4.520430385040975     20.868393717350855
Cu      5.389412508411094      4.550408702376285     21.011446618294716
Cu      7.823890551395654      4.393891962198214     20.976994017010142
O      -0.709220072738217      0.376562609842910     23.726352877661711
C      -0.656698503235390      1.343069519326967     24.543717490716915
C       0.568278001467345      2.167457704408422     24.725000833483080
C      -1.863857296446657      1.704698934265939     25.349065855469266
H       0.574363326593518      3.002933857596544     24.000619521406133
H       0.573968686983095      2.597058191502271     25.732305682519097
H       1.475714836990407      1.567445236493828     24.572288512622997
H      -2.630037313971780      0.929423991740649     25.262360997510616
H      -2.263814294351699      2.664366783022000     24.993944251834222
H      -1.576857824226645      1.840620180974616     26.397663489757861
