46

Cu      0.321961647924547     -0.011177594664046     15.329484232626257
Cu      2.691467167749929      0.089439463873429     15.410405130661166
Cu      5.135010944264470      0.239340833982551     15.482896477619265
Cu      1.312699486171696      2.146507316077264     15.360545835659886
Cu      3.720851476135591      2.288919550525339     15.436717810699438
Cu      6.155541747720124      2.402521269045905     15.336375400745277
Cu      2.376211934974755      4.392405326078766     15.435197262354841
Cu      4.746787887314547      4.522790532794044     15.415136941742004
Cu      7.147092948538943      4.572716947996898     14.978219145568060
Cu      1.352053670576615      0.686093506830594     17.377355423225296
Cu      3.862453355188429      0.826208820637562     17.448143616447293
Cu      6.364725935977694      1.120472431986053     17.481856161667512
Cu      2.396101098938474      3.010799571272870     17.385792450816634
Cu      4.974943282591183      3.085300821339956     17.464706905549662
Cu      7.577361341164575      3.319366888294964     17.066510991186849
Cu      3.671078527152710      5.128757677087049     17.643824795335540
Cu      6.251870417447551      5.321502088332562     17.119685686986404
Cu      8.634952851344778      5.459365184527154     16.604564393440416
Cu      0.229950600013278      2.294273765129876     18.796598384767936
Cu      2.553306362033237      1.650128776498521     19.324983444516079
Cu      4.993069813960259      1.147902770746878     19.608529044405547
Cu      1.729520649298750      4.103548146928204     19.460682621955019
Cu      4.099622953179813      3.503630761248648     19.765246012045832
Cu      6.630125370496665      2.983283611856636     19.286537618245699
Cu      3.314226041138785      5.865313760558410     19.946067992312514
Cu      5.633078113502026      5.324327775898084     19.419172317674910
Cu      7.998439042307010      4.993880990151006     18.855249503147995
Cu      0.809312840585727      0.125012203978679     19.789668304761712
Cu      3.146369323124415     -0.307078239570079     20.583382243635416
Cu      5.149657784246990      0.234202507703989     21.847854519844457
Cu      1.043610049107379      2.320473701135215     21.089107398988503
Cu      3.446392536957418      1.892011372232735     21.579459893694420
Cu      5.787861738339560      2.560981246543572     21.524779440797236
Cu      2.474002228850304      4.194439055961038     21.776005689270068
Cu      4.904267557149831      4.893197572706139     21.746603507656936
Cu      7.211993186104646      4.522471999706330     21.105950021672705
O       3.526553883290326      5.110254149372783     23.070219168838296
C       3.449925721397026      5.794979528829924     24.140212806821001
C       4.680217797576829      6.396713777541316     24.690421872060238
C       2.136366192934546      5.981369484591639     24.786846736571107
H       4.999599311482960      7.252699277239665     24.073676315917815
H       4.478601206530014      6.756295741511968     25.705285445873127
H       5.505549917007234      5.669345575114619     24.705377178218288
H       1.543393516625430      5.057536187251963     24.775630915264202
H       1.560952958708238      6.765566238084547     24.269946660585873
H       2.297979832736539      6.310517713759074     25.817668508031943
