46

Cu      0.423646186077378     -0.151096592703558     15.515499378659390
Cu      2.780474176624534      0.005827765616023     15.607867189507322
Cu      5.222191875928678      0.203447055877857     15.703907561771999
Cu      1.358180022996593      2.028263432492203     15.430176465961431
Cu      3.759610098102908      2.223449936342989     15.585798261236238
Cu      6.173833734215363      2.403516110983936     15.524939653181429
Cu      2.377411269673254      4.303308009892022     15.449155656450960
Cu      4.732554984039656      4.483946106780594     15.582861836994574
Cu      7.132296237947197      4.585477870136944     15.121173194010561
Cu      1.408715260875634      0.700035483219941     17.532240688707670
Cu      3.912470528872897      0.811427051284000     17.628650655997408
Cu      6.406940530230157      1.148459019498010     17.677731412781906
Cu      2.374285102254677      3.014410869254325     17.447877336051075
Cu      4.963679283104395      3.081456503127948     17.653830415646961
Cu      7.588391838036673      3.361812629187324     17.219442884521946
Cu      3.657079807610836      5.133270890099835     17.793390429544679
Cu      6.230742831582007      5.333873373775028     17.258438393965157
Cu      8.616186694363950      5.521702221402181     16.727615074385024
Cu      0.310425527798252      2.411312428870500     18.876674519927626
Cu      2.636981352795850      1.765112472379135     19.467439683982128
Cu      5.016986139344854      1.220642153844442     19.785151588637166
Cu      1.834638977457596      4.208758759623331     19.507910065471229
Cu      4.166603769927923      3.604488869344649     19.970575650291323
Cu      6.666101908615533      3.015634251108522     19.460269672530327
Cu      3.388273745985090      5.979437008785386     20.106261215270013
Cu      5.688669478673599      5.416585555177406     19.563241962222612
Cu      8.030220846190890      5.017308678580601     18.979854792736674
Cu      0.821975355609501      0.281762135042998     19.934605500083521
Cu      3.086772497899212     -0.134854418762734     20.833918172058890
Cu      5.200707334062865      0.174188241773257     21.920184564142694
Cu      1.136916013361915      2.459217265260775     21.178740077896020
Cu      3.530965892388032      2.045384431794972     21.862661795501300
Cu      5.941562209698721      2.546270323915517     21.727496385924187
Cu      2.494242682391775      4.409954148987992     21.832127315480395
Cu      4.906696079088750      5.092483017203483     21.873551747692641
Cu      7.255710588231653      4.570265272045580     21.226808651581898
O       4.769211437184314      2.741195893590256     23.324169275065273
C       4.612941011154351      4.038599941240148     23.624315336274865
C       5.817608770156696      4.803126200076687     24.093023327967924
C       3.260669044695207      4.463961061230401     24.135751854822356
H       5.984494887269616      5.751459274000921     23.537258012168174
H       5.634088549752203      5.120781727043464     25.127509925138451
H       6.737653921285102      4.210957203014736     24.021787794487139
H       2.615947324425282      3.606701188803055     24.356450429200610
H       2.715240358277887      5.188763635469973     23.473286665203602
H       3.427070411126520      5.038351259475315     25.056960647760221
