46

Cu      0.093045204195458      0.171503142895371     15.443735432963809
Cu      2.453320507849555      0.092505694862542     15.387317577119116
Cu      4.906400823311304      0.058969957445468     15.236177408946761
Cu      1.274405262766994      2.226503127316716     15.302303590367508
Cu      3.705500013103527      2.187104083941828     15.248179085454463
Cu      6.192348429900508      2.142950116927492     15.130624230034119
Cu      2.545916229003888      4.321785091976787     15.196459834536808
Cu      4.984051428107644      4.326824395032078     15.142779455846265
Cu      7.437935774553023      4.251086122815225     15.134482703167061
Cu      1.267384589162758      0.907999352635868     17.391802580865562
Cu      3.800476680527286      0.767507899988150     17.304025954401300
Cu      6.267969247632098      0.729583251817130     17.142848625092686
Cu      2.509088910692879      2.989564473791862     17.301278941054402
Cu      5.058736100456158      2.903836158770606     17.209642854174039
Cu      7.519576926791359      2.848483967360934     17.097559199081395
Cu      3.781147645829679      5.123117024153205     17.156208111788949
Cu      6.289906566011176      5.067093631598702     17.116111440470245
Cu      8.667538375620572      4.964999353415867     17.135037826992260
Cu      0.413421478986203      1.320224904098365     19.616847828209316
Cu      2.756309635434270      1.471151296372926     19.365908718891781
Cu      5.262562630904048      1.445612192342324     19.285459910034874
Cu      1.445915315548295      3.584745421323243     19.451601144767942
Cu      3.933910930465915      3.676265630802081     19.247033737998748
Cu      6.475779242486145      3.668118732038580     19.173170579831535
Cu      2.643993442299482      5.760588106541604     19.229007038861052
Cu      5.111679042174551      5.849057282263245     19.119363856880387
Cu      7.557435626510511      5.832218507976340     19.086048462728481
Cu      0.525693168518911      0.281053883452023     21.794194628848267
Cu      2.946627706535267      0.193393159734345     21.396855903237185
Cu      5.352095894471706      0.280841973444904     21.407581921332135
Cu      1.680304865502690      2.326755730011523     21.540396318916482
Cu      4.114639956413457      2.331308041237621     21.323334433201303
Cu      6.543132851698690      2.385005778156033     21.248601798381440
Cu      2.823635896991721      4.486020457134715     21.308656041280759
Cu      5.286850872309246      4.514535762748957     21.178182644317268
Cu      7.666990175396262      4.552223640892844     21.112031084658003
O       0.536511981705566      1.823780454361287     23.023307644961761
C       0.678416716112988      2.285416358356642     24.207182346749988
C       1.980718956624969      2.788405571829156     24.681222506394835
C      -0.515724621253993      2.337316832807175     25.087069797805658
H       2.263253968749649      3.724313810107902     24.165748785375285
H       1.912064297790461      2.991750534219191     25.756183714483988
H       2.779002317021133      2.050383253892569     24.504696287965821
H      -0.986392893901439      1.347726404322192     25.162153969389308
H      -1.261859676655944      3.039689352936782     24.687067457279163
H      -0.216517036973883      2.673853601914510     26.083098717502033
