46

Cu      0.449347750936764     -0.515133779212967     16.198420276464475
Cu      2.828281643651235     -0.321655456507522     15.939380649269877
Cu      5.296711147466659     -0.054000551127916     15.703019323489455
Cu      1.311394302026717      1.686764040998133     15.967790357820805
Cu      3.773700947098273      1.891152743668355     15.599218973965623
Cu      6.194632984021526      2.140782485537051     15.272137639150277
Cu      2.292156283263914      3.904320372346561     15.621628184431465
Cu      4.694278875260104      4.112923322498761     15.132489939821824
Cu      7.091596808695442      4.284212312374239     14.568877546108210
Cu      1.712686756303253      0.395799121636454     17.992925781725084
Cu      4.208771755951903      0.640730373759564     17.719190295059114
Cu      6.679136003704099      1.122581346825137     17.470002528922461
Cu      2.765107433206738      2.676295986483552     17.700310264801910
Cu      5.206462272488615      3.051355223979120     17.455470034206673
Cu      7.668656810817997      3.363500985594871     16.779073082242565
Cu      3.761308767488007      5.030534020796287     17.229080363560101
Cu      6.234267336255451      5.296487289119137     16.590405140045437
Cu      8.593653550551867      5.472461881986058     16.022233442071297
Cu      0.448079313384309      2.483335156876410     18.291898505804827
Cu      3.039279473702752      1.321460601098877     19.831364090081134
Cu      5.452660530702994      1.466855742641438     19.584326108766501
Cu      1.715313359606244      4.707447726084563     18.642617219114594
Cu      3.854326636696910      3.740215982486734     19.592966324096103
Cu      7.091299724702236      3.166609131065627     19.125854757152567
Cu      3.504764538182606      6.321448310834890     19.251007973193435
Cu      5.667043877728203      5.203880238732486     18.906708177559391
Cu      8.045562468626359      5.266290644527123     18.349364561705052
Cu      0.622391350972575      0.841701574002701     20.117831618230355
Cu      1.975565718912285      1.261545069411933     22.095545049944548
Cu      4.538123635281258      1.141499569180885     21.829782416959045
Cu      1.468911601615183      3.071730718317800     20.470240148433774
Cu      3.427066122343567      3.345771292186233     21.964621446522383
Cu      5.773121854151947      3.196753117573074     21.214636769828424
Cu      2.303706831603482      5.297401506134141     21.024484156133838
Cu      4.782543075372002      5.416205541391251     21.200537725985733
Cu      7.248848183393108      5.064184757895113     20.698840462195577
O       3.308707849691078      0.247375723269075     23.142471876737254
C       3.255272186696219      0.844038992249281     24.298692086866712
C       4.458693686103581      1.489639466467384     24.854988584442250
C       1.989748077915064      0.886652168355741     25.058588105870641
H       4.451604784361467      2.571139324013414     24.622604304540282
H       4.446410282898209      1.386799828822199     25.946840200901530
H       5.382086778825202      1.055622480560099     24.442115054428708
H       1.273593002070975      0.134276817266162     24.706351743452004
H       1.526307608967240      1.884355458555288     24.970719275140048
H       2.213928799217949      0.730736167745997     26.120930301878925
