46

Cu      0.582734419991334     -0.729404109275230     15.811840540081741
Cu      2.947441196258805     -0.624146980330005     16.016854755348600
Cu      5.358145648231459     -0.216306759706286     16.307252043569722
Cu      1.514883878863879      1.305636368167501     15.033842360707238
Cu      3.755265967590036      1.613474658352686     15.798097617208764
Cu      6.144599395675017      2.047559406798171     15.875302367663611
Cu      2.684445940131635      3.245947155800802     14.272249074550652
Cu      4.599088387020254      3.985680305132048     15.475265669241152
Cu      7.095765724837080      4.091915166073188     15.096272028513114
Cu      1.537387780557356      0.829230234919051     17.367181888791063
Cu      3.881153181044023      0.486700716624492     18.067304953625030
Cu      6.318523534461566      1.186183269382517     18.142640282023887
Cu      2.286874330406364      3.329197994757700     16.665775734681649
Cu      4.638976639912958      2.919463184604476     17.713046429596254
Cu      7.683392067618292      3.158305237731723     17.396288706662599
Cu      3.722547249213659      5.258673596700447     17.477964615193475
Cu      6.146474088309338      4.950432928925180     17.113138626153084
Cu      8.553886092046724      5.244651183088847     16.587067961811304
Cu      0.239110351495969      2.819525979335035     18.065977897321506
Cu      2.487851199814086      2.348376718134546     18.992273186316417
Cu      4.781765332371474      1.744533613014172     19.993141168221204
Cu      1.690884063400562      4.687947149888926     18.729687313162604
Cu      3.922615171011651      4.160503029020466     19.759640899489362
Cu      6.347582391422093      3.517717703981680     19.431156026205198
Cu      3.105798134541155      6.544816376009132     19.512897342800972
Cu      5.478987073787707      5.938477679311630     19.203832372732851
Cu      7.851299593586110      5.321855830337135     18.855016264191882
Cu      0.570983011510311      0.946485807741046     19.619361453875747
Cu      2.829505161563266      0.365865131728093     20.410604119142256
Cu      4.445344520326380      0.916757722662451     22.170902499767490
Cu      0.669120189797517      3.244915013280412     20.446117909955742
Cu      2.876492929220773      2.650459627122138     21.465205218850350
Cu      5.261221705527053      3.427001299872462     21.739952180902055
Cu      2.112314309223417      5.052664461445763     21.179653635640889
Cu      4.453018044223679      5.812131648573310     21.466872706492520
Cu      6.806658297843701      5.261160905270740     21.091551654721858
O       5.054350960921115      0.544362772146140     23.915119420482785
C       4.679718196569930      1.667896373398934     24.417261241365313
C       5.665836720773689      2.745224125110196     24.737854019608992
C       3.252233578401594      1.920048113848869     24.789990279170006
H       5.536011267306839      3.618017561729234     24.065268843511152
H       5.489162658650486      3.097476401810793     25.762910850329703
H       6.688125047781647      2.367096378191491     24.631637034998466
H       2.686229040874948      0.981634882785321     24.791713665615440
H       2.772464239246073      2.616317298268347     24.074546275645151
H       3.211319264206483      2.390255262369131     25.781051358222740
