46

Cu      0.392572167893116     -0.410538425832246     15.982136980559954
Cu      2.771986848994088     -0.197711966960421     15.750057551362834
Cu      5.231400855914266      0.080925737881795     15.526738951840327
Cu      1.259777041132683      1.795358197607685     16.021226600506882
Cu      3.697594808243163      2.034971819364312     15.665693660908447
Cu      6.112428177839566      2.305280583182826     15.332442428009783
Cu      2.194220934001005      4.041319404585171     16.011574200330106
Cu      4.598755671623401      4.274584517212680     15.379346335229100
Cu      6.993582318542699      4.486457156424487     14.783266138168427
Cu      1.675807804438564      0.265466539077552     17.867701365559640
Cu      4.207547537936502      0.551732172572002     17.616289740175098
Cu      6.646944629932007      1.099555332516862     17.413177862713106
Cu      2.753687663587115      2.539479701976421     17.882464692324870
Cu      5.174980529237290      3.023469938083607     17.600996057767858
Cu      7.620635615167984      3.388906869115359     16.918737227653864
Cu      3.760708393768871      5.028545036139308     17.550604485140383
Cu      6.183950596064800      5.320968441349827     16.896039842927632
Cu      8.523571804364328      5.551813084575004     16.298409484947275
Cu      0.398456479658993      2.332597106988929     18.340085527081115
Cu      3.041506850952133      0.907080436878154     19.773637519994477
Cu      5.416131192021518      1.346321517191338     19.564824494796067
Cu      1.701327798023546      4.538747710549875     18.809801621065798
Cu      3.831791894453407      3.485005518438762     19.852778196650686
Cu      7.097741345448208      3.034194869740691     19.261386830366661
Cu      3.451699031749645      6.176908523599208     19.615598993380328
Cu      5.619174445435451      5.033894302684978     19.209087627316798
Cu      8.001088341210760      5.193079144413472     18.616488693150686
Cu      0.600449185369719      0.538248576267288     20.024154287766578
Cu      1.972778022922312      0.682922514810609     21.972854686600126
Cu      4.526834981620101      0.958836299048899     21.751641274260770
Cu      1.557302308476019      2.706358524541063     20.511895780921545
Cu      3.388960347114485      3.176037826533560     22.326427478241204
Cu      5.784839257831369      3.000030302248728     21.336424597864696
Cu      2.204437163017639      4.961022766235456     21.216813700351974
Cu      4.709072803408184      5.169341272671506     21.484950865467315
Cu      7.238623977004263      4.892072226555573     20.943919604774702
O       3.385135345612611      0.621876894794753     23.296559796209252
C       3.389129944999645      1.852878024542990     23.888477219230946
C       4.655475491169343      2.293640285801346     24.553132251261871
C       2.085750828716120      2.330411596603307     24.455177356477531
H       4.916226550051449      3.319272411696300     24.246109182192381
H       4.494996877816911      2.323345759028339     25.639690796081787
H       5.501022667067576      1.640861621163315     24.303974563201582
H       1.328476356755420      1.532931325787821     24.456999758074026
H       1.671563389842712      3.185345189793942     23.891273521680144
H       2.256964698030468      2.689328908957645     25.477512757711288
