46

Cu      0.295321704871112     -0.069251724407407     15.381656720603688
Cu      2.661298729680320      0.055866178617255     15.446331448204468
Cu      5.109830098313638      0.208986677883399     15.440652477990234
Cu      1.280997144889799      2.099212853254097     15.410420269937932
Cu      3.691963944415075      2.260251790012348     15.357171039826506
Cu      6.141085985370777      2.367049920010055     15.197340668408755
Cu      2.358257466067849      4.347944193845500     15.468421711104314
Cu      4.726505653287025      4.522614665783435     15.281895875056039
Cu      7.123260109987069      4.556322670144995     14.854288531320401
Cu      1.327986155258696      0.639834415453255     17.422419946709358
Cu      3.896033095138955      0.850205732822779     17.416047453791226
Cu      6.358241164935579      1.110971873486508     17.407425420247950
Cu      2.433797572676234      2.940384021967473     17.411298249069883
Cu      5.022069414610034      3.116792276328634     17.278143105447686
Cu      7.559775792127026      3.315346973294949     16.930512637975227
Cu      3.673393492797434      5.142087911386717     17.593938686168670
Cu      6.246700310236180      5.339587073182769     16.988715814435412
Cu      8.630346546126097      5.456105506918553     16.472551997702134
Cu      0.304226655458316      2.279775484314366     18.891045771642297
Cu      2.604203755447308      1.514349830499477     19.339825124242058
Cu      5.032790693796714      1.099686595275260     19.611552656523084
Cu      1.733140558823644      4.134890848222274     19.419357043064977
Cu      4.064494167208878      3.447789818207402     19.484224404016086
Cu      6.615481539658139      2.962443626786317     19.169666416939016
Cu      3.389730483719131      5.806011385056470     20.020951367566205
Cu      5.656094158941723      5.284422012659687     19.307058647344228
Cu      8.007655704217528      4.961930344365521     18.718710763744905
Cu      0.747999276614669      0.095892043678415     19.857789873097946
Cu      2.869523474912296     -0.044558186716272     21.110156117592449
Cu      5.143615269831868      0.211214381955340     21.869657644473087
Cu      1.268594851777242      2.158339471500169     21.162429938659656
Cu      3.751924235749842      2.150958819922822     21.549456538716932
Cu      6.160862451757811      2.363539137690924     21.479359422117692
Cu      2.488304428788259      4.255358097995533     21.737147987911552
Cu      4.899486677424498      4.473713036065840     21.535690840266074
Cu      7.269301909205591      4.486365036990922     20.981889781232706
O       1.181821927180804      4.309115521942427     23.076182063343868
C       1.368904974987807      4.841625986813799     24.209238758215857
C       2.688558495582130      5.396928431890176     24.604968697720089
C       0.217650689242924      4.936368127377047     25.155646431340379
H       2.899282073507371      6.315917302487230     24.035525063961785
H       2.674099851360516      5.643331728782933     25.671749918171354
H       3.500106358158216      4.681459067501041     24.400385959793436
H      -0.329102890203469      3.987174634054858     25.187606961216307
H      -0.474436774373400      5.721373715659282     24.820819178994142
H       0.584499439608150      5.194252439057039     26.151256933992432
