46

Cu      0.351078417163409     -0.078401766440084     15.325292734705453
Cu      2.715606953905666      0.058539126764674     15.354369617364851
Cu      5.167295176389393      0.226320172624471     15.332638416952870
Cu      1.312149395279952      2.098924018687958     15.461050069678267
Cu      3.719463552683111      2.275930094019492     15.347266524020565
Cu      6.164972046030344      2.403406985735976     15.171056865210078
Cu      2.367829245684961      4.352454437804638     15.551454534926084
Cu      4.740237887268479      4.537539060227770     15.308211997254441
Cu      7.131910284713062      4.606378661728523     14.859824090388456
Cu      1.407557107717987      0.539407743158083     17.379991356272910
Cu      3.959040228853945      0.793528386173953     17.330175030334907
Cu      6.427931070206789      1.089784824578447     17.310188042865249
Cu      2.516980309636291      2.888299283862566     17.461154287467988
Cu      5.063103366933649      3.080111673580358     17.297801425398795
Cu      7.615503351483590      3.307626434239253     16.901379474693716
Cu      3.726215675919374      5.115203436966493     17.592083379847374
Cu      6.277645609369845      5.305820197674419     17.029738966774371
Cu      8.659390597267214      5.464161001212820     16.474984010326917
Cu      0.417625962039826      2.264640250389550     18.758891383610084
Cu      2.698016632016345      1.324532184825126     19.313876440933779
Cu      5.125764954894250      1.103888083496230     19.480856022603788
Cu      1.735994646498625      4.166625505736522     19.429529152213806
Cu      4.061409998537914      3.427000155549093     19.500723815465353
Cu      6.699154440808260      2.921238935320611     19.133889466780801
Cu      3.426168841183734      5.821684968536005     19.913710183677079
Cu      5.710395361267904      5.211675412612218     19.365675306807308
Cu      8.065657280190226      4.934603819360261     18.718868970306485
Cu      0.682690154730642      0.122059224422274     19.825881550415499
Cu      2.641334939343323     -0.049364049467617     21.272712456892620
Cu      5.042318023321832      0.072963003730860     21.679149044627511
Cu      1.335014878886043      2.224078583091977     21.039068999581474
Cu      3.766690865166248      2.054786703904695     21.482884438698886
Cu      6.178423145783057      2.224984562746449     21.418478671594144
Cu      2.541470575626994      4.267095836080384     21.717635463939928
Cu      5.028054134904458      4.396629998785578     21.616854087164395
Cu      7.371652343829375      4.346490002186091     20.979768128232966
O       3.796508865712512      4.979754989002876     22.992112878302635
C       3.832934858736898      5.147304085292144     24.254848987944055
C       5.133542308445088      5.400234691303940     24.905220160390847
C       2.584114588636774      5.054655533049543     25.038116736184573
H       5.701770186265957      6.172242469760696     24.368936148447194
H       4.958056846818884      5.720449145612972     25.936995814131269
H       5.747812648916852      4.486589937286190     24.929607004530386
H       2.353594855744865      4.002075300628317     25.275652848996433
H       1.732343125565337      5.483201251914968     24.492084399031150
H       2.725163496565133      5.582824862719718     25.987892212702281
