46

Cu      0.562355513483271     -0.160049027387554     15.128369897275901
Cu      2.908657835650952     -0.016199424295733     15.448163612365136
Cu      5.339161780212890      0.136578687518520     15.694596999450258
Cu      1.520776460807859      2.010699901471027     15.178514241421945
Cu      3.928012918424100      2.185312584077423     15.400204811282475
Cu      6.379874345035829      2.289385686571534     15.487590400570479
Cu      2.576473732063030      4.269032256614091     15.273050036801662
Cu      4.954334144184377      4.437077291199065     15.322994050266750
Cu      7.385022784085654      4.453112643669646     15.127384645084568
Cu      1.371614706553941      0.620380339658777     17.237949900093597
Cu      3.938113092436340      0.852942904085585     17.517475237645645
Cu      6.380346498422579      1.120524410536665     17.758628483891542
Cu      2.455182482806487      2.926666621291943     17.268273115009485
Cu      5.063932056975964      3.122320702356837     17.414089976044398
Cu      7.595259121690201      3.311874782468152     17.321993121978565
Cu      3.677449200616500      5.129000153510828     17.460228960590193
Cu      6.300500791296200      5.345130912693286     17.116982991828618
Cu      8.729006016372047      5.417694321916192     16.841356986328449
Cu      0.134326454870130      2.234592178042478     18.551295156281693
Cu      2.418070783699197      1.544712359019124     19.245462330607307
Cu      4.832368299507785      1.158624052118297     19.823872560028807
Cu      1.498745450285120      4.085286857360974     19.201690464328394
Cu      3.849257502461566      3.491019716002584     19.471798140784035
Cu      6.435344033244758      3.013996007658339     19.502622422650610
Cu      3.097676959926772      5.827550624238473     19.801611063304705
Cu      5.441209881978001      5.323171348571771     19.351822681664203
Cu      7.850899706453924      5.044162369303758     19.031822138867774
Cu      0.532661079577963      0.117514757217878     19.623192289141958
Cu      2.505213228239498      0.029845965157476     21.065601108430180
Cu      4.650307272369962      0.304926419382766     22.084137752641968
Cu      0.909377166838558      2.267801059178192     20.906912545217594
Cu      3.342799857464543      2.253516530726411     21.543154260920993
Cu      5.778928133127242      2.460322688495701     21.812975225266964
Cu      2.092849673210591      4.358540905523808     21.502855689578226
Cu      4.509214527145700      4.582450704688239     21.547937430921785
Cu      6.908670760779251      4.688170701016741     21.221961846107213
O       6.640872635852133      2.484238302297653     23.507041297894634
C       6.315031112163263      3.469307649972667     24.243357030126685
C       7.363786346975818      4.398557104696120     24.768762994993267
C       4.906870678063954      3.763437459973488     24.634053169694383
H       7.409082148333470      5.304356222141249     24.140209638442109
H       7.097977300442964      4.712609439605633     25.785489403865839
H       8.345492027431451      3.911833583659600     24.764263776745388
H       4.260012790289914      2.895570800398650     24.464756480422679
H       4.520109781037538      4.612452177155053     24.034621589523702
H       4.875793408335390      4.071294579783406     25.687453269623386
