46

Cu      0.747996037041502     -0.131316061062982     15.362017895903886
Cu      3.084671756568420      0.077049744956612     15.640009226878441
Cu      5.558075630485105      0.302840898007780     15.771892731886542
Cu      1.661037752016333      2.069282319366419     15.470124901939920
Cu      4.095397676964912      2.280565505960432     15.586457899706980
Cu      6.565824302533182      2.502255069252790     15.670959113038279
Cu      2.612111299457385      4.347740010169487     15.760917452962365
Cu      5.047449075961922      4.547675249981904     15.584562816901467
Cu      7.486648845027871      4.728525751821271     15.461417297136844
Cu      1.520137719489537      0.613855391992833     17.504077264009265
Cu      4.173411122793567      0.800428523410886     17.666456629944612
Cu      6.657689521399286      1.232102320267593     17.817736089358526
Cu      2.716370561706335      2.761278020361583     17.576426401974530
Cu      5.219087005299481      3.147143736150654     17.657320266850693
Cu      7.738583463633978      3.511441211410035     17.598978515302104
Cu      3.846144061913170      5.209788970183098     17.706086490130605
Cu      6.320170280350406      5.451630882479106     17.468252243201679
Cu      8.737371244714137      5.696647127502906     17.251640836855344
Cu      0.783408417209283      2.508829224245392     19.063122514191669
Cu      2.730580815673699      1.166613333656554     19.642351122142962
Cu      5.155808531430764      1.367950861640011     19.794137897290881
Cu      1.566584335111342      4.747150946256305     18.389412256719190
Cu      3.811730247554608      3.503004223398006     19.631032381764200
Cu      6.560857384939206      3.275976843931080     19.738363326381656
Cu      3.003005709821023      5.930604430900658     19.953024902324117
Cu      5.364705389319058      5.454752203633031     19.696887964595600
Cu      7.813662569529507      5.314043265667329     19.419135337863629
Cu      0.537359194704426      0.152423086393033     19.730638739820275
Cu      2.100807046061611     -0.069682744591218     21.628475294835404
Cu      4.452946247460683      0.271505623327979     21.786620098194732
Cu      0.795065958373462      1.898328485723164     21.381166088562917
Cu      3.186435583341799      2.277506053059934     21.741376271945626
Cu      5.619534406759352      2.472491841742233     21.921593464827232
Cu      1.729586779145615      4.056468623945332     20.792382087968750
Cu      4.160181438688465      4.606797469355014     21.748854612274375
Cu      6.733979380893413      4.913140885760342     21.596148442847170
O       6.668523827510879      2.927857528421674     23.440006307632334
C       6.596126463382231      4.225548997597589     23.568055480092468
C       7.862970654315538      5.020911941343422     23.771743169662340
C       5.330002418302421      4.880100622071405     24.082570081759698
H       7.782963311736535      6.044170154774125     23.372968883530113
H       8.050253388100229      5.128574996394405     24.847814979991277
H       8.725400407189987      4.520161617610215     23.322601960874788
H       4.473207431110095      4.193028429153990     24.046674242807512
H       5.107084185881582      5.809388065906451     23.530177758827204
H       5.488552082041112      5.183400142470822     25.125912239202890
