46

Cu      0.494028790008730     -0.623982332320368     15.962382868229440
Cu      2.854853186980526     -0.481869039042720     15.919515450799659
Cu      5.291969043192808     -0.099235610058723     15.934018263025097
Cu      1.328057887659078      1.496418356963092     15.309797188928265
Cu      3.661107782377909      1.763110543768538     15.738379910564380
Cu      6.022093030135808      2.188924315580474     15.551278645857963
Cu      2.385331577604959      3.481750771893632     14.487309223621569
Cu      4.422367432439891      4.161136330717882     15.517389674797307
Cu      6.825894964693868      4.333903845227027     14.846436327354908
Cu      1.584108738283211      0.789619363753132     17.580057465910716
Cu      4.027100325672060      0.504671632616798     17.884591779658461
Cu      6.474861594507278      1.179865641395177     17.722016570978383
Cu      2.302236324518129      3.391786836951695     16.922839847991362
Cu      4.776973497314539      2.958936275762271     17.639650776889578
Cu      7.661371110241321      3.264910297113829     16.970803388572449
Cu      3.832835895319702      5.283640918267309     17.703458221986057
Cu      6.160808806473773      5.110408983337452     17.001043835715517
Cu      8.468829598088242      5.412207406759920     16.215213260613229
Cu      0.434818825522210      2.792308401057208     18.505470079311589
Cu      2.761095484272086      2.257753833354542     19.120139729934571
Cu      5.131263028017678      1.564170756086199     19.776980076541321
Cu      1.978344847575696      4.625840009077128     19.134211603169160
Cu      4.297196275954050      3.995997593855749     19.870691897974009
Cu      6.687736723636472      3.326273436012633     19.216471242994103
Cu      3.534936674674455      6.406697910513827     19.884347459636533
Cu      5.828936727407414      5.764907755089832     19.276454356564340
Cu      8.107909228213149      5.175483677220461     18.563416752588203
Cu      0.900529102912744      0.849369611389493     19.929489068384953
Cu      3.219738685274546      0.177367189367273     20.326046705788723
Cu      4.980753277230435      0.647065957773224     22.029758423988195
Cu      1.123488973280324      3.092823999220408     20.848074801108169
Cu      3.369300279311635      2.399285441030099     21.575205700437557
Cu      5.890856178734268      3.088729667274601     21.609122467049421
Cu      2.683037083952540      4.832604610309945     21.541929713023940
Cu      5.092789577112951      5.517280280273059     21.616918675954224
Cu      7.377416323782652      4.920582958077886     20.927296440749043
O       4.751290350854536      2.350560568685780     23.169304150319288
C       4.572518493193052      3.076450355863885     24.223137532396386
C       5.679029715273599      3.906607318248214     24.727575954075299
C       3.246220628131039      3.121081357049274     24.859177149135654
H       5.752992246159105      4.862149634552105     24.170979246040545
H       5.474552621199530      4.152084591492145     25.776934524975928
H       6.647658087977582      3.392579073783355     24.640296853563953
H       2.732491148391068      2.150523053569894     24.808494927507162
H       2.599244024597943      3.877696204144272     24.377617395168262
H       3.377090703586425      3.420870910817890     25.906858530873777
