46

Cu      0.595623230662589     -0.355974590217029     15.347471085010159
Cu      2.960750365126323     -0.231620460096132     15.452232899746804
Cu      5.376096115222826      0.170867341436391     15.664955614624779
Cu      1.420656491034257      1.849973627451868     15.077267369149279
Cu      3.723618376107831      2.025237554877409     15.670468318883506
Cu      6.101842111438956      2.484107259413777     15.657564272126971
Cu      2.510470173639237      3.922008725303939     14.605327884685360
Cu      4.499759648997284      4.424624870620824     15.805237647130760
Cu      6.937293920048409      4.689480173095033     15.291155162156979
Cu      1.616618974945059      0.793149648770339     17.201029058439151
Cu      4.021928883176701      0.437124420811403     17.633886179135139
Cu      6.451612569033580      1.160633007387982     17.681959431018431
Cu      2.294817569466815      3.477155313458861     16.983497676648067
Cu      4.738823988559146      2.916807364669161     17.754825816306997
Cu      7.702900599161071      3.296716013516885     17.289916128515692
Cu      3.779024493864722      5.214995972649907     18.091717216611560
Cu      6.157153363926697      5.086507540851170     17.513488549783990
Cu      8.506990481962433      5.524469484842058     16.879468404146628
Cu      0.367687383049635      2.596739748268810     18.353769354775537
Cu      2.675466395743100      2.019525318528649     19.009131903452715
Cu      5.031045087851365      1.273578369100733     19.697422839827833
Cu      1.848783586350967      4.343643928895801     19.319889083889940
Cu      4.162908534315345      3.674855389416003     20.067116756809597
Cu      6.567714232057729      3.138009121125584     19.468236887372203
Cu      3.335792235834884      6.012924602596498     20.385461373350630
Cu      5.692035426689990      5.530870268926897     19.838479506262878
Cu      8.012134642106586      5.032512946886704     19.153244013009143
Cu      0.823520489784906      0.455849817587352     19.482104000871306
Cu      3.134709668884787     -0.188997460447881     20.014051292628306
Cu      4.836174078142130      0.134781404541623     21.784785067003533
Cu      0.941672334748644      2.547175116142977     20.738388169871229
Cu      3.222297441979907      1.857715996097458     21.435583949994960
Cu      5.633902557299272      2.491635333813406     21.733283833300366
Cu      2.410467329081597      4.200271508418311     21.742773379041157
Cu      4.793771042834520      4.888681540668251     22.087896440899144
Cu      7.178484008213154      4.448344659882213     21.444006630745232
O       8.030145755287556      5.078948218057868     22.996754062280676
C       7.484747311792504      5.724166763753932     23.930736031826836
C       8.327818718869104      6.449412036462369     24.930750603363752
C       6.005263681796834      5.834138375154482     24.083488804371925
H       8.271957181482213      7.530972392070029     24.740911588877569
H       7.919540657831476      6.271494558904637     25.931424073698004
H       9.367706107497710      6.117656733623440     24.874324723235372
H       5.529337252816721      4.833900594949476     24.101901958496889
H       5.575403733864249      6.512302980520961     23.318734573600938
H       5.793508864635662      6.301239825924694     25.052466444605265
