46

Cu      0.344188312549431     -0.074786409836066     15.267997722349211
Cu      2.709518775271748      0.053112100738296     15.341700964414308
Cu      5.154602795270231      0.200625361418609     15.422564943653148
Cu      1.312508321737622      2.096565144710115     15.314574087099324
Cu      3.726006565053125      2.251751290279337     15.374385505209823
Cu      6.164907243152144      2.377166595827588     15.290577135852326
Cu      2.387610686202862      4.353958861373775     15.424019627190049
Cu      4.764580974453495      4.480580688656482     15.364002157603847
Cu      7.167384227249944      4.562237171049268     14.941894850654554
Cu      1.367726623191254      0.614278754602438     17.316670528246334
Cu      3.874276779198687      0.779963007339923     17.382970102530994
Cu      6.358356119419023      1.076269525023128     17.431549315277991
Cu      2.403437374921963      2.941661222464208     17.341465566128740
Cu      4.974225551399390      3.053753473219746     17.414817277024937
Cu      7.567296342865563      3.290920120049297     17.026936870140879
Cu      3.652566903579724      5.086115005973538     17.611062943112017
Cu      6.249179919361048      5.300552659924878     17.069174872916292
Cu      8.645249555246522      5.428675035485451     16.592487927727415
Cu      0.236931432504076      2.236012886036988     18.712005429443266
Cu      2.552051797889543      1.574714862184056     19.273636854246362
Cu      4.972893103282870      1.083520843698716     19.565337847936863
Cu      1.716618711787953      4.048284642318732     19.399141415647357
Cu      4.080938008705876      3.441354685953604     19.716526721729174
Cu      6.617639396504984      2.918129336745212     19.240405515203495
Cu      3.288440292846559      5.805079073810098     19.915284251070769
Cu      5.604944906428480      5.269844383771466     19.360746638567164
Cu      7.977375606992668      4.940035644819785     18.826356731245429
Cu      0.789526140905774      0.078735211215996     19.738897126436449
Cu      3.128586249759365     -0.377346396963950     20.548270109405710
Cu      5.136711250270870      0.167128440757486     21.797523293034565
Cu      1.024442490255849      2.278036954217470     21.018471544266191
Cu      3.419781341735993      1.821827332648650     21.536419175449897
Cu      5.753318671378443      2.500789499725359     21.475496689460044
Cu      2.464127844718908      4.131371303577002     21.731583528157895
Cu      4.882642672787215      4.840227904843488     21.689742661594341
Cu      7.180385132206115      4.458705850388766     21.062158413367246
O       3.533057857535008      5.058255655147120     23.020557442978220
C       3.465912939614156      5.409169770659113     24.241977640074413
C       4.699664129288259      5.833381655598815     24.932227048192477
C       2.158416882918110      5.359693183278599     24.926780726823601
H       5.172923872731648      6.680827445405702     24.414697871047039
H       4.447623352954118      6.135501434128246     25.952838034843190
H       5.431231208295221      5.011439596688343     24.976424552507169
H       1.787207774195508      4.325398141282124     24.996716999995659
H       1.406624274767614      5.950956669250127     24.383044355557118
H       2.273472178436334      5.765048789413409     25.936461880747281
