46

Cu      0.684185299448002     -0.875525240176426     16.077903906519445
Cu      3.045861996248554     -0.687485403751744     16.157323585429726
Cu      5.448968449692451     -0.170161415575827     16.306365739710785
Cu      1.503367091131625      1.153657699640269     15.153646456742649
Cu      3.749702434727610      1.573111164529088     15.840891236811290
Cu      6.121561586188094      2.098237630873591     15.772980172486958
Cu      2.554969619308161      3.123427443696241     14.309207353195912
Cu      4.491476183912143      3.966838497024134     15.407424634134415
Cu      6.948437590088512      4.168253880365028     14.909007198532166
Cu      1.657272631619633      0.799383630784304     17.499722855575765
Cu      4.039550146834728      0.519966037978132     18.123345264673457
Cu      6.446434723961620      1.308077322718583     18.052107278537470
Cu      2.271921284290424      3.288617209805062     16.711853506906856
Cu      4.678808074554583      2.965210587393133     17.666078672779278
Cu      7.702519800815413      3.293306181160481     17.186174091860345
Cu      3.699398261730793      5.271339177698130     17.413757544506872
Cu      6.100069012785282      5.029071250109978     16.960138896675385
Cu      8.458457813643095      5.392021841835402     16.294496821140207
Cu      0.316646173749597      2.756136175611022     18.214975761473081
Cu      2.623270897748956      2.376193942556677     19.060354672892792
Cu      4.966793401022075      1.852442982637911     19.976034549486265
Cu      1.753939835780419      4.684349331361463     18.772077843738852
Cu      4.054496254933452      4.249187913797074     19.720494599673842
Cu      6.461666894289545      3.644613286228497     19.280617291689826
Cu      3.168662323519151      6.595184348520060     19.445085911114184
Cu      5.532860575752704      6.047287413056467     19.053455655787879
Cu      7.895590362370590      5.460489124939605     18.609199865739722
Cu      0.777921462128872      0.924140379539242     19.785039597087408
Cu      3.068572203272546      0.445158269334212     20.515986270993324
Cu      4.727962402260138      1.108650122718714     22.203980307390083
Cu      0.832442842250859      3.244762864715421     20.559936404390179
Cu      3.100582998172922      2.765065371562115     21.493916307484710
Cu      5.478878469953219      3.585804147683618     21.664884896445876
Cu      2.264867729244291      5.118191149115599     21.174736520368363
Cu      4.610773498691985      5.958784089189016     21.357553111571544
Cu      6.947444950030293      5.414449973283466     20.895322903590049
O       5.358331860072870      0.762063716071496     23.937172321473135
C       5.019827274766773      1.876651074745206     24.481659732149566
C       6.042214980233198      2.906248093271463     24.842481669147372
C       3.600058018793986      2.176026318214619     24.842447008178866
H       5.956124773352546      3.787111502366416     24.177410871036656
H       5.864592111533100      3.245251888228511     25.872524884259619
H       7.049606249968045      2.486195693675006     24.744147781369520
H       2.974767065630400      1.287851824723852     24.707010529952541
H       3.201539546491807      2.985091920619212     24.204354940867880
H       3.554671069684664      2.521530731090099     25.883296611554169
