46

Cu      0.269675645863876     -0.045936386985591     15.706905986377938
Cu      2.641608418494280      0.199910077742640     15.306816954251344
Cu      5.094230987408659      0.507575357193302     15.013327928350996
Cu      1.185904362399913      2.122148018505567     15.955426577249202
Cu      3.611161822902258      2.416249958760468     15.532172726517111
Cu      6.016123850956125      2.725682427174470     15.161755627710976
Cu      2.168772180446485      4.345646784333407     16.206836292401682
Cu      4.536157959104766      4.685872352725045     15.601273427533773
Cu      6.912981182303858      4.954495911198348     14.975040130591903
Cu      1.707695612646756      0.325246180698349     17.548970882060249
Cu      4.159741966359883      0.647782464386655     17.212443935831516
Cu      6.590930129164752      1.178897345700746     16.981392552239157
Cu      2.726361560085631      2.592289273332672     17.832053618672600
Cu      5.154072004309343      3.065583059006334     17.539531606355315
Cu      7.591421657419771      3.505278775468497     16.861872779505990
Cu      3.757711119725605      5.054485609940921     17.908146425589425
Cu      6.181051395877785      5.429205708431103     17.231816940425059
Cu      8.507740333840752      5.728093202741492     16.593906039504105
Cu      0.391944205712682      2.248210010894161     18.349421669889519
Cu      3.129793082689549      0.721917058043398     19.511235138906052
Cu      5.485033648316253      1.032476175262445     19.191278198569098
Cu      1.726194335585955      4.389613917769256     19.184578122240410
Cu      3.935787404880743      3.209040094788076     19.833972000238468
Cu      7.086158890391683      2.799335884923158     19.124822458108682
Cu      3.513156973396860      5.747919158669140     20.201576318384859
Cu      5.694474456773935      4.842918409454811     19.506130828543448
Cu      8.050761581890145      4.998924663593609     18.835240111405593
Cu      0.723808709769714      0.218669159325982     19.747171908917796
Cu      2.200144786750268      0.217405898774819     21.690269469557418
Cu      4.647105314321607      0.189634854341688     21.354712980662416
Cu      1.601824917441016      2.331452173069600     20.486167172104143
Cu      3.556445509320577      2.205526601191730     22.019809686304011
Cu      5.891980496784652      2.301456634462645     21.216964072091258
Cu      2.339930745481733      4.312287624095310     21.718681868648009
Cu      4.857086524277655      4.421722267213867     21.815716954592716
Cu      7.343164166848421      4.235800664583642     21.113924407175844
O       1.421019757675389      5.005221068072045     23.197516269596711
C       1.843192300036439      5.799393120535512     24.079712968923687
C       3.247896440144283      6.272688770353226     24.168598254829494
C       0.897614289484814      6.343244466168460     25.106518759714248
H       3.295038353798608      7.314920113069571     23.815664937314459
H       3.568040841503887      6.257998154676412     25.220243672920684
H       3.950675436299108      5.666421529211513     23.566073665469933
H      -0.060683261130944      5.822126850710658     25.059578763805600
H       0.752054731329887      7.417000890554609     24.931229856123000
H       1.343168356678582      6.236777917580681     26.102082100779164
