46

Cu      0.169914042232365      0.043769601895868     15.674685263430593
Cu      2.532849724805999      0.106397006511955     15.661938395151608
Cu      4.967437078733027      0.189284776418347     15.587535504446041
Cu      1.198758411559287      2.187172391810688     15.644757654101848
Cu      3.599895603773911      2.280233563841126     15.508017989729304
Cu      6.055547703984758      2.298208601067949     15.225788667540360
Cu      2.330575446311943      4.395113189306239     15.595490321542481
Cu      4.700610122687251      4.498164976561740     15.253177603317189
Cu      7.091414545896882      4.433283215762335     14.761322620607270
Cu      1.284042213693236      0.758451058972772     17.667083251754626
Cu      3.832983199851513      0.938863416330561     17.595560429643008
Cu      6.301064469720359      1.110817325677613     17.474189620645060
Cu      2.411304019918969      3.062860686327925     17.609246180975429
Cu      5.036137179827784      3.162837445612961     17.302226642998072
Cu      7.550987002866270      3.261532139739244     16.874828729874700
Cu      3.761587873380014      5.220094256181977     17.563916556785710
Cu      6.304329846802566      5.332787557549423     16.878197022852579
Cu      8.682273920697495      5.333066685458281     16.300183461166043
Cu      0.251498304209211      2.258131447554136     19.268806066081265
Cu      2.603139621567653      1.628946689746704     19.556426502596747
Cu      5.064735473138199      1.147954552511068     19.745177798714522
Cu      1.766733559451217      4.024273496969450     19.802295848396508
Cu      4.141119335528525      3.497661297939295     19.519617791118360
Cu      6.671873359520742      2.985160496357904     19.154203376316424
Cu      3.440195402624473      5.800853253937832     19.980443332526125
Cu      5.738837447293063      5.320372746494214     19.205866727825935
Cu      8.082581541833296      4.964182306374017     18.576026148399844
Cu      0.895214419952285      0.067127101580768     20.088082854331681
Cu      3.073565944770789      0.036993619435268     21.246908369307398
Cu      5.306626054547271      0.375970322342675     22.044676108433695
Cu      1.374600891859392      2.115630620728879     21.545740765237348
Cu      3.864261052001633      2.300753015169705     21.659014143694172
Cu      6.287090291545385      2.490923310073062     21.490961311967027
Cu      2.731703059152693      4.492274943616663     21.968551014361022
Cu      5.098053773552600      4.613436388781002     21.460644567832897
Cu      7.434101798121644      4.562958557823269     20.862884481370564
O       0.453194268951532      2.437364124710846     23.148820294366992
C       0.621285063512568      3.373204420220006     23.968583459745503
C       1.860664729487520      4.209154617805514     24.024836548334772
C      -0.452363255343473      3.717616186573265     24.948544529191640
H       1.796516700049552      5.098169334861191     23.327299104168244
H       1.900368723561541      4.675855172440281     25.017344944904398
H       2.767020836777720      3.582547649185707     23.950737494823453
H      -1.236808413911974      2.956778796711319     24.951422379122381
H      -0.877950611342679      4.696221963224913     24.682843384758318
H      -0.004370290839281      3.817895260028850     25.943676214593463
