46

Cu      0.440331208934209     -0.207648465000915     15.140137306102542
Cu      2.791094795366791     -0.006286517506999     15.274877414309946
Cu      5.225896003304643      0.227790822921534     15.424499748631783
Cu      1.334462942199750      1.998740525683071     15.233045848371166
Cu      3.735633250518221      2.233118267615806     15.343929328283870
Cu      6.170502213402709      2.437092459175605     15.319611178005353
Cu      2.328883080514846      4.288676846264480     15.369607204393205
Cu      4.700202355690482      4.505002970847348     15.401791485109882
Cu      7.104678422429495      4.650458633892001     15.017917122428365
Cu      1.374845983909654      0.517972010615165     17.217124886821974
Cu      3.875473202351604      0.751931223100139     17.346052099426124
Cu      6.360412955807327      1.105853957979500     17.457390560663878
Cu      2.349765031034666      2.875690009758907     17.284526744882072
Cu      4.917122544118016      3.040597736645049     17.423007441385405
Cu      7.539401525029747      3.343974396209034     17.081080578286326
Cu      3.546792206418397      5.038315797016199     17.630728135454937
Cu      6.141780217124776      5.297255663388624     17.156326151207008
Cu      8.535468020095948      5.538374819484342     16.700871427834532
Cu      0.184933730833639      2.128948550676412     18.596757695827186
Cu      2.492612575498984      1.502728989542029     19.213129093614288
Cu      4.915299339019625      1.043508859111347     19.551543816562546
Cu      1.619101929782500      3.969515755971242     19.338215482710567
Cu      3.983905496880921      3.381479876564486     19.711120855982262
Cu      6.535726823114063      2.921361271218668     19.266461379632123
Cu      3.155400876518330      5.736729507727300     19.941923832287181
Cu      5.485623488978007      5.239432314889619     19.438288903317837
Cu      7.877415721900373      4.967251229491175     18.915328872405617
Cu      0.736844205850443     -0.033325784877048     19.603721933343984
Cu      3.047669686519863     -0.441898495229441     20.498436975998395
Cu      5.040000223943895      0.094527735798417     21.765230989085889
Cu      0.921322657040918      2.160465820636362     20.921036720569703
Cu      3.319611012485622      1.752029057751141     21.493844848339879
Cu      5.652288582224585      2.438930865122748     21.484838715201679
Cu      2.305748048629847      4.033544410878298     21.695708802804102
Cu      4.718414314802353      4.752344125911231     21.751982103759691
Cu      7.039290800566650      4.427277523784626     21.137282886063478
O       3.327345914317111      4.915179816279415     23.057743364072049
C       3.108554844005302      5.196621375038452     24.279452094854559
C       4.237123718819884      5.634810434341272     25.127219656454244
C       1.736749258525669      5.073779973772001     24.810388639128643
H       4.658192110044928      6.584553828201542     24.761401298869700
H       3.871579977510453      5.785278701572075     26.147955900857212
H       5.042939017789418      4.884205457799565     25.142517473077373
H       1.335377348436807      4.061763722034195     24.651469370849281
H       1.063284509999141      5.787285381388441     24.311149151442727
H       1.751531968582950      5.294741733264980     25.881906450899461
