46

Cu      0.651109452104665     -0.447837580696170     14.922495142486538
Cu      3.012909906820677     -0.329582819927714     15.129274438109759
Cu      5.406597284806810      0.098405262250937     15.504862717644217
Cu      1.476167131915398      1.759771980559359     14.678832260781419
Cu      3.709058311252432      1.925249695988985     15.524923781538829
Cu      6.082436562607685      2.415334716976160     15.591650232429870
Cu      2.577087077198496      3.848335696837807     14.384333862326967
Cu      4.462669365903492      4.341915953174861     15.725056376689844
Cu      6.910527647688061      4.648992880774624     15.365745349982808
Cu      1.598685598742629      0.701462151003175     16.803445328753941
Cu      3.961889687849930      0.285031051700776     17.407865068352365
Cu      6.355534310876313      1.052709130451456     17.609224584956568
Cu      2.204635119779131      3.364121787060051     16.729898106220521
Cu      4.660014680477582      2.823350102765948     17.658348111725793
Cu      7.487035830407240      3.259227427058835     17.387312756596746
Cu      3.568393268049382      5.073330571942530     17.977443646616297
Cu      5.981534364630952      5.088640716213721     17.522606228424436
Cu      8.368271986855323      5.474275756238421     17.069821292363986
Cu      0.227976153051209      2.378293319337155     17.965579292768531
Cu      2.531756889924742      1.828668601103334     18.731470814863822
Cu      4.839025945121380      1.112067645836937     19.556199661837226
Cu      1.608165749076003      4.106749403986693     19.067472836023086
Cu      3.888864657124272      3.483615397650935     19.959553195574792
Cu      6.327130536003282      3.033176941827846     19.525194824681130
Cu      2.934806584269874      5.794022211981029     20.262523349065297
Cu      5.317395497677035      5.428330239542002     19.787484344922017
Cu      7.700791041565952      4.992440705769742     19.308493558429412
Cu      0.705997173463616      0.208284070878409     19.025205480595069
Cu      2.978303833325486     -0.420052477940141     19.702727429052008
Cu      4.548083667507182     -0.108295647864517     21.593373963317724
Cu      0.674369016830006      2.248817666107849     20.372154956188098
Cu      2.907780201898667      1.572219234287392     21.181723883900318
Cu      5.259523173784361      2.270228708404666     21.662869232530838
Cu      2.042148962613965      3.889350159231825     21.535561093892120
Cu      4.312812932735609      4.755502090635440     22.058630905312505
Cu      6.731817265846237      4.401466939417161     21.541017915382003
O       5.885371834783116      5.143158427142346     23.122010707262184
C       5.901530010246611      5.370809714665143     24.376109531074395
C       7.194846489284531      5.617095063239637     25.053473085088655
C       4.644837665995343      5.363833191097196     25.145712426433928
H       7.810726623400675      6.335001911084426     24.493826637677749
H       6.992742185859391      6.011000674981592     26.055233866558972
H       7.762900239268580      4.679843217707242     25.163259575689477
H       4.465620862139907      4.356201161210481     25.555971611437549
H       3.782295987946581      5.646768515068445     24.526683188039026
H       4.746367344704239      6.048650943169077     25.995926531419059
