46

Cu      0.198597172645068     -0.148791321796310     15.514216252614828
Cu      2.557310627500379     -0.144216440448516     15.331467697436365
Cu      4.983411018351107      0.190954237218437     15.331337552665261
Cu      1.138284220686221      1.927103069178041     14.865795402779225
Cu      3.401215965989516      2.082195832632415     15.654969140742818
Cu      5.785307967124695      2.484450816617717     15.386332221678931
Cu      2.230048942057574      4.052381843088723     14.790164598941615
Cu      4.327647175591495      4.476706770643491     15.862796232355644
Cu      6.701953067870227      4.681597315678584     15.102199137498777
Cu      1.466558447713983      1.146767496544125     17.101881957519126
Cu      3.827672864752242      0.354329489170869     17.440117259574969
Cu      6.305608636691569      1.001760248702390     17.258067090019892
Cu      2.267678182284794      3.615629265386353     17.187178360985584
Cu      4.684864984236053      2.809167695413443     17.648995644449172
Cu      7.625181717983064      3.119271364717142     16.846838493588095
Cu      3.936993866803465      5.142764397760287     18.285591216085550
Cu      6.198022911135795      4.927930312956139     17.429258393856653
Cu      8.458692261545091      5.368130063743716     16.575655981166186
Cu      0.415599154667040      2.746825911889184     18.660174429193692
Cu      2.752212028714999      1.933738016232764     19.025970065985661
Cu      5.102868182232648      0.998542004351260     19.426419571399748
Cu      2.101356618994282      4.255507205783097     19.628457305861453
Cu      4.432924128455936      3.405312651679179     20.081335078462729
Cu      6.699856748379423      2.803937979784875     19.101782787914420
Cu      3.771721655532864      5.757012877381548     20.676806246009306
Cu      6.013355384444630      5.209318555730402     19.812070847224412
Cu      8.220465435306275      4.657175495059120     18.833549223884827
Cu      0.874369901603427      0.441428591272926     19.390352875865837
Cu      3.167340635871572     -0.389443305241833     19.838172284074471
Cu      5.073860452000560     -0.295924724506404     21.432445351502007
Cu      1.236862383168807      2.346632578785528     20.933984948341589
Cu      3.525427216066941      1.511355549680573     21.375997477141695
Cu      5.976206073730353      2.029792089935781     21.468946182655827
Cu      2.893316408090437      3.850810857430943     21.960672652586787
Cu      5.361926049585343      4.436208210302080     22.103635441744263
Cu      7.562724416962197      3.875459735789034     21.091928203369140
O       5.625378152158600      5.293142882133396     23.748226467795824
C       4.892939305163447      6.109559019106173     24.366035001288161
C       5.511392538556494      7.052102482789143     25.355053711484718
C       3.422161161156924      6.219730660159095     24.179711805311459
H       5.293734219931902      8.085395325107763     25.058668427523269
H       5.058531949681408      6.892239555723652     26.340829193538966
H       6.590560035628049      6.895861958213592     25.413564936565226
H       2.977542285639242      5.291036730799189     23.773022696443853
H       3.204547702682861      7.044148286238030     23.481089049799248
H       2.953841648053776      6.453581845348535     25.146818876812137
