46

Cu      0.530012336020547     -0.094048851528216     15.157116910385200
Cu      2.876892802042582      0.063665901964603     15.375151586170809
Cu      5.320390599107403      0.238579218485724     15.543162262819010
Cu      1.468333429364694      2.091055382301319     15.246029495690921
Cu      3.873926933382360      2.277430259063651     15.403672770387086
Cu      6.314812187296987      2.418834136941560     15.434959852504353
Cu      2.497836600272971      4.365568895742291     15.403554622998199
Cu      4.869089320027499      4.538939785263834     15.439594973746258
Cu      7.291229718447834      4.607534583737863     15.138353815858174
Cu      1.413308334097999      0.635074137563040     17.264125110371978
Cu      3.957848497848604      0.826116565686935     17.440104446568380
Cu      6.415905181153948      1.149188810094673     17.617231615272441
Cu      2.469567260767498      2.941928863356031     17.320511233358843
Cu      5.033533547929301      3.115888915695837     17.469523994807812
Cu      7.615674439513291      3.370242536983813     17.248107280673640
Cu      3.657525922684118      5.130806111911784     17.666528561055191
Cu      6.273395586539609      5.363047666009229     17.220121843145908
Cu      8.680762638791014      5.523079435670128     16.852360284839307
Cu      0.265724781133799      2.300277894619387     18.610323765333831
Cu      2.549994053227798      1.569968099541860     19.264371085723493
Cu      4.935501244075784      1.152087267892678     19.703086278710582
Cu      1.685511986995792      4.136128054906783     19.286896535530712
Cu      4.009714069637621      3.511793729064635     19.655570210587545
Cu      6.559876237692015      3.034118432103783     19.418028270802377
Cu      3.238097817000975      5.867284225809806     20.042032260077317
Cu      5.538226646273444      5.368727671380940     19.476132816704148
Cu      7.938368267603924      5.033455711503503     19.064922874384553
Cu      0.658357857883095      0.152395465499565     19.662961993147793
Cu      2.717678291632597     -0.053286785631084     20.988854511197093
Cu      4.896517386634483      0.232256344704079     21.953525846960559
Cu      1.049077412951180      2.257919676741797     20.951914174333400
Cu      3.472643751948186      2.152702076317789     21.599390766617418
Cu      5.872393063629227      2.407813133388682     21.628067000203394
Cu      2.258927592682458      4.275206238674557     21.629708432144426
Cu      4.649781965537216      4.624746082729223     21.778571310194653
Cu      7.085839467010407      4.610596755133020     21.314341948824008
O       6.095870676503450      5.366042446420477     22.816477189688804
C       6.005094671585999      5.850757333910042     23.989957285088650
C       7.223280138407733      6.371732095816516     24.651117036546953
C       4.687477279546249      5.905324421039837     24.649699967671989
H       7.598264771395449      7.266317459586581     24.130989411273497
H       6.971231171684575      6.649140883342608     25.678612982981967
H       8.025158459685249      5.619667577399123     24.666631978204688
H       4.223844298834647      4.907257640628684     24.704446546056303
H       3.999666050799042      6.566633508282046     24.098940608358028
H       4.816855850335707      6.298620831105367     25.662798191965113
