46

Cu      0.123957026575883      0.060532996729508     15.781421583988463
Cu      2.497176344675051      0.137063235951191     15.701404662323128
Cu      4.939069398680960      0.245362729227079     15.617014675982480
Cu      1.145287260201943      2.208995669694717     15.826514007169592
Cu      3.550459850233730      2.320061230529762     15.642564930623413
Cu      5.990439449579362      2.379033192662852     15.339396138659639
Cu      2.267093452617975      4.412075124559541     15.745968726622285
Cu      4.647561080770539      4.519410743670866     15.374977379098089
Cu      7.046277866350104      4.503679358029645     14.868508010575663
Cu      1.305663756077425      0.693707871803473     17.757388905892427
Cu      3.817678499146856      0.924016922409773     17.654186754838967
Cu      6.281932653800688      1.153574107632801     17.511269100407706
Cu      2.404079244294957      3.066567407937817     17.780628035720039
Cu      4.982253472963060      3.203733163974335     17.481568010929784
Cu      7.501487443490306      3.322982654096324     16.987440332368763
Cu      3.706840498463039      5.255521698328221     17.603394542298833
Cu      6.240350403686506      5.385054898826001     16.980401877574799
Cu      8.614633573770544      5.407543633360476     16.432558368758524
Cu      0.186947476719108      2.006984077920582     19.443907724509330
Cu      2.593173408298110      1.533563849211315     19.657233698526280
Cu      5.086059279254787      1.140963014132726     19.761756946011129
Cu      1.667022488275430      3.824481277851207     20.027924027565632
Cu      4.086191860227610      3.423439309508538     19.764525855617581
Cu      6.680090255745841      2.988477340992373     19.263383510062098
Cu      3.261389083408397      5.724818066898552     19.958557206859673
Cu      5.606639524562467      5.264162870182238     19.285932004215983
Cu      7.987027201839547      5.028476657482731     18.709272905533059
Cu      1.042157492973301     -0.184290682563176     20.117948531102346
Cu      3.374086005478420     -0.277957239789937     20.974044198856586
Cu      5.464517118384202      0.314657302917516     22.000367615931882
Cu      1.171736550229921      1.820640146502083     21.636084924536377
Cu      3.739800543889882      2.053906197274684     21.828159879874782
Cu      6.071903367372507      2.599950373289751     21.563900472417096
Cu      2.587676310512990      4.772975408234734     22.048198503515298
Cu      4.937979833499529      4.756923186197455     21.604502523683834
Cu      7.273913192098632      4.638874092299893     20.982473466822796
O       2.328763300287857      2.259729025137767     23.151254161924467
C       2.245549787522672      3.516858288876380     23.607956296071098
C       3.368526958216430      4.015675688020566     24.464128387013812
C       0.880575760820880      4.108130941593624     23.788092044142733
H       3.806535102920279      4.948865418823925     24.060983711178963
H       2.972555374384295      4.271709021536705     25.456779628523464
H       4.174281150338741      3.275910761856722     24.539244220400949
H       0.093451421120980      3.391147602008639     23.519233485322594
H       0.721974237225205      5.019660837370396     23.181497279243683
H       0.773390440897798      4.423695958386601     24.834632933254539
