46

Cu      0.114069568124833     -0.095270772382889     15.683088190388565
Cu      2.482217591850668     -0.084821029169197     15.605509212963641
Cu      4.908467612755409     -0.005702372438749     15.503657893309777
Cu      1.184184020283735      2.017785137573667     15.589960377643154
Cu      3.594885530142042      2.082332951998350     15.500137072614589
Cu      6.063089821622811      2.117591006594424     15.291208759888763
Cu      2.368716404546463      4.185368132097198     15.456659327027690
Cu      4.789065449656361      4.262661798971756     15.274958113109880
Cu      7.229748522864596      4.230192059192715     15.058594141255615
Cu      1.328597760727045      0.624172758846998     17.625871967385141
Cu      3.796170648079355      0.711201291716927     17.561968311183968
Cu      6.260111309674762      0.808299812501974     17.362116903338332
Cu      2.383914984314598      2.912293596867496     17.568560727571519
Cu      4.962707393773362      2.913146318637895     17.389446939703571
Cu      7.477451904310718      2.954011480517777     17.132024625003030
Cu      3.683104946098337      5.117057589127029     17.327294809695903
Cu      6.236290473944852      5.057403083825391     17.121599009378436
Cu      8.624708467560302      5.060954595478248     16.837666638382185
Cu      0.415392704853435      2.082846641385721     19.296738097628928
Cu      2.784268342805438      1.589182513909563     19.609732377574325
Cu      5.228703487986281      1.522238690254224     19.489756372222704
Cu      1.497294196316809      4.212638129096738     19.518211051217268
Cu      3.918078841813102      3.826243148046871     19.423174068389983
Cu      6.445495453315043      3.651265978187979     19.267529156930710
Cu      2.925869969491885      6.155822041648610     19.433016164161369
Cu      5.303687294051676      5.898313863999565     19.172199081404710
Cu      7.751119188378132      5.635985912072310     18.989000765749559
Cu      1.196859763156360     -0.133199434530297     19.939693627273023
Cu      2.620066662757592      0.521511348718877     21.851563043355760
Cu      5.026801273418391      0.427425495130281     21.633609942346745
Cu      1.488056181664318      2.705123392442477     21.434048456431345
Cu      4.036457759591450      2.577689788478338     21.541604074521580
Cu      6.466827168345308      2.434404767932917     21.422764943975803
Cu      2.886571375587875      4.780871360524666     21.467292380844906
Cu      5.360285201350539      4.642577876158779     21.280748221188517
Cu      7.735948402099339      4.515222235638666     21.128849482584659
O       1.285214797334004      1.511961939634045     22.990803546839501
C       1.408994064410231      2.313976851520998     23.999314576343085
C       2.696721988767901      2.915547386116589     24.389488320835184
C       0.185090754704388      2.639549122613671     24.770179812251374
H       2.863768558928140      3.871355317566983     23.842016565959703
H       2.664082526497073      3.167001365090118     25.458815994465699
H       3.554761280450405      2.255579976520732     24.175952856548992
H      -0.481184259791627      1.769796531415046     24.841278479320195
H      -0.367197197868797      3.460717817884821     24.287397629928758
H       0.470140042555560      2.972390986805984     25.773480345070595
