46

Cu      0.091623093741948      0.024497702363349     15.659549875830221
Cu      2.460174235797031     -0.062592087528712     15.686215248010534
Cu      4.898036607113612     -0.046132702145698     15.702024239109045
Cu      1.222512910374220      2.101442157370751     15.508624059401187
Cu      3.621192094862975      2.055554329943017     15.614162779884708
Cu      6.115851724683270      2.031006991777835     15.445575268365953
Cu      2.482701609881201      4.206836230339366     15.313775970833317
Cu      4.896916871592301      4.175571790417578     15.278720863963157
Cu      7.319121837171685      4.133865892786320     15.143792203377405
Cu      1.246222985973765      0.823291736043829     17.602762879692136
Cu      3.720208976073641      0.674873291809063     17.717191322688812
Cu      6.222452358026048      0.820043155670365     17.578840859988972
Cu      2.299378054980451      3.139617444243909     17.507216310653412
Cu      4.932638541114608      2.905810400399798     17.472523068402808
Cu      7.491359526644729      2.933257930019747     17.261417792970921
Cu      3.758422701363724      5.138378901547551     17.235602790441810
Cu      6.260360615428640      5.024625089296118     17.168889605237606
Cu      8.650605482039751      5.050345270075593     16.929235535311676
Cu      0.082171409019081      2.160382159009516     19.256080441644801
Cu      2.524693281640291      1.833429274079802     19.496627935402287
Cu      5.036884893393733      1.563662696410977     19.630248998015261
Cu      1.451781392525872      4.049638926744645     19.841029518740147
Cu      3.842689988617169      3.874665628465790     19.457858083568500
Cu      6.393051013975827      3.603947618373588     19.362977136639582
Cu      2.757959922897844      6.069748684428111     19.234605349474734
Cu      5.228370266963979      5.860567029441577     19.199982471108022
Cu      7.702919801152519      5.583879948056274     19.061562300123921
Cu      1.017280088756074      0.014633069990517     19.918939501839684
Cu      3.449179692581369     -0.260440440930299     20.123666112359935
Cu      5.107418610678030      0.411272802994530     21.732345417294272
Cu      1.103395687583699      2.022522769576179     21.443736901087142
Cu      3.800522093104963      2.524774761615779     21.584999223631442
Cu      6.344665968370985      2.463860726037059     21.553110724955062
Cu      2.953996123346351      5.126544082181595     21.426774441258672
Cu      5.267653804923738      4.601307409041588     21.338389574137704
Cu      7.641327103364346      4.530679930291294     21.231161992806147
O       2.360446478232993      2.212322659632338     22.869101207343235
C       2.244498437940540      2.841162349635246     23.978876192351667
C       3.420913867285514      3.500646234205688     24.566199834041161
C       0.920034988719970      2.903802842105441     24.628136928017867
H       3.675069580786897      4.427876023713688     24.011448962858079
H       3.185253927669046      3.783619448727209     25.598927450244645
H       4.304344714101187      2.843701883977788     24.547927987368343
H       0.386475115743649      1.945736709275826     24.558368669779611
H       0.291541489959284      3.679897674137397     24.159894285434103
H       1.061837248862873      3.178123859752544     25.679485121635231
