46

Cu      0.039613121254464      0.219223546252041     15.488984389328246
Cu      2.407120618373916      0.115836605875774     15.428890551529745
Cu      4.869421246303162      0.069789064180685     15.272650586558971
Cu      1.250337998214825      2.260064240469889     15.297929307831160
Cu      3.684623149802651      2.195235754582291     15.257756348817528
Cu      6.176910136309728      2.141400109783019     15.159699056770648
Cu      2.540465183785051      4.340164630666829     15.188950645806280
Cu      4.979767251053492      4.328524042746011     15.157001605090144
Cu      7.432108706232299      4.245355241787478     15.171725841864774
Cu      1.216470305446497      0.976857878950032     17.410801713445402
Cu      3.772454234067113      0.786571221859490     17.323852876816719
Cu      6.240705962694839      0.742157429499805     17.178431159472044
Cu      2.503084734461957      3.025000132570725     17.282426926180907
Cu      5.041204921754922      2.912971046881537     17.230366830739207
Cu      7.505554229881299      2.863100324094202     17.150890613266604
Cu      3.789444815389041      5.145441268888968     17.148601126929041
Cu      6.290390304261512      5.067198180307154     17.156541866860127
Cu      8.667632578819422      4.975158984390699     17.157697096159016
Cu      0.374118442095367      1.264679606521261     19.652993793180777
Cu      2.709679685889732      1.479122272752920     19.377490246247486
Cu      5.199365307582429      1.443849736554613     19.310291420122425
Cu      1.372838505569913      3.564649310898683     19.402271790183640
Cu      3.880195646846672      3.678620363047290     19.250918183515566
Cu      6.414280680829483      3.647109722905023     19.226306117435229
Cu      2.595539105281783      5.756179062279234     19.173692350537110
Cu      5.092786266877773      5.829177034233412     19.153421354752346
Cu      7.558276673986571      5.761919471526010     19.147939547355044
Cu      0.292614739480425      0.390217829578836     21.894019323104974
Cu      2.709088338431441      0.228793029002307     21.426982673936671
Cu      5.129386909797570      0.253502974040856     21.423183293926577
Cu      1.541485414503746      2.386786803177777     21.537762490002464
Cu      3.973088293289326      2.339408633094265     21.345471735901175
Cu      6.398504337469778      2.340454420867962     21.310945154028047
Cu      2.711841351052123      4.514080853138126     21.264895712365426
Cu      5.179848117047905      4.496243711376056     21.216200494805165
Cu      7.558534294769772      4.495076109826486     21.195637478371438
O       0.399815800572086      1.976277996345600     23.026580705502546
C       0.346181557986515      2.565148121167270     24.157481925678557
C       1.538160083159998      3.218096717691203     24.735356643924273
C      -0.958920508761070      2.622181006670750     24.858441327208272
H       1.775368130011225      4.152977070350166     24.197778453986498
H       1.333917149477349      3.475491006044972     25.781558129250211
H       2.416902331491295      2.556239763566841     24.688694455605912
H      -1.451982330727544      1.640005610959576     24.864504283206028
H      -1.626084417175210      3.337621011818625     24.351765879423212
H      -0.797413260531167      2.968757420609665     25.882798310262224
