36
Lattice="5.505533398318459 0.0 3.371166926924775e-16 -7.151324983620968e-16 11.678999999999998 7.151324983620968e-16 0.0 0.0 24.774900292433067" Properties=species:S:1:pos:R:3 pbc="T T T"
Ag       2.06457502       0.00000000      10.32287512
Ag       2.06457502       3.89300000      10.32287512
Ag       2.06457502       7.78600000      10.32287512
Ag       4.81734172       0.00000000      10.32287512
Ag       4.81734172       3.89300000      10.32287512
Ag       4.81734172       7.78600000      10.32287512
Ag       0.68819167       1.94650000       8.94649177
Ag       0.68819167       5.83950000       8.94649177
Ag       0.68819167       9.73250000       8.94649177
Ag       3.44095837       1.94650000       8.94649177
Ag       3.44095837       5.83950000       8.94649177
Ag       3.44095837       9.73250000       8.94649177
Ag       2.06457502       0.00000000      13.07564182
Ag       2.06457502       3.89300000      13.07564182
Ag       2.06457502       7.78600000      13.07564182
Ag       4.81734172       0.00000000      13.07564182
Ag       4.81734172       3.89300000      13.07564182
Ag       4.81734172       7.78600000      13.07564182
Ag       0.68819167       1.94650000      11.69925847
Ag       0.68819167       5.83950000      11.69925847
Ag       0.68819167       9.73250000      11.69925847
Ag       3.44095837       1.94650000      11.69925847
Ag       3.44095837       5.83950000      11.69925847
Ag       3.44095837       9.73250000      11.69925847
Ag       2.06457502       0.00000000      15.82840852
Ag       2.06457502       3.89300000      15.82840852
Ag       2.06457502       7.78600000      15.82840852
Ag       4.81734172       0.00000000      15.82840852
Ag       4.81734172       3.89300000      15.82840852
Ag       4.81734172       7.78600000      15.82840852
Ag       0.68819167       1.94650000      14.45202517
Ag       0.68819167       5.83950000      14.45202517
Ag       0.68819167       9.73250000      14.45202517
Ag       3.44095837       1.94650000      14.45202517
Ag       3.44095837       5.83950000      14.45202517
Ag       3.44095837       9.73250000      14.45202517
