16
Lattice="5.767162907357482 0.0 3.5313687973283423e-16 -3.5313687973283423e-16 5.767162907357482 3.5313687973283423e-16 0.0 0.0 20.39" Properties=species:S:1:pos:R:3 pbc="T T T"
Au       0.00000000       0.00000000      11.21450000
Au      -0.00000000       2.88358145      11.21450000
Au       2.88358145       0.00000000      11.21450000
Au       2.88358145       2.88358145      11.21450000
Au       1.44179073       1.44179073      13.25350000
Au       1.44179073       4.32537218      13.25350000
Au       4.32537218       1.44179073      13.25350000
Au       4.32537218       4.32537218      13.25350000
Au       0.00000000       0.00000000       7.13650000
Au      -0.00000000       2.88358145       7.13650000
Au       2.88358145       0.00000000       7.13650000
Au       2.88358145       2.88358145       7.13650000
Au       1.44179073       1.44179073       9.17550000
Au       1.44179073       4.32537218       9.17550000
Au       4.32537218       1.44179073       9.17550000
Au       4.32537218       4.32537218       9.17550000
