36
Lattice="7.668573041968109 0.0 0.0 3.8342865209840546 6.641179065120891 0.0 0.0 0.0 36.261363669361494" Properties=species:S:1:pos:R:3:tags:I:1 pbc="T T F"
Cu       0.00000000       0.00000000      15.00000000        4
Cu       2.55619101       0.00000000      15.00000000        4
Cu       5.11238203       0.00000000      15.00000000        4
Cu       1.27809551       2.21372636      15.00000000        4
Cu       3.83428652       2.21372636      15.00000000        4
Cu       6.39047753       2.21372636      15.00000000        4
Cu       2.55619101       4.42745271      15.00000000        4
Cu       5.11238203       4.42745271      15.00000000        4
Cu       7.66857304       4.42745271      15.00000000        4
Cu       1.27809551       0.73790879      17.08712122        3
Cu       3.83428652       0.73790879      17.08712122        3
Cu       6.39047753       0.73790879      17.08712122        3
Cu       2.55619101       2.95163514      17.08712122        3
Cu       5.11238203       2.95163514      17.08712122        3
Cu       7.66857304       2.95163514      17.08712122        3
Cu       3.83428652       5.16536150      17.08712122        3
Cu       6.39047753       5.16536150      17.08712122        3
Cu       8.94666855       5.16536150      17.08712122        3
Cu      -0.00000000       1.47581757      19.17424245        2
Cu       2.55619101       1.47581757      19.17424245        2
Cu       5.11238203       1.47581757      19.17424245        2
Cu       1.27809551       3.68954393      19.17424245        2
Cu       3.83428652       3.68954393      19.17424245        2
Cu       6.39047753       3.68954393      19.17424245        2
Cu       2.55619101       5.90327028      19.17424245        2
Cu       5.11238203       5.90327028      19.17424245        2
Cu       7.66857304       5.90327028      19.17424245        2
Cu       0.00000000       0.00000000      21.26136367        1
Cu       2.55619101       0.00000000      21.26136367        1
Cu       5.11238203       0.00000000      21.26136367        1
Cu       1.27809551       2.21372636      21.26136367        1
Cu       3.83428652       2.21372636      21.26136367        1
Cu       6.39047753       2.21372636      21.26136367        1
Cu       2.55619101       4.42745271      21.26136367        1
Cu       5.11238203       4.42745271      21.26136367        1
Cu       7.66857304       4.42745271      21.26136367        1
