161
Lattice="15.3822 0.0 0.0 -7.6911 13.32138 0.0 0.0 0.0 26.93789" Properties=species:S:1:pos:R:3 idx=10 iso=conf_7 energy=-3770.7442915986135 moi=876.0310076746673 pbc="T T T"
Fe1       5.09387941      11.81968693       0.38857999
Fe1       7.65757963       7.37922849       0.38857999
Fe1      10.22127984       2.93877006       0.38857999
Fe1      -0.03352052      11.81968693       0.38857999
Fe1       2.53017970       7.37922849       0.38857999
Fe1       5.09387992       2.93877006       0.38857999
Fe1      -5.16092044      11.81968693       0.38857999
Fe1      -2.59722022       7.37922849       0.38857999
Fe1      -0.03352000       2.93877006       0.38857999
O1       8.45191951       8.95774688       1.16427004
O1      11.01561973       4.51728844       1.16427004
O1      13.57931995       0.07683000       1.16427004
O1       3.32451959       8.95774688       1.16427004
O1       5.88821981       4.51728844       1.16427004
O1       8.45192003       0.07683000       1.16427004
O1      -1.80288033       8.95774688       1.16427004
O1       0.76081989       4.51728844       1.16427004
O1       3.32452011       0.07683000       1.16427004
O1       8.45684930      11.71838693       1.16504002
O1      11.02054952       7.27792849       1.16504002
O1      13.58424973       2.83747005       1.16504002
O1       3.32944937      11.71838693       1.16504002
O1       5.89314959       7.27792849       1.16504002
O1       8.45684981       2.83747005       1.16504002
O1      -1.79795055      11.71838693       1.16504002
O1       0.76574967       7.27792849       1.16504002
O1       3.32944989       2.83747005       1.16504002
O1       6.06271942      10.34253685       1.16603994
O1       8.62641964       5.90207841       1.16603994
O1      11.19011986       1.46161997       1.16603994
O1       0.93531950      10.34253685       1.16603994
O1       3.49901972       5.90207841       1.16603994
O1       6.06271994       1.46161997       1.16603994
O1      -4.19208042      10.34253685       1.16603994
O1      -1.62838020       5.90207841       1.16603994
O1       0.93532002       1.46161997       1.16603994
Fe2       7.65766950      13.29971675       1.92920995
Fe2      10.22136972       8.85925832       1.92920995
Fe2      12.78506994       4.41879988       1.92920995
Fe2       2.53026958      13.29971675       1.92920995
Fe2       5.09396980       8.85925832       1.92920995
Fe2       7.65767002       4.41879988       1.92920995
Fe2      -2.59713034      13.29971675       1.92920995
Fe2      -0.03343012       8.85925832       1.92920995
Fe2       2.53027010       4.41879988       1.92920995
Fe2       7.65738936      10.33921687       2.71289992
Fe2      10.22108958       5.89875843       2.71289992
Fe2      12.78478980       1.45829999       2.71289992
Fe2       2.52998944      10.33921687       2.71289992
Fe2       5.09368966       5.89875843       2.71289992
Fe2       7.65738988       1.45829999       2.71289992
Fe2      -2.59741048      10.33921687       2.71289992
Fe2      -0.03371026       5.89875843       2.71289992
Fe2       2.52998996       1.45829999       2.71289992
O1       4.13047566      13.30746358       3.50011674
O1       6.69417696       8.86702230       3.50017680
O1       9.25785288       4.42655104       3.50012888
O1      -0.99692542      13.30746346       3.50011522
O1       1.56677673       8.86702179       3.50017561
O1       4.13045318       4.42655177       3.50013117
O1      -6.12432518      13.30746196       3.50011310
O1      -3.56062281       8.86702046       3.50017417
O1      -0.99694638       4.42655097       3.50012961
O1       6.86413247      11.90975412       3.50134079
O1       9.42782960       7.46928135       3.50138675
O1      11.99152528       3.02883664       3.50133300
O1       1.73673352      11.90975445       3.50134069
O1       4.30043091       7.46928274       3.50138637
O1       6.86412571       3.02883612       3.50133519
O1      -3.39066668      11.90975466       3.50133899
O1      -0.82696925       7.46928225       3.50138604
O1       1.73672584       3.02883649       3.50133350
O1       9.41305197      10.24176436       3.50224751
O1      11.97672051       5.80131459       3.50230383
O1      14.54045360       1.36085742       3.50225017
O1       4.28565047      10.24176453       3.50225086
O1       6.84931870       5.80131411       3.50230694
O1       9.41305364       1.36085729       3.50224988
O1      -0.84174893      10.24176488       3.50224853
O1       1.72191980       5.80131450       3.50230448
O1       4.28565273       1.36085785       3.50225101
Fe1       5.09419838      11.81919535       4.47550593
Fe1       7.65789379       7.37873026       4.47562829
Fe1      10.22159086       2.93827517       4.47551701
Fe1      -0.03320183      11.81919521       4.47550044
Fe1       2.53049410       7.37873006       4.47562423
Fe1       5.09419048       2.93827481       4.47552064
Fe1      -5.16060146      11.81919441       4.47549920
Fe1      -2.59690561       7.37872946       4.47562314
Fe1      -0.03320914       2.93827450       4.47551899
Fe1       7.65834829      13.29917782       4.82360476
Fe1      10.22204986       8.85872148       4.82361968
Fe1      12.78572903       4.41824696       4.82361481
Fe1       2.53094815      13.29917876       4.82360644
Fe1       5.09464867       8.85872221       4.82362082
Fe1       7.65832845       4.41824681       4.82361605
Fe1      -2.59645330      13.29917829       4.82360604
Fe1      -0.03275128       8.85872188       4.82362070
Fe1       2.53092795       4.41824761       4.82361532
O1       5.86489962      10.39167293       5.72432717
O1       8.42857706       5.95115615       5.72439439
O1      10.99230197       1.51073700       5.72431415
O1       0.73749928      10.39167424       5.72432432
O1       3.30117648       5.95115790       5.72439285
O1       5.86490037       1.51073632       5.72431570
O1      -4.38989908      10.39167532       5.72432086
O1      -1.82622318       5.95115751       5.72439137
O1       0.73750208       1.51073752       5.72431190
O1       5.94614680      13.19990697       5.72536095
O1       8.50986683       8.75945059       5.72543461
O1      11.07350284       4.31897695       5.72536588
O1       0.81874489      13.19990719       5.72535855
O1       3.38246420       8.75945011       5.72543387
O1       5.94610346       4.31897645       5.72536995
O1      -4.30865753      13.19990678       5.72535640
O1      -1.74493617       8.75945002       5.72543165
O1       0.81870067       4.31897650       5.72536570
O1       3.47323810      11.86549458       5.72653729
O1       6.03691936       7.42506191       5.72664015
O1       8.60061250       2.98458090       5.72656037
O1      -1.65416264      11.86549487       5.72653489
O1       0.90951868       7.42506238       5.72663875
O1       3.47321049       2.98458353       5.72656260
O1      -6.78156126      11.86549305       5.72653242
O1      -4.21788027       7.42506160       5.72663695
O1      -1.65418813       2.98458141       5.72655972
Fe2       7.65853762      10.33902179       5.96573616
Fe2      10.22223180       5.89855437       5.96572979
Fe2      12.78594088       1.45809113       5.96574566
Fe2       2.53113668      10.33902191       5.96573518
Fe2       5.09483101       5.89855407       5.96572904
Fe2       7.65854030       1.45809115       5.96574483
Fe2      -2.59626284      10.33902189       5.96573622
Fe2      -0.03256922       5.89855449       5.96573018
Fe2       2.53114030       1.45809151       5.96574628
C        0.55649978       6.28908297      11.04440604
C        1.07812951       5.63724997       9.75332107
H        1.24360656       6.07293706      11.88041964
O        0.37519840       7.72136574      10.93246770
H       -0.42309785       5.85079460      11.28060785
C        2.15133096       6.48449112       9.04150382
C        3.36411173       6.85044054       9.93488607
O        1.50272631       7.65012254       8.46322661
H        2.53309864       5.89747701       8.19092086
C        4.66713251       7.09414153       9.13597628
H        3.55523959       5.98777075      10.59830737
O        3.11941483       7.97712149      10.80509781
C        4.52320132       8.16074411       8.03807322
O        5.09483101       5.89855407       8.46572904
H        5.42248259       7.42655910       9.87104027
H        5.51480509       8.54598590       7.76336705
O        3.71837141       9.27794080       8.45833847
H        4.08796440       7.68405119       7.14399094
H        1.26849559       8.08729834      11.14609122
H        0.92215000       7.98432514       9.19944729
H        3.34171792       8.76558475      10.24763715
H        5.56314384       5.33507423       9.10555339
H        2.79075786       8.97903698       8.28584952
O        0.01607002       5.33882264       8.83911367
H        1.52559376       4.66393393      10.02298783
H       -0.09326423       6.13015794       8.27589819
