40
Properties=species:S:1:pos:R:3 energy=-34953.24257765634 pbc="F F F"
Au      15.02038580      14.83776333      16.41453187
Au      17.29688558      11.34043988      14.36871857
Au      14.44859149      12.07145735      17.37862064
Au      18.08296773      15.32064107      17.17189761
Au      12.43018147      14.01536597      17.35581929
Au      11.25950033      14.87202411      15.01650289
Au      12.93561830      18.03783692      13.33823976
Au      15.22567974      19.13380483      14.55334411
Au      14.89343246      16.07641951      13.93513940
Au      14.25228738      13.84294931      19.47537606
Au      14.90877365      12.31282416      13.16402940
Au      12.83478163      14.16898970      12.78904337
Au      15.19652016      14.31617092      11.28412359
Au      16.81335659      14.18041232      14.42716312
Au      12.80862446      12.49358961      15.01346155
Au      14.72363699      10.40500060      15.20356528
Au      17.62078460      16.86503057      14.86864629
Au      19.60596034      14.72400053      14.77806265
Au      15.96241229      17.55527208      17.02020708
Au      18.98208406      16.21367206      12.54887497
Au      13.26629704      17.88321727      16.18686245
Au      16.86577079      10.64922323      17.06237046
Au      10.90076798      16.24645536      12.55381914
Au      15.32899727      18.04119689      11.85433243
Au      11.16516253      16.45790692      17.41266376
Au      10.69891576      17.69131531      14.96533926
Au      16.87239609      13.12545271      18.43754823
Au      15.56060939      16.46763839       9.48595908
Au      18.75405904      12.65641372      16.36663422
Au      16.46500168      15.85154870      19.28774490
Au      17.77677615      14.95592877      10.40260862
Au      14.46378317      15.91105881      21.23191331
Au      13.75364026      16.65590968      18.61303713
Au      13.19219286      16.33383522      10.97956393
Au      17.57732528      12.82661530      12.06903890
Au      17.80693976      17.80339195      10.47656819
Au      17.78461061      18.91475809      12.99668205
Au      17.71927438      19.48672718      15.83041150
C       14.69471937      21.15024004      14.58712781
O       14.23430108      22.19765994      14.70630064
