     161
 i =        1, E =     -8104.4956132509
 Fe         5.0938794100       11.8196869300        0.3885799900
 Fe         7.6575796300        7.3792284900        0.3885799900
 Fe        10.2212798400        2.9387700600        0.3885799900
 Fe        -0.0335205200       11.8196869300        0.3885799900
 Fe         2.5301797000        7.3792284900        0.3885799900
 Fe         5.0938799200        2.9387700600        0.3885799900
 Fe        -5.1609204400       11.8196869300        0.3885799900
 Fe        -2.5972202200        7.3792284900        0.3885799900
 Fe        -0.0335200000        2.9387700600        0.3885799900
  O         8.4519195100        8.9577468800        1.1642700400
  O        11.0156197300        4.5172884400        1.1642700400
  O        13.5793199500        0.0768300000        1.1642700400
  O         3.3245195900        8.9577468800        1.1642700400
  O         5.8882198100        4.5172884400        1.1642700400
  O         8.4519200300        0.0768300000        1.1642700400
  O        -1.8028803300        8.9577468800        1.1642700400
  O         0.7608198900        4.5172884400        1.1642700400
  O         3.3245201100        0.0768300000        1.1642700400
  O         8.4568493000       11.7183869300        1.1650400200
  O        11.0205495200        7.2779284900        1.1650400200
  O        13.5842497300        2.8374700500        1.1650400200
  O         3.3294493700       11.7183869300        1.1650400200
  O         5.8931495900        7.2779284900        1.1650400200
  O         8.4568498100        2.8374700500        1.1650400200
  O        -1.7979505500       11.7183869300        1.1650400200
  O         0.7657496700        7.2779284900        1.1650400200
  O         3.3294498900        2.8374700500        1.1650400200
  O         6.0627194200       10.3425368500        1.1660399400
  O         8.6264196400        5.9020784100        1.1660399400
  O        11.1901198600        1.4616199700        1.1660399400
  O         0.9353195000       10.3425368500        1.1660399400
  O         3.4990197200        5.9020784100        1.1660399400
  O         6.0627199400        1.4616199700        1.1660399400
  O        -4.1920804200       10.3425368500        1.1660399400
  O        -1.6283802000        5.9020784100        1.1660399400
  O         0.9353200200        1.4616199700        1.1660399400
 Fe         7.6576695000       13.2997167500        1.9292099500
 Fe        10.2213697200        8.8592583200        1.9292099500
 Fe        12.7850699400        4.4187998800        1.9292099500
 Fe         2.5302695800       13.2997167500        1.9292099500
 Fe         5.0939698000        8.8592583200        1.9292099500
 Fe         7.6576700200        4.4187998800        1.9292099500
 Fe        -2.5971303400       13.2997167500        1.9292099500
 Fe        -0.0334301200        8.8592583200        1.9292099500
 Fe         2.5302701000        4.4187998800        1.9292099500
 Fe         7.6573893600       10.3392168700        2.7128999200
 Fe        10.2210895800        5.8987584300        2.7128999200
 Fe        12.7847898000        1.4582999900        2.7128999200
 Fe         2.5299894400       10.3392168700        2.7128999200
 Fe         5.0936896600        5.8987584300        2.7128999200
 Fe         7.6573898800        1.4582999900        2.7128999200
 Fe        -2.5974104800       10.3392168700        2.7128999200
 Fe        -0.0337102600        5.8987584300        2.7128999200
 Fe         2.5299899600        1.4582999900        2.7128999200
  O         4.1326000235       13.3039622365        3.5018033386
  O         6.6979547381        8.8637256248        3.4982876779
  O         9.2586343517        4.4225177021        3.4996506749
  O        -0.9944679064       13.3038541656        3.5003221579
  O         1.5592208246        8.8772302158        3.4884969605
  O         4.1312705355        4.4199017758        3.5056494518
  O        -6.1225829591       13.3016124011        3.4985743083
  O        -3.5535353274        8.8603380428        3.5060549585
  O        -1.0079636419        4.4033717307        3.4644680121
  O         6.8602756348       11.9091067763        3.5020849916
  O         9.4232715430        7.4710161621        3.4995256297
  O        11.9895616516        3.0286690325        3.5089181864
  O         1.7329020709       11.9115004713        3.5010674795
  O         4.2947288561        7.4712530059        3.5001209846
  O         6.8613950154        3.0286764957        3.4997479981
  O        -3.3937115646       11.9099303313        3.5031118231
  O        -0.8398395675        7.4912240448        3.4692395685
  O         1.7259281394        3.0148160152        3.4860459471
  O         9.4150323239       10.2462639740        3.5022412612
  O        11.9746362264        5.8020927676        3.4977453871
  O        14.5433582352        1.3682728289        3.5072508421
  O         4.2871595126       10.2462818618        3.5026100906
  O         6.8535320688        5.8030106656        3.4993322328
  O         9.4148528592        1.3639060668        3.5028443531
  O        -0.8431724224       10.2479942305        3.5085615089
  O         1.7477819791        5.8038788658        3.4636362571
  O         4.2897534343        1.3631256589        3.5010645275
 Fe         5.0939558909       11.8186817784        4.4860480215
 Fe         7.6581844702        7.3771551201        4.4862846725
 Fe        10.2212069153        2.9394353436        4.4867645172
 Fe        -0.0325982928       11.8198576327        4.4864377875
 Fe         2.5087103656        7.3895546781        4.4631437344
 Fe         5.0962283158        2.9368293536        4.4877889981
 Fe        -5.1601862727       11.8194674484        4.4869710673
 Fe        -2.5853949299        7.3658210005        4.4916009722
 Fe        -0.0295194646        2.9546365079        4.4901303634
 Fe         7.6574326522       13.3000457645        4.8212082037
 Fe        10.2228924864        8.8588642237        4.8201942750
 Fe        12.7948376260        4.4276977203        4.8233483672
 Fe         2.5320812230       13.2996803512        4.8217204600
 Fe         5.0948208024        8.8584584672        4.8199364986
 Fe         7.6580061737        4.4198699893        4.8219956881
 Fe        -2.5969147925       13.2982557043        4.8223311278
 Fe        -0.0351463843        8.8573578467        4.8151965425
 Fe         2.5050536129        4.3913580778        4.7990915743
  O         5.8635631847       10.3891427221        5.7303242858
  O         8.4329571420        5.9468744835        5.7262283009
  O        10.9919288727        1.5072466986        5.7278399379
  O         0.7368205529       10.3915565343        5.7270878476
  O         3.3649242770        5.9203328468        5.5796201975
  O         5.8657003194        1.5053403958        5.7254545412
  O        -4.3894723110       10.3878944640        5.7253849273
  O        -1.8622940639        5.9484542933        5.7263283661
  O         0.7374623504        1.5033470686        5.7249358299
  O         5.9476974430       13.2014755332        5.7290838306
  O         8.5143828713        8.7625996226        5.7273880698
  O        11.0733547154        4.3191425917        5.7240146118
  O         0.8218681066       13.2027127592        5.7270009249
  O         3.3847047106        8.7620048209        5.7256296243
  O         5.9508792541        4.3192019311        5.7209509633
  O        -4.3076855695       13.2048663672        5.7256250642
  O        -1.7432095430        8.7682630537        5.7195128056
  O         0.8356067067        4.2919896321        5.7303599938
  O         3.4696557420       11.8670662297        5.7330879854
  O         6.0371613420        7.4318390370        5.7137100318
  O         8.5955630441        2.9853160345        5.7295266375
  O        -1.6575550169       11.8664942368        5.7281228896
  O         0.9024016546        7.4523864721        5.7062741622
  O         3.4753220448        2.9832794469        5.7316345014
  O        -6.7863998055       11.8667412263        5.7292584873
  O        -4.2248140805        7.4293387314        5.7261904457
  O        -1.6587144651        2.9827223755        5.7227737796
 Fe         7.6575707033       10.3380408687        5.9761766092
 Fe        10.2261956896        5.8985164769        5.9820053124
 Fe        12.7852915656        1.4586715557        5.9778524778
 Fe         2.5288843578       10.3380056880        5.9728810177
 Fe         5.1261207464        5.9018359074        6.0891596042
 Fe         7.6573396131        1.4579864069        5.9793407155
 Fe        -2.5972905830       10.3397221395        5.9865199480
 Fe        -0.0428542771        5.8911169599        5.9959856501
 Fe         2.5290893415        1.4608705781        5.9862621524
  C         3.2695506849        4.4902441682        9.2377741687
  C         3.8999794789        5.8806962755        9.2683946865
  H         2.3815199036        4.4710249851        9.8915024274
  O         4.2427139678        3.5019731812        9.6426511473
  H         2.9698196772        4.2358180014        8.2129134320
  C         2.9930807643        7.0242267596        8.8128660046
  C         1.7790854982        7.3652256557        9.6959730695
  O         2.3741858377        6.5518328218        7.6232283435
  H         3.6238592417        7.9143109447        8.5957313270
  C         2.1429024889        7.9000902232       11.0889027279
  H         1.1618851361        6.4588727575        9.8058232716
  O         0.9655990833        8.3133963690        8.9812376995
  C         3.2327646915        8.9761930008       11.0808389264
  O         2.5521085574        6.7864576171       11.9073444202
  H         1.1976441001        8.3405941038       11.4499235586
  H         3.3829500166        9.3270021044       12.1187255256
  O         2.7852890110       10.0611834900       10.2420542824
  H         4.1810149897        8.5440814329       10.7213545731
  H         4.4018383581        3.6182210319       10.5972271963
  H         1.7226903212        7.2425061899        7.2595562236
  H         1.4346059360        9.1723047786        9.0462544178
  H         2.4451792683        7.0670468757       12.8320489551
  H         3.5357060563       10.6584417500       10.0798078768
  O         5.0805670934        5.8742400545        8.4344296920
  H         4.1803514367        6.1297594889       10.3095860347
  H         5.5147604207        5.0075185222        8.5900888731
     161
 i =        2, E =     -8104.4850126189
 Fe         5.0938794100       11.8196869300        0.3885799900
 Fe         7.6575796300        7.3792284900        0.3885799900
 Fe        10.2212798400        2.9387700600        0.3885799900
 Fe        -0.0335205200       11.8196869300        0.3885799900
 Fe         2.5301797000        7.3792284900        0.3885799900
 Fe         5.0938799200        2.9387700600        0.3885799900
 Fe        -5.1609204400       11.8196869300        0.3885799900
 Fe        -2.5972202200        7.3792284900        0.3885799900
 Fe        -0.0335200000        2.9387700600        0.3885799900
  O         8.4519195100        8.9577468800        1.1642700400
  O        11.0156197300        4.5172884400        1.1642700400
  O        13.5793199500        0.0768300000        1.1642700400
  O         3.3245195900        8.9577468800        1.1642700400
  O         5.8882198100        4.5172884400        1.1642700400
  O         8.4519200300        0.0768300000        1.1642700400
  O        -1.8028803300        8.9577468800        1.1642700400
  O         0.7608198900        4.5172884400        1.1642700400
  O         3.3245201100        0.0768300000        1.1642700400
  O         8.4568493000       11.7183869300        1.1650400200
  O        11.0205495200        7.2779284900        1.1650400200
  O        13.5842497300        2.8374700500        1.1650400200
  O         3.3294493700       11.7183869300        1.1650400200
  O         5.8931495900        7.2779284900        1.1650400200
  O         8.4568498100        2.8374700500        1.1650400200
  O        -1.7979505500       11.7183869300        1.1650400200
  O         0.7657496700        7.2779284900        1.1650400200
  O         3.3294498900        2.8374700500        1.1650400200
  O         6.0627194200       10.3425368500        1.1660399400
  O         8.6264196400        5.9020784100        1.1660399400
  O        11.1901198600        1.4616199700        1.1660399400
  O         0.9353195000       10.3425368500        1.1660399400
  O         3.4990197200        5.9020784100        1.1660399400
  O         6.0627199400        1.4616199700        1.1660399400
  O        -4.1920804200       10.3425368500        1.1660399400
  O        -1.6283802000        5.9020784100        1.1660399400
  O         0.9353200200        1.4616199700        1.1660399400
 Fe         7.6576695000       13.2997167500        1.9292099500
 Fe        10.2213697200        8.8592583200        1.9292099500
 Fe        12.7850699400        4.4187998800        1.9292099500
 Fe         2.5302695800       13.2997167500        1.9292099500
 Fe         5.0939698000        8.8592583200        1.9292099500
 Fe         7.6576700200        4.4187998800        1.9292099500
 Fe        -2.5971303400       13.2997167500        1.9292099500
 Fe        -0.0334301200        8.8592583200        1.9292099500
 Fe         2.5302701000        4.4187998800        1.9292099500
 Fe         7.6573893600       10.3392168700        2.7128999200
 Fe        10.2210895800        5.8987584300        2.7128999200
 Fe        12.7847898000        1.4582999900        2.7128999200
 Fe         2.5299894400       10.3392168700        2.7128999200
 Fe         5.0936896600        5.8987584300        2.7128999200
 Fe         7.6573898800        1.4582999900        2.7128999200
 Fe        -2.5974104800       10.3392168700        2.7128999200
 Fe        -0.0337102600        5.8987584300        2.7128999200
 Fe         2.5299899600        1.4582999900        2.7128999200
  O         4.1352487301       13.3022796990        3.5054501591
  O         6.7012520018        8.8650813734        3.4982057097
  O         9.2604845306        4.4191750272        3.5006316495
  O        -0.9926158955       13.3007733083        3.4990590232
  O         1.6096212462        8.9011086419        3.5694336079
  O         4.1907754737        4.4156147990        3.5650256070
  O        -6.1214529337       13.2959776713        3.4958759482
  O        -3.5537970179        8.8595403241        3.5030874111
  O        -0.9948219978        4.4076890730        3.4876588714
  O         6.8567022957       11.9098667682        3.5026489881
  O         9.4177782699        7.4724080612        3.4980315912
  O        11.9819883031        3.0099707942        3.5356664407
  O         1.7315336239       11.9125646435        3.5018238741
  O         4.2988092061        7.4938680520        3.4652556761
  O         6.8606916343        3.0259487986        3.4989283427
  O        -3.3953091569       11.9087045812        3.5057194623
  O        -0.8481755062        7.4406029365        3.5498812682
  O         1.7148049457        2.9447518493        3.5801203079
  O         9.4171186066       10.2496121388        3.5021667914
  O        11.9606968287        5.8117680616        3.5203553024
  O        14.5432389352        1.3641070810        3.5046305173
  O         4.2872607859       10.2505259011        3.5066835048
  O         6.8622157795        5.8039856525        3.4893590115
  O         9.4182893421        1.3666623516        3.5020658095
  O        -0.8819165403       10.2894363621        3.5863323182
  O         1.6920146421        5.8390537867        3.5491050179
  O         4.2936626166        1.3671430765        3.5012162903
 Fe         5.0946089232       11.8180751528        4.4973765388
 Fe         7.6533061156        7.3748397901        4.4966659894
 Fe        10.2144976443        2.9401845079        4.5028463914
 Fe        -0.0234342452       11.8411944575        4.5115716545
 Fe         2.5413975252        7.3925232812        4.4719722326
 Fe         5.1113830417        2.9265931182        4.5181143219
 Fe        -5.1603072178       11.8197241655        4.4970610494
 Fe        -2.6044222209        7.3678328910        4.5164298698
 Fe        -0.0530835077        2.9455719477        4.5166933525
 Fe         7.6576166208       13.3021405025        4.8170467185
 Fe        10.2246987045        8.8597570774        4.8140314608
 Fe        12.7937936997        4.4299358611        4.8281409025
 Fe         2.5342433238       13.3006262588        4.8175476918
 Fe         5.0958758978        8.8502967755        4.8142731349
 Fe         7.6528092936        4.4219165394        4.8184079396
 Fe        -2.5979325422       13.2968352957        4.8181731971
 Fe        -0.0405039925        8.8636956841        4.8367735373
 Fe         2.5054300892        4.3772222083        4.8095019767
  O         5.8604013126       10.3832553942        5.7371765931
  O         8.4348180870        5.9417139207        5.7298277611
  O        10.9916572031        1.5020893397        5.7342190460
  O         0.7379812884       10.3964191454        5.7350504378
  O         3.4371490668        5.8972670971        5.4411386511
  O         5.8684109260        1.4912846117        5.7321527041
  O        -4.3884332444       10.3849960251        5.7289580994
  O        -1.8773810970        5.9471746696        5.7207920621
  O         0.7405909247        1.4941638030        5.7324744331
  O         5.9503829440       13.2034953004        5.7353794676
  O         8.5207115896        8.7660545302        5.7294241865
  O        11.0724510180        4.3195639634        5.7279467832
  O         0.8325476221       13.2129062219        5.7372540274
  O         3.3898985641        8.7721181558        5.7380419528
  O         5.9554366330        4.3304631699        5.7242277034
  O        -4.3058169645       13.2067543849        5.7270655335
  O        -1.7470203136        8.7692539627        5.7240578453
  O         0.8385037190        4.2751997690        5.7203932746
  O         3.4670700076       11.8710481563        5.7431335638
  O         6.0347032125        7.4315178624        5.7008836295
  O         8.5885634344        2.9879967597        5.7354613224
  O        -1.6620950053       11.8684780181        5.7332109823
  O         0.9035708915        7.4597075624        5.6854963824
  O         3.4769019769        2.9778482508        5.7425452011
  O        -6.7925683069       11.8686354723        5.7332345403
  O        -4.2397667786        7.4341323791        5.7368095812
  O        -1.6699999665        2.9880222446        5.7357715804
 Fe         7.6559041507       10.3363032566        5.9838688614
 Fe        10.2257580706        5.8969356558        5.9933613781
 Fe        12.7844718680        1.4589778437        5.9834660987
 Fe         2.5270695267       10.3422893690        5.9779346442
 Fe         5.1465284280        5.9083165275        6.2340272964
 Fe         7.6560466878        1.4599574571        5.9904459068
 Fe        -2.5973873596       10.3396295309        5.9991402512
 Fe        -0.0488781285        5.8805164447        6.0199907344
 Fe         2.5306130476        1.4597491904        6.0032904899
  C         3.2681352864        4.4987539769        9.2336050157
  C         3.9012673247        5.8886398732        9.2786978151
  H         2.3813125320        4.4704239194        9.8868051927
  O         4.2441485541        3.5123148876        9.6381537702
  H         2.9727626057        4.2321389354        8.2091399346
  C         2.9769342806        7.0190323477        8.8398971203
  C         1.7927472075        7.3880894686        9.7302560306
  O         2.2954318206        6.5027879268        7.7205933133
  H         3.6094105538        7.9092943258        8.6019854418
  C         2.1242235753        7.9173873992       11.1174509589
  H         1.1755905185        6.4748235963        9.8082664476
  O         0.9623795972        8.3135523225        9.0142744205
  C         3.2298101532        8.9763585562       11.0845502968
  O         2.5626691976        6.7954432379       11.9109512818
  H         1.1828652261        8.3545434760       11.4812466336
  H         3.3879390756        9.3301553667       12.1195711525
  O         2.7871183185       10.0626815730       10.2471856439
  H         4.1786965450        8.5471851136       10.7202868190
  H         4.3990410073        3.6155994118       10.5951405286
  H         1.7608663804        7.2864019972        7.2073813170
  H         1.4271420376        9.1763173860        9.0437476236
  H         2.4467545757        7.0633409242       12.8369717634
  H         3.5364808594       10.6589967976       10.0731147370
  O         5.0626811783        5.8500884766        8.3856699958
  H         4.2304651210        6.1108838620       10.3111911638
  H         5.5245662131        4.9991006781        8.5962793338
     161
 i =        3, E =     -8104.5061343081
 Fe         5.0938794100       11.8196869300        0.3885799900
 Fe         7.6575796300        7.3792284900        0.3885799900
 Fe        10.2212798400        2.9387700600        0.3885799900
 Fe        -0.0335205200       11.8196869300        0.3885799900
 Fe         2.5301797000        7.3792284900        0.3885799900
 Fe         5.0938799200        2.9387700600        0.3885799900
 Fe        -5.1609204400       11.8196869300        0.3885799900
 Fe        -2.5972202200        7.3792284900        0.3885799900
 Fe        -0.0335200000        2.9387700600        0.3885799900
  O         8.4519195100        8.9577468800        1.1642700400
  O        11.0156197300        4.5172884400        1.1642700400
  O        13.5793199500        0.0768300000        1.1642700400
  O         3.3245195900        8.9577468800        1.1642700400
  O         5.8882198100        4.5172884400        1.1642700400
  O         8.4519200300        0.0768300000        1.1642700400
  O        -1.8028803300        8.9577468800        1.1642700400
  O         0.7608198900        4.5172884400        1.1642700400
  O         3.3245201100        0.0768300000        1.1642700400
  O         8.4568493000       11.7183869300        1.1650400200
  O        11.0205495200        7.2779284900        1.1650400200
  O        13.5842497300        2.8374700500        1.1650400200
  O         3.3294493700       11.7183869300        1.1650400200
  O         5.8931495900        7.2779284900        1.1650400200
  O         8.4568498100        2.8374700500        1.1650400200
  O        -1.7979505500       11.7183869300        1.1650400200
  O         0.7657496700        7.2779284900        1.1650400200
  O         3.3294498900        2.8374700500        1.1650400200
  O         6.0627194200       10.3425368500        1.1660399400
  O         8.6264196400        5.9020784100        1.1660399400
  O        11.1901198600        1.4616199700        1.1660399400
  O         0.9353195000       10.3425368500        1.1660399400
  O         3.4990197200        5.9020784100        1.1660399400
  O         6.0627199400        1.4616199700        1.1660399400
  O        -4.1920804200       10.3425368500        1.1660399400
  O        -1.6283802000        5.9020784100        1.1660399400
  O         0.9353200200        1.4616199700        1.1660399400
 Fe         7.6576695000       13.2997167500        1.9292099500
 Fe        10.2213697200        8.8592583200        1.9292099500
 Fe        12.7850699400        4.4187998800        1.9292099500
 Fe         2.5302695800       13.2997167500        1.9292099500
 Fe         5.0939698000        8.8592583200        1.9292099500
 Fe         7.6576700200        4.4187998800        1.9292099500
 Fe        -2.5971303400       13.2997167500        1.9292099500
 Fe        -0.0334301200        8.8592583200        1.9292099500
 Fe         2.5302701000        4.4187998800        1.9292099500
 Fe         7.6573893600       10.3392168700        2.7128999200
 Fe        10.2210895800        5.8987584300        2.7128999200
 Fe        12.7847898000        1.4582999900        2.7128999200
 Fe         2.5299894400       10.3392168700        2.7128999200
 Fe         5.0936896600        5.8987584300        2.7128999200
 Fe         7.6573898800        1.4582999900        2.7128999200
 Fe        -2.5974104800       10.3392168700        2.7128999200
 Fe        -0.0337102600        5.8987584300        2.7128999200
 Fe         2.5299899600        1.4582999900        2.7128999200
  O         4.1336989772       13.3019796111        3.5017269712
  O         6.7178128734        8.8762471877        3.5286582530
  O         9.2606090233        4.4207654028        3.5017230344
  O        -0.9941770777       13.3034549413        3.4992677938
  O         1.6019336089        8.8849663538        3.5549680551
  O         4.1720089395        4.3869381013        3.4961120046
  O        -6.1238253978       13.2962093252        3.4925213910
  O        -3.5595225962        8.8615096167        3.4980095494
  O        -0.9957444496        4.4149760658        3.5014441781
  O         6.8590955831       11.9112214510        3.5004589444
  O         9.4203501425        7.4725486286        3.4974919956
  O        11.9836152598        3.0158466853        3.5219856205
  O         1.7320520242       11.9137200936        3.5021330440
  O         4.2988152324        7.4884371075        3.4768135836
  O         6.8639512622        3.0220883512        3.5047187831
  O        -3.3970977591       11.9118749448        3.4992810690
  O        -0.8398810145        7.4498814014        3.5417757537
  O         1.7282072547        2.9734331568        3.5665881081
  O         9.4180793412       10.2472768965        3.4991264733
  O        11.9676075582        5.8079160811        3.5135487323
  O        14.5406845187        1.3580386854        3.5031490064
  O         4.2716230380       10.2607142670        3.5376391235
  O         6.8659624319        5.8027817099        3.4819512372
  O         9.4182256610        1.3638241892        3.5006929414
  O        -0.8672535418       10.2716543083        3.5605099639
  O         1.6896829965        5.8220614285        3.5356296552
  O         4.2949227121        1.3682873354        3.5022264040
 Fe         5.0993348474       11.8247373466        4.4963081264
 Fe         7.6540362197        7.3674016155        4.4944369142
 Fe        10.2176848635        2.9397867857        4.4938122267
 Fe        -0.0309541960       11.8326412879        4.5015155299
 Fe         2.5450821360        7.3737556680        4.4733141657
 Fe         5.1043799289        2.9457967409        4.5104704822
 Fe        -5.1613809592       11.8200645235        4.4894423597
 Fe        -2.6036253432        7.3728689335        4.5034178230
 Fe        -0.0448663193        2.9361555622        4.5052172777
 Fe         7.6600055542       13.3011649734        4.8160523277
 Fe        10.2233193116        8.8597873621        4.8137656757
 Fe        12.7860041006        4.4236859446        4.8297002434
 Fe         2.5349665020       13.3015871264        4.8174173322
 Fe         5.0964509589        8.8455323414        4.8281431331
 Fe         7.6482781088        4.4230628934        4.8171407633
 Fe        -2.5984295218       13.2971444331        4.8178845275
 Fe        -0.0394526811        8.8644872974        4.8481260450
 Fe         2.5324090242        4.3988152558        4.8162707211
  O         5.8605003500       10.3871162664        5.7386589802
  O         8.4304780550        5.9409146011        5.7349979056
  O        10.9887741555        1.5048543806        5.7387606070
  O         0.7372063317       10.4005035742        5.7471877976
  O         3.4208476608        5.9175554054        5.4970883561
  O         5.8663447438        1.5005531797        5.7292524006
  O        -4.3902827881       10.3877768010        5.7298369765
  O        -1.8607626030        5.9461641391        5.7290303937
  O         0.7338354079        1.4935399043        5.7435907759
  O         5.9524794584       13.2047154167        5.7384760594
  O         8.5175873314        8.7624099240        5.7298333241
  O        11.0687484431        4.3173439721        5.7350040848
  O         0.8286770240       13.2077114319        5.7358094992
  O         3.3858876134        8.7596591268        5.7488411642
  O         5.9588224625        4.3327846690        5.7434467170
  O        -4.3072336264       13.2024721913        5.7285952267
  O        -1.7512160624        8.7599617700        5.7389103314
  O         0.8361587009        4.2885694404        5.7226533283
  O         3.4705046573       11.8723433301        5.7444660601
  O         6.0367747411        7.4217601270        5.7105086976
  O         8.5926401116        2.9898401925        5.7351456889
  O        -1.6592452465       11.8744028899        5.7440436621
  O         0.9142329703        7.4530689370        5.7216845144
  O         3.4757110213        2.9812776596        5.7543284176
  O        -6.7894713908       11.8680725912        5.7340156920
  O        -4.2331228902        7.4335712971        5.7382097787
  O        -1.6613140968        2.9901643515        5.7422181465
 Fe         7.6570775657       10.3360889011        5.9756379532
 Fe        10.2228488978        5.8987085236        5.9801550116
 Fe        12.7836811807        1.4600252334        5.9741298869
 Fe         2.5310124712       10.3408735415        5.9666961958
 Fe         5.1284114843        5.9061105915        6.1779611142
 Fe         7.6569248078        1.4607263359        5.9830684621
 Fe        -2.5962582554       10.3418552123        5.9806594661
 Fe        -0.0422283579        5.8842792310        6.0009459144
 Fe         2.5284317765        1.4578952824        5.9847065196
  C         3.2653584878        4.4978193327        9.2437902104
  C         3.8936330029        5.8885466160        9.2766899882
  H         2.3740837335        4.4684241794        9.8892868475
  O         4.2491994768        3.5146255665        9.6353518847
  H         2.9779088614        4.2390180885        8.2148036934
  C         2.9527422637        6.9871639696        8.7976819155
  C         1.8034558010        7.3862299562        9.7258960050
  O         2.3313150268        6.5371964092        7.6345418770
  H         3.5835349711        7.8847696191        8.5979126576
  C         2.1251706501        7.9228830658       11.1109754510
  H         1.1810980935        6.4812314490        9.8248849650
  O         0.9655272002        8.3166638863        9.0246396195
  C         3.2265103630        8.9860042123       11.0950849466
  O         2.5556693810        6.8076739967       11.9171760482
  H         1.1901418692        8.3562478147       11.5011971697
  H         3.3964174361        9.3373914349       12.1279133854
  O         2.7861289415       10.0631008222       10.2449921163
  H         4.1681554307        8.5453023561       10.7224455592
  H         4.3960666536        3.6153009505       10.5938702920
  H         1.7481363274        7.2544852925        7.2325100899
  H         1.4256367132        9.1820837937        9.0468765419
  H         2.4505593641        7.0560655545       12.8499464848
  H         3.5367222620       10.6579308268       10.0727590667
  O         5.0681026475        5.8570827115        8.3990479439
  H         4.2465322250        6.1037927186       10.3047470871
  H         5.5138758434        4.9997145887        8.6006224391
     161
 i =        4, E =     -8104.5131128912
 Fe         5.0938794100       11.8196869300        0.3885799900
 Fe         7.6575796300        7.3792284900        0.3885799900
 Fe        10.2212798400        2.9387700600        0.3885799900
 Fe        -0.0335205200       11.8196869300        0.3885799900
 Fe         2.5301797000        7.3792284900        0.3885799900
 Fe         5.0938799200        2.9387700600        0.3885799900
 Fe        -5.1609204400       11.8196869300        0.3885799900
 Fe        -2.5972202200        7.3792284900        0.3885799900
 Fe        -0.0335200000        2.9387700600        0.3885799900
  O         8.4519195100        8.9577468800        1.1642700400
  O        11.0156197300        4.5172884400        1.1642700400
  O        13.5793199500        0.0768300000        1.1642700400
  O         3.3245195900        8.9577468800        1.1642700400
  O         5.8882198100        4.5172884400        1.1642700400
  O         8.4519200300        0.0768300000        1.1642700400
  O        -1.8028803300        8.9577468800        1.1642700400
  O         0.7608198900        4.5172884400        1.1642700400
  O         3.3245201100        0.0768300000        1.1642700400
  O         8.4568493000       11.7183869300        1.1650400200
  O        11.0205495200        7.2779284900        1.1650400200
  O        13.5842497300        2.8374700500        1.1650400200
  O         3.3294493700       11.7183869300        1.1650400200
  O         5.8931495900        7.2779284900        1.1650400200
  O         8.4568498100        2.8374700500        1.1650400200
  O        -1.7979505500       11.7183869300        1.1650400200
  O         0.7657496700        7.2779284900        1.1650400200
  O         3.3294498900        2.8374700500        1.1650400200
  O         6.0627194200       10.3425368500        1.1660399400
  O         8.6264196400        5.9020784100        1.1660399400
  O        11.1901198600        1.4616199700        1.1660399400
  O         0.9353195000       10.3425368500        1.1660399400
  O         3.4990197200        5.9020784100        1.1660399400
  O         6.0627199400        1.4616199700        1.1660399400
  O        -4.1920804200       10.3425368500        1.1660399400
  O        -1.6283802000        5.9020784100        1.1660399400
  O         0.9353200200        1.4616199700        1.1660399400
 Fe         7.6576695000       13.2997167500        1.9292099500
 Fe        10.2213697200        8.8592583200        1.9292099500
 Fe        12.7850699400        4.4187998800        1.9292099500
 Fe         2.5302695800       13.2997167500        1.9292099500
 Fe         5.0939698000        8.8592583200        1.9292099500
 Fe         7.6576700200        4.4187998800        1.9292099500
 Fe        -2.5971303400       13.2997167500        1.9292099500
 Fe        -0.0334301200        8.8592583200        1.9292099500
 Fe         2.5302701000        4.4187998800        1.9292099500
 Fe         7.6573893600       10.3392168700        2.7128999200
 Fe        10.2210895800        5.8987584300        2.7128999200
 Fe        12.7847898000        1.4582999900        2.7128999200
 Fe         2.5299894400       10.3392168700        2.7128999200
 Fe         5.0936896600        5.8987584300        2.7128999200
 Fe         7.6573898800        1.4582999900        2.7128999200
 Fe        -2.5974104800       10.3392168700        2.7128999200
 Fe        -0.0337102600        5.8987584300        2.7128999200
 Fe         2.5299899600        1.4582999900        2.7128999200
  O         4.1335145088       13.3036576952        3.5018806150
  O         6.7029798876        8.8746924009        3.5101248949
  O         9.2645246751        4.4236956423        3.5057287396
  O        -0.9952849879       13.3046486408        3.4984207983
  O         1.5827569401        8.8686428927        3.5298465408
  O         4.1425483036        4.3679866456        3.4310733383
  O        -6.1238851133       13.2985038321        3.4959124456
  O        -3.5615971061        8.8650227061        3.4975757269
  O        -0.9984377097        4.4234132509        3.5128129274
  O         6.8591572770       11.9099348010        3.5033244976
  O         9.4254894174        7.4683094871        3.5024480414
  O        11.9867216798        3.0222180043        3.5093900095
  O         1.7324130816       11.9135428292        3.5023852266
  O         4.3054621192        7.5181865435        3.4397671672
  O         6.8684691666        3.0196362098        3.5115505624
  O        -3.3961981339       11.9140696982        3.4962757419
  O        -0.8259829967        7.4630375405        3.5313235022
  O         1.7349356704        3.0045916686        3.5356465359
  O         9.4189209645       10.2473382156        3.4977945936
  O        11.9760541422        5.8011143763        3.5064685740
  O        14.5367621591        1.3567319065        3.5073850600
  O         4.2798578757       10.2518557881        3.5213900913
  O         6.8653359304        5.8017648119        3.4844996982
  O         9.4186763873        1.3612897949        3.4993375469
  O        -0.8502904151       10.2508648960        3.5297656180
  O         1.6950789745        5.8061207681        3.5151510484
  O         4.2900951000        1.3619661117        3.5035892668
 Fe         5.0946761689       11.8160173433        4.4890384434
 Fe         7.6480697864        7.3755038894        4.4844113787
 Fe        10.2199551681        2.9392819182        4.4868530969
 Fe        -0.0377472513       11.8236934705        4.4891448469
 Fe         2.5626232936        7.3637963730        4.4616102944
 Fe         5.0933538415        2.9617136666        4.4892458535
 Fe        -5.1611298668       11.8195655152        4.4853539880
 Fe        -2.5998499735        7.3773172248        4.4852131931
 Fe        -0.0333323731        2.9312894289        4.4904788415
 Fe         7.6613591975       13.2994857333        4.8188474172
 Fe        10.2206069720        8.8595077365        4.8143974400
 Fe        12.7795509365        4.4152917674        4.8331559366
 Fe         2.5343414893       13.3013159753        4.8179037275
 Fe         5.0962622441        8.8444010593        4.8352206597
 Fe         7.6459055440        4.4229681909        4.8194209990
 Fe        -2.5978822016       13.3022632780        4.8177751960
 Fe        -0.0390646367        8.8694946395        4.8618586209
 Fe         2.5514151891        4.4109390720        4.8178380931
  O         5.8595178005       10.3909404991        5.7483324636
  O         8.4246730280        5.9482442272        5.7341990758
  O        10.9878511508        1.5070580596        5.7412307063
  O         0.7358460882       10.4052861330        5.7621920712
  O         3.4163370317        5.9333375471        5.5352132531
  O         5.8641679432        1.5146849444        5.7261282047
  O        -4.3888243094       10.3888265745        5.7282796485
  O        -1.8385134961        5.9452297677        5.7379496534
  O         0.7304518089        1.4959028280        5.7511976234
  O         5.9468714263       13.2020045999        5.7344963079
  O         8.5168220863        8.7578921286        5.7359765717
  O        11.0669967059        4.3170153502        5.7421423882
  O         0.8226132348       13.2031566271        5.7319074314
  O         3.3850505755        8.7440244811        5.7687258327
  O         5.9532745455        4.3386564656        5.7483628002
  O        -4.3087989980       13.2004091778        5.7281826640
  O        -1.7569461479        8.7515212092        5.7527673790
  O         0.8302338375        4.3075289194        5.7301306527
  O         3.4729651221       11.8766820062        5.7519788277
  O         6.0343767395        7.4100725652        5.7164804625
  O         8.5976253880        2.9894337645        5.7365939310
  O        -1.6585146708       11.8794194599        5.7485255282
  O         0.9217957619        7.4372209068        5.7442691284
  O         3.4801064392        2.9891183837        5.7680433153
  O        -6.7865020844       11.8650795493        5.7342705227
  O        -4.2245372946        7.4295576149        5.7352994878
  O        -1.6498356012        2.9891468183        5.7471406594
 Fe         7.6577032973       10.3338556187        5.9716792418
 Fe        10.2180231578        5.9003237036        5.9762522515
 Fe        12.7832179446        1.4602443087        5.9743256932
 Fe         2.5368508786       10.3390114488        5.9516039043
 Fe         5.1121035199        5.9057808139        6.1945250811
 Fe         7.6569140496        1.4612552786        5.9781916049
 Fe        -2.5944897018       10.3448541068        5.9754176732
 Fe        -0.0371051329        5.8860925837        5.9628195077
 Fe         2.5302679108        1.4594388453        5.9697731116
  C         3.2640614487        4.4909035035        9.2477565322
  C         3.8792798456        5.8842048326        9.2591122757
  H         2.3716109629        4.4613430025        9.8923904082
  O         4.2527534774        3.5137715130        9.6379630130
  H         2.9777307890        4.2446997270        8.2161467805
  C         2.9406359334        6.9959549461        8.7849876222
  C         1.7886336487        7.3814657210        9.7301147059
  O         2.3282039767        6.5067826029        7.6260014232
  H         3.5777138559        7.8860645521        8.5839250188
  C         2.1362474675        7.9171125245       11.1130552766
  H         1.1702674931        6.4798951160        9.8571510246
  O         0.9606630349        8.3236556562        9.0309362011
  C         3.2237643450        8.9945217902       11.1015505499
  O         2.5600236754        6.8059018894       11.9293194377
  H         1.2032383832        8.3570934311       11.5113185630
  H         3.4036606468        9.3504869212       12.1318937167
  O         2.7857760571       10.0719091965       10.2514058018
  H         4.1593017256        8.5432260442       10.7270697420
  H         4.3954457747        3.6106602779       10.5969508494
  H         1.7867190007        7.2495227390        7.2255565532
  H         1.4253296739        9.1862676703        9.0534795810
  H         2.4528205513        7.0542182649       12.8622066298
  H         3.5391367012       10.6599924608       10.0684861811
  O         5.0679725756        5.8583585411        8.3944914392
  H         4.2485439263        6.1069252497       10.2797392069
  H         5.5040889589        4.9991938307        8.6034005154
     161
 i =        5, E =     -8104.5143822323
 Fe         5.0938794100       11.8196869300        0.3885799900
 Fe         7.6575796300        7.3792284900        0.3885799900
 Fe        10.2212798400        2.9387700600        0.3885799900
 Fe        -0.0335205200       11.8196869300        0.3885799900
 Fe         2.5301797000        7.3792284900        0.3885799900
 Fe         5.0938799200        2.9387700600        0.3885799900
 Fe        -5.1609204400       11.8196869300        0.3885799900
 Fe        -2.5972202200        7.3792284900        0.3885799900
 Fe        -0.0335200000        2.9387700600        0.3885799900
  O         8.4519195100        8.9577468800        1.1642700400
  O        11.0156197300        4.5172884400        1.1642700400
  O        13.5793199500        0.0768300000        1.1642700400
  O         3.3245195900        8.9577468800        1.1642700400
  O         5.8882198100        4.5172884400        1.1642700400
  O         8.4519200300        0.0768300000        1.1642700400
  O        -1.8028803300        8.9577468800        1.1642700400
  O         0.7608198900        4.5172884400        1.1642700400
  O         3.3245201100        0.0768300000        1.1642700400
  O         8.4568493000       11.7183869300        1.1650400200
  O        11.0205495200        7.2779284900        1.1650400200
  O        13.5842497300        2.8374700500        1.1650400200
  O         3.3294493700       11.7183869300        1.1650400200
  O         5.8931495900        7.2779284900        1.1650400200
  O         8.4568498100        2.8374700500        1.1650400200
  O        -1.7979505500       11.7183869300        1.1650400200
  O         0.7657496700        7.2779284900        1.1650400200
  O         3.3294498900        2.8374700500        1.1650400200
  O         6.0627194200       10.3425368500        1.1660399400
  O         8.6264196400        5.9020784100        1.1660399400
  O        11.1901198600        1.4616199700        1.1660399400
  O         0.9353195000       10.3425368500        1.1660399400
  O         3.4990197200        5.9020784100        1.1660399400
  O         6.0627199400        1.4616199700        1.1660399400
  O        -4.1920804200       10.3425368500        1.1660399400
  O        -1.6283802000        5.9020784100        1.1660399400
  O         0.9353200200        1.4616199700        1.1660399400
 Fe         7.6576695000       13.2997167500        1.9292099500
 Fe        10.2213697200        8.8592583200        1.9292099500
 Fe        12.7850699400        4.4187998800        1.9292099500
 Fe         2.5302695800       13.2997167500        1.9292099500
 Fe         5.0939698000        8.8592583200        1.9292099500
 Fe         7.6576700200        4.4187998800        1.9292099500
 Fe        -2.5971303400       13.2997167500        1.9292099500
 Fe        -0.0334301200        8.8592583200        1.9292099500
 Fe         2.5302701000        4.4187998800        1.9292099500
 Fe         7.6573893600       10.3392168700        2.7128999200
 Fe        10.2210895800        5.8987584300        2.7128999200
 Fe        12.7847898000        1.4582999900        2.7128999200
 Fe         2.5299894400       10.3392168700        2.7128999200
 Fe         5.0936896600        5.8987584300        2.7128999200
 Fe         7.6573898800        1.4582999900        2.7128999200
 Fe        -2.5974104800       10.3392168700        2.7128999200
 Fe        -0.0337102600        5.8987584300        2.7128999200
 Fe         2.5299899600        1.4582999900        2.7128999200
  O         4.1336853557       13.3051624780        3.5036943570
  O         6.7220903436        8.8851556174        3.5459287710
  O         9.2669853458        4.4247664282        3.5069384983
  O        -0.9938632240       13.3029715733        3.4988627256
  O         1.5718829900        8.8675441845        3.5170796267
  O         4.1268210892        4.3658214816        3.4093531657
  O        -6.1246521324       13.3025170619        3.5010994381
  O        -3.5585446829        8.8649653688        3.4996437174
  O        -0.9988253151        4.4281311579        3.5188834608
  O         6.8601678086       11.9089620528        3.5045784542
  O         9.4269401493        7.4657031954        3.5056320854
  O        11.9887217046        3.0255009285        3.5066418350
  O         1.7337072690       11.9099033501        3.5071883325
  O         4.3076294942        7.5040084672        3.4674438316
  O         6.8707929648        3.0215980186        3.5125163609
  O        -3.3933679005       11.9123243129        3.5000042074
  O        -0.8204842518        7.4661434763        3.5288897715
  O         1.7326774170        3.0180623297        3.5170533180
  O         9.4177741294       10.2471957922        3.5005019994
  O        11.9818549485        5.7983833877        3.5048792995
  O        14.5380558095        1.3599102880        3.5089189262
  O         4.2592907455       10.2650966960        3.5606133737
  O         6.8646047984        5.7977045024        3.4829543514
  O         9.4192849200        1.3611199402        3.4996950973
  O        -0.8436575539       10.2414604584        3.5188820403
  O         1.6988353725        5.8003110308        3.5033304170
  O         4.2839687417        1.3599563230        3.5081742086
 Fe         5.0990375837       11.8219152943        4.4956188519
 Fe         7.6487846268        7.3667274622        4.4905116404
 Fe        10.2184482126        2.9405159745        4.4877750545
 Fe        -0.0396340595       11.8208428365        4.4879566909
 Fe         2.5582632769        7.3632384266        4.4548773061
 Fe         5.0901586642        2.9703942941        4.4798514668
 Fe        -5.1610458316       11.8197908845        4.4860620674
 Fe        -2.5974015593        7.3792067109        4.4834622222
 Fe        -0.0282740093        2.9315582546        4.4884485192
 Fe         7.6616917519       13.2976437927        4.8207185656
 Fe        10.2190829428        8.8583763569        4.8145680152
 Fe        12.7780911312        4.4108257501        4.8380203202
 Fe         2.5336436007       13.3014551167        4.8185575672
 Fe         5.0963779736        8.8426100407        4.8577357673
 Fe         7.6434656172        4.4233628383        4.8203428172
 Fe        -2.5975133988       13.3080418127        4.8178881896
 Fe        -0.0375741950        8.8713074349        4.8627517141
 Fe         2.5568218969        4.4161112198        4.8120438595
  O         5.8590973922       10.3942488417        5.7565344052
  O         8.4234954621        5.9458593213        5.7398178261
  O        10.9883633669        1.5078688446        5.7405216940
  O         0.7334560691       10.4018326368        5.7675737613
  O         3.4299564622        5.9423772178        5.5226225312
  O         5.8633787288        1.5215561140        5.7253020184
  O        -4.3866841671       10.3885452260        5.7256648601
  O        -1.8204491673        5.9432270174        5.7440518469
  O         0.7319546713        1.4966158477        5.7514884220
  O         5.9477351738       13.2048413826        5.7369346842
  O         8.5153525850        8.7572351721        5.7375120054
  O        11.0685595811        4.3183367973        5.7459561987
  O         0.8198444248       13.2045750386        5.7294104651
  O         3.3802665752        8.7332496801        5.7796813596
  O         5.9465579913        4.3493286633        5.7444678197
  O        -4.3106138164       13.2024249385        5.7274026116
  O        -1.7539175175        8.7523835118        5.7558063788
  O         0.8293671922        4.3231474438        5.7335781158
  O         3.4730659788       11.8776718967        5.7548817100
  O         6.0311535871        7.3990932562        5.7182338765
  O         8.5971981134        2.9901245820        5.7389017395
  O        -1.6616789504       11.8794168194        5.7459068780
  O         0.9160615433        7.4275537693        5.7528942694
  O         3.4795116551        2.9979588322        5.7707745012
  O        -6.7856094746       11.8621718581        5.7347245450
  O        -4.2217296314        7.4262723328        5.7327121338
  O        -1.6463570788        2.9866237944        5.7508743952
 Fe         7.6570634517       10.3330206731        5.9746530315
 Fe        10.2160997666        5.9006475240        5.9780929436
 Fe        12.7821887383        1.4598693959        5.9788372224
 Fe         2.5381802352       10.3373814760        5.9325977112
 Fe         5.1047036266        5.9076058216        6.2525996773
 Fe         7.6554404482        1.4625835575        5.9795557467
 Fe        -2.5944323003       10.3450625784        5.9824496510
 Fe        -0.0339069312        5.8852304916        5.9534851987
 Fe         2.5325132924        1.4630819965        5.9714687669
  C         3.2622773316        4.4914494219        9.2420238383
  C         3.8843617998        5.8793046927        9.2666124812
  H         2.3737238421        4.4536362741        9.8928494153
  O         4.2530955849        3.5204569465        9.6392294037
  H         2.9729536298        4.2378034488        8.2135812267
  C         2.9343552297        6.9853251665        8.7952765604
  C         1.7859338142        7.3895671905        9.7453271966
  O         2.3120919390        6.4889811400        7.6439904131
  H         3.5583594648        7.8806121967        8.5671492914
  C         2.1374749058        7.9221974023       11.1309145615
  H         1.1646635782        6.4907007201        9.8797347379
  O         0.9508148233        8.3256917826        9.0471484493
  C         3.2277780330        8.9975285018       11.1033185645
  O         2.5719291304        6.8058299804       11.9371147339
  H         1.2025155101        8.3609373351       11.5260155672
  H         3.4071169445        9.3601725815       12.1323232837
  O         2.7847711811       10.0777165360       10.2599064886
  H         4.1613878099        8.5449466064       10.7295037587
  H         4.3946028794        3.6053628734       10.5995905306
  H         1.8153140910        7.2468539860        7.1892022296
  H         1.4234144679        9.1847530589        9.0624120255
  H         2.4542247780        7.0547173358       12.8691068530
  H         3.5406275397       10.6594034173       10.0641255943
  O         5.0606199203        5.8487556459        8.3719460087
  H         4.2565120411        6.1139582495       10.2779346927
  H         5.5007448282        4.9954558775        8.6053921207
     161
 i =        6, E =     -8104.5112660506
 Fe         5.0938794100       11.8196869300        0.3885799900
 Fe         7.6575796300        7.3792284900        0.3885799900
 Fe        10.2212798400        2.9387700600        0.3885799900
 Fe        -0.0335205200       11.8196869300        0.3885799900
 Fe         2.5301797000        7.3792284900        0.3885799900
 Fe         5.0938799200        2.9387700600        0.3885799900
 Fe        -5.1609204400       11.8196869300        0.3885799900
 Fe        -2.5972202200        7.3792284900        0.3885799900
 Fe        -0.0335200000        2.9387700600        0.3885799900
  O         8.4519195100        8.9577468800        1.1642700400
  O        11.0156197300        4.5172884400        1.1642700400
  O        13.5793199500        0.0768300000        1.1642700400
  O         3.3245195900        8.9577468800        1.1642700400
  O         5.8882198100        4.5172884400        1.1642700400
  O         8.4519200300        0.0768300000        1.1642700400
  O        -1.8028803300        8.9577468800        1.1642700400
  O         0.7608198900        4.5172884400        1.1642700400
  O         3.3245201100        0.0768300000        1.1642700400
  O         8.4568493000       11.7183869300        1.1650400200
  O        11.0205495200        7.2779284900        1.1650400200
  O        13.5842497300        2.8374700500        1.1650400200
  O         3.3294493700       11.7183869300        1.1650400200
  O         5.8931495900        7.2779284900        1.1650400200
  O         8.4568498100        2.8374700500        1.1650400200
  O        -1.7979505500       11.7183869300        1.1650400200
  O         0.7657496700        7.2779284900        1.1650400200
  O         3.3294498900        2.8374700500        1.1650400200
  O         6.0627194200       10.3425368500        1.1660399400
  O         8.6264196400        5.9020784100        1.1660399400
  O        11.1901198600        1.4616199700        1.1660399400
  O         0.9353195000       10.3425368500        1.1660399400
  O         3.4990197200        5.9020784100        1.1660399400
  O         6.0627199400        1.4616199700        1.1660399400
  O        -4.1920804200       10.3425368500        1.1660399400
  O        -1.6283802000        5.9020784100        1.1660399400
  O         0.9353200200        1.4616199700        1.1660399400
 Fe         7.6576695000       13.2997167500        1.9292099500
 Fe        10.2213697200        8.8592583200        1.9292099500
 Fe        12.7850699400        4.4187998800        1.9292099500
 Fe         2.5302695800       13.2997167500        1.9292099500
 Fe         5.0939698000        8.8592583200        1.9292099500
 Fe         7.6576700200        4.4187998800        1.9292099500
 Fe        -2.5971303400       13.2997167500        1.9292099500
 Fe        -0.0334301200        8.8592583200        1.9292099500
 Fe         2.5302701000        4.4187998800        1.9292099500
 Fe         7.6573893600       10.3392168700        2.7128999200
 Fe        10.2210895800        5.8987584300        2.7128999200
 Fe        12.7847898000        1.4582999900        2.7128999200
 Fe         2.5299894400       10.3392168700        2.7128999200
 Fe         5.0936896600        5.8987584300        2.7128999200
 Fe         7.6573898800        1.4582999900        2.7128999200
 Fe        -2.5974104800       10.3392168700        2.7128999200
 Fe        -0.0337102600        5.8987584300        2.7128999200
 Fe         2.5299899600        1.4582999900        2.7128999200
  O         4.1333124750       13.3060594648        3.5056169988
  O         6.7422563913        8.8958026299        3.5833520996
  O         9.2683681535        4.4254108297        3.5083777736
  O        -0.9919577802       13.3000343256        3.4991241100
  O         1.5561537140        8.8711811343        3.4946022248
  O         4.1582816459        4.3851347024        3.4727597791
  O        -6.1262715022       13.3055479132        3.5050202919
  O        -3.5521526483        8.8601911600        3.5023794400
  O        -1.0036669575        4.4243463307        3.5077447153
  O         6.8606711797       11.9089923881        3.5049752634
  O         9.4249976833        7.4648115749        3.5068956504
  O        11.9912676780        3.0311180637        3.5053453197
  O         1.7340322127       11.9054285644        3.5137560250
  O         4.3091748175        7.4894343123        3.4957502753
  O         6.8708157284        3.0266505244        3.5091476922
  O        -3.3888899190       11.9090916307        3.5057265903
  O        -0.8210268608        7.4794616774        3.5062980073
  O         1.7233592885        2.9838930448        3.5633171760
  O         9.4183090468       10.2475055093        3.5021754956
  O        11.9872302750        5.7957684618        3.5020020749
  O        14.5427187776        1.3656956040        3.5088697126
  O         4.2366413016       10.2786845032        3.6043868197
  O         6.8655411666        5.7927436247        3.4775854403
  O         9.4200773414        1.3613137009        3.5003431453
  O        -0.8328153142       10.2313825817        3.5027865783
  O         1.6764603339        5.8229336227        3.5470994667
  O         4.2792073667        1.3611691157        3.5122353368
 Fe         5.1038164858       11.8282712686        4.5047735073
 Fe         7.6468895528        7.3562220116        4.5008434860
 Fe        10.2159786812        2.9424990252        4.4915484368
 Fe        -0.0417288075       11.8183530909        4.4904688385
 Fe         2.5545049055        7.3841843267        4.4509230542
 Fe         5.1015614752        2.9613524370        4.4920487784
 Fe        -5.1597876129       11.8204890185        4.4896460830
 Fe        -2.5894194606        7.3763591759        4.4890773770
 Fe        -0.0412881932        2.9377552355        4.5034905595
 Fe         7.6617826280       13.2961996391        4.8228506042
 Fe        10.2176543562        8.8565768523        4.8142951485
 Fe        12.7810715207        4.4115282118        4.8422228316
 Fe         2.5328213354       13.3021435072        4.8198104186
 Fe         5.0988998160        8.8394047050        4.8807371956
 Fe         7.6397825371        4.4252713576        4.8215991578
 Fe        -2.5982315458       13.3128175206        4.8164494924
 Fe        -0.0346645946        8.8679273623        4.8513060570
 Fe         2.5534596101        4.4188690129        4.8249073353
  O         5.8573819341       10.3952599331        5.7669410587
  O         8.4238406021        5.9424176310        5.7466379603
  O        10.9895341569        1.5087516600        5.7381057815
  O         0.7289363241       10.3928332658        5.7656390822
  O         3.4544101566        5.9530133960        5.4819257982
  O         5.8655916352        1.5156469411        5.7310409368
  O        -4.3848938429       10.3872838226        5.7231046424
  O        -1.8113369374        5.9405697365        5.7519039290
  O         0.7359749180        1.4975183079        5.7474784660
  O         5.9500254611       13.2070625820        5.7398863276
  O         8.5146775635        8.7564754471        5.7402034144
  O        11.0724717721        4.3197216532        5.7478076161
  O         0.8173227181       13.2082666001        5.7257976945
  O         3.3812663682        8.7283743560        5.7916743284
  O         5.9403724009        4.3618913617        5.7385838098
  O        -4.3121995428       13.2072778872        5.7269634795
  O        -1.7456598920        8.7597425383        5.7507576500
  O         0.8302303635        4.3314312548        5.7395971880
  O         3.4723979215       11.8799062882        5.7578325754
  O         6.0272708423        7.3915569510        5.7228029319
  O         8.5943449171        2.9921225176        5.7407150510
  O        -1.6669281466       11.8778862945        5.7399696554
  O         0.9115106984        7.4266624343        5.7533755021
  O         3.4793389437        3.0039029170        5.7693071987
  O        -6.7854588188       11.8592185386        5.7352944094
  O        -4.2200922500        7.4233446737        5.7291287040
  O        -1.6548332352        2.9847166461        5.7575938879
 Fe         7.6559215440       10.3317155887        5.9781893569
 Fe        10.2162015308        5.9002716182        5.9821656624
 Fe        12.7808066618        1.4572076373        5.9849782165
 Fe         2.5371492490       10.3370741195        5.8957196166
 Fe         5.1016594833        5.9111688707        6.3076621745
 Fe         7.6549649437        1.4645638603        5.9841988417
 Fe        -2.5954544902       10.3443952622        5.9943979509
 Fe        -0.0323089172        5.8854209558        5.9606100298
 Fe         2.5341780031        1.4675648355        5.9831764968
  C         3.2633307662        4.4874365244        9.2397238144
  C         3.8823619484        5.8744510677        9.2831219518
  H         2.3751279376        4.4484359712        9.8914938479
  O         4.2607028925        3.5235488041        9.6373212598
  H         2.9680699943        4.2284164530        8.2139453408
  C         2.9285941380        6.9780273511        8.8185138867
  C         1.7790640166        7.3966984437        9.7665552553
  O         2.2919475938        6.4859253424        7.6779536588
  H         3.5360157373        7.8773188754        8.5457130332
  C         2.1391958854        7.9348168523       11.1495768998
  H         1.1549334452        6.4996243696        9.9034686691
  O         0.9409979639        8.3281293997        9.0690653679
  C         3.2362870069        9.0036932761       11.1083802108
  O         2.5864683991        6.8134724759       11.9452063440
  H         1.2013061514        8.3632066866       11.5466155219
  H         3.4132176224        9.3701463094       12.1367359800
  O         2.7833546011       10.0811915863       10.2670875796
  H         4.1664062444        8.5494459961       10.7308745371
  H         4.3902388857        3.6009227619       10.6005331965
  H         1.8300932991        7.2299581452        7.1374194763
  H         1.4197262905        9.1844806086        9.0731482475
  H         2.4568680516        7.0541712068       12.8784141636
  H         3.5416751020       10.6564145525       10.0591725569
  O         5.0499698289        5.8297125820        8.3614961022
  H         4.2731299003        6.1196979680       10.2806323452
  H         5.5035146343        4.9852453791        8.6046895342
     161
 i =        7, E =     -8104.5166696694
 Fe         5.0938794100       11.8196869300        0.3885799900
 Fe         7.6575796300        7.3792284900        0.3885799900
 Fe        10.2212798400        2.9387700600        0.3885799900
 Fe        -0.0335205200       11.8196869300        0.3885799900
 Fe         2.5301797000        7.3792284900        0.3885799900
 Fe         5.0938799200        2.9387700600        0.3885799900
 Fe        -5.1609204400       11.8196869300        0.3885799900
 Fe        -2.5972202200        7.3792284900        0.3885799900
 Fe        -0.0335200000        2.9387700600        0.3885799900
  O         8.4519195100        8.9577468800        1.1642700400
  O        11.0156197300        4.5172884400        1.1642700400
  O        13.5793199500        0.0768300000        1.1642700400
  O         3.3245195900        8.9577468800        1.1642700400
  O         5.8882198100        4.5172884400        1.1642700400
  O         8.4519200300        0.0768300000        1.1642700400
  O        -1.8028803300        8.9577468800        1.1642700400
  O         0.7608198900        4.5172884400        1.1642700400
  O         3.3245201100        0.0768300000        1.1642700400
  O         8.4568493000       11.7183869300        1.1650400200
  O        11.0205495200        7.2779284900        1.1650400200
  O        13.5842497300        2.8374700500        1.1650400200
  O         3.3294493700       11.7183869300        1.1650400200
  O         5.8931495900        7.2779284900        1.1650400200
  O         8.4568498100        2.8374700500        1.1650400200
  O        -1.7979505500       11.7183869300        1.1650400200
  O         0.7657496700        7.2779284900        1.1650400200
  O         3.3294498900        2.8374700500        1.1650400200
  O         6.0627194200       10.3425368500        1.1660399400
  O         8.6264196400        5.9020784100        1.1660399400
  O        11.1901198600        1.4616199700        1.1660399400
  O         0.9353195000       10.3425368500        1.1660399400
  O         3.4990197200        5.9020784100        1.1660399400
  O         6.0627199400        1.4616199700        1.1660399400
  O        -4.1920804200       10.3425368500        1.1660399400
  O        -1.6283802000        5.9020784100        1.1660399400
  O         0.9353200200        1.4616199700        1.1660399400
 Fe         7.6576695000       13.2997167500        1.9292099500
 Fe        10.2213697200        8.8592583200        1.9292099500
 Fe        12.7850699400        4.4187998800        1.9292099500
 Fe         2.5302695800       13.2997167500        1.9292099500
 Fe         5.0939698000        8.8592583200        1.9292099500
 Fe         7.6576700200        4.4187998800        1.9292099500
 Fe        -2.5971303400       13.2997167500        1.9292099500
 Fe        -0.0334301200        8.8592583200        1.9292099500
 Fe         2.5302701000        4.4187998800        1.9292099500
 Fe         7.6573893600       10.3392168700        2.7128999200
 Fe        10.2210895800        5.8987584300        2.7128999200
 Fe        12.7847898000        1.4582999900        2.7128999200
 Fe         2.5299894400       10.3392168700        2.7128999200
 Fe         5.0936896600        5.8987584300        2.7128999200
 Fe         7.6573898800        1.4582999900        2.7128999200
 Fe        -2.5974104800       10.3392168700        2.7128999200
 Fe        -0.0337102600        5.8987584300        2.7128999200
 Fe         2.5299899600        1.4582999900        2.7128999200
  O         4.1324915057       13.3061239928        3.5046925568
  O         6.7274949116        8.8880565964        3.5574560252
  O         9.2668552062        4.4263751091        3.5105932545
  O        -0.9942500616       13.3011087504        3.4974299051
  O         1.5712476609        8.8746091355        3.5141791990
  O         4.1502965895        4.3843722791        3.4677362481
  O        -6.1267943521       13.3009643970        3.4990173695
  O        -3.5535909436        8.8600381923        3.4996271470
  O        -1.0010005359        4.4216973243        3.5050849896
  O         6.8590730930       11.9113324998        3.5039304921
  O         9.4232910108        7.4663015319        3.5045806822
  O        11.9909929218        3.0283544669        3.5105803382
  O         1.7331458139       11.9058271952        3.5122325114
  O         4.3090008905        7.5060666935        3.4677549998
  O         6.8671192334        3.0262332681        3.5095157074
  O        -3.3896636519       11.9105784494        3.5025152044
  O        -0.8257322039        7.4711190273        3.5148495505
  O         1.7294079918        2.9895361175        3.5552252056
  O         9.4208379737       10.2467819951        3.4989226335
  O        11.9839320242        5.7985208075        3.5048466847
  O        14.5427085524        1.3638428025        3.5071249857
  O         4.2461997156       10.2675614701        3.5818615731
  O         6.8673101117        5.7962324326        3.4775660983
  O         9.4201043676        1.3615287337        3.4989773948
  O        -0.8392536789       10.2414480125        3.5153943191
  O         1.6882757179        5.8187184626        3.5304903140
  O         4.2842526692        1.3652980637        3.5095865569
 Fe         5.0987573296       11.8225545761        4.5008459497
 Fe         7.6436012374        7.3643844872        4.4982890267
 Fe        10.2147776720        2.9419917785        4.4918598391
 Fe        -0.0390117976       11.8250655085        4.4930476826
 Fe         2.5630466328        7.3738650456        4.4469658290
 Fe         5.0991483444        2.9644098436        4.4965810919
 Fe        -5.1589775477       11.8199625536        4.4901178525
 Fe        -2.5941996048        7.3766306143        4.4918212880
 Fe        -0.0364618491        2.9379690668        4.4990085013
 Fe         7.6630365017       13.2986730135        4.8236897731
 Fe        10.2184900426        8.8561136776        4.8135950783
 Fe        12.7834516995        4.4146702165        4.8412582560
 Fe         2.5325206241       13.3025677505        4.8203308592
 Fe         5.0996809309        8.8388339363        4.8699087660
 Fe         7.6387466424        4.4264345061        4.8241836282
 Fe        -2.5984371579       13.3107650212        4.8166663656
 Fe        -0.0346030415        8.8642200499        4.8473241531
 Fe         2.5476190962        4.4178507262        4.8226124571
  O         5.8563612131       10.3922091390        5.7668703469
  O         8.4246452864        5.9460613943        5.7429645749
  O        10.9912432029        1.5092709244        5.7366659284
  O         0.7316333447       10.3918635943        5.7532393363
  O         3.4410142514        5.9433393131        5.4954050526
  O         5.8649326736        1.5147834915        5.7287423906
  O        -4.3867505660       10.3863424108        5.7244033329
  O        -1.8187271985        5.9437689238        5.7441159959
  O         0.7355695460        1.5002328995        5.7481204305
  O         5.9495501566       13.2032859729        5.7375791954
  O         8.5188795640        8.7551032796        5.7438893804
  O        11.0728856367        4.3190896423        5.7442847738
  O         0.8194145667       13.2096576269        5.7281051077
  O         3.3797471357        8.7327778904        5.7810144268
  O         5.9431358439        4.3560237525        5.7426440559
  O        -4.3112661071       13.2075496261        5.7278591442
  O        -1.7454995884        8.7616265915        5.7418260658
  O         0.8322863847        4.3230863542        5.7382821675
  O         3.4714239322       11.8830010561        5.7601043200
  O         6.0295042723        7.4006288808        5.7293183097
  O         8.5931906339        2.9918721178        5.7392493869
  O        -1.6654658683       11.8737341245        5.7355249750
  O         0.9203763196        7.4327664388        5.7433867062
  O         3.4761113763        3.0031209418        5.7668879911
  O        -6.7861545667       11.8601412460        5.7347559915
  O        -4.2217279792        7.4245754718        5.7305363379
  O        -1.6533568912        2.9849749999        5.7507686720
 Fe         7.6565997701       10.3302229340        5.9736529050
 Fe        10.2179242243        5.8998662113        5.9791283535
 Fe        12.7842550458        1.4573296080        5.9798926148
 Fe         2.5373411479       10.3398027158        5.8997881043
 Fe         5.1003552251        5.9112956536        6.2318226053
 Fe         7.6545891429        1.4640556535        5.9835377198
 Fe        -2.5969739742       10.3422178391        5.9900755359
 Fe        -0.0314318688        5.8883964047        5.9802565142
 Fe         2.5328141401        1.4672617654        5.9820128451
  C         3.2665781311        4.4866019332        9.2508121198
  C         3.8683131281        5.8830900442        9.2786919450
  H         2.3723380396        4.4487204801        9.8928559276
  O         4.2641124632        3.5164627388        9.6353890343
  H         2.9729145146        4.2324840994        8.2221285054
  C         2.9268165836        6.9884581742        8.8005581287
  C         1.7825065286        7.3901929587        9.7597658738
  O         2.2920394445        6.4873856306        7.6612374362
  H         3.5452038295        7.8818456617        8.5598305702
  C         2.1376063408        7.9329008412       11.1418159136
  H         1.1536561153        6.4960899097        9.8985192103
  O         0.9462647589        8.3262266218        9.0677901018
  C         3.2334145380        9.0025449170       11.1117934332
  O         2.5856595835        6.8183828841       11.9452025750
  H         1.2049587232        8.3632861693       11.5479270495
  H         3.4167557458        9.3675205712       12.1389722064
  O         2.7867524075       10.0773895380       10.2635337299
  H         4.1661317646        8.5542160590       10.7306355067
  H         4.3885324434        3.6023228290       10.5983360820
  H         1.8142613109        7.2177692636        7.1516327036
  H         1.4190102346        9.1853731776        9.0724032811
  H         2.4579643358        7.0534847655       12.8796230452
  H         3.5412479158       10.6572161438       10.0586667265
  O         5.0588088056        5.8354152598        8.3974484135
  H         4.2685116534        6.1119050404       10.2809229135
  H         5.5036225223        4.9821741319        8.6039028640
     161
 i =        8, E =     -8104.5166320317
 Fe         5.0938794100       11.8196869300        0.3885799900
 Fe         7.6575796300        7.3792284900        0.3885799900
 Fe        10.2212798400        2.9387700600        0.3885799900
 Fe        -0.0335205200       11.8196869300        0.3885799900
 Fe         2.5301797000        7.3792284900        0.3885799900
 Fe         5.0938799200        2.9387700600        0.3885799900
 Fe        -5.1609204400       11.8196869300        0.3885799900
 Fe        -2.5972202200        7.3792284900        0.3885799900
 Fe        -0.0335200000        2.9387700600        0.3885799900
  O         8.4519195100        8.9577468800        1.1642700400
  O        11.0156197300        4.5172884400        1.1642700400
  O        13.5793199500        0.0768300000        1.1642700400
  O         3.3245195900        8.9577468800        1.1642700400
  O         5.8882198100        4.5172884400        1.1642700400
  O         8.4519200300        0.0768300000        1.1642700400
  O        -1.8028803300        8.9577468800        1.1642700400
  O         0.7608198900        4.5172884400        1.1642700400
  O         3.3245201100        0.0768300000        1.1642700400
  O         8.4568493000       11.7183869300        1.1650400200
  O        11.0205495200        7.2779284900        1.1650400200
  O        13.5842497300        2.8374700500        1.1650400200
  O         3.3294493700       11.7183869300        1.1650400200
  O         5.8931495900        7.2779284900        1.1650400200
  O         8.4568498100        2.8374700500        1.1650400200
  O        -1.7979505500       11.7183869300        1.1650400200
  O         0.7657496700        7.2779284900        1.1650400200
  O         3.3294498900        2.8374700500        1.1650400200
  O         6.0627194200       10.3425368500        1.1660399400
  O         8.6264196400        5.9020784100        1.1660399400
  O        11.1901198600        1.4616199700        1.1660399400
  O         0.9353195000       10.3425368500        1.1660399400
  O         3.4990197200        5.9020784100        1.1660399400
  O         6.0627199400        1.4616199700        1.1660399400
  O        -4.1920804200       10.3425368500        1.1660399400
  O        -1.6283802000        5.9020784100        1.1660399400
  O         0.9353200200        1.4616199700        1.1660399400
 Fe         7.6576695000       13.2997167500        1.9292099500
 Fe        10.2213697200        8.8592583200        1.9292099500
 Fe        12.7850699400        4.4187998800        1.9292099500
 Fe         2.5302695800       13.2997167500        1.9292099500
 Fe         5.0939698000        8.8592583200        1.9292099500
 Fe         7.6576700200        4.4187998800        1.9292099500
 Fe        -2.5971303400       13.2997167500        1.9292099500
 Fe        -0.0334301200        8.8592583200        1.9292099500
 Fe         2.5302701000        4.4187998800        1.9292099500
 Fe         7.6573893600       10.3392168700        2.7128999200
 Fe        10.2210895800        5.8987584300        2.7128999200
 Fe        12.7847898000        1.4582999900        2.7128999200
 Fe         2.5299894400       10.3392168700        2.7128999200
 Fe         5.0936896600        5.8987584300        2.7128999200
 Fe         7.6573898800        1.4582999900        2.7128999200
 Fe        -2.5974104800       10.3392168700        2.7128999200
 Fe        -0.0337102600        5.8987584300        2.7128999200
 Fe         2.5299899600        1.4582999900        2.7128999200
  O         4.1324915057       13.3061239928        3.5046925568
  O         6.7274949116        8.8880565964        3.5574560252
  O         9.2668552062        4.4263751091        3.5105932545
  O        -0.9942500616       13.3011087504        3.4974299051
  O         1.5712476609        8.8746091355        3.5141791990
  O         4.1502965895        4.3843722791        3.4677362481
  O        -6.1267943521       13.3009643970        3.4990173695
  O        -3.5535909436        8.8600381923        3.4996271470
  O        -1.0010005359        4.4216973243        3.5050849896
  O         6.8590730930       11.9113324998        3.5039304921
  O         9.4232910108        7.4663015319        3.5045806822
  O        11.9909929218        3.0283544669        3.5105803382
  O         1.7331458139       11.9058271952        3.5122325114
  O         4.3090008905        7.5060666935        3.4677549998
  O         6.8671192334        3.0262332681        3.5095157074
  O        -3.3896636519       11.9105784494        3.5025152044
  O        -0.8257322039        7.4711190273        3.5148495505
  O         1.7294079918        2.9895361175        3.5552252056
  O         9.4208379737       10.2467819951        3.4989226335
  O        11.9839320242        5.7985208075        3.5048466847
  O        14.5427085524        1.3638428025        3.5071249857
  O         4.2461997156       10.2675614701        3.5818615731
  O         6.8673101117        5.7962324326        3.4775660983
  O         9.4201043676        1.3615287337        3.4989773948
  O        -0.8392536789       10.2414480125        3.5153943191
  O         1.6882757179        5.8187184626        3.5304903140
  O         4.2842526692        1.3652980637        3.5095865569
 Fe         5.0987573296       11.8225545761        4.5008459497
 Fe         7.6436012374        7.3643844872        4.4982890267
 Fe        10.2147776720        2.9419917785        4.4918598391
 Fe        -0.0390117976       11.8250655085        4.4930476826
 Fe         2.5630466328        7.3738650456        4.4469658290
 Fe         5.0991483444        2.9644098436        4.4965810919
 Fe        -5.1589775477       11.8199625536        4.4901178525
 Fe        -2.5941996048        7.3766306143        4.4918212880
 Fe        -0.0364618491        2.9379690668        4.4990085013
 Fe         7.6630365017       13.2986730135        4.8236897731
 Fe        10.2184900426        8.8561136776        4.8135950783
 Fe        12.7834516995        4.4146702165        4.8412582560
 Fe         2.5325206241       13.3025677505        4.8203308592
 Fe         5.0996809309        8.8388339363        4.8699087660
 Fe         7.6387466424        4.4264345061        4.8241836282
 Fe        -2.5984371579       13.3107650212        4.8166663656
 Fe        -0.0346030415        8.8642200499        4.8473241531
 Fe         2.5476190962        4.4178507262        4.8226124571
  O         5.8563612131       10.3922091390        5.7668703469
  O         8.4246452864        5.9460613943        5.7429645749
  O        10.9912432029        1.5092709244        5.7366659284
  O         0.7316333447       10.3918635943        5.7532393363
  O         3.4410142514        5.9433393131        5.4954050526
  O         5.8649326736        1.5147834915        5.7287423906
  O        -4.3867505660       10.3863424108        5.7244033329
  O        -1.8187271985        5.9437689238        5.7441159959
  O         0.7355695460        1.5002328995        5.7481204305
  O         5.9495501566       13.2032859729        5.7375791954
  O         8.5188795640        8.7551032796        5.7438893804
  O        11.0728856367        4.3190896423        5.7442847738
  O         0.8194145667       13.2096576269        5.7281051077
  O         3.3797471357        8.7327778904        5.7810144268
  O         5.9431358439        4.3560237525        5.7426440559
  O        -4.3112661071       13.2075496261        5.7278591442
  O        -1.7454995884        8.7616265915        5.7418260658
  O         0.8322863847        4.3230863542        5.7382821675
  O         3.4714239322       11.8830010561        5.7601043200
  O         6.0295042723        7.4006288808        5.7293183097
  O         8.5931906339        2.9918721178        5.7392493869
  O        -1.6654658683       11.8737341245        5.7355249750
  O         0.9203763196        7.4327664388        5.7433867062
  O         3.4761113763        3.0031209418        5.7668879911
  O        -6.7861545667       11.8601412460        5.7347559915
  O        -4.2217279792        7.4245754718        5.7305363379
  O        -1.6533568912        2.9849749999        5.7507686720
 Fe         7.6565997701       10.3302229340        5.9736529050
 Fe        10.2179242243        5.8998662113        5.9791283535
 Fe        12.7842550458        1.4573296080        5.9798926148
 Fe         2.5373411479       10.3398027158        5.8997881043
 Fe         5.1003552251        5.9112956536        6.2318226053
 Fe         7.6545891429        1.4640556535        5.9835377198
 Fe        -2.5969739742       10.3422178391        5.9900755359
 Fe        -0.0314318688        5.8883964047        5.9802565142
 Fe         2.5328141401        1.4672617654        5.9820128451
  C         3.2665781311        4.4866019332        9.2508121198
  C         3.8683131281        5.8830900442        9.2786919450
  H         2.3723380396        4.4487204801        9.8928559276
  O         4.2641124632        3.5164627388        9.6353890343
  H         2.9729145146        4.2324840994        8.2221285054
  C         2.9268165836        6.9884581742        8.8005581287
  C         1.7825065286        7.3901929587        9.7597658738
  O         2.2920394445        6.4873856306        7.6612374362
  H         3.5452038295        7.8818456617        8.5598305702
  C         2.1376063408        7.9329008412       11.1418159136
  H         1.1536561153        6.4960899097        9.8985192103
  O         0.9462647589        8.3262266218        9.0677901018
  C         3.2334145380        9.0025449170       11.1117934332
  O         2.5856595835        6.8183828841       11.9452025750
  H         1.2049587232        8.3632861693       11.5479270495
  H         3.4167557458        9.3675205712       12.1389722064
  O         2.7867524075       10.0773895380       10.2635337299
  H         4.1661317646        8.5542160590       10.7306355067
  H         4.3885324434        3.6023228290       10.5983360820
  H         1.8142613109        7.2177692636        7.1516327036
  H         1.4190102346        9.1853731776        9.0724032811
  H         2.4579643358        7.0534847655       12.8796230452
  H         3.5412479158       10.6572161438       10.0586667265
  O         5.0588088056        5.8354152598        8.3974484135
  H         4.2685116534        6.1119050404       10.2809229135
  H         5.5036225223        4.9821741319        8.6039028640
