 DBCSR| Multiplication driver                                               XSMM
 DBCSR| Multrec recursion limit                                              512
 DBCSR| Multiplication stack size                                           1000
 DBCSR| Maximum elements for images                                    UNLIMITED
 DBCSR| Multiplicative factor virtual images                                   1
 DBCSR| Multiplication size stacks                                             3
 DBCSR| Number of 3D layers                                               SINGLE
 DBCSR| Use MPI memory allocation                                              T
 DBCSR| Use RMA algorithm                                                      F
 DBCSR| Use Communication thread                                               T
 DBCSR| Communication thread load                                             87


  **** **** ******  **  PROGRAM STARTED AT               2020-10-07 12:28:43.700
 ***** ** ***  *** **   PROGRAM STARTED ON                             irene6275
 **    ****   ******    PROGRAM STARTED BY                              marticar
 ***** **    ** ** **   PROGRAM PROCESS ID                                 10251
  **** **  *******  **  PROGRAM STARTED IN /ccc/scratch/cont003/gen0609/marticar
                                           /684160

 CP2K| version string:                                          CP2K version 6.1
 CP2K| source code revision number:                                    svn:18464
 CP2K| cp2kflags: libint fftw3 parallel mpi3 scalapack xsmm mkl                 
 CP2K| is freely available from                            https://www.cp2k.org/
 CP2K| Program compiled at                          Thu Dec 12 15:40:57 CET 2019
 CP2K| Program compiled on                                             cobalt175
 CP2K| Program compiled for                                   Linux-x86-64-iomkl
 CP2K| Data directory path          /tmp/cp2k/6.1/iomkl-195281.401/cp2k-6.1/data
 CP2K| Input file name                                             screening.inp
 
 GLOBAL| Force Environment number                                              1
 GLOBAL| Basis set file name            /ccc/work/cont003/gen0609/marticar/data/
 GLOBAL| Potential file name            /ccc/work/cont003/gen0609/marticar/data/
 GLOBAL| MM Potential file name                                     MM_POTENTIAL
 GLOBAL| Coordinate file name                                          coord.xyz
 GLOBAL| Method name                                                        CP2K
 GLOBAL| Project name                                                    PROJECT
 GLOBAL| Preferred FFT library                                             FFTW3
 GLOBAL| Preferred diagonalization lib.                                       SL
 GLOBAL| Run type                                                        GEO_OPT
 GLOBAL| All-to-all communication in single precision                          F
 GLOBAL| FFTs using library dependent lengths                                  F
 GLOBAL| Global print level                                                  LOW
 GLOBAL| Total number of message passing processes                            16
 GLOBAL| Number of threads for this process                                    1
 GLOBAL| This output is from process                                           0
 GLOBAL| CPU model name :  AMD EPYC 7H12 64-Core Processor

 MEMORY| system memory details [Kb]
 MEMORY|                        rank 0           min           max       average
 MEMORY| MemTotal            263246936     263246936     263246936     263246936
 MEMORY| MemFree             245295328     245295328     245426768     245417274
 MEMORY| Buffers                     0             0             0             0
 MEMORY| Cached                2448748       2448748       2448748       2448748
 MEMORY| Slab                  1935760       1935760       1935760       1935760
 MEMORY| SReclaimable           296240        296240        296240        296240
 MEMORY| MemLikelyFree       248040316     248040316     248171756     248162262

 
 GENERATE|  Preliminary Number of Bonds generated:                             0
 GENERATE|  Achieved consistency in connectivity generation.

 *******************************************************************************
 *******************************************************************************
 **                                                                           **
 **     #####                         ##              ##                      **
 **    ##   ##            ##          ##              ##                      **
 **   ##     ##                       ##            ######                    **
 **   ##     ##  ##   ##  ##   #####  ##  ##   ####   ##    #####    #####    **
 **   ##     ##  ##   ##  ##  ##      ## ##   ##      ##   ##   ##  ##   ##   **
 **   ##  ## ##  ##   ##  ##  ##      ####     ###    ##   ######   ######    **
 **    ##  ###   ##   ##  ##  ##      ## ##      ##   ##   ##       ##        **
 **     #######   #####   ##   #####  ##  ##  ####    ##    #####   ##        **
 **           ##                                                    ##        **
 **                                                                           **
 **                                                ... make the atoms dance   **
 **                                                                           **
 **            Copyright (C) by CP2K developers group (2000 - 2018)           **
 **                                                                           **
 *******************************************************************************


 TOTAL NUMBERS AND MAXIMUM NUMBERS

  Total number of            - Atomic kinds:                                   7
                             - Atoms:                                        168
                             - Shell sets:                                   168
                             - Shells:                                       960
                             - Primitive Cartesian functions:               1122
                             - Cartesian basis functions:                   3081
                             - Spherical basis functions:                   2718

  Maximum angular momentum of- Orbital basis functions:                        3
                             - Local part of the GTH pseudopotential:          2
                             - Non-local part of the GTH pseudopotential:      3


 SCF PARAMETERS         Density guess:                                   RESTART
                        --------------------------------------------------------
                        max_scf:                                             500
                        max_scf_history:                                       0
                        max_diis:                                              4
                        --------------------------------------------------------
                        eps_scf:                                        1.00E-05
                        eps_scf_history:                                0.00E+00
                        eps_diis:                                       1.00E-01
                        eps_eigval:                                     1.00E-05
                        --------------------------------------------------------
                        level_shift [a.u.]:                                 0.00
                        --------------------------------------------------------
                        Outer loop SCF in use 
                        No variables optimised in outer loop
                        eps_scf                                         1.00E-05
                        max_scf                                               10
                        No outer loop optimization
                        step_size                                       5.00E-01

 BFGS| Use rational function optimization for step estimation:                NO
 BFGS| Use model Hessian for initial guess:                                  YES
 BFGS| Restart Hessian:                                                       NO
 BFGS| Trust radius:                                                       0.472

 *******************************************************************************
 ***                     STARTING GEOMETRY OPTIMIZATION                      ***
 ***                                   BFGS                                  ***
 *******************************************************************************

 Spin 1

 Number of electrons:                                                        719
 Number of occupied orbitals:                                                719
 Number of molecular orbitals:                                               719

 Spin 2

 Number of electrons:                                                        719
 Number of occupied orbitals:                                                719
 Number of molecular orbitals:                                               719

 Number of orbital functions:                                               2718
 Number of independent orbital functions:                                   2718

 Extrapolation method: initial_guess

 *** WARNING in qs_initial_guess.F:263 :: User requested to restart the    ***
 *** wavefunction from the file named: PROJECT-RESTART.wfn. This file does ***
 *** not exist. Please check the existence of the file or change properly  ***
 *** the value of the keyword WFN_RESTART_FILE_NAME. Calculation continues ***
 *** using ATOMIC GUESS.                                                   ***



 SCF WAVEFUNCTION OPTIMIZATION

  ----------------------------------- OT ---------------------------------------
  Minimizer      : CG                  : conjugate gradient
  Preconditioner : FULL_ALL            : diagonalization, state selective
  Precond_solver : DEFAULT
  Line search    : 3PNT                : 3 energies
  stepsize       :    0.15000000                  energy_gap     :    0.08000000
  eps_taylor     :   0.10000E-15                  max_taylor     :             4
  ----------------------------------- OT ---------------------------------------

  Step     Update method      Time    Convergence         Total energy    Change
  ------------------------------------------------------------------------------
     1 OT CG       0.12E+00   61.7     0.01731441     -8057.6304254675 -8.06E+03
     2 OT LS       0.17E+00   44.4                    -8119.4457388047
     3 OT LS       0.13E+00   44.5                    -8113.6204622719
     4 OT CG       0.10E+00   82.8     0.00579965     -8119.1258549596 -6.15E+01
     5 OT LS       0.14E+00   44.4                    -8127.8414111320
     6 OT LS       0.17E+00   44.4                    -8129.1431512872
     7 OT CG       0.13E+00   82.5     0.00473907     -8129.3279028056 -1.02E+01
     8 OT LS       0.19E+00   44.4                    -8136.7458730636
     9 OT LS       0.19E+00   44.4                    -8137.4820796581
    10 OT CG       0.15E+00   82.7     0.00257477     -8137.4898708459 -8.16E+00
    11 OT LS       0.21E+00   44.5                    -8140.0104978589
    12 OT LS       0.21E+00   44.4                    -8140.2076816285
    13 OT CG       0.17E+00   82.5     0.00246683     -8140.2089482865 -2.72E+00
    14 OT LS       0.23E+00   44.4                    -8140.9267805608
    15 OT LS       0.10E+00   44.4                    -8139.4278561614
    16 OT CG       0.81E-01   82.6     0.00173693     -8141.4098779740 -1.20E+00
    17 OT LS       0.11E+00   44.4                    -8142.1101845473
    18 OT LS       0.15E+00   44.4                    -8142.2454520872
    19 OT CG       0.12E+00   82.5     0.00144814     -8142.2978262602 -8.88E-01
    20 OT LS       0.17E+00   44.4                    -8142.7826388493
    21 OT LS       0.12E+00   44.4                    -8142.6909527440
    22 OT CG       0.94E-01   82.7     0.00107542     -8142.7828878063 -4.85E-01
    23 OT LS       0.13E+00   44.5                    -8143.0805968356
    24 OT LS       0.15E+00   44.4                    -8143.1261815361
    25 OT CG       0.12E+00   82.6     0.00098147     -8143.1330532359 -3.50E-01
    26 OT LS       0.17E+00   44.4                    -8143.3510824146
    27 OT LS       0.12E+00   44.4                    -8143.2997971709
    28 OT CG       0.93E-01   82.6     0.00080275     -8143.3518803782 -2.19E-01
    29 OT LS       0.13E+00   44.4                    -8143.5199801714
    30 OT LS       0.16E+00   44.4                    -8143.5499831365
    31 OT CG       0.13E+00   82.7     0.00075337     -8143.5585981357 -2.07E-01
    32 OT LS       0.18E+00   44.6                    -8143.6995530022
    33 OT LS       0.13E+00   44.5                    -8143.6716884775
    34 OT CG       0.10E+00   82.7     0.00063262     -8143.6996780327 -1.41E-01
    35 OT LS       0.14E+00   44.5                    -8143.8055770404
    36 OT LS       0.15E+00   44.4                    -8143.8178128001
    37 OT CG       0.12E+00   82.6     0.00058084     -8143.8181618609 -1.18E-01
    38 OT LS       0.17E+00   44.6                    -8143.9012213616
    39 OT LS       0.13E+00   44.4                    -8143.8917765114
    40 OT CG       0.10E+00   82.7     0.00048771     -8143.9013888055 -8.32E-02
    41 OT LS       0.14E+00   42.3                    -8143.9649527664
    42 OT LS       0.16E+00    7.6                    -8143.9734244403
    43 OT CG       0.12E+00   14.5     0.00044772     -8143.9740897794 -7.27E-02
    44 OT LS       0.17E+00    7.6                    -8144.0258596414
    45 OT LS       0.13E+00    7.7                    -8144.0207829901
    46 OT CG       0.11E+00   14.6     0.00037478     -8144.0260411762 -5.20E-02
    47 OT LS       0.15E+00    7.7                    -8144.0637274937
    48 OT LS       0.15E+00    7.6                    -8144.0672427243
    49 OT CG       0.12E+00   14.6     0.00035247     -8144.0672456278 -4.12E-02
    50 OT LS       0.17E+00    7.7                    -8144.1000550121
    51 OT LS       0.14E+00    7.6                    -8144.0988866085
    52 OT CG       0.11E+00   14.5     0.00030283     -8144.1005810052 -3.33E-02
    53 OT LS       0.15E+00    7.7                    -8144.1254009562
    54 OT LS       0.15E+00    7.6                    -8144.1271993627
    55 OT CG       0.12E+00   14.5     0.00027948     -8144.1272298002 -2.66E-02
    56 OT LS       0.17E+00    7.7                    -8144.1483259074
    57 OT LS       0.14E+00    7.6                    -8144.1482755123
    58 OT CG       0.11E+00   14.5     0.00024609     -8144.1489079683 -2.17E-02
    59 OT LS       0.16E+00    7.7                    -8144.1650501515
    60 OT LS       0.14E+00    7.7                    -8144.1654860125
    61 OT CG       0.11E+00   14.5     0.00021706     -8144.1657259178 -1.68E-02
    62 OT LS       0.16E+00    7.6                    -8144.1782451891
    63 OT LS       0.14E+00    7.6                    -8144.1785342138
    64 OT CG       0.11E+00   14.5     0.00019402     -8144.1787427346 -1.30E-02
    65 OT LS       0.16E+00    7.7                    -8144.1890708940
    66 OT LS       0.15E+00    7.7                    -8144.1896653337
    67 OT CG       0.12E+00   14.6     0.00017775     -8144.1897085305 -1.10E-02
    68 OT LS       0.17E+00    7.6                    -8144.1982852769
    69 OT LS       0.14E+00    7.7                    -8144.1982758119
    70 OT CG       0.11E+00   14.6     0.00015754     -8144.1985266354 -8.82E-03
    71 OT LS       0.16E+00    7.6                    -8144.2053438856
    72 OT LS       0.15E+00    7.7                    -8144.2056838790
    73 OT CG       0.12E+00   14.6     0.00014561     -8144.2057268050 -7.20E-03
    74 OT LS       0.17E+00    7.6                    -8144.2115539821
    75 OT LS       0.15E+00    7.7                    -8144.2116371942
    76 OT CG       0.12E+00   14.6     0.00013189     -8144.2117589133 -6.03E-03
    77 OT LS       0.16E+00    7.6                    -8144.2165647042
    78 OT LS       0.15E+00    7.7                    -8144.2167424609
    79 OT CG       0.12E+00   14.6     0.00012138     -8144.2167941555 -5.04E-03
    80 OT LS       0.17E+00    7.6                    -8144.2209121068
    81 OT LS       0.15E+00    7.7                    -8144.2210440547
    82 OT CG       0.12E+00   14.6     0.00011143     -8144.2210964909 -4.30E-03
    83 OT LS       0.17E+00    7.6                    -8144.2246140910
    84 OT LS       0.15E+00    7.7                    -8144.2247429123
    85 OT CG       0.12E+00   14.5     0.00010423     -8144.2247812462 -3.68E-03
    86 OT LS       0.17E+00    7.6                    -8144.2278574516
    87 OT LS       0.15E+00    7.7                    -8144.2279222070
    88 OT CG       0.12E+00   14.5     0.00009668     -8144.2279763133 -3.20E-03
    89 OT LS       0.17E+00    7.7                    -8144.2306391465
    90 OT LS       0.15E+00    7.6                    -8144.2307321178
    91 OT CG       0.12E+00   14.5     0.00009196     -8144.2307629142 -2.79E-03
    92 OT LS       0.17E+00    7.6                    -8144.2331645758
    93 OT LS       0.15E+00    7.7                    -8144.2332108780
    94 OT CG       0.12E+00   14.6     0.00008716     -8144.2332551777 -2.49E-03
    95 OT LS       0.17E+00    7.7                    -8144.2354192372
    96 OT LS       0.15E+00    7.6                    -8144.2354906375
    97 OT CG       0.12E+00   14.6     0.00008325     -8144.2355173713 -2.26E-03
    98 OT LS       0.17E+00    7.7                    -8144.2375269518
    99 OT LS       0.16E+00    7.6                    -8144.2376069320
   100 OT CG       0.12E+00   14.6     0.00008000     -8144.2376264706 -2.11E-03
   101 OT LS       0.17E+00    7.7                    -8144.2394898221
   102 OT LS       0.15E+00    7.6                    -8144.2395335941
   103 OT CG       0.12E+00   14.6     0.00007701     -8144.2395643276 -1.94E-03
   104 OT LS       0.17E+00    7.7                    -8144.2412747769
   105 OT LS       0.15E+00    7.6                    -8144.2413075894
   106 OT CG       0.12E+00   14.5     0.00007452     -8144.2413392766 -1.77E-03
   107 OT LS       0.17E+00    7.7                    -8144.2429483635
   108 OT LS       0.16E+00    7.6                    -8144.2430041971
   109 OT CG       0.12E+00   14.6     0.00007216     -8144.2430230159 -1.68E-03
   110 OT LS       0.17E+00    7.7                    -8144.2445526481
   111 OT LS       0.16E+00    7.6                    -8144.2446064512
   112 OT CG       0.13E+00   14.6     0.00006995     -8144.2446240611 -1.60E-03
   113 OT LS       0.18E+00    7.7                    -8144.2460769758
   114 OT LS       0.16E+00    7.6                    -8144.2461239496
   115 OT CG       0.13E+00   14.5     0.00006905     -8144.2461423518 -1.52E-03
   116 OT LS       0.18E+00    7.7                    -8144.2475469011
   117 OT LS       0.16E+00    7.6                    -8144.2475694113
   118 OT CG       0.12E+00   14.5     0.00006778     -8144.2475976522 -1.46E-03
   119 OT LS       0.17E+00    7.7                    -8144.2489529205
   120 OT LS       0.16E+00    7.6                    -8144.2489974040
   121 OT CG       0.13E+00   14.5     0.00006730     -8144.2490143377 -1.42E-03
   122 OT LS       0.18E+00    7.7                    -8144.2503604577
   123 OT LS       0.16E+00    7.6                    -8144.2504010680
   124 OT CG       0.13E+00   14.6     0.00006608     -8144.2504194101 -1.41E-03
   125 OT LS       0.18E+00    7.7                    -8144.2517198217
   126 OT LS       0.16E+00    7.6                    -8144.2517545338
   127 OT CG       0.13E+00   14.5     0.00006542     -8144.2517742216 -1.35E-03
   128 OT LS       0.18E+00    7.7                    -8144.2530619179
   129 OT LS       0.16E+00    7.6                    -8144.2531085271
   130 OT CG       0.13E+00   14.6     0.00006519     -8144.2531229340 -1.35E-03
   131 OT LS       0.18E+00    7.6                    -8144.2543908721
   132 OT LS       0.16E+00    7.6                    -8144.2544079435
   133 OT CG       0.13E+00   14.7     0.00006432     -8144.2544351787 -1.31E-03
   134 OT LS       0.18E+00    7.6                    -8144.2556714642
   135 OT LS       0.16E+00    7.7                    -8144.2557138889
   136 OT CG       0.13E+00   14.6     0.00006427     -8144.2557286663 -1.29E-03
   137 OT LS       0.18E+00    7.6                    -8144.2569638746
   138 OT LS       0.16E+00    7.7                    -8144.2569924173
   139 OT CG       0.13E+00   14.6     0.00006349     -8144.2570132000 -1.28E-03
   140 OT LS       0.18E+00    7.6                    -8144.2582161859
   141 OT LS       0.16E+00    7.7                    -8144.2582478200
   142 OT CG       0.13E+00   14.6     0.00006303     -8144.2582663252 -1.25E-03
   143 OT LS       0.18E+00    7.6                    -8144.2594464579
   144 OT LS       0.16E+00    7.7                    -8144.2594732950
   145 OT CG       0.13E+00   14.6     0.00006240     -8144.2594933556 -1.23E-03
   146 OT LS       0.18E+00    7.6                    -8144.2606437930
   147 OT LS       0.16E+00    7.7                    -8144.2606709096
   148 OT CG       0.13E+00   14.6     0.00006134     -8144.2606900094 -1.20E-03
   149 OT LS       0.18E+00    7.6                    -8144.2618111269
   150 OT LS       0.16E+00    7.7                    -8144.2618518884
   151 OT CG       0.13E+00   14.6     0.00006088     -8144.2618643894 -1.17E-03
   152 OT LS       0.18E+00    7.6                    -8144.2629701962
   153 OT LS       0.16E+00    7.7                    -8144.2629954550
   154 OT CG       0.13E+00   14.6     0.00005995     -8144.2630141848 -1.15E-03
   155 OT LS       0.18E+00    7.6                    -8144.2640899190
   156 OT LS       0.16E+00    7.6                    -8144.2641235363
   157 OT CG       0.13E+00   14.6     0.00005950     -8144.2641377740 -1.12E-03
   158 OT LS       0.18E+00    7.6                    -8144.2651911184
   159 OT LS       0.16E+00    7.6                    -8144.2652108224
   160 OT CG       0.13E+00   14.6     0.00005886     -8144.2652307524 -1.09E-03
   161 OT LS       0.18E+00    7.6                    -8144.2662591457
   162 OT LS       0.16E+00    7.6                    -8144.2662882705
   163 OT CG       0.13E+00   14.6     0.00005869     -8144.2663031750 -1.07E-03
   164 OT LS       0.18E+00    7.6                    -8144.2673214246
   165 OT LS       0.16E+00    7.6                    -8144.2673436225
   166 OT CG       0.13E+00   14.6     0.00005790     -8144.2673613905 -1.06E-03
   167 OT LS       0.18E+00    7.6                    -8144.2683506695
   168 OT LS       0.16E+00    7.7                    -8144.2683780140
   169 OT CG       0.13E+00   14.6     0.00005709     -8144.2683926464 -1.03E-03
   170 OT LS       0.18E+00    7.6                    -8144.2693703515
   171 OT LS       0.16E+00    7.7                    -8144.2694108592
   172 OT CG       0.13E+00   14.6     0.00005686     -8144.2694199271 -1.03E-03
   173 OT LS       0.18E+00    7.6                    -8144.2703895018
   174 OT LS       0.16E+00    7.7                    -8144.2704074400
   175 OT CG       0.13E+00   14.6     0.00005601     -8144.2704258872 -1.01E-03
   176 OT LS       0.18E+00    7.6                    -8144.2713601833
   177 OT LS       0.16E+00    7.7                    -8144.2713828018
   178 OT CG       0.13E+00   14.6     0.00005559     -8144.2713980452 -9.72E-04
   179 OT LS       0.18E+00    7.6                    -8144.2723200055
   180 OT LS       0.16E+00    7.7                    -8144.2723474163
   181 OT CG       0.13E+00   14.6     0.00005505     -8144.2723602097 -9.62E-04
   182 OT LS       0.18E+00    7.6                    -8144.2732610228
   183 OT LS       0.16E+00    7.7                    -8144.2732803530
   184 OT CG       0.13E+00   14.5     0.00005425     -8144.2732962030 -9.36E-04
   185 OT LS       0.18E+00    7.6                    -8144.2741759042
   186 OT LS       0.16E+00    7.6                    -8144.2742062888
   187 OT CG       0.13E+00   14.5     0.00005411     -8144.2742167458 -9.21E-04
   188 OT LS       0.18E+00    7.6                    -8144.2750940747
   189 OT LS       0.16E+00    7.7                    -8144.2751156608
   190 OT CG       0.13E+00   14.5     0.00005373     -8144.2751298355 -9.13E-04
   191 OT LS       0.18E+00    7.6                    -8144.2759944310
   192 OT LS       0.16E+00    7.7                    -8144.2760175315
   193 OT CG       0.13E+00   14.6     0.00005363     -8144.2760306932 -9.01E-04
   194 OT LS       0.18E+00    7.6                    -8144.2768975716
   195 OT LS       0.16E+00    7.7                    -8144.2769256818
   196 OT CG       0.13E+00   14.5     0.00005365     -8144.2769367876 -9.06E-04
   197 OT LS       0.18E+00    7.7                    -8144.2778090633
   198 OT LS       0.16E+00    7.7                    -8144.2778337152
   199 OT CG       0.13E+00   14.7     0.00005402     -8144.2778464707 -9.10E-04
   200 OT LS       0.18E+00    7.6                    -8144.2787332327
   201 OT LS       0.16E+00    7.7                    -8144.2787576194
   202 OT CG       0.13E+00   14.6     0.00005496     -8144.2787709383 -9.24E-04
   203 OT LS       0.18E+00    7.6                    -8144.2796864102
   204 OT LS       0.16E+00    7.7                    -8144.2797069408
   205 OT CG       0.13E+00   14.6     0.00005577     -8144.2797228857 -9.52E-04
   206 OT LS       0.18E+00    7.6                    -8144.2806707865
   207 OT LS       0.16E+00    7.7                    -8144.2807018726
   208 OT CG       0.13E+00   14.6     0.00005701     -8144.2807141219 -9.91E-04
   209 OT LS       0.18E+00    7.7                    -8144.2817155108
   210 OT LS       0.16E+00    7.7                    -8144.2817488303
   211 OT CG       0.13E+00   14.6     0.00005871     -8144.2817616435 -1.05E-03
   212 OT LS       0.18E+00    7.6                    -8144.2828236808
   213 OT LS       0.16E+00    7.7                    -8144.2828470020
   214 OT CG       0.13E+00   14.5     0.00006073     -8144.2828659693 -1.10E-03
   215 OT LS       0.18E+00    7.6                    -8144.2839944201
   216 OT LS       0.16E+00    7.7                    -8144.2840180554
   217 OT CG       0.13E+00   14.5     0.00006291     -8144.2840388476 -1.17E-03
   218 OT LS       0.18E+00    7.7                    -8144.2852495186
   219 OT LS       0.16E+00    7.6                    -8144.2852832930
   220 OT CG       0.13E+00   14.6     0.00006504     -8144.2853018648 -1.26E-03
   221 OT LS       0.18E+00    7.7                    -8144.2866043884
   222 OT LS       0.16E+00    7.6                    -8144.2866458092
   223 OT CG       0.13E+00   14.6     0.00006766     -8144.2866636618 -1.36E-03
   224 OT LS       0.18E+00    7.7                    -8144.2880738675
   225 OT LS       0.16E+00    7.6                    -8144.2881088994
   226 OT CG       0.13E+00   14.6     0.00007049     -8144.2881325289 -1.47E-03
   227 OT LS       0.18E+00    7.7                    -8144.2896536219
   228 OT LS       0.16E+00    7.6                    -8144.2896868795
   229 OT CG       0.13E+00   14.8     0.00007308     -8144.2897144201 -1.58E-03
   230 OT LS       0.18E+00    7.7                    -8144.2913407826
   231 OT LS       0.16E+00    7.6                    -8144.2913793805
   232 OT CG       0.13E+00   14.7     0.00007540     -8144.2914073998 -1.69E-03
   233 OT LS       0.18E+00    7.7                    -8144.2931422419
   234 OT LS       0.16E+00    7.6                    -8144.2931941856
   235 OT CG       0.13E+00   14.7     0.00007792     -8144.2932192843 -1.81E-03
   236 OT LS       0.18E+00    7.6                    -8144.2950681472
   237 OT LS       0.16E+00    7.6                    -8144.2951112750
   238 OT CG       0.13E+00   14.7     0.00008046     -8144.2951434741 -1.92E-03
   239 OT LS       0.18E+00    7.6                    -8144.2971112349
   240 OT LS       0.16E+00    7.5                    -8144.2971652469
   241 OT CG       0.13E+00   14.6     0.00008272     -8144.2971956759 -2.05E-03
   242 OT LS       0.18E+00    7.7                    -8144.2992689280
   243 OT LS       0.16E+00    7.6                    -8144.2993197675
   244 OT CG       0.13E+00   14.6     0.00008431     -8144.2993544027 -2.16E-03
   245 OT LS       0.18E+00    7.7                    -8144.3015002171
   246 OT LS       0.16E+00    7.6                    -8144.3015530782
   247 OT CG       0.13E+00   14.5     0.00008569     -8144.3015886814 -2.23E-03
   248 OT LS       0.18E+00    7.7                    -8144.3037759614
   249 OT LS       0.16E+00    7.6                    -8144.3038096672
   250 OT CG       0.13E+00   14.6     0.00008558     -8144.3038555365 -2.27E-03
   251 OT LS       0.18E+00    7.6                    -8144.3060313216
   252 OT LS       0.16E+00    7.6                    -8144.3060986815
   253 OT CG       0.13E+00   14.6     0.00008545     -8144.3061283781 -2.27E-03
   254 OT LS       0.18E+00    7.6                    -8144.3082685284
   255 OT LS       0.15E+00    7.7                    -8144.3082973193
   256 OT CG       0.12E+00   14.6     0.00008350     -8144.3083438050 -2.22E-03
   257 OT LS       0.17E+00    7.6                    -8144.3103801193
   258 OT LS       0.16E+00    7.7                    -8144.3104434820
   259 OT CG       0.12E+00   14.6     0.00008165     -8144.3104706699 -2.13E-03
   260 OT LS       0.17E+00    7.6                    -8144.3123993514
   261 OT LS       0.15E+00    7.6                    -8144.3124314508
   262 OT CG       0.12E+00   14.6     0.00007825     -8144.3124698454 -2.00E-03
   263 OT LS       0.17E+00    7.6                    -8144.3142451246
   264 OT LS       0.15E+00    7.7                    -8144.3143061780
   265 OT CG       0.12E+00   14.6     0.00007565     -8144.3143272646 -1.86E-03
   266 OT LS       0.17E+00    7.6                    -8144.3159818914
   267 OT LS       0.15E+00    7.7                    -8144.3160161877
   268 OT CG       0.12E+00   14.6     0.00007221     -8144.3160456656 -1.72E-03
   269 OT LS       0.17E+00    7.6                    -8144.3175550880
   270 OT LS       0.15E+00    7.7                    -8144.3176022147
   271 OT CG       0.12E+00   14.5     0.00006933     -8144.3176219882 -1.58E-03
   272 OT LS       0.17E+00    7.7                    -8144.3190113824
   273 OT LS       0.15E+00    7.7                    -8144.3190433795
   274 OT CG       0.12E+00   14.5     0.00006606     -8144.3190665752 -1.44E-03
   275 OT LS       0.17E+00    7.7                    -8144.3203329975
   276 OT LS       0.16E+00    7.7                    -8144.3203735252
   277 OT CG       0.12E+00   14.6     0.00006330     -8144.3203896997 -1.32E-03
   278 OT LS       0.17E+00    7.7                    -8144.3215482986
   279 OT LS       0.15E+00    7.7                    -8144.3215721740
   280 OT CG       0.12E+00   14.6     0.00006031     -8144.3215928385 -1.20E-03
   281 OT LS       0.17E+00    7.6                    -8144.3226475772
   282 OT LS       0.15E+00    7.7                    -8144.3226816124
   283 OT CG       0.12E+00   14.7     0.00005779     -8144.3226949643 -1.10E-03
   284 OT LS       0.17E+00    7.6                    -8144.3236608881
   285 OT LS       0.15E+00    7.6                    -8144.3236814244
   286 OT CG       0.12E+00   14.6     0.00005502     -8144.3236983461 -1.00E-03
   287 OT LS       0.17E+00    7.6                    -8144.3245741602
   288 OT LS       0.15E+00    7.6                    -8144.3245999451
   289 OT CG       0.12E+00   14.7     0.00005261     -8144.3246120737 -9.14E-04
   290 OT LS       0.17E+00    7.6                    -8144.3254134446
   291 OT LS       0.15E+00    7.6                    -8144.3254341091
   292 OT CG       0.12E+00   14.7     0.00005022     -8144.3254464946 -8.34E-04
   293 OT LS       0.17E+00    7.6                    -8144.3261768395
   294 OT LS       0.15E+00    7.6                    -8144.3261967817
   295 OT CG       0.12E+00   14.6     0.00004805     -8144.3262075792 -7.61E-04
   296 OT LS       0.17E+00    7.6                    -8144.3268764047
   297 OT LS       0.15E+00    7.7                    -8144.3268941758
   298 OT CG       0.12E+00   14.6     0.00004597     -8144.3269042786 -6.97E-04
   299 OT LS       0.17E+00    7.6                    -8144.3275165302
   300 OT LS       0.15E+00    7.6                    -8144.3275330403
   301 OT CG       0.12E+00   14.5     0.00004402     -8144.3275421807 -6.38E-04
   302 OT LS       0.17E+00    7.7                    -8144.3281050380
   303 OT LS       0.15E+00    7.6                    -8144.3281211427
   304 OT CG       0.12E+00   14.5     0.00004221     -8144.3281291423 -5.87E-04
   305 OT LS       0.17E+00    7.6                    -8144.3286456792
   306 OT LS       0.15E+00    7.6                    -8144.3286580292
   307 OT CG       0.12E+00   14.5     0.00004040     -8144.3286664505 -5.37E-04
   308 OT LS       0.17E+00    7.7                    -8144.3291405803
   309 OT LS       0.15E+00    7.7                    -8144.3291547721
   310 OT CG       0.12E+00   14.5     0.00003878     -8144.3291612413 -4.95E-04
   311 OT LS       0.17E+00    7.7                    -8144.3295975446
   312 OT LS       0.15E+00    7.7                    -8144.3296079432
   313 OT CG       0.12E+00   14.7     0.00003711     -8144.3296150692 -4.54E-04
   314 OT LS       0.17E+00    7.6                    -8144.3300131783
   315 OT LS       0.15E+00    7.7                    -8144.3300230765
   316 OT CG       0.12E+00   14.6     0.00003548     -8144.3300293919 -4.14E-04
   317 OT LS       0.17E+00    7.6                    -8144.3303937572
   318 OT LS       0.15E+00    7.6                    -8144.3304041272
   319 OT CG       0.12E+00   14.7     0.00003392     -8144.3304093275 -3.80E-04
   320 OT LS       0.17E+00    7.6                    -8144.3307419328
   321 OT LS       0.15E+00    7.6                    -8144.3307502758
   322 OT CG       0.12E+00   14.6     0.00003233     -8144.3307555174 -3.46E-04
   323 OT LS       0.17E+00    7.6                    -8144.3310579702
   324 OT LS       0.15E+00    7.6                    -8144.3310665550
   325 OT CG       0.12E+00   14.7     0.00003091     -8144.3310708767 -3.15E-04
   326 OT LS       0.17E+00    7.6                    -8144.3313469298
   327 OT LS       0.15E+00    7.5                    -8144.3313537720
   328 OT CG       0.12E+00   14.7     0.00002944     -8144.3313581525 -2.87E-04
   329 OT LS       0.17E+00    7.6                    -8144.3316084827
   330 OT LS       0.15E+00    7.6                    -8144.3316153271
   331 OT CG       0.12E+00   14.6     0.00002807     -8144.3316190119 -2.61E-04
   332 OT LS       0.17E+00    7.7                    -8144.3318466174
   333 OT LS       0.15E+00    7.6                    -8144.3318526966
   334 OT CG       0.12E+00   14.7     0.00002673     -8144.3318561090 -2.37E-04
   335 OT LS       0.17E+00    7.6                    -8144.3320623307
   336 OT LS       0.15E+00    7.6                    -8144.3320676821
   337 OT CG       0.12E+00   14.6     0.00002542     -8144.3320708427 -2.15E-04
   338 OT LS       0.17E+00    7.6                    -8144.3322575381
   339 OT LS       0.15E+00    7.6                    -8144.3322626389
   340 OT CG       0.12E+00   14.6     0.00002419     -8144.3322653863 -1.95E-04
   341 OT LS       0.17E+00    7.6                    -8144.3324341144
   342 OT LS       0.15E+00    7.6                    -8144.3324382579
   343 OT CG       0.12E+00   14.6     0.00002296     -8144.3324409486 -1.76E-04
   344 OT LS       0.17E+00    7.7                    -8144.3325930060
   345 OT LS       0.15E+00    7.6                    -8144.3325973000
   346 OT CG       0.12E+00   14.6     0.00002181     -8144.3325994766 -1.59E-04
   347 OT LS       0.17E+00    7.7                    -8144.3327367276
   348 OT LS       0.15E+00    7.6                    -8144.3327402785
   349 OT CG       0.12E+00   14.6     0.00002070     -8144.3327423862 -1.43E-04
   350 OT LS       0.17E+00    7.7                    -8144.3328660598
   351 OT LS       0.15E+00    7.6                    -8144.3328694359
   352 OT CG       0.12E+00   14.7     0.00001971     -8144.3328712570 -1.29E-04
   353 OT LS       0.17E+00    7.6                    -8144.3329832844
   354 OT LS       0.15E+00    7.7                    -8144.3329861958
   355 OT CG       0.12E+00   14.7     0.00001875     -8144.3329879101 -1.17E-04
   356 OT LS       0.17E+00    7.6                    -8144.3330894651
   357 OT LS       0.15E+00    7.6                    -8144.3330923774
   358 OT CG       0.12E+00   14.6     0.00001785     -8144.3330938117 -1.06E-04
   359 OT LS       0.17E+00    7.6                    -8144.3331861011
   360 OT LS       0.15E+00    7.6                    -8144.3331887163
   361 OT CG       0.12E+00   14.7     0.00001704     -8144.3331900333 -9.62E-05
   362 OT LS       0.17E+00    7.6                    -8144.3332740252
   363 OT LS       0.15E+00    7.6                    -8144.3332760260
   364 OT CG       0.12E+00   14.7     0.00001622     -8144.3332773933 -8.74E-05
   365 OT LS       0.17E+00    7.6                    -8144.3333534459
   366 OT LS       0.15E+00    7.6                    -8144.3333555578
   367 OT CG       0.12E+00   14.7     0.00001546     -8144.3333566617 -7.93E-05
   368 OT LS       0.17E+00    7.6                    -8144.3334257916
   369 OT LS       0.15E+00    7.6                    -8144.3334276353
   370 OT CG       0.12E+00   14.6     0.00001471     -8144.3334286720 -7.20E-05
   371 OT LS       0.17E+00    7.6                    -8144.3334911240
   372 OT LS       0.15E+00    7.6                    -8144.3334926450
   373 OT CG       0.12E+00   14.6     0.00001399     -8144.3334936464 -6.50E-05
   374 OT LS       0.17E+00    7.6                    -8144.3335501672
   375 OT LS       0.15E+00    7.7                    -8144.3335518012
   376 OT CG       0.12E+00   14.5     0.00001331     -8144.3335525937 -5.89E-05
   377 OT LS       0.17E+00    7.6                    -8144.3336037738
   378 OT LS       0.15E+00    7.7                    -8144.3336050648
   379 OT CG       0.12E+00   14.5     0.00001265     -8144.3336058654 -5.33E-05
   380 OT LS       0.17E+00    7.7                    -8144.3336521117
   381 OT LS       0.15E+00    7.7                    -8144.3336534080
   382 OT CG       0.12E+00   14.5     0.00001204     -8144.3336540741 -4.82E-05
   383 OT LS       0.17E+00    7.7                    -8144.3336959352
   384 OT LS       0.15E+00    7.6                    -8144.3336969733
   385 OT CG       0.12E+00   14.6     0.00001144     -8144.3336976362 -4.36E-05
   386 OT LS       0.17E+00    7.8                    -8144.3337354421
   387 OT LS       0.15E+00    7.7                    -8144.3337364995
   388 OT CG       0.12E+00   14.6     0.00001088     -8144.3337370451 -3.94E-05
   389 OT LS       0.17E+00    7.7                    -8144.3337712170
   390 OT LS       0.15E+00    7.6                    -8144.3337720899
   391 OT CG       0.12E+00   14.6     0.00001035     -8144.3337726197 -3.56E-05
   392 OT LS       0.17E+00    7.7                    -8144.3338035632
   393 OT LS       0.15E+00    7.6                    -8144.3338044270
   394 OT CG       0.12E+00   14.6     0.00000985     -8144.3338048743 -3.23E-05

  *** SCF run converged in   394 steps ***


  Electronic density on regular grids:      -1437.9999923216        0.0000076784
  Core density on regular grids:             1437.9999996447       -0.0000003553
  Total charge density on r-space grids:        0.0000073230
  Total charge density g-space grids:           0.0000073230

  Overlap energy of the core charge distribution:               0.00000638850611
  Self energy of the core charge distribution:             -14650.93922905635191
  Core Hamiltonian energy:                                   4107.57074019683932
  Hartree energy:                                            3440.64835152073510
  Exchange-correlation energy:                              -1042.49513682690963
  Dispersion energy:                                           -0.57771027762378

  DFT+U energy:                                                 1.45917318047498

  Total energy:                                             -8144.33380487433078

  outer SCF iter =    1 RMS gradient =   0.99E-05 energy =      -8144.3338048743
  outer SCF loop converged in   1 iterations or  394 steps


  Integrated absolute spin density  :                             235.0653023270
  Ideal and single determinant S**2 :                    0.000000     127.896916

 ENERGY| Total FORCE_EVAL ( QS ) energy (a.u.):            -8144.333832905691452


 --------  Informations at step =     0 ------------
  Optimization Method        =                 BFGS
  Total Energy               =     -8144.3338329057
  Used time                  =             5955.391
 ---------------------------------------------------

 --------------------------
 OPTIMIZATION STEP:      1
 --------------------------

 Spin 1

 Number of electrons:                                                        719
 Number of occupied orbitals:                                                719
 Number of molecular orbitals:                                               719

 Spin 2

 Number of electrons:                                                        719
 Number of occupied orbitals:                                                719
 Number of molecular orbitals:                                               719

 Number of orbital functions:                                               2718
 Number of independent orbital functions:                                   2718

 Extrapolation method: PS Nth order


 SCF WAVEFUNCTION OPTIMIZATION

  ----------------------------------- OT ---------------------------------------
  Minimizer      : CG                  : conjugate gradient
  Preconditioner : FULL_ALL            : diagonalization, state selective
  Precond_solver : DEFAULT
  Line search    : 3PNT                : 3 energies
  stepsize       :    0.15000000                  energy_gap     :    0.08000000
  eps_taylor     :   0.10000E-15                  max_taylor     :             4
  ----------------------------------- OT ---------------------------------------

  Step     Update method      Time    Convergence         Total energy    Change
  ------------------------------------------------------------------------------
     1 OT CG       0.12E+00   12.2     0.00013210     -8144.3364143678 -8.14E+03
     2 OT LS       0.17E+00    7.5                    -8144.3435187341
     3 OT LS       0.45E+00    7.4                    -8144.3457549293
     4 OT CG       0.36E+00   14.7     0.00006589     -8144.3518940788 -1.55E-02
     5 OT LS       0.18E+00    7.5                    -8144.3476219206
     6 OT LS       0.11E+00    7.3                    -8144.3523630747
     7 OT CG       0.86E-01   14.8     0.00002133     -8144.3528016846 -9.08E-04
     8 OT LS       0.12E+00    7.4                    -8144.3529008078
     9 OT LS       0.12E+00    7.4                    -8144.3529106032
    10 OT CG       0.98E-01   14.7     0.00001125     -8144.3529106504 -1.09E-04
    11 OT LS       0.14E+00    7.4                    -8144.3529402215
    12 OT LS       0.13E+00    7.4                    -8144.3529414266
    13 OT CG       0.10E+00   14.7     0.00000608     -8144.3529417029 -3.11E-05

  *** SCF run converged in    13 steps ***


  Electronic density on regular grids:      -1437.9999923066        0.0000076934
  Core density on regular grids:             1437.9999996448       -0.0000003552
  Total charge density on r-space grids:        0.0000073383
  Total charge density g-space grids:           0.0000073383

  Overlap energy of the core charge distribution:               0.00000568270009
  Self energy of the core charge distribution:             -14650.93922905635191
  Core Hamiltonian energy:                                   4107.53489291164078
  Hartree energy:                                            3440.65928158351153
  Exchange-correlation energy:                              -1042.48706070566368
  Dispersion energy:                                           -0.57770155371079

  DFT+U energy:                                                 1.45686943502206

  Total energy:                                             -8144.35294170285215

  outer SCF iter =    1 RMS gradient =   0.61E-05 energy =      -8144.3529417029
  outer SCF loop converged in   1 iterations or   13 steps


  Integrated absolute spin density  :                             235.0770496790
  Ideal and single determinant S**2 :                    0.000000     127.895945

 ENERGY| Total FORCE_EVAL ( QS ) energy (a.u.):            -8144.352950101999340


 --------  Informations at step =     1 ------------
  Optimization Method        =                 BFGS
  Total Energy               =     -8144.3529501020
  Real energy change         =        -0.0191171963
  Predicted change in energy =        -0.0152090299
  Scaling factor             =         0.0000000000
  Step size                  =         0.2618121716
  Trust radius               =         0.4724315332
  Decrease in energy         =                  YES
  Used time                  =              166.403

  Convergence check :
  Max. step size             =         0.2618121716
  Conv. limit for step size  =         1.0000000000
  Convergence in step size   =                  YES
  RMS step size              =         0.0208657656
  Conv. limit for RMS step   =         1.0000000000
  Convergence in RMS step    =                  YES
  Max. gradient              =         0.0228647303
  Conv. limit for gradients  =         0.0100000000
  Conv. for gradients        =                   NO
  RMS gradient               =         0.0020338674
  Conv. limit for RMS grad.  =         1.0000000000
  Conv. in RMS gradients     =                  YES
 ---------------------------------------------------

 --------------------------
 OPTIMIZATION STEP:      2
 --------------------------

 Spin 1

 Number of electrons:                                                        719
 Number of occupied orbitals:                                                719
 Number of molecular orbitals:                                               719

 Spin 2

 Number of electrons:                                                        719
 Number of occupied orbitals:                                                719
 Number of molecular orbitals:                                               719

 Number of orbital functions:                                               2718
 Number of independent orbital functions:                                   2718

 Extrapolation method: PS Nth order


 SCF WAVEFUNCTION OPTIMIZATION

  ----------------------------------- OT ---------------------------------------
  Minimizer      : CG                  : conjugate gradient
  Preconditioner : FULL_ALL            : diagonalization, state selective
  Precond_solver : DEFAULT
  Line search    : 3PNT                : 3 energies
  stepsize       :    0.15000000                  energy_gap     :    0.08000000
  eps_taylor     :   0.10000E-15                  max_taylor     :             4
  ----------------------------------- OT ---------------------------------------

  Step     Update method      Time    Convergence         Total energy    Change
  ------------------------------------------------------------------------------
     1 OT CG       0.12E+00   12.4     0.00011702     -8144.3454891864 -8.14E+03
     2 OT LS       0.17E+00    7.4                    -8144.3507821693
     3 OT LS       0.34E+00    7.5                    -8144.3522687361
     4 OT CG       0.27E+00   14.7     0.00010001     -8144.3546588878 -9.17E-03
     5 OT LS       0.14E+00    7.5                    -8144.3544404378
     6 OT LS       0.13E+00    7.4                    -8144.3573123441
     7 OT CG       0.11E+00   14.7     0.00002370     -8144.3573130428 -2.65E-03
     8 OT LS       0.15E+00    7.5                    -8144.3574482446
     9 OT LS       0.13E+00    7.5                    -8144.3574457409
    10 OT CG       0.10E+00   14.7     0.00000952     -8144.3574511274 -1.38E-04

  *** SCF run converged in    10 steps ***


  Electronic density on regular grids:      -1437.9999923026        0.0000076974
  Core density on regular grids:             1437.9999996448       -0.0000003552
  Total charge density on r-space grids:        0.0000073422
  Total charge density g-space grids:           0.0000073422

  Overlap energy of the core charge distribution:               0.00000716175086
  Self energy of the core charge distribution:             -14650.93922905635191
  Core Hamiltonian energy:                                   4107.61764739746104
  Hartree energy:                                            3440.59135643542959
  Exchange-correlation energy:                              -1042.50556395324975
  Dispersion energy:                                           -0.57695403939668

  DFT+U energy:                                                 1.45528492690980

  Total energy:                                             -8144.35745112744826

  outer SCF iter =    1 RMS gradient =   0.95E-05 energy =      -8144.3574511274
  outer SCF loop converged in   1 iterations or   10 steps


  Integrated absolute spin density  :                             235.0781784787
  Ideal and single determinant S**2 :                    0.000000     127.895680

 ENERGY| Total FORCE_EVAL ( QS ) energy (a.u.):            -8144.357474762518905


 --------  Informations at step =     2 ------------
  Optimization Method        =                 BFGS
  Total Energy               =     -8144.3574747625
  Real energy change         =        -0.0045246605
  Predicted change in energy =        -0.0042659299
  Scaling factor             =         0.0000000000
  Step size                  =         0.1401193285
  Trust radius               =         0.4724315332
  Decrease in energy         =                  YES
  Used time                  =              137.070

  Convergence check :
  Max. step size             =         0.1401193285
  Conv. limit for step size  =         1.0000000000
  Convergence in step size   =                  YES
  RMS step size              =         0.0145693685
  Conv. limit for RMS step   =         1.0000000000
  Convergence in RMS step    =                  YES
  Max. gradient              =         0.0183574275
  Conv. limit for gradients  =         0.0100000000
  Conv. for gradients        =                   NO
  RMS gradient               =         0.0027769251
  Conv. limit for RMS grad.  =         1.0000000000
  Conv. in RMS gradients     =                  YES
 ---------------------------------------------------

 --------------------------
 OPTIMIZATION STEP:      3
 --------------------------

 Spin 1

 Number of electrons:                                                        719
 Number of occupied orbitals:                                                719
 Number of molecular orbitals:                                               719

 Spin 2

 Number of electrons:                                                        719
 Number of occupied orbitals:                                                719
 Number of molecular orbitals:                                               719

 Number of orbital functions:                                               2718
 Number of independent orbital functions:                                   2718

 Extrapolation method: PS Nth order


 SCF WAVEFUNCTION OPTIMIZATION

  ----------------------------------- OT ---------------------------------------
  Minimizer      : CG                  : conjugate gradient
  Preconditioner : FULL_ALL            : diagonalization, state selective
  Precond_solver : DEFAULT
  Line search    : 3PNT                : 3 energies
  stepsize       :    0.15000000                  energy_gap     :    0.08000000
  eps_taylor     :   0.10000E-15                  max_taylor     :             4
  ----------------------------------- OT ---------------------------------------

  Step     Update method      Time    Convergence         Total energy    Change
  ------------------------------------------------------------------------------
     1 OT CG       0.12E+00   12.3     0.00021523     -8144.3037495001 -8.14E+03
     2 OT LS       0.17E+00    7.4                    -8144.3216807924
     3 OT LS       0.34E+00    7.4                    -8144.3267212404
     4 OT CG       0.27E+00   14.8     0.00018969     -8144.3347170922 -3.10E-02
     5 OT LS       0.14E+00    7.4                    -8144.3319164798
     6 OT LS       0.13E+00    7.4                    -8144.3434984602
     7 OT CG       0.10E+00   14.8     0.00005019     -8144.3435542140 -8.84E-03
     8 OT LS       0.14E+00    7.5                    -8144.3440530533
     9 OT LS       0.10E+00    7.4                    -8144.3439715128
    10 OT CG       0.81E-01   14.8     0.00002304     -8144.3440530570 -4.99E-04
    11 OT LS       0.11E+00    7.4                    -8144.3441674792
    12 OT LS       0.13E+00    7.5                    -8144.3441827187
    13 OT CG       0.10E+00   14.7     0.00001307     -8144.3441839383 -1.31E-04
    14 OT LS       0.14E+00    7.4                    -8144.3442261933
    15 OT LS       0.14E+00    7.5                    -8144.3442290117
    16 OT CG       0.11E+00   14.7     0.00000472     -8144.3442291020 -4.52E-05

  *** SCF run converged in    16 steps ***


  Electronic density on regular grids:      -1437.9999923086        0.0000076914
  Core density on regular grids:             1437.9999996448       -0.0000003552
  Total charge density on r-space grids:        0.0000073362
  Total charge density g-space grids:           0.0000073362

  Overlap energy of the core charge distribution:               0.00001118170095
  Self energy of the core charge distribution:             -14650.93922905635191
  Core Hamiltonian energy:                                   4107.75122893834487
  Hartree energy:                                            3440.49816032023000
  Exchange-correlation energy:                              -1042.52632944907259
  Dispersion energy:                                           -0.57771456421158

  DFT+U energy:                                                 1.44964352735625

  Total energy:                                             -8144.34422910200374

  outer SCF iter =    1 RMS gradient =   0.47E-05 energy =      -8144.3442291020
  outer SCF loop converged in   1 iterations or   16 steps


  Integrated absolute spin density  :                             235.0344873838
  Ideal and single determinant S**2 :                    0.000000     127.878416

 ENERGY| Total FORCE_EVAL ( QS ) energy (a.u.):            -8144.344234662707095


 --------  Informations at step =     3 ------------
  Optimization Method        =                 BFGS
  Total Energy               =     -8144.3442346627
  Real energy change         =         0.0132400998
  Predicted change in energy =        -0.0123367923
  Scaling factor             =         0.0000000000
  Step size                  =         0.4705847154
  Trust radius               =         0.4724315332
  Decrease in energy         =                   NO
  Used time                  =              196.489

  Convergence check :
  Max. step size             =         0.4705847154
  Conv. limit for step size  =         1.0000000000
  Convergence in step size   =                  YES
  RMS step size              =         0.0476247721
  Conv. limit for RMS step   =         1.0000000000
  Convergence in RMS step    =                  YES
  Max. gradient              =         0.0769593674
  Conv. limit for gradients  =         0.0100000000
  Conv. for gradients        =                   NO
  RMS gradient               =         0.0065309310
  Conv. limit for RMS grad.  =         1.0000000000
  Conv. in RMS gradients     =                  YES
 ---------------------------------------------------

 --------------------------
 OPTIMIZATION STEP:      4
 --------------------------

 Spin 1

 Number of electrons:                                                        719
 Number of occupied orbitals:                                                719
 Number of molecular orbitals:                                               719

 Spin 2

 Number of electrons:                                                        719
 Number of occupied orbitals:                                                719
 Number of molecular orbitals:                                               719

 Number of orbital functions:                                               2718
 Number of independent orbital functions:                                   2718

 Extrapolation method: PS Nth order


 SCF WAVEFUNCTION OPTIMIZATION

  ----------------------------------- OT ---------------------------------------
  Minimizer      : CG                  : conjugate gradient
  Preconditioner : FULL_ALL            : diagonalization, state selective
  Precond_solver : DEFAULT
  Line search    : 3PNT                : 3 energies
  stepsize       :    0.15000000                  energy_gap     :    0.08000000
  eps_taylor     :   0.10000E-15                  max_taylor     :             4
  ----------------------------------- OT ---------------------------------------

  Step     Update method      Time    Convergence         Total energy    Change
  ------------------------------------------------------------------------------
     1 OT CG       0.12E+00   12.4     0.00040666     -8144.2188713445 -8.14E+03
     2 OT LS       0.17E+00    7.4                    -8144.2821082173
     3 OT LS       0.32E+00    7.3                    -8144.2993726319
     4 OT CG       0.26E+00   15.1     0.00034153     -8144.3237549130 -1.05E-01
     5 OT LS       0.36E+00    7.7                    -8144.3327782550
     6 OT LS       0.14E+00    7.5                    -8144.2746430949
     7 OT CG       0.11E+00   14.9     0.00010789     -8144.3558722692 -3.21E-02
     8 OT LS       0.16E+00    7.5                    -8144.3581666805
     9 OT LS       0.10E+00    7.5                    -8144.3575002837
    10 OT CG       0.81E-01   14.9     0.00004741     -8144.3581918712 -2.32E-03
    11 OT LS       0.11E+00    7.5                    -8144.3586817278
    12 OT LS       0.13E+00    7.5                    -8144.3587514801
    13 OT CG       0.10E+00   14.9     0.00002695     -8144.3587593580 -5.67E-04
    14 OT LS       0.14E+00    7.5                    -8144.3589477485
    15 OT LS       0.14E+00    7.5                    -8144.3589643462
    16 OT CG       0.12E+00   15.0     0.00000985     -8144.3589643467 -2.05E-04

  *** SCF run converged in    16 steps ***


  Electronic density on regular grids:      -1437.9999922936        0.0000077064
  Core density on regular grids:             1437.9999996449       -0.0000003551
  Total charge density on r-space grids:        0.0000073513
  Total charge density g-space grids:           0.0000073513

  Overlap energy of the core charge distribution:               0.00000514509183
  Self energy of the core charge distribution:             -14650.93922905635191
  Core Hamiltonian energy:                                   4107.52077008536799
  Hartree energy:                                            3440.66528695827674
  Exchange-correlation energy:                              -1042.48236612899655
  Dispersion energy:                                           -0.57668313133118

  DFT+U energy:                                                 1.45325178119508

  Total energy:                                             -8144.35896434674851

  outer SCF iter =    1 RMS gradient =   0.99E-05 energy =      -8144.3589643467
  outer SCF loop converged in   1 iterations or   16 steps


  Integrated absolute spin density  :                             235.0577110490
  Ideal and single determinant S**2 :                    0.000000     127.892222

 ENERGY| Total FORCE_EVAL ( QS ) energy (a.u.):            -8144.358991884999341


 --------  Informations at step =     4 ------------
  Optimization Method        =                 BFGS
  Total Energy               =     -8144.3589918850
  Real energy change         =        -0.0147572223
  Predicted change in energy =        -0.0146208616
  Scaling factor             =         0.0000000000
  Step size                  =         0.1665380576
  Trust radius               =         0.4724315332
  Decrease in energy         =                  YES
  Used time                  =              198.076

  Convergence check :
  Max. step size             =         0.1665380576
  Conv. limit for step size  =         1.0000000000
  Convergence in step size   =                  YES
  RMS step size              =         0.0191736746
  Conv. limit for RMS step   =         1.0000000000
  Convergence in RMS step    =                  YES
  Max. gradient              =         0.0303478382
  Conv. limit for gradients  =         0.0100000000
  Conv. for gradients        =                   NO
  RMS gradient               =         0.0032296900
  Conv. limit for RMS grad.  =         1.0000000000
  Conv. in RMS gradients     =                  YES
 ---------------------------------------------------

 --------------------------
 OPTIMIZATION STEP:      5
 --------------------------

 Spin 1

 Number of electrons:                                                        719
 Number of occupied orbitals:                                                719
 Number of molecular orbitals:                                               719

 Spin 2

 Number of electrons:                                                        719
 Number of occupied orbitals:                                                719
 Number of molecular orbitals:                                               719

 Number of orbital functions:                                               2718
 Number of independent orbital functions:                                   2718

 Extrapolation method: PS Nth order


 SCF WAVEFUNCTION OPTIMIZATION

  ----------------------------------- OT ---------------------------------------
  Minimizer      : CG                  : conjugate gradient
  Preconditioner : FULL_ALL            : diagonalization, state selective
  Precond_solver : DEFAULT
  Line search    : 3PNT                : 3 energies
  stepsize       :    0.15000000                  energy_gap     :    0.08000000
  eps_taylor     :   0.10000E-15                  max_taylor     :             4
  ----------------------------------- OT ---------------------------------------

  Step     Update method      Time    Convergence         Total energy    Change
  ------------------------------------------------------------------------------
     1 OT CG       0.12E+00   12.2     0.00032833     -8144.2687302450 -8.14E+03
     2 OT LS       0.17E+00    7.5                    -8144.3079025600
     3 OT LS       0.27E+00    7.3                    -8144.3172135490
     4 OT CG       0.21E+00   14.7     0.00027563     -8144.3250102879 -5.63E-02
     5 OT LS       0.30E+00    7.5                    -8144.3476040126
     6 OT LS       0.17E+00    7.3                    -8144.3335884772
     7 OT CG       0.13E+00   14.8     0.00008607     -8144.3496908353 -2.47E-02
     8 OT LS       0.19E+00    7.4                    -8144.3513615960
     9 OT LS       0.12E+00    7.4                    -8144.3508143305
    10 OT CG       0.94E-01   14.8     0.00004044     -8144.3513901238 -1.70E-03
    11 OT LS       0.13E+00    7.5                    -8144.3517832965
    12 OT LS       0.14E+00    7.5                    -8144.3518253866
    13 OT CG       0.11E+00   14.8     0.00002578     -8144.3518260319 -4.36E-04
    14 OT LS       0.15E+00    7.4                    -8144.3519808897
    15 OT LS       0.12E+00    7.5                    -8144.3519707687
    16 OT CG       0.96E-01   14.7     0.00000773     -8144.3519822214 -1.56E-04

  *** SCF run converged in    16 steps ***


  Electronic density on regular grids:      -1437.9999922838        0.0000077162
  Core density on regular grids:             1437.9999996439       -0.0000003561
  Total charge density on r-space grids:        0.0000073601
  Total charge density g-space grids:           0.0000073601

  Overlap energy of the core charge distribution:               0.00000551890147
  Self energy of the core charge distribution:             -14650.93922905635191
  Core Hamiltonian energy:                                   4107.54166503830493
  Hartree energy:                                            3440.64958529024307
  Exchange-correlation energy:                              -1042.48362326164465
  Dispersion energy:                                           -0.57772683310947

  DFT+U energy:                                                 1.45734108221752

  Total energy:                                             -8144.35198222143936

  outer SCF iter =    1 RMS gradient =   0.77E-05 energy =      -8144.3519822214
  outer SCF loop converged in   1 iterations or   16 steps


  Integrated absolute spin density  :                             235.0518497998
  Ideal and single determinant S**2 :                    0.000000     127.889070

 ENERGY| Total FORCE_EVAL ( QS ) energy (a.u.):            -8144.351997579336967


 --------  Informations at step =     5 ------------
  Optimization Method        =                 BFGS
  Total Energy               =     -8144.3519975793
  Real energy change         =         0.0069943057
  Predicted change in energy =        -0.0105379694
  Scaling factor             =         0.0000000000
  Step size                  =         0.2062653456
  Trust radius               =         0.4724315332
  Decrease in energy         =                   NO
  Used time                  =              196.223

  Convergence check :
  Max. step size             =         0.2062653456
  Conv. limit for step size  =         1.0000000000
  Convergence in step size   =                  YES
  RMS step size              =         0.0290509561
  Conv. limit for RMS step   =         1.0000000000
  Convergence in RMS step    =                  YES
  Max. gradient              =         0.0305990488
  Conv. limit for gradients  =         0.0100000000
  Conv. for gradients        =                   NO
  RMS gradient               =         0.0034541027
  Conv. limit for RMS grad.  =         1.0000000000
  Conv. in RMS gradients     =                  YES
 ---------------------------------------------------

 --------------------------
 OPTIMIZATION STEP:      6
 --------------------------

 Spin 1

 Number of electrons:                                                        719
 Number of occupied orbitals:                                                719
 Number of molecular orbitals:                                               719

 Spin 2

 Number of electrons:                                                        719
 Number of occupied orbitals:                                                719
 Number of molecular orbitals:                                               719

 Number of orbital functions:                                               2718
 Number of independent orbital functions:                                   2718

 Extrapolation method: PS Nth order


 SCF WAVEFUNCTION OPTIMIZATION

  ----------------------------------- OT ---------------------------------------
  Minimizer      : CG                  : conjugate gradient
  Preconditioner : FULL_ALL            : diagonalization, state selective
  Precond_solver : DEFAULT
  Line search    : 3PNT                : 3 energies
  stepsize       :    0.15000000                  energy_gap     :    0.08000000
  eps_taylor     :   0.10000E-15                  max_taylor     :             4
  ----------------------------------- OT ---------------------------------------

  Step     Update method      Time    Convergence         Total energy    Change
  ------------------------------------------------------------------------------
     1 OT CG       0.12E+00   12.3     0.00033353     -8144.2726433704 -8.14E+03
     2 OT LS       0.17E+00    7.4                    -8144.3130254724
     3 OT LS       0.27E+00    7.4                    -8144.3225859686
     4 OT CG       0.21E+00   14.9     0.00028776     -8144.3304438445 -5.78E-02
     5 OT LS       0.30E+00    7.5                    -8144.3556328289
     6 OT LS       0.17E+00    7.4                    -8144.3410876021
     7 OT CG       0.13E+00   14.8     0.00010341     -8144.3576222609 -2.72E-02
     8 OT LS       0.19E+00    7.3                    -8144.3596074822
     9 OT LS       0.10E+00    7.5                    -8144.3583712254
    10 OT CG       0.83E-01   14.8     0.00004102     -8144.3597920427 -2.17E-03
    11 OT LS       0.12E+00    7.4                    -8144.3601354300
    12 OT LS       0.11E+00    7.6                    -8144.3601599382
    13 OT CG       0.90E-01   14.9     0.00002249     -8144.3601603978 -3.68E-04
    14 OT LS       0.13E+00    7.4                    -8144.3602872102
    15 OT LS       0.16E+00    7.4                    -8144.3603097342
    16 OT CG       0.13E+00   14.8     0.00001018     -8144.3603162238 -1.56E-04
    17 OT LS       0.18E+00    7.4                    -8144.3603430360
    18 OT LS       0.13E+00    7.5                    -8144.3603401793
    19 OT CG       0.11E+00   14.9     0.00000560     -8144.3603431035 -2.69E-05

  *** SCF run converged in    19 steps ***


  Electronic density on regular grids:      -1437.9999922891        0.0000077109
  Core density on regular grids:             1437.9999996440       -0.0000003560
  Total charge density on r-space grids:        0.0000073549
  Total charge density g-space grids:           0.0000073549

  Overlap energy of the core charge distribution:               0.00000738753247
  Self energy of the core charge distribution:             -14650.93922905635191
  Core Hamiltonian energy:                                   4107.53027481629761
  Hartree energy:                                            3440.65014668262802
  Exchange-correlation energy:                              -1042.48229951618487
  Dispersion energy:                                           -0.57765104916616

  DFT+U energy:                                                 1.45840763177464

  Total energy:                                             -8144.36034310346986

  outer SCF iter =    1 RMS gradient =   0.56E-05 energy =      -8144.3603431035
  outer SCF loop converged in   1 iterations or   19 steps


  Integrated absolute spin density  :                             235.0730329726
  Ideal and single determinant S**2 :                    0.000000     127.896252

 ENERGY| Total FORCE_EVAL ( QS ) energy (a.u.):            -8144.360352170816441


 --------  Informations at step =     6 ------------
  Optimization Method        =                 BFGS
  Total Energy               =     -8144.3603521708
  Real energy change         =        -0.0083545915
  Predicted change in energy =        -0.0072468338
  Scaling factor             =         0.0000000000
  Step size                  =         0.1141713852
  Trust radius               =         0.4724315332
  Decrease in energy         =                  YES
  Used time                  =              226.608

  Convergence check :
  Max. step size             =         0.1141713852
  Conv. limit for step size  =         1.0000000000
  Convergence in step size   =                  YES
  RMS step size              =         0.0150601853
  Conv. limit for RMS step   =         1.0000000000
  Convergence in RMS step    =                  YES
  Max. gradient              =         0.0118366310
  Conv. limit for gradients  =         0.0100000000
  Conv. for gradients        =                   NO
  RMS gradient               =         0.0018516764
  Conv. limit for RMS grad.  =         1.0000000000
  Conv. in RMS gradients     =                  YES
 ---------------------------------------------------

 --------------------------
 OPTIMIZATION STEP:      7
 --------------------------

 Spin 1

 Number of electrons:                                                        719
 Number of occupied orbitals:                                                719
 Number of molecular orbitals:                                               719

 Spin 2

 Number of electrons:                                                        719
 Number of occupied orbitals:                                                719
 Number of molecular orbitals:                                               719

 Number of orbital functions:                                               2718
 Number of independent orbital functions:                                   2718

 Extrapolation method: PS Nth order


 SCF WAVEFUNCTION OPTIMIZATION

  ----------------------------------- OT ---------------------------------------
  Minimizer      : CG                  : conjugate gradient
  Preconditioner : FULL_ALL            : diagonalization, state selective
  Precond_solver : DEFAULT
  Line search    : 3PNT                : 3 energies
  stepsize       :    0.15000000                  energy_gap     :    0.08000000
  eps_taylor     :   0.10000E-15                  max_taylor     :             4
  ----------------------------------- OT ---------------------------------------

  Step     Update method      Time    Convergence         Total energy    Change
  ------------------------------------------------------------------------------
     1 OT CG       0.12E+00   12.3     0.00021256     -8144.3146020104 -8.14E+03
     2 OT LS       0.17E+00    7.4                    -8144.3309643263
     3 OT LS       0.26E+00    7.4                    -8144.3348086209
     4 OT CG       0.21E+00   14.6     0.00018551     -8144.3378763441 -2.33E-02
     5 OT LS       0.30E+00    7.4                    -8144.3487657230
     6 OT LS       0.17E+00    7.5                    -8144.3433196400
     7 OT CG       0.14E+00   14.7     0.00005700     -8144.3493904025 -1.15E-02
     8 OT LS       0.19E+00    7.4                    -8144.3499756440
     9 OT LS       0.10E+00    7.4                    -8144.3495654104
    10 OT CG       0.83E-01   14.8     0.00002445     -8144.3500452168 -6.55E-04
    11 OT LS       0.12E+00    7.4                    -8144.3501733420
    12 OT LS       0.12E+00    7.5                    -8144.3501883058
    13 OT CG       0.98E-01   14.8     0.00001423     -8144.3501888130 -1.44E-04
    14 OT LS       0.14E+00    7.3                    -8144.3502385118
    15 OT LS       0.14E+00    7.4                    -8144.3502426733
    16 OT CG       0.11E+00   14.8     0.00000555     -8144.3502426793 -5.39E-05

  *** SCF run converged in    16 steps ***


  Electronic density on regular grids:      -1437.9999922972        0.0000077028
  Core density on regular grids:             1437.9999996441       -0.0000003559
  Total charge density on r-space grids:        0.0000073469
  Total charge density g-space grids:           0.0000073469

  Overlap energy of the core charge distribution:               0.00000783877196
  Self energy of the core charge distribution:             -14650.93922905635191
  Core Hamiltonian energy:                                   4107.40894772897536
  Hartree energy:                                            3440.74187029643463
  Exchange-correlation energy:                              -1042.45407506160518
  Dispersion energy:                                           -0.56680663208917

  DFT+U energy:                                                 1.45904220657788

  Total energy:                                             -8144.35024267928839

  outer SCF iter =    1 RMS gradient =   0.55E-05 energy =      -8144.3502426793
  outer SCF loop converged in   1 iterations or   16 steps


  Integrated absolute spin density  :                             235.0910235804
  Ideal and single determinant S**2 :                    0.000000     127.904191

 ENERGY| Total FORCE_EVAL ( QS ) energy (a.u.):            -8144.350250783711999


 --------  Informations at step =     7 ------------
  Optimization Method        =                 BFGS
  Total Energy               =     -8144.3502507837
  Real energy change         =         0.0101013871
  Predicted change in energy =        -0.0055613777
  Scaling factor             =         0.0000000000
  Step size                  =         0.1695366839
  Trust radius               =         0.4724315332
  Decrease in energy         =                   NO
  Used time                  =              196.395

  Convergence check :
  Max. step size             =         0.1695366839
  Conv. limit for step size  =         1.0000000000
  Convergence in step size   =                  YES
  RMS step size              =         0.0226243514
  Conv. limit for RMS step   =         1.0000000000
  Convergence in RMS step    =                  YES
  Max. gradient              =         0.0307913784
  Conv. limit for gradients  =         0.0100000000
  Conv. for gradients        =                   NO
  RMS gradient               =         0.0058759203
  Conv. limit for RMS grad.  =         1.0000000000
  Conv. in RMS gradients     =                  YES
 ---------------------------------------------------

 --------------------------
 OPTIMIZATION STEP:      8
 --------------------------

 Spin 1

 Number of electrons:                                                        719
 Number of occupied orbitals:                                                719
 Number of molecular orbitals:                                               719

 Spin 2

 Number of electrons:                                                        719
 Number of occupied orbitals:                                                719
 Number of molecular orbitals:                                               719

 Number of orbital functions:                                               2718
 Number of independent orbital functions:                                   2718

 Extrapolation method: PS Nth order


 SCF WAVEFUNCTION OPTIMIZATION

  ----------------------------------- OT ---------------------------------------
  Minimizer      : CG                  : conjugate gradient
  Preconditioner : FULL_ALL            : diagonalization, state selective
  Precond_solver : DEFAULT
  Line search    : 3PNT                : 3 energies
  stepsize       :    0.15000000                  energy_gap     :    0.08000000
  eps_taylor     :   0.10000E-15                  max_taylor     :             4
  ----------------------------------- OT ---------------------------------------

  Step     Update method      Time    Convergence         Total energy    Change
  ------------------------------------------------------------------------------
     1 OT CG       0.12E+00   12.3     0.00023483     -8144.3196202519 -8.14E+03
     2 OT LS       0.17E+00    7.4                    -8144.3390814230
     3 OT LS       0.24E+00    7.4                    -8144.3432826932
     4 OT CG       0.19E+00   14.8     0.00020590     -8144.3457515524 -2.61E-02
     5 OT LS       0.27E+00    7.4                    -8144.3603078580
     6 OT LS       0.18E+00    7.4                    -8144.3563191601
     7 OT CG       0.14E+00   14.8     0.00007080     -8144.3604353167 -1.47E-02
     8 OT LS       0.20E+00    7.4                    -8144.3611560924
     9 OT LS       0.96E-01    7.3                    -8144.3602906839
    10 OT CG       0.77E-01   14.9     0.00002971     -8144.3613738321 -9.39E-04
    11 OT LS       0.11E+00    7.4                    -8144.3615618048
    12 OT LS       0.13E+00    7.5                    -8144.3615940113
    13 OT CG       0.11E+00   14.9     0.00001727     -8144.3616020884 -2.28E-04
    14 OT LS       0.15E+00    7.4                    -8144.3616810345
    15 OT LS       0.15E+00    7.4                    -8144.3616877847
    16 OT CG       0.12E+00   14.8     0.00000698     -8144.3616877888 -8.57E-05

  *** SCF run converged in    16 steps ***


  Electronic density on regular grids:      -1437.9999922799        0.0000077201
  Core density on regular grids:             1437.9999996442       -0.0000003558
  Total charge density on r-space grids:        0.0000073644
  Total charge density g-space grids:           0.0000073644

  Overlap energy of the core charge distribution:               0.00000605389882
  Self energy of the core charge distribution:             -14650.93922905635191
  Core Hamiltonian energy:                                   4107.41379820051316
  Hartree energy:                                            3440.73566520791110
  Exchange-correlation energy:                              -1042.45278959056668
  Dispersion energy:                                           -0.57783678314814

  DFT+U energy:                                                 1.45869817889709

  Total energy:                                             -8144.36168778884803

  outer SCF iter =    1 RMS gradient =   0.70E-05 energy =      -8144.3616877888
  outer SCF loop converged in   1 iterations or   16 steps


  Integrated absolute spin density  :                             235.0675445562
  Ideal and single determinant S**2 :                    0.000000     127.895313

 ENERGY| Total FORCE_EVAL ( QS ) energy (a.u.):            -8144.361701612809156


 --------  Informations at step =     8 ------------
  Optimization Method        =                 BFGS
  Total Energy               =     -8144.3617016128
  Real energy change         =        -0.0114508291
  Predicted change in energy =        -0.0131060215
  Scaling factor             =         0.0000000000
  Step size                  =         0.0686620601
  Trust radius               =         0.4724315332
  Decrease in energy         =                  YES
  Used time                  =              196.744

  Convergence check :
  Max. step size             =         0.0686620601
  Conv. limit for step size  =         1.0000000000
  Convergence in step size   =                  YES
  RMS step size              =         0.0111591307
  Conv. limit for RMS step   =         1.0000000000
  Convergence in RMS step    =                  YES
  Max. gradient              =         0.0141337262
  Conv. limit for gradients  =         0.0100000000
  Conv. for gradients        =                   NO
  RMS gradient               =         0.0017305169
  Conv. limit for RMS grad.  =         1.0000000000
  Conv. in RMS gradients     =                  YES
 ---------------------------------------------------

 --------------------------
 OPTIMIZATION STEP:      9
 --------------------------

 Spin 1

 Number of electrons:                                                        719
 Number of occupied orbitals:                                                719
 Number of molecular orbitals:                                               719

 Spin 2

 Number of electrons:                                                        719
 Number of occupied orbitals:                                                719
 Number of molecular orbitals:                                               719

 Number of orbital functions:                                               2718
 Number of independent orbital functions:                                   2718

 Extrapolation method: PS Nth order


 SCF WAVEFUNCTION OPTIMIZATION

  ----------------------------------- OT ---------------------------------------
  Minimizer      : CG                  : conjugate gradient
  Preconditioner : FULL_ALL            : diagonalization, state selective
  Precond_solver : DEFAULT
  Line search    : 3PNT                : 3 energies
  stepsize       :    0.15000000                  energy_gap     :    0.08000000
  eps_taylor     :   0.10000E-15                  max_taylor     :             4
  ----------------------------------- OT ---------------------------------------

  Step     Update method      Time    Convergence         Total energy    Change
  ------------------------------------------------------------------------------
     1 OT CG       0.12E+00   12.2     0.00022246     -8144.3229517606 -8.14E+03
     2 OT LS       0.17E+00    7.5                    -8144.3400413283
     3 OT LS       0.23E+00    7.4                    -8144.3434532175
     4 OT CG       0.18E+00   14.7     0.00018088     -8144.3449709827 -2.20E-02
     5 OT LS       0.26E+00    7.5                    -8144.3573460166
     6 OT LS       0.19E+00    7.4                    -8144.3561567999
     7 OT CG       0.16E+00   14.7     0.00006940     -8144.3573919369 -1.24E-02
     8 OT LS       0.22E+00    7.4                    -8144.3582396145
     9 OT LS       0.11E+00    7.4                    -8144.3574179352
    10 OT CG       0.87E-01   14.9     0.00002775     -8144.3584207062 -1.03E-03
    11 OT LS       0.12E+00    7.4                    -8144.3585838435
    12 OT LS       0.12E+00    7.4                    -8144.3585931662
    13 OT CG       0.92E-01   14.8     0.00001621     -8144.3585938586 -1.73E-04
    14 OT LS       0.13E+00    7.4                    -8144.3586600424
    15 OT LS       0.15E+00    7.4                    -8144.3586706440
    16 OT CG       0.12E+00   14.8     0.00000639     -8144.3586726721 -7.88E-05

  *** SCF run converged in    16 steps ***


  Electronic density on regular grids:      -1437.9999922972        0.0000077028
  Core density on regular grids:             1437.9999996444       -0.0000003556
  Total charge density on r-space grids:        0.0000073472
  Total charge density g-space grids:           0.0000073472

  Overlap energy of the core charge distribution:               0.00000718505375
  Self energy of the core charge distribution:             -14650.93922905635191
  Core Hamiltonian energy:                                   4107.42607136611878
  Hartree energy:                                            3440.72453472182451
  Exchange-correlation energy:                              -1042.45803898687154
  Dispersion energy:                                           -0.57340191589228

  DFT+U energy:                                                 1.46138401397148

  Total energy:                                             -8144.35867267214689

  outer SCF iter =    1 RMS gradient =   0.64E-05 energy =      -8144.3586726721
  outer SCF loop converged in   1 iterations or   16 steps


  Integrated absolute spin density  :                             235.0871082121
  Ideal and single determinant S**2 :                    0.000000     127.904954

 ENERGY| Total FORCE_EVAL ( QS ) energy (a.u.):            -8144.358683380363800


 --------  Informations at step =     9 ------------
  Optimization Method        =                 BFGS
  Total Energy               =     -8144.3586833804
  Real energy change         =         0.0030182324
  Predicted change in energy =        -0.0035473905
  Scaling factor             =         0.0000000000
  Step size                  =         0.0933987996
  Trust radius               =         0.4724315332
  Decrease in energy         =                   NO
  Used time                  =              196.492

  Convergence check :
  Max. step size             =         0.0933987996
  Conv. limit for step size  =         1.0000000000
  Convergence in step size   =                  YES
  RMS step size              =         0.0145468905
  Conv. limit for RMS step   =         1.0000000000
  Convergence in RMS step    =                  YES
  Max. gradient              =         0.0350473872
  Conv. limit for gradients  =         0.0100000000
  Conv. for gradients        =                   NO
  RMS gradient               =         0.0056023052
  Conv. limit for RMS grad.  =         1.0000000000
  Conv. in RMS gradients     =                  YES
 ---------------------------------------------------

 --------------------------
 OPTIMIZATION STEP:     10
 --------------------------

 Spin 1

 Number of electrons:                                                        719
 Number of occupied orbitals:                                                719
 Number of molecular orbitals:                                               719

 Spin 2

 Number of electrons:                                                        719
 Number of occupied orbitals:                                                719
 Number of molecular orbitals:                                               719

 Number of orbital functions:                                               2718
 Number of independent orbital functions:                                   2718

 Extrapolation method: PS Nth order


 SCF WAVEFUNCTION OPTIMIZATION

  ----------------------------------- OT ---------------------------------------
  Minimizer      : CG                  : conjugate gradient
  Preconditioner : FULL_ALL            : diagonalization, state selective
  Precond_solver : DEFAULT
  Line search    : 3PNT                : 3 energies
  stepsize       :    0.15000000                  energy_gap     :    0.08000000
  eps_taylor     :   0.10000E-15                  max_taylor     :             4
  ----------------------------------- OT ---------------------------------------

  Step     Update method      Time    Convergence         Total energy    Change
  ------------------------------------------------------------------------------
     1 OT CG       0.12E+00   12.3     0.00020789     -8144.3294895320 -8.14E+03
     2 OT LS       0.17E+00    7.4                    -8144.3447547582
     3 OT LS       0.24E+00    7.5                    -8144.3480560044
     4 OT CG       0.19E+00   14.8     0.00017686     -8144.3500031618 -2.05E-02
     5 OT LS       0.27E+00    7.4                    -8144.3609518745
     6 OT LS       0.18E+00    7.5                    -8144.3582095099
     7 OT CG       0.14E+00   14.7     0.00006427     -8144.3610151140 -1.10E-02
     8 OT LS       0.20E+00    7.3                    -8144.3616811120
     9 OT LS       0.10E+00    7.4                    -8144.3610097512
    10 OT CG       0.81E-01   14.8     0.00002745     -8144.3618320719 -8.17E-04
    11 OT LS       0.11E+00    7.5                    -8144.3619867954
    12 OT LS       0.12E+00    7.5                    -8144.3620018431
    13 OT CG       0.92E-01   14.7     0.00001520     -8144.3620018956 -1.70E-04
    14 OT LS       0.13E+00    7.5                    -8144.3620597855
    15 OT LS       0.15E+00    7.4                    -8144.3620687390
    16 OT CG       0.12E+00   14.7     0.00000632     -8144.3620702155 -6.83E-05

  *** SCF run converged in    16 steps ***


  Electronic density on regular grids:      -1437.9999922793        0.0000077207
  Core density on regular grids:             1437.9999996440       -0.0000003560
  Total charge density on r-space grids:        0.0000073647
  Total charge density g-space grids:           0.0000073647

  Overlap energy of the core charge distribution:               0.00000749933659
  Self energy of the core charge distribution:             -14650.93922905635191
  Core Hamiltonian energy:                                   4107.45158355398235
  Hartree energy:                                            3440.70444092261368
  Exchange-correlation energy:                              -1042.46241693911315
  Dispersion energy:                                           -0.57758507194143

  DFT+U energy:                                                 1.46112887598712

  Total energy:                                             -8144.36207021548580

  outer SCF iter =    1 RMS gradient =   0.63E-05 energy =      -8144.3620702155
  outer SCF loop converged in   1 iterations or   16 steps


  Integrated absolute spin density  :                             235.0795450212
  Ideal and single determinant S**2 :                    0.000000     127.901191

 ENERGY| Total FORCE_EVAL ( QS ) energy (a.u.):            -8144.362080744560444


 --------  Informations at step =    10 ------------
  Optimization Method        =                 BFGS
  Total Energy               =     -8144.3620807446
  Real energy change         =        -0.0033973642
  Predicted change in energy =        -0.0094376897
  Scaling factor             =         0.0000000000
  Step size                  =         0.0527859378
  Trust radius               =         0.4724315332
  Decrease in energy         =                  YES
  Used time                  =              196.581

  Convergence check :
  Max. step size             =         0.0527859378
  Conv. limit for step size  =         1.0000000000
  Convergence in step size   =                  YES
  RMS step size              =         0.0087250622
  Conv. limit for RMS step   =         1.0000000000
  Convergence in RMS step    =                  YES
  Max. gradient              =         0.0138573327
  Conv. limit for gradients  =         0.0100000000
  Conv. for gradients        =                   NO
  RMS gradient               =         0.0019340155
  Conv. limit for RMS grad.  =         1.0000000000
  Conv. in RMS gradients     =                  YES
 ---------------------------------------------------

 --------------------------
 OPTIMIZATION STEP:     11
 --------------------------

 Spin 1

 Number of electrons:                                                        719
 Number of occupied orbitals:                                                719
 Number of molecular orbitals:                                               719

 Spin 2

 Number of electrons:                                                        719
 Number of occupied orbitals:                                                719
 Number of molecular orbitals:                                               719

 Number of orbital functions:                                               2718
 Number of independent orbital functions:                                   2718

 Extrapolation method: PS Nth order


 SCF WAVEFUNCTION OPTIMIZATION

  ----------------------------------- OT ---------------------------------------
  Minimizer      : CG                  : conjugate gradient
  Preconditioner : FULL_ALL            : diagonalization, state selective
  Precond_solver : DEFAULT
  Line search    : 3PNT                : 3 energies
  stepsize       :    0.15000000                  energy_gap     :    0.08000000
  eps_taylor     :   0.10000E-15                  max_taylor     :             4
  ----------------------------------- OT ---------------------------------------

  Step     Update method      Time    Convergence         Total energy    Change
  ------------------------------------------------------------------------------
     1 OT CG       0.12E+00   12.3     0.00015410     -8144.3421640497 -8.14E+03
     2 OT LS       0.17E+00    7.3                    -8144.3502123148
     3 OT LS       0.22E+00    7.5                    -8144.3517031810
     4 OT CG       0.17E+00   14.7     0.00012407     -8144.3522074639 -1.00E-02
     5 OT LS       0.24E+00    7.4                    -8144.3580797849
     6 OT LS       0.20E+00    7.5                    -8144.3578744092
     7 OT CG       0.16E+00   14.7     0.00005459     -8144.3581743382 -5.97E-03
     8 OT LS       0.22E+00    7.4                    -8144.3585175606
     9 OT LS       0.97E-01    7.4                    -8144.3578135937
    10 OT CG       0.78E-01   14.7     0.00002147     -8144.3587411530 -5.67E-04
    11 OT LS       0.11E+00    7.5                    -8144.3588349952
    12 OT LS       0.12E+00    7.4                    -8144.3588465354
    13 OT CG       0.94E-01   14.7     0.00001118     -8144.3588471046 -1.06E-04
    14 OT LS       0.13E+00    7.5                    -8144.3588801250
    15 OT LS       0.17E+00    7.4                    -8144.3588860972
    16 OT CG       0.13E+00   14.8     0.00000488     -8144.3588879411 -4.08E-05

  *** SCF run converged in    16 steps ***


  Electronic density on regular grids:      -1437.9999922792        0.0000077208
  Core density on regular grids:             1437.9999996442       -0.0000003558
  Total charge density on r-space grids:        0.0000073649
  Total charge density g-space grids:           0.0000073649

  Overlap energy of the core charge distribution:               0.00000529859161
  Self energy of the core charge distribution:             -14650.93922905635191
  Core Hamiltonian energy:                                   4107.36470093045500
  Hartree energy:                                            3440.76805426584406
  Exchange-correlation energy:                              -1042.43585624279854
  Dispersion energy:                                           -0.57557058977163

  DFT+U energy:                                                 1.45900745296365

  Total energy:                                             -8144.35888794106813

  outer SCF iter =    1 RMS gradient =   0.49E-05 energy =      -8144.3588879411
  outer SCF loop converged in   1 iterations or   16 steps


  Integrated absolute spin density  :                             235.0669717271
  Ideal and single determinant S**2 :                    0.000000     127.895535

 ENERGY| Total FORCE_EVAL ( QS ) energy (a.u.):            -8144.358894767535276


 --------  Informations at step =    11 ------------
  Optimization Method        =                 BFGS
  Total Energy               =     -8144.3588947675
  Real energy change         =         0.0031859770
  Predicted change in energy =        -0.0044721082
  Scaling factor             =         0.0000000000
  Step size                  =         0.1776345458
  Trust radius               =         0.4724315332
  Decrease in energy         =                   NO
  Used time                  =              196.181

  Convergence check :
  Max. step size             =         0.1776345458
  Conv. limit for step size  =         1.0000000000
  Convergence in step size   =                  YES
  RMS step size              =         0.0216484709
  Conv. limit for RMS step   =         1.0000000000
  Convergence in RMS step    =                  YES
  Max. gradient              =         0.0343804214
  Conv. limit for gradients  =         0.0100000000
  Conv. for gradients        =                   NO
  RMS gradient               =         0.0048511072
  Conv. limit for RMS grad.  =         1.0000000000
  Conv. in RMS gradients     =                  YES
 ---------------------------------------------------

 --------------------------
 OPTIMIZATION STEP:     12
 --------------------------

 Spin 1

 Number of electrons:                                                        719
 Number of occupied orbitals:                                                719
 Number of molecular orbitals:                                               719

 Spin 2

 Number of electrons:                                                        719
 Number of occupied orbitals:                                                719
 Number of molecular orbitals:                                               719

 Number of orbital functions:                                               2718
 Number of independent orbital functions:                                   2718

 Extrapolation method: PS Nth order


 SCF WAVEFUNCTION OPTIMIZATION

  ----------------------------------- OT ---------------------------------------
  Minimizer      : CG                  : conjugate gradient
  Preconditioner : FULL_ALL            : diagonalization, state selective
  Precond_solver : DEFAULT
  Line search    : 3PNT                : 3 energies
  stepsize       :    0.15000000                  energy_gap     :    0.08000000
  eps_taylor     :   0.10000E-15                  max_taylor     :             4
  ----------------------------------- OT ---------------------------------------

  Step     Update method      Time    Convergence         Total energy    Change
  ------------------------------------------------------------------------------
     1 OT CG       0.12E+00   12.2     0.00027143     -8144.3002746126 -8.14E+03
     2 OT LS       0.17E+00    7.5                    -8144.3278664441
     3 OT LS       0.30E+00    7.4                    -8144.3350051973
     4 OT CG       0.24E+00   14.7     0.00024102     -8144.3431635540 -4.29E-02
     5 OT LS       0.33E+00    7.5                    -8144.3539678260
     6 OT LS       0.15E+00    7.4                    -8144.3343338936
     7 OT CG       0.12E+00   14.8     0.00007034     -8144.3600139040 -1.69E-02
     8 OT LS       0.17E+00    7.5                    -8144.3610307875
     9 OT LS       0.11E+00    7.4                    -8144.3607177069
    10 OT CG       0.86E-01   14.7     0.00003121     -8144.3610447740 -1.03E-03
    11 OT LS       0.12E+00    7.4                    -8144.3612651251
    12 OT LS       0.13E+00    7.4                    -8144.3612943213
    13 OT CG       0.11E+00   14.8     0.00001836     -8144.3612965834 -2.52E-04
    14 OT LS       0.15E+00    7.4                    -8144.3613766508
    15 OT LS       0.12E+00    7.4                    -8144.3613754168
    16 OT CG       0.99E-01   14.8     0.00000702     -8144.3613784488 -8.19E-05

  *** SCF run converged in    16 steps ***


  Electronic density on regular grids:      -1437.9999922808        0.0000077192
  Core density on regular grids:             1437.9999996438       -0.0000003562
  Total charge density on r-space grids:        0.0000073630
  Total charge density g-space grids:           0.0000073630

  Overlap energy of the core charge distribution:               0.00000530686993
  Self energy of the core charge distribution:             -14650.93922905635191
  Core Hamiltonian energy:                                   4107.36180429833712
  Hartree energy:                                            3440.77239189929514
  Exchange-correlation energy:                              -1042.43827057414615
  Dispersion energy:                                           -0.57718851466988

  DFT+U energy:                                                 1.45910819186558

  Total energy:                                             -8144.36137844879886

  outer SCF iter =    1 RMS gradient =   0.70E-05 energy =      -8144.3613784488
  outer SCF loop converged in   1 iterations or   16 steps


  Integrated absolute spin density  :                             235.0633316937
  Ideal and single determinant S**2 :                    0.000000     127.894882

 ENERGY| Total FORCE_EVAL ( QS ) energy (a.u.):            -8144.361391802195612


 --------  Informations at step =    12 ------------
  Optimization Method        =                 BFGS
  Total Energy               =     -8144.3613918022
  Real energy change         =        -0.0024970347
  Predicted change in energy =        -0.0090259692
  Scaling factor             =         0.0000000000
  Step size                  =         0.0776048274
  Trust radius               =         0.4724315332
  Decrease in energy         =                   NO
  Used time                  =              196.353

  Convergence check :
  Max. step size             =         0.0776048274
  Conv. limit for step size  =         1.0000000000
  Convergence in step size   =                  YES
  RMS step size              =         0.0095214859
  Conv. limit for RMS step   =         1.0000000000
  Convergence in RMS step    =                  YES
  Max. gradient              =         0.0220410891
  Conv. limit for gradients  =         0.0100000000
  Conv. for gradients        =                   NO
  RMS gradient               =         0.0028533116
  Conv. limit for RMS grad.  =         1.0000000000
  Conv. in RMS gradients     =                  YES
 ---------------------------------------------------

 --------------------------
 OPTIMIZATION STEP:     13
 --------------------------

 Spin 1

 Number of electrons:                                                        719
 Number of occupied orbitals:                                                719
 Number of molecular orbitals:                                               719

 Spin 2

 Number of electrons:                                                        719
 Number of occupied orbitals:                                                719
 Number of molecular orbitals:                                               719

 Number of orbital functions:                                               2718
 Number of independent orbital functions:                                   2718

 Extrapolation method: PS Nth order


 SCF WAVEFUNCTION OPTIMIZATION

  ----------------------------------- OT ---------------------------------------
  Minimizer      : CG                  : conjugate gradient
  Preconditioner : FULL_ALL            : diagonalization, state selective
  Precond_solver : DEFAULT
  Line search    : 3PNT                : 3 energies
  stepsize       :    0.15000000                  energy_gap     :    0.08000000
  eps_taylor     :   0.10000E-15                  max_taylor     :             4
  ----------------------------------- OT ---------------------------------------

  Step     Update method      Time    Convergence         Total energy    Change
  ------------------------------------------------------------------------------
     1 OT CG       0.12E+00   12.3     0.00017881     -8144.3299085750 -8.14E+03
     2 OT LS       0.17E+00    7.4                    -8144.3410044097
     3 OT LS       0.23E+00    7.4                    -8144.3432617303
     4 OT CG       0.18E+00   14.7     0.00014865     -8144.3443366830 -1.44E-02
     5 OT LS       0.26E+00    7.5                    -8144.3524794472
     6 OT LS       0.19E+00    7.4                    -8144.3513548774
     7 OT CG       0.15E+00   14.8     0.00005729     -8144.3524826816 -8.15E-03
     8 OT LS       0.21E+00    7.4                    -8144.3529789583
     9 OT LS       0.10E+00    7.4                    -8144.3523694379
    10 OT CG       0.81E-01   14.8     0.00002291     -8144.3531337176 -6.51E-04
    11 OT LS       0.11E+00    7.4                    -8144.3532456673
    12 OT LS       0.12E+00    7.5                    -8144.3532599727
    13 OT CG       0.99E-01   14.7     0.00001334     -8144.3532608743 -1.27E-04
    14 OT LS       0.14E+00    7.4                    -8144.3533065541
    15 OT LS       0.15E+00    7.4                    -8144.3533117710
    16 OT CG       0.12E+00   14.8     0.00000569     -8144.3533119192 -5.10E-05

  *** SCF run converged in    16 steps ***


  Electronic density on regular grids:      -1437.9999922861        0.0000077139
  Core density on regular grids:             1437.9999996443       -0.0000003557
  Total charge density on r-space grids:        0.0000073581
  Total charge density g-space grids:           0.0000073581

  Overlap energy of the core charge distribution:               0.00000935529560
  Self energy of the core charge distribution:             -14650.93922905635191
  Core Hamiltonian energy:                                   4107.43215263492129
  Hartree energy:                                            3440.71931334886858
  Exchange-correlation energy:                              -1042.45809632700730
  Dispersion energy:                                           -0.57127550116087

  DFT+U energy:                                                 1.46381362621913

  Total energy:                                             -8144.35331191921523

  outer SCF iter =    1 RMS gradient =   0.57E-05 energy =      -8144.3533119192
  outer SCF loop converged in   1 iterations or   16 steps


  Integrated absolute spin density  :                             235.0863625397
  Ideal and single determinant S**2 :                    0.000000     127.904916

 ENERGY| Total FORCE_EVAL ( QS ) energy (a.u.):            -8144.353320751761203


 --------  Informations at step =    13 ------------
  Optimization Method        =                 BFGS
  Total Energy               =     -8144.3533207518
  Real energy change         =         0.0080710504
  Predicted change in energy =        -0.0076370311
  Scaling factor             =         0.0000000000
  Step size                  =         0.1760343716
  Trust radius               =         0.4724315332
  Decrease in energy         =                   NO
  Used time                  =              196.189

  Convergence check :
  Max. step size             =         0.1760343716
  Conv. limit for step size  =         1.0000000000
  Convergence in step size   =                  YES
  RMS step size              =         0.0225457895
  Conv. limit for RMS step   =         1.0000000000
  Convergence in RMS step    =                  YES
  Max. gradient              =         0.0385349597
  Conv. limit for gradients  =         0.0100000000
  Conv. for gradients        =                   NO
  RMS gradient               =         0.0049450577
  Conv. limit for RMS grad.  =         1.0000000000
  Conv. in RMS gradients     =                  YES
 ---------------------------------------------------

 --------------------------
 OPTIMIZATION STEP:     14
 --------------------------

 Spin 1

 Number of electrons:                                                        719
 Number of occupied orbitals:                                                719
 Number of molecular orbitals:                                               719

 Spin 2

 Number of electrons:                                                        719
 Number of occupied orbitals:                                                719
 Number of molecular orbitals:                                               719

 Number of orbital functions:                                               2718
 Number of independent orbital functions:                                   2718

 Extrapolation method: PS Nth order


 SCF WAVEFUNCTION OPTIMIZATION

  ----------------------------------- OT ---------------------------------------
  Minimizer      : CG                  : conjugate gradient
  Preconditioner : FULL_ALL            : diagonalization, state selective
  Precond_solver : DEFAULT
  Line search    : 3PNT                : 3 energies
  stepsize       :    0.15000000                  energy_gap     :    0.08000000
  eps_taylor     :   0.10000E-15                  max_taylor     :             4
  ----------------------------------- OT ---------------------------------------

  Step     Update method      Time    Convergence         Total energy    Change
  ------------------------------------------------------------------------------
     1 OT CG       0.12E+00   12.3     0.00032970     -8144.2653564085 -8.14E+03
     2 OT LS       0.17E+00    7.5                    -8144.3065613571
     3 OT LS       0.31E+00    7.4                    -8144.3175651735
     4 OT CG       0.25E+00   14.8     0.00028579     -8144.3317921917 -6.64E-02
     5 OT LS       0.35E+00    7.6                    -8144.3416631857
     6 OT LS       0.14E+00    7.5                    -8144.3066041033
     7 OT CG       0.11E+00   14.9     0.00008452     -8144.3545447606 -2.28E-02
     8 OT LS       0.16E+00    7.5                    -8144.3559675670
     9 OT LS       0.10E+00    7.5                    -8144.3555443016
    10 OT CG       0.82E-01   14.9     0.00003957     -8144.3559845109 -1.44E-03
    11 OT LS       0.12E+00    7.5                    -8144.3563314234
    12 OT LS       0.13E+00    7.6                    -8144.3563818506
    13 OT CG       0.11E+00   14.8     0.00002143     -8144.3563881538 -4.04E-04
    14 OT LS       0.15E+00    7.4                    -8144.3564979392
    15 OT LS       0.13E+00    7.6                    -8144.3564973289
    16 OT CG       0.10E+00   14.9     0.00000816     -8144.3565008224 -1.13E-04

  *** SCF run converged in    16 steps ***


  Electronic density on regular grids:      -1437.9999922888        0.0000077112
  Core density on regular grids:             1437.9999996441       -0.0000003559
  Total charge density on r-space grids:        0.0000073553
  Total charge density g-space grids:           0.0000073553

  Overlap energy of the core charge distribution:               0.00000803975892
  Self energy of the core charge distribution:             -14650.93922905635191
  Core Hamiltonian energy:                                   4107.42409953568858
  Hartree energy:                                            3440.72283431879714
  Exchange-correlation energy:                              -1042.45424436776057
  Dispersion energy:                                           -0.57324168332441

  DFT+U energy:                                                 1.46327239076218

  Total energy:                                             -8144.35650082243046

  outer SCF iter =    1 RMS gradient =   0.82E-05 energy =      -8144.3565008224
  outer SCF loop converged in   1 iterations or   16 steps


  Integrated absolute spin density  :                             235.0867818857
  Ideal and single determinant S**2 :                    0.000000     127.904959

 ENERGY| Total FORCE_EVAL ( QS ) energy (a.u.):            -8144.356518362467796


 --------  Informations at step =    14 ------------
  Optimization Method        =                 BFGS
  Total Energy               =     -8144.3565183625
  Real energy change         =        -0.0031976107
  Predicted change in energy =        -0.0087462834
  Scaling factor             =         0.0000000000
  Step size                  =         0.0720739099
  Trust radius               =         0.4724315332
  Decrease in energy         =                   NO
  Used time                  =              197.581

  Convergence check :
  Max. step size             =         0.0720739099
  Conv. limit for step size  =         1.0000000000
  Convergence in step size   =                  YES
  RMS step size              =         0.0116238416
  Conv. limit for RMS step   =         1.0000000000
  Convergence in RMS step    =                  YES
  Max. gradient              =         0.0313420212
  Conv. limit for gradients  =         0.0100000000
  Conv. for gradients        =                   NO
  RMS gradient               =         0.0042093898
  Conv. limit for RMS grad.  =         1.0000000000
  Conv. in RMS gradients     =                  YES
 ---------------------------------------------------

 --------------------------
 OPTIMIZATION STEP:     15
 --------------------------

 Spin 1

 Number of electrons:                                                        719
 Number of occupied orbitals:                                                719
 Number of molecular orbitals:                                               719

 Spin 2

 Number of electrons:                                                        719
 Number of occupied orbitals:                                                719
 Number of molecular orbitals:                                               719

 Number of orbital functions:                                               2718
 Number of independent orbital functions:                                   2718

 Extrapolation method: PS Nth order


 SCF WAVEFUNCTION OPTIMIZATION

  ----------------------------------- OT ---------------------------------------
  Minimizer      : CG                  : conjugate gradient
  Preconditioner : FULL_ALL            : diagonalization, state selective
  Precond_solver : DEFAULT
  Line search    : 3PNT                : 3 energies
  stepsize       :    0.15000000                  energy_gap     :    0.08000000
  eps_taylor     :   0.10000E-15                  max_taylor     :             4
  ----------------------------------- OT ---------------------------------------

  Step     Update method      Time    Convergence         Total energy    Change
  ------------------------------------------------------------------------------
     1 OT CG       0.12E+00   12.3     0.00016704     -8144.3226512283 -8.14E+03
     2 OT LS       0.17E+00    7.4                    -8144.3321274759
     3 OT LS       0.22E+00    7.5                    -8144.3338951751
     4 OT CG       0.17E+00   14.8     0.00013753     -8144.3345069492 -1.19E-02
     5 OT LS       0.24E+00    7.3                    -8144.3415139031
     6 OT LS       0.19E+00    7.5                    -8144.3410563633
     7 OT CG       0.15E+00   14.7     0.00005708     -8144.3415735740 -7.07E-03
     8 OT LS       0.21E+00    7.3                    -8144.3420407386
     9 OT LS       0.10E+00    7.5                    -8144.3413943646
    10 OT CG       0.81E-01   14.7     0.00002375     -8144.3422153689 -6.42E-04
    11 OT LS       0.11E+00    7.4                    -8144.3423370681
    12 OT LS       0.13E+00    7.5                    -8144.3423543492
    13 OT CG       0.10E+00   14.8     0.00001372     -8144.3423562753 -1.41E-04
    14 OT LS       0.14E+00    7.4                    -8144.3424039892
    15 OT LS       0.14E+00    7.4                    -8144.3424076908
    16 OT CG       0.11E+00   14.7     0.00000601     -8144.3424077182 -5.14E-05

  *** SCF run converged in    16 steps ***


  Electronic density on regular grids:      -1437.9999922911        0.0000077089
  Core density on regular grids:             1437.9999996443       -0.0000003557
  Total charge density on r-space grids:        0.0000073532
  Total charge density g-space grids:           0.0000073532

  Overlap energy of the core charge distribution:               0.00000282595519
  Self energy of the core charge distribution:             -14650.93922905635191
  Core Hamiltonian energy:                                   4107.24386740060982
  Hartree energy:                                            3440.86148472964624
  Exchange-correlation energy:                              -1042.39349219744577
  Dispersion energy:                                           -0.57368377388232

  DFT+U energy:                                                 1.45864235331048

  Total energy:                                             -8144.34240771815894

  outer SCF iter =    1 RMS gradient =   0.60E-05 energy =      -8144.3424077182
  outer SCF loop converged in   1 iterations or   16 steps


  Integrated absolute spin density  :                             235.0473380685
  Ideal and single determinant S**2 :                    0.000000     127.887059

 ENERGY| Total FORCE_EVAL ( QS ) energy (a.u.):            -8144.342417658687737


 --------  Informations at step =    15 ------------
  Optimization Method        =                 BFGS
  Total Energy               =     -8144.3424176587
  Real energy change         =         0.0141007038
  Predicted change in energy =        -0.0148849674
  Scaling factor             =         0.0000000000
  Step size                  =         0.3326886827
  Trust radius               =         0.4724315332
  Decrease in energy         =                   NO
  Used time                  =              196.319

  Convergence check :
  Max. step size             =         0.3326886827
  Conv. limit for step size  =         1.0000000000
  Convergence in step size   =                  YES
  RMS step size              =         0.0386655700
  Conv. limit for RMS step   =         1.0000000000
  Convergence in RMS step    =                  YES
  Max. gradient              =         0.0857900743
  Conv. limit for gradients  =         0.0100000000
  Conv. for gradients        =                   NO
  RMS gradient               =         0.0078406295
  Conv. limit for RMS grad.  =         1.0000000000
  Conv. in RMS gradients     =                  YES
 ---------------------------------------------------

 --------------------------
 OPTIMIZATION STEP:     16
 --------------------------

 Spin 1

 Number of electrons:                                                        719
 Number of occupied orbitals:                                                719
 Number of molecular orbitals:                                               719

 Spin 2

 Number of electrons:                                                        719
 Number of occupied orbitals:                                                719
 Number of molecular orbitals:                                               719

 Number of orbital functions:                                               2718
 Number of independent orbital functions:                                   2718

 Extrapolation method: PS Nth order


 SCF WAVEFUNCTION OPTIMIZATION

  ----------------------------------- OT ---------------------------------------
  Minimizer      : CG                  : conjugate gradient
  Preconditioner : FULL_ALL            : diagonalization, state selective
  Precond_solver : DEFAULT
  Line search    : 3PNT                : 3 energies
  stepsize       :    0.15000000                  energy_gap     :    0.08000000
  eps_taylor     :   0.10000E-15                  max_taylor     :             4
  ----------------------------------- OT ---------------------------------------

  Step     Update method      Time    Convergence         Total energy    Change
  ------------------------------------------------------------------------------
     1 OT CG       0.12E+00   12.3     0.00052294     -8144.1232670424 -8.14E+03
     2 OT LS       0.17E+00    7.4                    -8144.2287366837
     3 OT LS       0.34E+00    7.6                    -8144.2581569398
     4 OT CG       0.27E+00   14.8     0.00041388     -8144.3039566668 -1.81E-01
     5 OT LS       0.14E+00    7.6                    -8144.3024409682
     6 OT LS       0.13E+00    7.6                    -8144.3492856418
     7 OT CG       0.11E+00   14.9     0.00011319     -8144.3492864549 -4.53E-02
     8 OT LS       0.15E+00    7.6                    -8144.3522769060
     9 OT LS       0.12E+00    7.6                    -8144.3521336306
    10 OT CG       0.96E-01   14.8     0.00006275     -8144.3523144201 -3.03E-03
    11 OT LS       0.14E+00    7.6                    -8144.3532694808
    12 OT LS       0.14E+00    7.6                    -8144.3533554409
    13 OT CG       0.11E+00   14.9     0.00003289     -8144.3533554468 -1.04E-03
    14 OT LS       0.15E+00    7.7                    -8144.3535986475
    15 OT LS       0.12E+00    7.6                    -8144.3535758806
    16 OT CG       0.92E-01   14.8     0.00001331     -8144.3535996162 -2.44E-04
    17 OT LS       0.13E+00    7.7                    -8144.3536470357
    18 OT LS       0.18E+00    7.7                    -8144.3536567108
    19 OT CG       0.14E+00   14.9     0.00000840     -8144.3536613497 -6.17E-05

  *** SCF run converged in    19 steps ***


  Electronic density on regular grids:      -1437.9999922952        0.0000077048
  Core density on regular grids:             1437.9999996442       -0.0000003558
  Total charge density on r-space grids:        0.0000073490
  Total charge density g-space grids:           0.0000073490

  Overlap energy of the core charge distribution:               0.00000603802127
  Self energy of the core charge distribution:             -14650.93922905635191
  Core Hamiltonian energy:                                   4107.38045836093625
  Hartree energy:                                            3440.75237040088905
  Exchange-correlation energy:                              -1042.43504992716066
  Dispersion energy:                                           -0.57345171518398

  DFT+U energy:                                                 1.46123454919580

  Total energy:                                             -8144.35366134965443

  outer SCF iter =    1 RMS gradient =   0.84E-05 energy =      -8144.3536613497
  outer SCF loop converged in   1 iterations or   19 steps


  Integrated absolute spin density  :                             235.0544452358
  Ideal and single determinant S**2 :                    0.000000     127.891220

 ENERGY| Total FORCE_EVAL ( QS ) energy (a.u.):            -8144.353687285456544


 --------  Informations at step =    16 ------------
  Optimization Method        =                 BFGS
  Total Energy               =     -8144.3536872855
  Real energy change         =        -0.0112696268
  Predicted change in energy =        -0.0210141307
  Scaling factor             =         0.0000000000
  Step size                  =         0.1580385279
  Trust radius               =         0.4724315332
  Decrease in energy         =                   NO
  Used time                  =              228.991

  Convergence check :
  Max. step size             =         0.1580385279
  Conv. limit for step size  =         1.0000000000
  Convergence in step size   =                  YES
  RMS step size              =         0.0207575154
  Conv. limit for RMS step   =         1.0000000000
  Convergence in RMS step    =                  YES
  Max. gradient              =         0.0332247390
  Conv. limit for gradients  =         0.0100000000
  Conv. for gradients        =                   NO
  RMS gradient               =         0.0046812751
  Conv. limit for RMS grad.  =         1.0000000000
  Conv. in RMS gradients     =                  YES
 ---------------------------------------------------

 --------------------------
 OPTIMIZATION STEP:     17
 --------------------------

 Spin 1

 Number of electrons:                                                        719
 Number of occupied orbitals:                                                719
 Number of molecular orbitals:                                               719

 Spin 2

 Number of electrons:                                                        719
 Number of occupied orbitals:                                                719
 Number of molecular orbitals:                                               719

 Number of orbital functions:                                               2718
 Number of independent orbital functions:                                   2718

 Extrapolation method: PS Nth order


 SCF WAVEFUNCTION OPTIMIZATION

  ----------------------------------- OT ---------------------------------------
  Minimizer      : CG                  : conjugate gradient
  Preconditioner : FULL_ALL            : diagonalization, state selective
  Precond_solver : DEFAULT
  Line search    : 3PNT                : 3 energies
  stepsize       :    0.15000000                  energy_gap     :    0.08000000
  eps_taylor     :   0.10000E-15                  max_taylor     :             4
  ----------------------------------- OT ---------------------------------------

  Step     Update method      Time    Convergence         Total energy    Change
  ------------------------------------------------------------------------------
     1 OT CG       0.12E+00   12.3     0.00030884     -8144.2663425674 -8.14E+03
     2 OT LS       0.17E+00    7.5                    -8144.3009161196
     3 OT LS       0.26E+00    7.4                    -8144.3090498598
     4 OT CG       0.21E+00   14.9     0.00025375     -8144.3155430827 -4.92E-02
     5 OT LS       0.30E+00    7.5                    -8144.3328452210
     6 OT LS       0.16E+00    7.4                    -8144.3198110885
     7 OT CG       0.13E+00   14.9     0.00009491     -8144.3352192048 -1.97E-02
     8 OT LS       0.18E+00    7.5                    -8144.3373107819
     9 OT LS       0.12E+00    7.5                    -8144.3368433488
    10 OT CG       0.95E-01   14.8     0.00005197     -8144.3373166890 -2.10E-03
    11 OT LS       0.13E+00    7.5                    -8144.3379597653
    12 OT LS       0.13E+00    7.5                    -8144.3380138939
    13 OT CG       0.11E+00   14.8     0.00002740     -8144.3380139572 -6.97E-04
    14 OT LS       0.15E+00    7.5                    -8144.3381863882
    15 OT LS       0.12E+00    7.4                    -8144.3381782549
    16 OT CG       0.95E-01   14.7     0.00001072     -8144.3381885803 -1.75E-04
    17 OT LS       0.13E+00    7.5                    -8144.3382189449
    18 OT LS       0.16E+00  922.6                    -8144.3382241416
    19 OT CG       0.13E+00   14.9     0.00000715     -8144.3382254406 -3.69E-05

  *** SCF run converged in    19 steps ***


  Electronic density on regular grids:      -1437.9999922870        0.0000077130
  Core density on regular grids:             1437.9999996441       -0.0000003559
  Total charge density on r-space grids:        0.0000073571
  Total charge density g-space grids:           0.0000073571

  Overlap energy of the core charge distribution:               0.00001161859278
  Self energy of the core charge distribution:             -14650.93922905635191
  Core Hamiltonian energy:                                   4107.39017031452386
  Hartree energy:                                            3440.75163177788863
  Exchange-correlation energy:                              -1042.44189184685683
  Dispersion energy:                                           -0.56943995911664

  DFT+U energy:                                                 1.47052171076272

  Total energy:                                             -8144.33822544055693

  outer SCF iter =    1 RMS gradient =   0.71E-05 energy =      -8144.3382254406
  outer SCF loop converged in   1 iterations or   19 steps


  Integrated absolute spin density  :                             235.1047576911
  Ideal and single determinant S**2 :                    0.000000     127.911066

 ENERGY| Total FORCE_EVAL ( QS ) energy (a.u.):            -8144.338242484092007


 --------  Informations at step =    17 ------------
  Optimization Method        =                 BFGS
  Total Energy               =     -8144.3382424841
  Real energy change         =         0.0154448014
  Predicted change in energy =        -0.0266785656
  Scaling factor             =         0.0000000000
  Step size                  =         0.3360313700
  Trust radius               =         0.4724315332
  Decrease in energy         =                   NO
  Used time                  =             1245.911

  Convergence check :
  Max. step size             =         0.3360313700
  Conv. limit for step size  =         1.0000000000
  Convergence in step size   =                  YES
  RMS step size              =         0.0455066393
  Conv. limit for RMS step   =         1.0000000000
  Convergence in RMS step    =                  YES
  Max. gradient              =         0.0655631156
  Conv. limit for gradients  =         0.0100000000
  Conv. for gradients        =                   NO
  RMS gradient               =         0.0080096913
  Conv. limit for RMS grad.  =         1.0000000000
  Conv. in RMS gradients     =                  YES
 ---------------------------------------------------

 --------------------------
 OPTIMIZATION STEP:     18
 --------------------------

 Spin 1

 Number of electrons:                                                        719
 Number of occupied orbitals:                                                719
 Number of molecular orbitals:                                               719

 Spin 2

 Number of electrons:                                                        719
 Number of occupied orbitals:                                                719
 Number of molecular orbitals:                                               719

 Number of orbital functions:                                               2718
 Number of independent orbital functions:                                   2718

 Extrapolation method: PS Nth order


 SCF WAVEFUNCTION OPTIMIZATION

  ----------------------------------- OT ---------------------------------------
  Minimizer      : CG                  : conjugate gradient
  Preconditioner : FULL_ALL            : diagonalization, state selective
  Precond_solver : DEFAULT
  Line search    : 3PNT                : 3 energies
  stepsize       :    0.15000000                  energy_gap     :    0.08000000
  eps_taylor     :   0.10000E-15                  max_taylor     :             4
  ----------------------------------- OT ---------------------------------------

  Step     Update method      Time    Convergence         Total energy    Change
  ------------------------------------------------------------------------------
     1 OT CG       0.12E+00   12.3     0.00066561     -8143.9996530290 -8.14E+03
     2 OT LS       0.17E+00    7.4                    -8144.1631065092
     3 OT LS       0.28E+00    7.5                    -8144.2036999782
     4 OT CG       0.23E+00   14.9     0.00058651     -8144.2435852398 -2.44E-01
     5 OT LS       0.32E+00    7.6                    -8144.3228805266
     6 OT LS       0.15E+00    7.7                    -8144.2314180034
     7 OT CG       0.12E+00  175.2     0.00018022     -8144.3458860625 -1.02E-01
     8 OT LS       0.17E+00    7.7                    -8144.3525040408
     9 OT LS       0.11E+00    7.6                    -8144.3501357692
    10 OT CG       0.85E-01   15.1     0.00007391     -8144.3526526320 -6.77E-03
    11 OT LS       0.12E+00    7.7                    -8144.3539448250
    12 OT LS       0.15E+00    7.6                    -8144.3541640690
    13 OT CG       0.12E+00   15.0     0.00004837     -8144.3542170594 -1.56E-03
    14 OT LS       0.16E+00    7.7                    -8144.3547562300
    15 OT LS       0.12E+00    7.6                    -8144.3546744611
    16 OT CG       0.94E-01   15.0     0.00001960     -8144.3547562602 -5.39E-04
    17 OT LS       0.13E+00    7.7                    -8144.3548558393
    18 OT LS       0.16E+00    7.7                    -8144.3548720912
    19 OT CG       0.13E+00   14.9     0.00001053     -8144.3548754467 -1.19E-04
    20 OT LS       0.18E+00    7.7                    -8144.3549161696
    21 OT LS       0.24E+00    7.6                    -8144.3549244407
    22 OT CG       0.20E+00   14.8     0.00000722     -8144.3549283440 -5.29E-05

  *** SCF run converged in    22 steps ***


  Electronic density on regular grids:      -1437.9999923129        0.0000076871
  Core density on regular grids:             1437.9999996436       -0.0000003564
  Total charge density on r-space grids:        0.0000073307
  Total charge density g-space grids:           0.0000073307

  Overlap energy of the core charge distribution:               0.00000910488003
  Self energy of the core charge distribution:             -14650.93922905635191
  Core Hamiltonian energy:                                   4107.38837914569922
  Hartree energy:                                            3440.74264914757623
  Exchange-correlation energy:                              -1042.43921966769767
  Dispersion energy:                                           -0.57418053206149

  DFT+U energy:                                                 1.46666351395173

  Total energy:                                             -8144.35492834400338

  outer SCF iter =    1 RMS gradient =   0.72E-05 energy =      -8144.3549283440
  outer SCF loop converged in   1 iterations or   22 steps


  Integrated absolute spin density  :                             235.0816480047
  Ideal and single determinant S**2 :                    0.000000     127.899670

 ENERGY| Total FORCE_EVAL ( QS ) energy (a.u.):            -8144.354942228423170


 --------  Informations at step =    18 ------------
  Optimization Method        =                 BFGS
  Total Energy               =     -8144.3549422284
  Real energy change         =        -0.0166997443
  Predicted change in energy =        -0.0243811924
  Scaling factor             =         0.0000000000
  Step size                  =         0.1741437856
  Trust radius               =         0.4724315332
  Decrease in energy         =                   NO
  Used time                  =              469.270

  Convergence check :
  Max. step size             =         0.1741437856
  Conv. limit for step size  =         1.0000000000
  Convergence in step size   =                  YES
  RMS step size              =         0.0244795669
  Conv. limit for RMS step   =         1.0000000000
  Convergence in RMS step    =                  YES
  Max. gradient              =         0.0367334341
  Conv. limit for gradients  =         0.0100000000
  Conv. for gradients        =                   NO
  RMS gradient               =         0.0031294757
  Conv. limit for RMS grad.  =         1.0000000000
  Conv. in RMS gradients     =                  YES
 ---------------------------------------------------

 --------------------------
 OPTIMIZATION STEP:     19
 --------------------------

 Spin 1

 Number of electrons:                                                        719
 Number of occupied orbitals:                                                719
 Number of molecular orbitals:                                               719

 Spin 2

 Number of electrons:                                                        719
 Number of occupied orbitals:                                                719
 Number of molecular orbitals:                                               719

 Number of orbital functions:                                               2718
 Number of independent orbital functions:                                   2718

 Extrapolation method: PS Nth order


 SCF WAVEFUNCTION OPTIMIZATION

  ----------------------------------- OT ---------------------------------------
  Minimizer      : CG                  : conjugate gradient
  Preconditioner : FULL_ALL            : diagonalization, state selective
  Precond_solver : DEFAULT
  Line search    : 3PNT                : 3 energies
  stepsize       :    0.15000000                  energy_gap     :    0.08000000
  eps_taylor     :   0.10000E-15                  max_taylor     :             4
  ----------------------------------- OT ---------------------------------------

  Step     Update method      Time    Convergence         Total energy    Change
  ------------------------------------------------------------------------------
     1 OT CG       0.12E+00   12.4     0.00048953     -8144.1642566858 -8.14E+03
     2 OT LS       0.17E+00    7.3                    -8144.2537122453
     3 OT LS       0.29E+00    7.4                    -8144.2766753880
     4 OT CG       0.24E+00   15.0     0.00042569     -8144.3022674950 -1.38E-01
     5 OT LS       0.33E+00    7.6                    -8144.3405221353
     6 OT LS       0.15E+00    7.4                    -8144.2836055988
     7 OT CG       0.12E+00   14.9     0.00012697     -8144.3565023180 -5.42E-02
     8 OT LS       0.17E+00    7.5                    -8144.3598006562
     9 OT LS       0.11E+00    7.4                    -8144.3586465006
    10 OT CG       0.85E-01   14.8     0.00005188     -8144.3598706638 -3.37E-03
    11 OT LS       0.12E+00    7.5                    -8144.3604870815
    12 OT LS       0.14E+00    7.4                    -8144.3605753553
    13 OT CG       0.11E+00   14.7     0.00003211     -8144.3605855777 -7.15E-04
    14 OT LS       0.15E+00    7.4                    -8144.3608335157
    15 OT LS       0.13E+00    7.4                    -8144.3608265523
    16 OT CG       0.10E+00   14.8     0.00001310     -8144.3608380109 -2.52E-04
    17 OT LS       0.14E+00    7.4                    -8144.3608827814
    18 OT LS       0.15E+00    7.5                    -8144.3608881187
    19 OT CG       0.12E+00   14.8     0.00000712     -8144.3608883304 -5.03E-05

  *** SCF run converged in    19 steps ***


  Electronic density on regular grids:      -1437.9999922987        0.0000077013
  Core density on regular grids:             1437.9999996438       -0.0000003562
  Total charge density on r-space grids:        0.0000073451
  Total charge density g-space grids:           0.0000073451

  Overlap energy of the core charge distribution:               0.00000499811621
  Self energy of the core charge distribution:             -14650.93922905635191
  Core Hamiltonian energy:                                   4107.22864280174690
  Hartree energy:                                            3440.85907858300789
  Exchange-correlation energy:                              -1042.39829604440820
  Dispersion energy:                                           -0.57723203144071

  DFT+U energy:                                                 1.46614241890462

  Total energy:                                             -8144.36088833042686

  outer SCF iter =    1 RMS gradient =   0.71E-05 energy =      -8144.3608883304
  outer SCF loop converged in   1 iterations or   19 steps


  Integrated absolute spin density  :                             235.0874061341
  Ideal and single determinant S**2 :                    0.000000     127.904370

 ENERGY| Total FORCE_EVAL ( QS ) energy (a.u.):            -8144.360906800574412


 --------  Informations at step =    19 ------------
  Optimization Method        =                 BFGS
  Total Energy               =     -8144.3609068006
  Real energy change         =        -0.0059645722
  Predicted change in energy =        -0.0057227683
  Scaling factor             =         0.0000000000
  Step size                  =         0.1286377081
  Trust radius               =         0.4724315332
  Decrease in energy         =                   NO
  Used time                  =              226.643

  Convergence check :
  Max. step size             =         0.1286377081
  Conv. limit for step size  =         1.0000000000
  Convergence in step size   =                  YES
  RMS step size              =         0.0167231227
  Conv. limit for RMS step   =         1.0000000000
  Convergence in RMS step    =                  YES
  Max. gradient              =         0.0302396013
  Conv. limit for gradients  =         0.0100000000
  Conv. for gradients        =                   NO
  RMS gradient               =         0.0032161781
  Conv. limit for RMS grad.  =         1.0000000000
  Conv. in RMS gradients     =                  YES
 ---------------------------------------------------

 --------------------------
 OPTIMIZATION STEP:     20
 --------------------------

 Spin 1

 Number of electrons:                                                        719
 Number of occupied orbitals:                                                719
 Number of molecular orbitals:                                               719

 Spin 2

 Number of electrons:                                                        719
 Number of occupied orbitals:                                                719
 Number of molecular orbitals:                                               719

 Number of orbital functions:                                               2718
 Number of independent orbital functions:                                   2718

 Extrapolation method: PS Nth order


 SCF WAVEFUNCTION OPTIMIZATION

  ----------------------------------- OT ---------------------------------------
  Minimizer      : CG                  : conjugate gradient
  Preconditioner : FULL_ALL            : diagonalization, state selective
  Precond_solver : DEFAULT
  Line search    : 3PNT                : 3 energies
  stepsize       :    0.15000000                  energy_gap     :    0.08000000
  eps_taylor     :   0.10000E-15                  max_taylor     :             4
  ----------------------------------- OT ---------------------------------------

  Step     Update method      Time    Convergence         Total energy    Change
  ------------------------------------------------------------------------------
     1 OT CG       0.12E+00   12.4     0.00022926     -8144.3243314892 -8.14E+03
     2 OT LS       0.17E+00    7.4                    -8144.3428773990
     3 OT LS       0.24E+00    7.5                    -8144.3468775496
     4 OT CG       0.19E+00   14.7     0.00019343     -8144.3492201749 -2.49E-02
     5 OT LS       0.27E+00    7.4                    -8144.3618151936
     6 OT LS       0.17E+00    7.4                    -8144.3580535013
     7 OT CG       0.14E+00   14.8     0.00007930     -8144.3619714126 -1.28E-02
     8 OT LS       0.20E+00    7.4                    -8144.3628072027
     9 OT LS       0.92E-01    7.4                    -8144.3616765210
    10 OT CG       0.74E-01   14.8     0.00003397     -8144.3631076908 -1.14E-03
    11 OT LS       0.10E+00    7.4                    -8144.3633514338
    12 OT LS       0.14E+00    7.4                    -8144.3633988986
    13 OT CG       0.11E+00   14.9     0.00001812     -8144.3634181528 -3.10E-04
    14 OT LS       0.15E+00    7.4                    -8144.3635032865
    15 OT LS       0.14E+00    7.5                    -8144.3635060088
    16 OT CG       0.11E+00   14.9     0.00000787     -8144.3635070927 -8.89E-05

  *** SCF run converged in    16 steps ***


  Electronic density on regular grids:      -1437.9999922935        0.0000077065
  Core density on regular grids:             1437.9999996442       -0.0000003558
  Total charge density on r-space grids:        0.0000073507
  Total charge density g-space grids:           0.0000073507

  Overlap energy of the core charge distribution:               0.00000606581938
  Self energy of the core charge distribution:             -14650.93922905635191
  Core Hamiltonian energy:                                   4107.24978286785699
  Hartree energy:                                            3440.84239484940417
  Exchange-correlation energy:                              -1042.40677648026053
  Dispersion energy:                                           -0.57768187200536

  DFT+U energy:                                                 1.46799653280343

  Total energy:                                             -8144.36350709273484

  outer SCF iter =    1 RMS gradient =   0.79E-05 energy =      -8144.3635070927
  outer SCF loop converged in   1 iterations or   16 steps


  Integrated absolute spin density  :                             235.0993286684
  Ideal and single determinant S**2 :                    0.000000     127.909542

 ENERGY| Total FORCE_EVAL ( QS ) energy (a.u.):            -8144.363522798904341


 --------  Informations at step =    20 ------------
  Optimization Method        =                 BFGS
  Total Energy               =     -8144.3635227989
  Real energy change         =        -0.0026159983
  Predicted change in energy =        -0.0036580900
  Scaling factor             =         0.0000000000
  Step size                  =         0.0552289569
  Trust radius               =         0.4724315332
  Decrease in energy         =                  YES
  Used time                  =              196.894

  Convergence check :
  Max. step size             =         0.0552289569
  Conv. limit for step size  =         1.0000000000
  Convergence in step size   =                  YES
  RMS step size              =         0.0083477553
  Conv. limit for RMS step   =         1.0000000000
  Convergence in RMS step    =                  YES
  Max. gradient              =         0.0082586700
  Conv. limit for gradients  =         0.0100000000
  Conv. in gradients         =                  YES
  RMS gradient               =         0.0013922225
  Conv. limit for RMS grad.  =         1.0000000000
  Conv. in RMS gradients     =                  YES
 ---------------------------------------------------

 *******************************************************************************
 ***                    GEOMETRY OPTIMIZATION COMPLETED                      ***
 *******************************************************************************

                    Reevaluating energy at the minimum

 Spin 1

 Number of electrons:                                                        719
 Number of occupied orbitals:                                                719
 Number of molecular orbitals:                                               719

 Spin 2

 Number of electrons:                                                        719
 Number of occupied orbitals:                                                719
 Number of molecular orbitals:                                               719

 Number of orbital functions:                                               2718
 Number of independent orbital functions:                                   2718

 Extrapolation method: PS Nth order


 SCF WAVEFUNCTION OPTIMIZATION

  ----------------------------------- OT ---------------------------------------
  Minimizer      : CG                  : conjugate gradient
  Preconditioner : FULL_ALL            : diagonalization, state selective
  Precond_solver : DEFAULT
  Line search    : 3PNT                : 3 energies
  stepsize       :    0.15000000                  energy_gap     :    0.08000000
  eps_taylor     :   0.10000E-15                  max_taylor     :             4
  ----------------------------------- OT ---------------------------------------

  Step     Update method      Time    Convergence         Total energy    Change
  ------------------------------------------------------------------------------
     1 OT CG       0.12E+00   12.3     0.00022228     -8144.3224169819 -8.14E+03
     2 OT LS       0.17E+00    7.4                    -8144.3410454499
     3 OT LS       0.31E+00    7.3                    -8144.3459482756
     4 OT CG       0.24E+00   14.8     0.00019353     -8144.3519153240 -2.95E-02
     5 OT LS       0.34E+00    7.3                    -8144.3576719211
     6 OT LS       0.15E+00    7.3                    -8144.3432582745
     7 OT CG       0.12E+00   14.7     0.00006058     -8144.3625530162 -1.06E-02
     8 OT LS       0.16E+00    7.4                    -8144.3632045481
     9 OT LS       0.95E-01    7.3                    -8144.3628919793
    10 OT CG       0.76E-01   14.7     0.00002775     -8144.3632381360 -6.85E-04
    11 OT LS       0.11E+00    7.4                    -8144.3634049108
    12 OT LS       0.14E+00    7.3                    -8144.3634362025
    13 OT CG       0.11E+00   14.6     0.00001470     -8144.3634472838 -2.09E-04
    14 OT LS       0.16E+00    7.4                    -8144.3635037546
    15 OT LS       0.14E+00    7.4                    -8144.3635054307
    16 OT CG       0.11E+00   14.7     0.00000607     -8144.3635062041 -5.89E-05

  *** SCF run converged in    16 steps ***


  Electronic density on regular grids:      -1437.9999922935        0.0000077065
  Core density on regular grids:             1437.9999996442       -0.0000003558
  Total charge density on r-space grids:        0.0000073507
  Total charge density g-space grids:           0.0000073507

  Overlap energy of the core charge distribution:               0.00000606581938
  Self energy of the core charge distribution:             -14650.93922905635191
  Core Hamiltonian energy:                                   4107.25132106009005
  Hartree energy:                                            3440.84085326262539
  Exchange-correlation energy:                              -1042.40675943116753
  Dispersion energy:                                           -0.57768187200536

  DFT+U energy:                                                 1.46798376687502

  Total energy:                                             -8144.36350620411577

  outer SCF iter =    1 RMS gradient =   0.61E-05 energy =      -8144.3635062041
  outer SCF loop converged in   1 iterations or   16 steps


  Integrated absolute spin density  :                             235.0996775057
  Ideal and single determinant S**2 :                    0.000000     127.909265

 ENERGY| Total FORCE_EVAL ( QS ) energy (a.u.):            -8144.363506204115765


 -------------------------------------------------------------------------------
 -                                                                             -
 -                                DBCSR STATISTICS                             -
 -                                                                             -
 -------------------------------------------------------------------------------
 COUNTER                                    TOTAL       BLAS       SMM       ACC
 flops     5 x    15 x    15              2079000       0.0%    100.0%      0.0%
 flops    13 x    15 x    15             23938200       0.0%    100.0%      0.0%
 flops    26 x    15 x    15             27799200       0.0%    100.0%      0.0%
 flops     5 x    32 x    32            208158720       0.0%    100.0%      0.0%
 flops     5 x    15 x     5            797107500       0.0%    100.0%      0.0%
 flops    13 x    32 x    32           2396798976       0.0%    100.0%      0.0%
 flops    26 x    32 x    32           2783379456       0.0%    100.0%      0.0%
 flops     5 x     5 x   160           2890272000       0.0%    100.0%      0.0%
 flops     5 x     5 x   175           3161235000       0.0%    100.0%      0.0%
 flops     5 x     5 x   192           6936652800       0.0%    100.0%      0.0%
 flops     5 x    15 x    13           9178123500       0.0%    100.0%      0.0%
 flops    13 x    15 x     5           9178123500       0.0%    100.0%      0.0%
 flops     5 x    15 x    26          10658466000       0.0%    100.0%      0.0%
 flops    26 x    15 x     5          10658466000       0.0%    100.0%      0.0%
 flops    13 x     5 x   160          31750451200       0.0%    100.0%      0.0%
 flops     5 x    13 x   160          31782982400       0.0%    100.0%      0.0%
 flops    13 x     5 x   175          34727056000       0.0%    100.0%      0.0%
 flops     5 x    13 x   175          34762637000       0.0%    100.0%      0.0%
 flops     5 x    26 x   160          36825318400       0.0%    100.0%      0.0%
 flops    26 x     5 x   160          36955443200       0.0%    100.0%      0.0%
 flops     5 x    32 x     5          37410912000       0.0%    100.0%      0.0%
 flops     5 x    26 x   175          40277692000       0.0%    100.0%      0.0%
 flops    26 x     5 x   175          40420016000       0.0%    100.0%      0.0%
 flops   160 x   160 x   160          50528256000     100.0%      0.0%      0.0%
 flops   160 x   160 x   175          55265280000     100.0%      0.0%      0.0%
 flops   160 x   175 x   160          55265280000     100.0%      0.0%      0.0%
 flops   175 x   160 x   160          55265280000     100.0%      0.0%      0.0%
 flops   160 x   175 x   175          60446400000     100.0%      0.0%      0.0%
 flops   175 x   160 x   175          60446400000     100.0%      0.0%      0.0%
 flops   175 x   175 x   160          60446400000     100.0%      0.0%      0.0%
 flops   175 x   175 x   175          66113250000     100.0%      0.0%      0.0%
 flops    13 x     5 x   192          76201082880       0.0%    100.0%      0.0%
 flops     5 x    13 x   192          76279157760       0.0%    100.0%      0.0%
 flops     5 x    26 x   192          88380764160       0.0%    100.0%      0.0%
 flops    26 x     5 x   192          88693063680       0.0%    100.0%      0.0%
 flops    13 x    15 x    13         105679536300       0.0%    100.0%      0.0%
 flops   160 x   160 x   678         107195596800     100.0%      0.0%      0.0%
 flops   160 x   175 x   678         117245184000     100.0%      0.0%      0.0%
 flops   175 x   160 x   678         117245184000     100.0%      0.0%      0.0%
 flops   160 x   160 x   192         121267814400     100.0%      0.0%      0.0%
 flops   160 x   192 x   160         121267814400     100.0%      0.0%      0.0%
 flops   192 x   160 x   160         121267814400     100.0%      0.0%      0.0%
 flops    26 x    15 x    13         122724622800       0.0%    100.0%      0.0%
 flops    13 x    15 x    26         122724622800       0.0%    100.0%      0.0%
 flops   175 x   175 x   678         128236920000     100.0%      0.0%      0.0%
 flops   160 x   175 x   192         132636672000     100.0%      0.0%      0.0%
 flops   160 x   192 x   175         132636672000     100.0%      0.0%      0.0%
 flops   175 x   160 x   192         132636672000     100.0%      0.0%      0.0%
 flops   175 x   192 x   160         132636672000     100.0%      0.0%      0.0%
 flops   192 x   160 x   175         132636672000     100.0%      0.0%      0.0%
 flops   192 x   175 x   160         132636672000     100.0%      0.0%      0.0%
 flops    26 x    15 x    26         142518916800       0.0%    100.0%      0.0%
 flops   175 x   175 x   192         145071360000     100.0%      0.0%      0.0%
 flops   175 x   192 x   175         145071360000     100.0%      0.0%      0.0%
 flops   192 x   175 x   175         145071360000     100.0%      0.0%      0.0%
 flops   678 x   160 x   160         156974899200     100.0%      0.0%      0.0%
 flops   678 x   160 x   678         166515932160     100.0%      0.0%      0.0%
 flops   678 x   160 x   175         171691296000     100.0%      0.0%      0.0%
 flops   678 x   175 x   160         171691296000     100.0%      0.0%      0.0%
 flops   678 x   175 x   678         182126800800     100.0%      0.0%      0.0%
 flops   678 x   175 x   175         187787355000     100.0%      0.0%      0.0%
 flops   160 x   192 x   678         257269432320     100.0%      0.0%      0.0%
 flops   192 x   160 x   678         257269432320     100.0%      0.0%      0.0%
 flops   175 x   192 x   678         281388441600     100.0%      0.0%      0.0%
 flops   192 x   175 x   678         281388441600     100.0%      0.0%      0.0%
 flops   192 x   192 x   160         291042754560     100.0%      0.0%      0.0%
 flops   160 x   192 x   192         291042754560     100.0%      0.0%      0.0%
 flops   192 x   160 x   192         291042754560     100.0%      0.0%      0.0%
 flops   192 x   192 x   175         318328012800     100.0%      0.0%      0.0%
 flops   175 x   192 x   192         318328012800     100.0%      0.0%      0.0%
 flops   192 x   175 x   192         318328012800     100.0%      0.0%      0.0%
 flops   160 x   160 x   680         322535424000     100.0%      0.0%      0.0%
 flops   160 x   175 x   680         352773120000     100.0%      0.0%      0.0%
 flops   175 x   160 x   680         352773120000     100.0%      0.0%      0.0%
 flops    13 x    13 x   160         369704075520       0.0%    100.0%      0.0%
 flops   678 x   160 x   192         376739758080     100.0%      0.0%      0.0%
 flops   678 x   192 x   160         376739758080     100.0%      0.0%      0.0%
 flops   175 x   175 x   680         385845600000     100.0%      0.0%      0.0%
 flops   678 x   192 x   678         399638237184     100.0%      0.0%      0.0%
 flops    13 x    13 x   175         404363832600       0.0%    100.0%      0.0%
 flops   678 x   175 x   192         412059110400     100.0%      0.0%      0.0%
 flops   678 x   192 x   175         412059110400     100.0%      0.0%      0.0%
 flops    26 x    13 x   160         424428060160       0.0%    100.0%      0.0%
 flops    13 x    26 x   160         425104709120       0.0%    100.0%      0.0%
 flops     5 x    32 x    13         430759929600       0.0%    100.0%      0.0%
 flops    13 x    32 x     5         430759929600       0.0%    100.0%      0.0%
 flops    26 x    13 x   175         464218190800       0.0%    100.0%      0.0%
 flops    13 x    26 x   175         464958275600       0.0%    100.0%      0.0%
 flops   680 x   160 x   160         472313856000     100.0%      0.0%      0.0%
 flops     5 x    32 x    26         500237337600       0.0%    100.0%      0.0%
 flops    26 x    32 x     5         500237337600       0.0%    100.0%      0.0%
 flops   678 x   160 x   680         501021388800     100.0%      0.0%      0.0%
 flops   680 x   160 x   678         501021388800     100.0%      0.0%      0.0%
 flops    26 x    26 x   160         502411852800       0.0%    100.0%      0.0%
 flops   680 x   160 x   175         516593280000     100.0%      0.0%      0.0%
 flops   680 x   175 x   160         516593280000     100.0%      0.0%      0.0%
 flops   678 x   175 x   680         547992144000     100.0%      0.0%      0.0%
 flops   680 x   175 x   678         547992144000     100.0%      0.0%      0.0%
 flops    26 x    26 x   175         549512964000       0.0%    100.0%      0.0%
 flops   680 x   175 x   175         565023900000     100.0%      0.0%      0.0%
 flops   192 x   192 x   678         617446637568     100.0%      0.0%      0.0%
 flops   192 x   192 x   192         698502610944     100.0%      0.0%      0.0%
 flops   160 x   192 x   680         774085017600     100.0%      0.0%      0.0%
 flops   192 x   160 x   680         774085017600     100.0%      0.0%      0.0%
 flops   175 x   192 x   680         846655488000     100.0%      0.0%      0.0%
 flops   192 x   175 x   680         846655488000     100.0%      0.0%      0.0%
 flops    13 x    13 x   192         887289781248       0.0%    100.0%      0.0%
 flops   678 x   192 x   192         904175419392     100.0%      0.0%      0.0%
 flops    26 x    13 x   192        1018627344384       0.0%    100.0%      0.0%
 flops    13 x    26 x   192        1020251301888       0.0%    100.0%      0.0%
 flops   680 x   192 x   160        1133553254400     100.0%      0.0%      0.0%
 flops   680 x   160 x   192        1133553254400     100.0%      0.0%      0.0%
 flops   680 x   192 x   678        1202451333120     100.0%      0.0%      0.0%
 flops   678 x   192 x   680        1202451333120     100.0%      0.0%      0.0%
 flops    26 x    26 x   192        1205788446720       0.0%    100.0%      0.0%
 flops   680 x   192 x   175        1239823872000     100.0%      0.0%      0.0%
 flops   680 x   175 x   192        1239823872000     100.0%      0.0%      0.0%
 flops   680 x   160 x   680        1507497984000     100.0%      0.0%      0.0%
 flops   680 x   175 x   680        1648825920000     100.0%      0.0%      0.0%
 flops   192 x   192 x   680        1857804042240     100.0%      0.0%      0.0%
 flops   680 x   192 x   192        2720527810560     100.0%      0.0%      0.0%
 flops   680 x   192 x   680        3617995161600     100.0%      0.0%      0.0%
 flops    13 x    32 x    13        4959892903680       0.0%    100.0%      0.0%
 flops    26 x    32 x    13        5759875630080       0.0%    100.0%      0.0%
 flops    13 x    32 x    26        5759875630080       0.0%    100.0%      0.0%
 flops    26 x    32 x    26        6688887828480       0.0%    100.0%      0.0%
 flops inhomo. stacks                           0       0.0%      0.0%      0.0%
 flops total                        71.970581E+12      52.8%     47.2%      0.0%
 flops max/rank                      4.848134E+12      53.6%     46.4%      0.0%
 matmuls inhomo. stacks                         0       0.0%      0.0%      0.0%
 matmuls total                         1654390752       0.1%     99.9%      0.0%
 number of processed stacks               4460544      21.4%     78.6%      0.0%
 average stack size                                     1.0     471.6       0.0
 marketing flops                    80.459971E+12
 -------------------------------------------------------------------------------
 # multiplications                          18972
 max memory usage/rank               1.021956E+09
 # max total images/rank                        1
 # max 3D layers                                1
 # MPI messages exchanged                 1821312
 MPI messages size (bytes):
  total size                         1.653712E+12
  min size                           0.000000E+00
  max size                           3.699200E+06
  average size                     907.978188E+03
 MPI breakdown and total messages size (bytes):
             size <=      128                5808                        0
       128 < size <=     8192                   0                        0
      8192 < size <=    32768                   0                        0
     32768 < size <=   131072                 528                 24027168
    131072 < size <=  4194304             1814976            1653811206000
   4194304 < size <= 16777216                   0                        0
  16777216 < size                               0                        0
 -------------------------------------------------------------------------------
 
 MEMORY| Estimated peak process memory [MiB]                                 975

 -------------------------------------------------------------------------------
 -                                                                             -
 -                         MESSAGE PASSING PERFORMANCE                         -
 -                                                                             -
 -------------------------------------------------------------------------------

 ROUTINE             CALLS      AVE VOLUME [Bytes]
 MP_Group             1657
 MP_Bcast            58675                  23170.
 MP_Allreduce       252456                    591.
 MP_Sync              1007
 MP_Alltoall         88117                3067158.
 MP_SendRecv         17932                 514744.
 MP_ISendRecv        93870                 105472.
 MP_Wait           1113987
 MP_comm_split        1002
 MP_ISend           396020                 467067.
 MP_IRecv           396020                 462578.
 MP_Recv              2064                 613427.
 MP_Memory          828392
 -------------------------------------------------------------------------------


 -------------------------------------------------------------------------------
 -                                                                             -
 -                           R E F E R E N C E S                               -
 -                                                                             -
 -------------------------------------------------------------------------------
 
 CP2K version 6.1, the CP2K developers group (2018).
 CP2K is freely available from https://www.cp2k.org/ .

 Schuett, Ole; Messmer, Peter; Hutter, Juerg; VandeVondele, Joost. 
 Electronic Structure Calculations on Graphics Processing Units, John Wiley & Sons, Ltd, 173-190 (2016). 
 GPU-Accelerated Sparse Matrix-Matrix Multiplication for Linear Scaling Density Functional Theory.
 http://dx.doi.org/10.1002/9781118670712.ch8


 Borstnik, U; VandeVondele, J; Weber, V; Hutter, J. 
 PARALLEL COMPUTING, 40 (5-6), 47-58 (2014). 
 Sparse matrix multiplication: The distributed block-compressed sparse
 row library.
 http://dx.doi.org/10.1016/j.parco.2014.03.012


 Hutter, J; Iannuzzi, M; Schiffmann, F; VandeVondele, J. 
 WILEY INTERDISCIPLINARY REVIEWS-COMPUTATIONAL MOLECULAR SCIENCE, 4 (1), 15-25 (2014). 
 CP2K: atomistic simulations of condensed matter systems.
 http://dx.doi.org/10.1002/wcms.1159


 Grimme, S; Ehrlich, S; Goerigk, L. 
 JOURNAL OF COMPUTATIONAL CHEMISTRY, 32, 1456 (2011). 
 Effect of the damping function in dispersion corrected density functional theory.
 http://dx.doi.org/10.1002/jcc.21759


 Grimme, S; Antony, J; Ehrlich, S; Krieg, H. 
 JOURNAL OF CHEMICAL PHYSICS, 132 (15), 154104 (2010). 
 A consistent and accurate ab initio parametrization of density
 functional dispersion correction (DFT-D) for the 94 elements H-Pu.
 http://dx.doi.org/10.1063/1.3382344


 VandeVondele, J; Hutter, J. 
 JOURNAL OF CHEMICAL PHYSICS, 127 (11), 114105 (2007). 
 Gaussian basis sets for accurate calculations on molecular systems in
 gas and condensed phases.
 http://dx.doi.org/10.1063/1.2770708


 Krack, M. 
 THEORETICAL CHEMISTRY ACCOUNTS, 114 (1-3), 145-152 (2005). 
 Pseudopotentials for H to Kr optimized for gradient-corrected
 exchange-correlation functionals.
 http://dx.doi.org/10.1007/s00214-005-0655-y


 VandeVondele, J; Krack, M; Mohamed, F; Parrinello, M; Chassaing, T;
 Hutter, J. COMPUTER PHYSICS COMMUNICATIONS, 167 (2), 103-128 (2005). 
 QUICKSTEP: Fast and accurate density functional calculations using a
 mixed Gaussian and plane waves approach.
 http://dx.doi.org/10.1016/j.cpc.2004.12.014


 Frigo, M; Johnson, SG. 
 PROCEEDINGS OF THE IEEE, 93 (2), 216-231 (2005). 
 The design and implementation of FFTW3.
 http://dx.doi.org/10.1109/JPROC.2004.840301


 VandeVondele, J; Hutter, J. 
 JOURNAL OF CHEMICAL PHYSICS, 118 (10), 4365-4369 (2003). 
 An efficient orbital transformation method for electronic structure
 calculations.
 http://dx.doi.org/10.1063/1.1543154


 Hartwigsen, C; Goedecker, S; Hutter, J. 
 PHYSICAL REVIEW B, 58 (7), 3641-3662 (1998). 
 Relativistic separable dual-space Gaussian pseudopotentials from H to Rn.
 http://dx.doi.org/10.1103/PhysRevB.58.3641


 Dudarev, SL; Botton, GA; Savrasov, SY; Humphreys, CJ; Sutton, AP. 
 PHYSICAL REVIEW B, 57 (3), 1505-1509 (1998). 
 Electron-energy-loss spectra and the structural stability of
 nickel oxide: An LSDA+U study.
 http://dx.doi.org/10.1103/PhysRevB.57.1505


 Lippert, G; Hutter, J; Parrinello, M. 
 MOLECULAR PHYSICS, 92 (3), 477-487 (1997). 
 A hybrid Gaussian and plane wave density functional scheme.
 http://dx.doi.org/10.1080/002689797170220


 Dudarev, SL; Manh, DN; Sutton, AP. 
 PHILOSOPHICAL MAGAZINE B, 75 (5), 613-628 (1997). 
 Effect of Mott-Hubbard correlations on the electronic
 structure and structural stability of uranium dioxide.
 http://dx.doi.org/10.1080/13642819708202343


 Perdew, JP; Burke, K; Ernzerhof, M. 
 PHYSICAL REVIEW LETTERS, 77 (18), 3865-3868 (1996). 
 Generalized gradient approximation made simple.
 http://dx.doi.org/10.1103/PhysRevLett.77.3865


 Goedecker, S; Teter, M; Hutter, J. 
 PHYSICAL REVIEW B, 54 (3), 1703-1710 (1996). 
 Separable dual-space Gaussian pseudopotentials.
 http://dx.doi.org/10.1103/PhysRevB.54.1703


 -------------------------------------------------------------------------------
 -                                                                             -
 -                                T I M I N G                                  -
 -                                                                             -
 -------------------------------------------------------------------------------
 SUBROUTINE                       CALLS  ASD         SELF TIME        TOTAL TIME
                                MAXIMUM       AVERAGE  MAXIMUM  AVERAGE  MAXIMUM
 CP2K                                 1  1.0     0.04     0.07 11393.27 11393.41
 cp_geo_opt                           1  2.0     0.00     0.00 11387.57 11387.71
 geoopt_bfgs                          1  3.0     0.17     0.20 11387.57 11387.71
 cp_eval_at                          22  4.0     0.00     0.00 11384.86 11385.00
 qs_forces                           21  5.0     0.01     0.01 11210.02 11210.16
 qs_energies                         22  6.0     0.01     0.01 11023.79 11023.95
 scf_env_do_scf                      22  7.0     0.01     0.01 10692.19 10692.33
 scf_env_do_scf_inner_loop          739  8.0    10.11   160.98 10397.93 10398.23
 qs_rho_update_rho                  761  9.0     0.01     0.01  7160.30  7160.65
 calculate_rho_elec                1522 10.0  5834.45  6186.46  7160.29  7160.63
 rebuild_ks_matrix                  760  9.9     0.01     0.01  3021.75  3022.53
 qs_ks_build_kohn_sham_matrix       760 10.9     0.22     0.25  3021.74  3022.52
 qs_ks_update_qs_env                761  9.0     0.01     0.02  2853.16  2863.97
 sum_up_and_integrate               282 11.8    11.43    11.57  2154.52  2154.71
 integrate_v_rspace                 564 12.8  1699.13  1854.36  2143.08  2143.31
 density_rs2pw                     1522 11.0     0.14     0.15  1221.90  1472.68
 pw_transfer                      13776 12.7     1.71     1.92   897.78   902.81
 rs_pw_transfer                   10473 12.7     0.17     0.19   643.40   893.08
 fft_wrap_pw1pw2                  12256 13.6     0.15     0.17   870.01   874.95
 fft_wrap_pw1pw2_200               3912 14.4   109.91   113.92   810.33   817.00
 rs_pw_transfer_RS2PW_200          1544 13.0    80.70   100.37   448.92   695.89
 mp_waitany                       92644 14.7   400.28   643.12   400.28   643.12
 qs_vxc_create                      760 11.9     0.02     0.02   633.62   634.86
 fft3d_ps                         12256 15.6   357.07   360.82   611.94   618.92
 qs_scf_new_mos                     739  9.0     0.01     0.02   584.35   586.20
 qs_scf_loop_do_ot                  739 10.0     0.02     0.04   584.34   586.19
 dbcsr_multiply_generic           18972 13.7     1.42     1.50   522.73   525.89
 ot_scf_mini                        739 11.0     0.12     0.14   518.93   520.30
 xc_rho_set_and_dset_create         760 13.9    43.71    43.97   457.16   462.53
 multiply_cannon                  18972 14.7     3.11     3.84   367.38   385.69
 xc_vxc_pw_create                   282 12.8    92.18    94.79   343.78   345.03
 qs_ks_update_qs_env_forces          21  6.0     0.00     0.00   323.32   323.37
 init_scf_loop                       22  8.0     0.00     0.00   293.67   293.68
 xc_exc_calc                        478 13.0     2.18     2.19   289.82   289.82
 multiply_cannon_multrec          75888 15.7   269.22   282.70   269.42   282.88
 potential_pw2rs                    564 13.8     0.77     0.80   270.80   271.37
 rs_distribute_matrix              2128 11.7    19.04    30.79   206.71   269.69
 mp_alltoall_d11v                 18743 15.6   180.68   248.91   180.68   248.91
 -------------------------------------------------------------------------------

 The number of warnings for this run is : 1
 
 -------------------------------------------------------------------------------
  **** **** ******  **  PROGRAM ENDED AT                 2020-10-07 15:38:59.313
 ***** ** ***  *** **   PROGRAM RAN ON                                 irene6275
 **    ****   ******    PROGRAM RAN BY                                  marticar
 ***** **    ** ** **   PROGRAM PROCESS ID                                 10251
  **** **  *******  **  PROGRAM STOPPED IN /ccc/scratch/cont003/gen0609/marticar
                                           /684160
