10

C      -1.270274310934756      0.224563746377824      0.074613997291367
C       0.075290100713570      0.158874431563389     -0.595804720868883
O       0.224373665459429      0.473467051277530     -1.775576110648154
C       1.229530947790403     -0.310540117720109      0.247816832757684
H      -2.020670985572295      0.577526820563671     -0.638204367937366
H      -1.226800126458412      0.920801300485264      0.915732450462222
H      -1.554815683677161     -0.771254978306471      0.423181916393907
H       1.034927457848293     -1.325634493165333      0.602541414207136
H       2.145479641700837     -0.314182717516427     -0.349522127643657
H       1.362959293130096      0.366378956440682      1.095220715985711
