12

C       0.802832428423668     -1.140500528873775      0.015770055291570
C       1.389213862011361      0.124966590671421     -0.001084653358789
C       0.586380797743262      1.265470196969759     -0.016855455633440
C      -0.802836839828953      1.140505563560648     -0.015767531131408
C      -1.389218749327315     -0.124965118143102      0.001088445390253
C      -0.586382315362289     -1.265467517156625      0.016855899028313
H       1.428333973484803     -2.029082538891015      0.028055487902838
H       2.471573394783719      0.222322691176664     -0.001931791796910
H       1.043248680391049      2.251412249866376     -0.029995372086319
H      -1.428336171831586      2.029090481130386     -0.028056834073051
H      -2.471578079080797     -0.222334085459286      0.001934555880771
H      -1.043230981406926     -2.251417984851459      0.029987194586181
