9

C      -0.888310578914582      0.167003180465013     -0.027315888644443
C       0.465753042510598     -0.511558969792741     -0.036795332691056
O       1.431074787886656      0.322916222530930      0.586669993391690
H      -0.848740991132893      1.117480054923263     -0.569524128581970
H      -1.647121340150867     -0.470442717202781     -0.489636599175981
H      -1.196397122111792      0.397844547334861      0.997723202030776
H       0.791997000773054     -0.722428249502201     -1.059725842388062
H       0.424603654434605     -1.455861723609879      0.513790646946063
H       1.467141546705244      1.155047654853557      0.084813949112989
