 DBCSR| Multiplication driver                                               XSMM
 DBCSR| Multrec recursion limit                                              512
 DBCSR| Multiplication stack size                                           1000
 DBCSR| Maximum elements for images                                    UNLIMITED
 DBCSR| Multiplicative factor virtual images                                   1
 DBCSR| Multiplication size stacks                                             3
 DBCSR| Number of 3D layers                                               SINGLE
 DBCSR| Use MPI memory allocation                                              T
 DBCSR| Use RMA algorithm                                                      F
 DBCSR| Use Communication thread                                               T
 DBCSR| Communication thread load                                             87


  **** **** ******  **  PROGRAM STARTED AT               2020-10-29 20:14:00.842
 ***** ** ***  *** **   PROGRAM STARTED ON                             irene3803
 **    ****   ******    PROGRAM STARTED BY                              marticar
 ***** **    ** ** **   PROGRAM PROCESS ID                                182041
  **** **  *******  **  PROGRAM STARTED IN /ccc/scratch/cont003/gen0609/marticar
                                           /5730737

 CP2K| version string:                                          CP2K version 6.1
 CP2K| source code revision number:                                    svn:18464
 CP2K| cp2kflags: libint fftw3 parallel mpi3 scalapack xsmm mkl                 
 CP2K| is freely available from                            https://www.cp2k.org/
 CP2K| Program compiled at                          Mon Dec 24 15:18:38 CET 2018
 CP2K| Program compiled on                                             cobalt170
 CP2K| Program compiled for                                   Linux-x86-64-iomkl
 CP2K| Data directory path          /tmp/cp2k/6.1/iomkl-174196.202/cp2k-6.1/data
 CP2K| Input file name                                             screening.inp
 
 GLOBAL| Force Environment number                                              1
 GLOBAL| Basis set file name            /ccc/work/cont003/gen0609/marticar/data/
 GLOBAL| Potential file name            /ccc/work/cont003/gen0609/marticar/data/
 GLOBAL| MM Potential file name                                     MM_POTENTIAL
 GLOBAL| Coordinate file name                                          coord.xyz
 GLOBAL| Method name                                                        CP2K
 GLOBAL| Project name                                         sorbitol_screening
 GLOBAL| Preferred FFT library                                             FFTW3
 GLOBAL| Preferred diagonalization lib.                                       SL
 GLOBAL| Run type                                                        GEO_OPT
 GLOBAL| All-to-all communication in single precision                          F
 GLOBAL| FFTs using library dependent lengths                                  F
 GLOBAL| Global print level                                                  LOW
 GLOBAL| Total number of message passing processes                            64
 GLOBAL| Number of threads for this process                                    1
 GLOBAL| This output is from process                                           0
 GLOBAL| CPU model name :  Intel(R) Xeon Phi(TM) CPU 7250 @ 1.40GHz

 MEMORY| system memory details [Kb]
 MEMORY|                        rank 0           min           max       average
 MEMORY| MemTotal             98253756      98253756      98253756      98253756
 MEMORY| MemFree              70057944      70057944      70057944      70057944
 MEMORY| Buffers                     0             0             0             0
 MEMORY| Cached                1244204       1244204       1244204       1244204
 MEMORY| Slab                   910240        910240        910240        910240
 MEMORY| SReclaimable           111672        111672        111672        111672
 MEMORY| MemLikelyFree        71413820      71413820      71413820      71413820

 
 GENERATE|  Preliminary Number of Bonds generated:                             0
 GENERATE|  Achieved consistency in connectivity generation.

 *******************************************************************************
 *******************************************************************************
 **                                                                           **
 **     #####                         ##              ##                      **
 **    ##   ##            ##          ##              ##                      **
 **   ##     ##                       ##            ######                    **
 **   ##     ##  ##   ##  ##   #####  ##  ##   ####   ##    #####    #####    **
 **   ##     ##  ##   ##  ##  ##      ## ##   ##      ##   ##   ##  ##   ##   **
 **   ##  ## ##  ##   ##  ##  ##      ####     ###    ##   ######   ######    **
 **    ##  ###   ##   ##  ##  ##      ## ##      ##   ##   ##       ##        **
 **     #######   #####   ##   #####  ##  ##  ####    ##    #####   ##        **
 **           ##                                                    ##        **
 **                                                                           **
 **                                                ... make the atoms dance   **
 **                                                                           **
 **            Copyright (C) by CP2K developers group (2000 - 2018)           **
 **                                                                           **
 *******************************************************************************


 TOTAL NUMBERS AND MAXIMUM NUMBERS

  Total number of            - Atomic kinds:                                   6
                             - Atoms:                                        161
                             - Shell sets:                                   161
                             - Shells:                                       939
                             - Primitive Cartesian functions:               1073
                             - Cartesian basis functions:                   3046
                             - Spherical basis functions:                   2683

  Maximum angular momentum of- Orbital basis functions:                        3
                             - Local part of the GTH pseudopotential:          2
                             - Non-local part of the GTH pseudopotential:      3


 SCF PARAMETERS         Density guess:                                   RESTART
                        --------------------------------------------------------
                        max_scf:                                             500
                        max_scf_history:                                       0
                        max_diis:                                              4
                        --------------------------------------------------------
                        eps_scf:                                        1.00E-05
                        eps_scf_history:                                0.00E+00
                        eps_diis:                                       1.00E-01
                        eps_eigval:                                     1.00E-05
                        --------------------------------------------------------
                        level_shift [a.u.]:                                 0.00
                        --------------------------------------------------------
                        Outer loop SCF in use 
                        No variables optimised in outer loop
                        eps_scf                                         1.00E-05
                        max_scf                                               10
                        No outer loop optimization
                        step_size                                       5.00E-01

 BFGS| Use rational function optimization for step estimation:                NO
 BFGS| Use model Hessian for initial guess:                                  YES
 BFGS| Restart Hessian:                                                       NO
 BFGS| Trust radius:                                                       0.472

 *******************************************************************************
 ***                     STARTING GEOMETRY OPTIMIZATION                      ***
 ***                                   BFGS                                  ***
 *******************************************************************************

 Spin 1

 Number of electrons:                                                        712
 Number of occupied orbitals:                                                712
 Number of molecular orbitals:                                               712

 Spin 2

 Number of electrons:                                                        712
 Number of occupied orbitals:                                                712
 Number of molecular orbitals:                                               712

 Number of orbital functions:                                               2683
 Number of independent orbital functions:                                   2683

 Extrapolation method: initial_guess

 *** WARNING in qs_initial_guess.F:263 :: User requested to restart the  ***
 *** wavefunction from the file named: sorbitol_screening-RESTART.wfn.   ***
 *** This file does not exist. Please check the existence of the file or ***
 *** change properly the value of the keyword WFN_RESTART_FILE_NAME.     ***
 *** Calculation continues using ATOMIC GUESS.                           ***



 SCF WAVEFUNCTION OPTIMIZATION

  ----------------------------------- OT ---------------------------------------
  Minimizer      : CG                  : conjugate gradient
  Preconditioner : FULL_ALL            : diagonalization, state selective
  Precond_solver : DEFAULT
  Line search    : 3PNT                : 3 energies
  stepsize       :    0.15000000                  energy_gap     :    0.08000000
  eps_taylor     :   0.10000E-15                  max_taylor     :             4
  ----------------------------------- OT ---------------------------------------

  Step     Update method      Time    Convergence         Total energy    Change
  ------------------------------------------------------------------------------
     1 OT CG       0.12E+00   21.7     0.01913718     -7987.0262626914 -7.99E+03
     2 OT LS       0.17E+00    9.5                    -8077.2990155049
     3 OT LS       0.14E+00    9.5                    -8077.2743572579
     4 OT CG       0.12E+00   18.0     0.00454120     -8078.5386907182 -9.15E+01
     5 OT LS       0.16E+00    9.5                    -8086.0771971876
     6 OT LS       0.34E+00    9.5                    -8088.2454069717

 *** WARNING in dft_plus_u.F:2007 :: DFT+U energy contibution is negative ***
 *** possibly due to unphysical Mulliken charges. Check your input, if    ***
 *** this warning persists or try a different method!                     ***

     7 OT CG       0.28E+00   17.9     0.00273884     -8092.0998704175 -1.36E+01

 *** WARNING in dft_plus_u.F:2007 :: DFT+U energy contibution is negative ***
 *** possibly due to unphysical Mulliken charges. Check your input, if    ***
 *** this warning persists or try a different method!                     ***

     8 OT LS       0.39E+00    9.5                    -8097.1949618192

 *** WARNING in dft_plus_u.F:2007 :: DFT+U energy contibution is negative ***
 *** possibly due to unphysical Mulliken charges. Check your input, if    ***
 *** this warning persists or try a different method!                     ***

     9 OT LS       0.38E+00    9.5                    -8097.6257361586

 *** WARNING in dft_plus_u.F:2007 :: DFT+U energy contibution is negative ***
 *** possibly due to unphysical Mulliken charges. Check your input, if    ***
 *** this warning persists or try a different method!                     ***

    10 OT CG       0.31E+00   17.9     0.00240099     -8097.6262250425 -5.53E+00
    11 OT LS       0.43E+00    9.5                    -8098.2201485616
    12 OT LS       0.17E+00    9.5                    -8095.0311407426

 *** WARNING in dft_plus_u.F:2007 :: DFT+U energy contibution is negative ***
 *** possibly due to unphysical Mulliken charges. Check your input, if    ***
 *** this warning persists or try a different method!                     ***

    13 OT CG       0.13E+00   17.9     0.00204346     -8099.4723208324 -1.85E+00
    14 OT LS       0.19E+00    9.5                    -8101.0708615084
    15 OT LS       0.26E+00    9.5                    -8101.4057215254
    16 OT CG       0.21E+00   17.9     0.00168245     -8101.5809474471 -2.11E+00
    17 OT LS       0.30E+00    9.5                    -8102.3458356498
    18 OT LS       0.16E+00    9.5                    -8101.7923421232
    19 OT CG       0.13E+00   17.9     0.00119211     -8102.4410883972 -8.60E-01
    20 OT LS       0.18E+00    9.5                    -8102.9272753821
    21 OT LS       0.21E+00    9.5                    -8103.0067907717
    22 OT CG       0.17E+00   17.9     0.00100754     -8103.0230523158 -5.82E-01
    23 OT LS       0.24E+00    9.4                    -8103.3582210652
    24 OT LS       0.17E+00    9.4                    -8103.3087092036
    25 OT CG       0.14E+00   17.9     0.00075483     -8103.3582685107 -3.35E-01
    26 OT LS       0.19E+00    9.4                    -8103.5608049063
    27 OT LS       0.21E+00    9.5                    -8103.5865255942
    28 OT CG       0.17E+00   17.9     0.00069013     -8103.5880685258 -2.30E-01
    29 OT LS       0.24E+00    9.5                    -8103.7679628042
    30 OT LS       0.20E+00    9.5                    -8103.7686253901
    31 OT CG       0.16E+00   17.9     0.00057978     -8103.7734086256 -1.85E-01
    32 OT LS       0.23E+00    9.5                    -8103.8942075150
    33 OT LS       0.19E+00    9.5                    -8103.8927758075
    34 OT CG       0.15E+00   17.9     0.00050051     -8103.8971012515 -1.24E-01
    35 OT LS       0.22E+00    9.5                    -8103.9899113516
    36 OT LS       0.21E+00    9.5                    -8103.9963645347
    37 OT CG       0.17E+00   17.9     0.00044018     -8103.9965260062 -9.94E-02
    38 OT LS       0.23E+00    9.5                    -8104.0668809371
    39 OT LS       0.19E+00    9.5                    -8104.0655788313
    40 OT CG       0.15E+00   17.9     0.00037368     -8104.0683994502 -7.19E-02
    41 OT LS       0.22E+00    9.5                    -8104.1206177871
    42 OT LS       0.21E+00    9.5                    -8104.1243798378
    43 OT CG       0.17E+00   17.9     0.00033932     -8104.1244477707 -5.60E-02
    44 OT LS       0.23E+00    9.5                    -8104.1682719335
    45 OT LS       0.21E+00    9.5                    -8104.1689690455
    46 OT CG       0.16E+00   17.9     0.00029599     -8104.1698535255 -4.54E-02
    47 OT LS       0.23E+00    9.5                    -8104.2028429846
    48 OT LS       0.20E+00    9.5                    -8104.2035487734
    49 OT CG       0.16E+00   17.9     0.00026854     -8104.2041265251 -3.43E-02
    50 OT LS       0.23E+00    9.5                    -8104.2324106362
    51 OT LS       0.22E+00    9.5                    -8104.2342820367
    52 OT CG       0.18E+00   17.9     0.00025629     -8104.2343473685 -3.02E-02
    53 OT LS       0.25E+00    9.4                    -8104.2604492087
    54 OT LS       0.21E+00    9.5                    -8104.2608069310
    55 OT CG       0.17E+00   17.9     0.00024006     -8104.2613663219 -2.70E-02
    56 OT LS       0.24E+00    9.4                    -8104.2846421848
    57 OT LS       0.22E+00    9.4                    -8104.2857010073
    58 OT CG       0.18E+00   17.9     0.00023413     -8104.2858872416 -2.45E-02
    59 OT LS       0.25E+00    9.4                    -8104.3080364894
    60 OT LS       0.22E+00    9.5                    -8104.3083456518
    61 OT CG       0.17E+00   17.9     0.00022114     -8104.3088254536 -2.29E-02
    62 OT LS       0.24E+00    9.4                    -8104.3288264848
    63 OT LS       0.22E+00    9.5                    -8104.3296967481
    64 OT CG       0.18E+00   17.9     0.00021854     -8104.3298740504 -2.10E-02
    65 OT LS       0.25E+00    9.4                    -8104.3496069399
    66 OT LS       0.22E+00    9.5                    -8104.3501524522
    67 OT CG       0.18E+00   17.9     0.00021131     -8104.3504523493 -2.06E-02
    68 OT LS       0.25E+00    9.5                    -8104.3684939726
    69 OT LS       0.22E+00    9.5                    -8104.3686204243
    70 OT CG       0.17E+00   17.9     0.00020264     -8104.3690748875 -1.86E-02
    71 OT LS       0.24E+00    9.4                    -8104.3856573568
    72 OT LS       0.22E+00    9.4                    -8104.3862744073
    73 OT CG       0.18E+00   17.9     0.00019432     -8104.3864558985 -1.74E-02
    74 OT LS       0.25E+00    9.4                    -8104.4012548169
    75 OT LS       0.21E+00    9.5                    -8104.4011642405
    76 OT CG       0.17E+00   17.9     0.00017955     -8104.4016442326 -1.52E-02
    77 OT LS       0.24E+00    9.5                    -8104.4142969111
    78 OT LS       0.22E+00    9.5                    -8104.4148340453
    79 OT CG       0.17E+00   17.9     0.00016847     -8104.4149464171 -1.33E-02
    80 OT LS       0.24E+00    9.5                    -8104.4261496145
    81 OT LS       0.21E+00    9.4                    -8104.4264200610
    82 OT CG       0.17E+00   17.9     0.00015548     -8104.4266027141 -1.17E-02
    83 OT LS       0.24E+00    9.4                    -8104.4361464583
    84 OT LS       0.22E+00    9.5                    -8104.4364198165
    85 OT CG       0.17E+00   17.9     0.00014453     -8104.4365557418 -9.95E-03
    86 OT LS       0.24E+00    9.5                    -8104.4448201966
    87 OT LS       0.22E+00    9.5                    -8104.4450565950
    88 OT CG       0.17E+00   17.9     0.00013398     -8104.4451738806 -8.62E-03
    89 OT LS       0.24E+00    9.5                    -8104.4521896772
    90 OT LS       0.21E+00    9.4                    -8104.4522938536
    91 OT CG       0.17E+00   17.9     0.00012167     -8104.4524382190 -7.26E-03
    92 OT LS       0.24E+00    9.5                    -8104.4582473065
    93 OT LS       0.22E+00    9.5                    -8104.4584562535
    94 OT CG       0.17E+00   17.9     0.00011261     -8104.4585207966 -6.08E-03
    95 OT LS       0.24E+00    9.5                    -8104.4635258437
    96 OT LS       0.22E+00    9.5                    -8104.4636591814
    97 OT CG       0.17E+00   17.9     0.00010382     -8104.4637343622 -5.21E-03
    98 OT LS       0.24E+00    9.4                    -8104.4679578554
    99 OT LS       0.21E+00    9.4                    -8104.4680394569
   100 OT CG       0.17E+00   17.9     0.00009561     -8104.4681172973 -4.38E-03
   101 OT LS       0.24E+00    9.4                    -8104.4717648538
   102 OT LS       0.22E+00    9.5                    -8104.4719358101
   103 OT CG       0.18E+00   17.9     0.00008961     -8104.4719623451 -3.85E-03
   104 OT LS       0.25E+00    9.5                    -8104.4751488515
   105 OT LS       0.21E+00    9.5                    -8104.4751817405
   106 OT CG       0.17E+00   17.9     0.00008213     -8104.4752549240 -3.29E-03
   107 OT LS       0.24E+00    9.4                    -8104.4779277515
   108 OT LS       0.22E+00    9.5                    -8104.4780157594
   109 OT CG       0.17E+00   17.9     0.00007671     -8104.4780488368 -2.79E-03
   110 OT LS       0.24E+00    9.5                    -8104.4803928772
   111 OT LS       0.22E+00    9.5                    -8104.4804598341
   112 OT CG       0.17E+00   17.9     0.00007129     -8104.4804931284 -2.44E-03
   113 OT LS       0.24E+00    9.5                    -8104.4824967363
   114 OT LS       0.21E+00    9.5                    -8104.4825284071
   115 OT CG       0.17E+00   17.9     0.00006515     -8104.4825687652 -2.08E-03
   116 OT LS       0.24E+00    9.5                    -8104.4842394456
   117 OT LS       0.21E+00    9.4                    -8104.4842904558
   118 OT CG       0.17E+00   17.9     0.00006001     -8104.4843127760 -1.74E-03
   119 OT LS       0.24E+00    9.5                    -8104.4857215339
   120 OT LS       0.21E+00    9.5                    -8104.4857481805
   121 OT CG       0.17E+00   17.9     0.00005459     -8104.4857743948 -1.46E-03
   122 OT LS       0.24E+00    9.5                    -8104.4869348941
   123 OT LS       0.21E+00    9.5                    -8104.4869655216
   124 OT CG       0.17E+00   17.9     0.00004939     -8104.4869830885 -1.21E-03
   125 OT LS       0.24E+00    9.4                    -8104.4879314062
   126 OT LS       0.21E+00    9.5                    -8104.4879553190
   127 OT CG       0.17E+00   17.9     0.00004517     -8104.4879701688 -9.87E-04
   128 OT LS       0.24E+00    9.4                    -8104.4887597364
   129 OT LS       0.21E+00    9.4                    -8104.4887780804
   130 OT CG       0.17E+00   17.9     0.00004101     -8104.4887911571 -8.21E-04
   131 OT LS       0.24E+00    9.4                    -8104.4894447227
   132 OT LS       0.21E+00    9.5                    -8104.4894656629
   133 OT CG       0.17E+00   17.9     0.00003757     -8104.4894739732 -6.83E-04
   134 OT LS       0.24E+00    9.5                    -8104.4900220587
   135 OT LS       0.21E+00    9.5                    -8104.4900349606
   136 OT CG       0.17E+00   17.9     0.00003425     -8104.4900439584 -5.70E-04
   137 OT LS       0.24E+00    9.5                    -8104.4905041784
   138 OT LS       0.22E+00    9.5                    -8104.4905215050
   139 OT CG       0.17E+00   17.9     0.00003171     -8104.4905263300 -4.82E-04
   140 OT LS       0.24E+00    9.4                    -8104.4909282927
   141 OT LS       0.22E+00    9.4                    -8104.4909436200
   142 OT CG       0.18E+00   17.9     0.00002960     -8104.4909477599 -4.21E-04
   143 OT LS       0.25E+00    9.5                    -8104.4912991496
   144 OT LS       0.22E+00    9.5                    -8104.4913075542
   145 OT CG       0.17E+00   17.9     0.00002767     -8104.4913132594 -3.65E-04
   146 OT LS       0.24E+00    9.4                    -8104.4916231072
   147 OT LS       0.22E+00    9.4                    -8104.4916342637
   148 OT CG       0.18E+00   17.9     0.00002635     -8104.4916377079 -3.24E-04
   149 OT LS       0.25E+00    9.4                    -8104.4919210039
   150 OT LS       0.22E+00    9.5                    -8104.4919293883
   151 OT CG       0.18E+00   17.9     0.00002512     -8104.4919332791 -2.96E-04
   152 OT LS       0.25E+00    9.5                    -8104.4921881145
   153 OT LS       0.22E+00    9.5                    -8104.4921921160
   154 OT CG       0.18E+00   17.9     0.00002369     -8104.4921972553 -2.64E-04
   155 OT LS       0.25E+00    9.4                    -8104.4924251514
   156 OT LS       0.22E+00    9.4                    -8104.4924336191
   157 OT CG       0.18E+00   17.9     0.00002274     -8104.4924360516 -2.39E-04
   158 OT LS       0.25E+00    9.5                    -8104.4926458870
   159 OT LS       0.22E+00    9.4                    -8104.4926501675
   160 OT CG       0.18E+00   17.9     0.00002135     -8104.4926539189 -2.18E-04
   161 OT LS       0.25E+00    9.5                    -8104.4928367989
   162 OT LS       0.22E+00    9.5                    -8104.4928402261
   163 OT CG       0.17E+00   17.9     0.00001999     -8104.4928436405 -1.90E-04
   164 OT LS       0.24E+00    9.5                    -8104.4930038071
   165 OT LS       0.22E+00    9.5                    -8104.4930086096
   166 OT CG       0.18E+00   17.9     0.00001878     -8104.4930107822 -1.67E-04
   167 OT LS       0.25E+00    9.5                    -8104.4931529288
   168 OT LS       0.22E+00    9.5                    -8104.4931571538
   169 OT CG       0.18E+00   17.9     0.00001763     -8104.4931590979 -1.48E-04
   170 OT LS       0.25E+00    9.5                    -8104.4932835781
   171 OT LS       0.22E+00    9.5                    -8104.4932859488
   172 OT CG       0.17E+00   17.9     0.00001659     -8104.4932882548 -1.29E-04
   173 OT LS       0.24E+00    9.5                    -8104.4933988844
   174 OT LS       0.22E+00    9.5                    -8104.4934026353
   175 OT CG       0.18E+00   17.9     0.00001575     -8104.4934039570 -1.16E-04
   176 OT LS       0.25E+00    9.4                    -8104.4935044580
   177 OT LS       0.22E+00    9.4                    -8104.4935075520
   178 OT CG       0.18E+00   17.9     0.00001499     -8104.4935088812 -1.05E-04
   179 OT LS       0.25E+00    9.4                    -8104.4936005237
   180 OT LS       0.22E+00    9.4                    -8104.4936033398
   181 OT CG       0.18E+00   18.0     0.00001447     -8104.4936045539 -9.57E-05
   182 OT LS       0.25E+00    9.4                    -8104.4936912327
   183 OT LS       0.23E+00    9.4                    -8104.4936945112
   184 OT CG       0.18E+00   17.9     0.00001403     -8104.4936954138 -9.09E-05
   185 OT LS       0.25E+00    9.4                    -8104.4937777164
   186 OT LS       0.23E+00    9.4                    -8104.4937801635
   187 OT CG       0.18E+00   17.9     0.00001371     -8104.4937812889 -8.59E-05
   188 OT LS       0.26E+00    9.5                    -8104.4938600274
   189 OT LS       0.23E+00    9.4                    -8104.4938622320
   190 OT CG       0.18E+00   17.9     0.00001342     -8104.4938633677 -8.21E-05
   191 OT LS       0.26E+00    9.5                    -8104.4939386971
   192 OT LS       0.23E+00    9.5                    -8104.4939405219
   193 OT CG       0.18E+00   17.9     0.00001308     -8104.4939417350 -7.84E-05
   194 OT LS       0.26E+00    9.5                    -8104.4940129858
   195 OT LS       0.23E+00    9.4                    -8104.4940146452
   196 OT CG       0.18E+00   17.9     0.00001282     -8104.4940158227 -7.41E-05
   197 OT LS       0.25E+00    9.4                    -8104.4940840356
   198 OT LS       0.23E+00    9.4                    -8104.4940857532
   199 OT CG       0.18E+00   17.9     0.00001246     -8104.4940868215 -7.10E-05
   200 OT LS       0.25E+00    9.5                    -8104.4941509886
   201 OT LS       0.22E+00    9.5                    -8104.4941524948
   202 OT CG       0.18E+00   17.9     0.00001201     -8104.4941535495 -6.67E-05
   203 OT LS       0.25E+00    9.4                    -8104.4942126631
   204 OT LS       0.22E+00    9.5                    -8104.4942138692
   205 OT CG       0.18E+00   17.9     0.00001151     -8104.4942149259 -6.14E-05
   206 OT LS       0.25E+00    9.5                    -8104.4942693405
   207 OT LS       0.22E+00    9.4                    -8104.4942710966
   208 OT CG       0.18E+00   17.9     0.00001101     -8104.4942717831 -5.69E-05
   209 OT LS       0.25E+00    9.4                    -8104.4943216059
   210 OT LS       0.22E+00    9.5                    -8104.4943227935
   211 OT CG       0.18E+00   17.9     0.00001052     -8104.4943236046 -5.18E-05
   212 OT LS       0.25E+00    9.5                    -8104.4943688393
   213 OT LS       0.22E+00    9.5                    -8104.4943698947
   214 OT CG       0.18E+00   17.9     0.00001006     -8104.4943706414 -4.70E-05
   215 OT LS       0.25E+00    9.4                    -8104.4944117254
   216 OT LS       0.22E+00    9.5                    -8104.4944126454
   217 OT CG       0.18E+00   17.9     0.00000959     -8104.4944133412 -4.27E-05

  *** SCF run converged in   217 steps ***


  Electronic density on regular grids:      -1423.9999923632        0.0000076368
  Core density on regular grids:             1423.9999996427       -0.0000003573
  Total charge density on r-space grids:        0.0000072795
  Total charge density g-space grids:           0.0000072795

  Overlap energy of the core charge distribution:               0.00000186245095
  Self energy of the core charge distribution:             -14544.97670297458353
  Core Hamiltonian energy:                                   4078.48054692263850
  Hartree energy:                                            3395.07373238640321
  Exchange-correlation energy:                              -1034.03103386175735
  Dispersion energy:                                           -0.54033282880052

  DFT+U energy:                                                 1.49937515244665

  Total energy:                                             -8104.49441334120183

  outer SCF iter =    1 RMS gradient =   0.96E-05 energy =      -8104.4944133412
  outer SCF loop converged in   1 iterations or  217 steps


  Integrated absolute spin density  :                             232.1661766663
  Ideal and single determinant S**2 :                    0.000000     127.228802

 ENERGY| Total FORCE_EVAL ( QS ) energy (a.u.):            -8104.494450890827466


 --------  Informations at step =     0 ------------
  Optimization Method        =                 BFGS
  Total Energy               =     -8104.4944508908
  Used time                  =             2724.956
 ---------------------------------------------------

 --------------------------
 OPTIMIZATION STEP:      1
 --------------------------

 Spin 1

 Number of electrons:                                                        712
 Number of occupied orbitals:                                                712
 Number of molecular orbitals:                                               712

 Spin 2

 Number of electrons:                                                        712
 Number of occupied orbitals:                                                712
 Number of molecular orbitals:                                               712

 Number of orbital functions:                                               2683
 Number of independent orbital functions:                                   2683

 Extrapolation method: PS Nth order


 SCF WAVEFUNCTION OPTIMIZATION

  ----------------------------------- OT ---------------------------------------
  Minimizer      : CG                  : conjugate gradient
  Preconditioner : FULL_ALL            : diagonalization, state selective
  Precond_solver : DEFAULT
  Line search    : 3PNT                : 3 energies
  stepsize       :    0.15000000                  energy_gap     :    0.08000000
  eps_taylor     :   0.10000E-15                  max_taylor     :             4
  ----------------------------------- OT ---------------------------------------

  Step     Update method      Time    Convergence         Total energy    Change
  ------------------------------------------------------------------------------
     1 OT CG       0.12E+00   20.1     0.00007912     -8104.4948239669 -8.10E+03
     2 OT LS       0.17E+00    8.5                    -8104.4970348902
     3 OT LS       0.26E+00    8.5                    -8104.4975503210
     4 OT CG       0.21E+00   17.1     0.00007060     -8104.4979488794 -3.12E-03
     5 OT LS       0.29E+00    8.5                    -8104.4994136936
     6 OT LS       0.17E+00    8.5                    -8104.4985893073
     7 OT CG       0.13E+00   17.0     0.00002438     -8104.4995237093 -1.57E-03
     8 OT LS       0.19E+00    8.5                    -8104.4995988228
     9 OT LS       0.88E-01    8.5                    -8104.4995024556
    10 OT CG       0.71E-01   17.0     0.00001056     -8104.4996238983 -1.00E-04
    11 OT LS       0.99E-01    8.5                    -8104.4996461940
    12 OT LS       0.14E+00    8.4                    -8104.4996507670
    13 OT CG       0.11E+00   16.9     0.00000564     -8104.4996530031 -2.91E-05

  *** SCF run converged in    13 steps ***


  Electronic density on regular grids:      -1423.9999923342        0.0000076658
  Core density on regular grids:             1423.9999996432       -0.0000003568
  Total charge density on r-space grids:        0.0000073090
  Total charge density g-space grids:           0.0000073090

  Overlap energy of the core charge distribution:               0.00000188584780
  Self energy of the core charge distribution:             -14544.97670297458353
  Core Hamiltonian energy:                                   4078.37369609556390
  Hartree energy:                                            3395.14657425653877
  Exchange-correlation energy:                              -1034.00414051493703
  Dispersion energy:                                           -0.54046755509525

  DFT+U energy:                                                 1.50138580358750

  Total energy:                                             -8104.49965300307849

  outer SCF iter =    1 RMS gradient =   0.56E-05 energy =      -8104.4996530031
  outer SCF loop converged in   1 iterations or   13 steps


  Integrated absolute spin density  :                             232.1610760343
  Ideal and single determinant S**2 :                    0.000000     127.234783

 ENERGY| Total FORCE_EVAL ( QS ) energy (a.u.):            -8104.499660443838366


 --------  Informations at step =     1 ------------
  Optimization Method        =                 BFGS
  Total Energy               =     -8104.4996604438
  Real energy change         =        -0.0052095530
  Predicted change in energy =        -0.0029516460
  Scaling factor             =         0.0000000000
  Step size                  =         0.1227758308
  Trust radius               =         0.4724315332
  Decrease in energy         =                  YES
  Used time                  =              204.706

  Convergence check :
  Max. step size             =         0.1227758308
  Conv. limit for step size  =         1.0000000000
  Convergence in step size   =                  YES
  RMS step size              =         0.0104246844
  Conv. limit for RMS step   =         1.0000000000
  Convergence in RMS step    =                  YES
  Max. gradient              =         0.0114493365
  Conv. limit for gradients  =         0.0100000000
  Conv. for gradients        =                   NO
  RMS gradient               =         0.0010557081
  Conv. limit for RMS grad.  =         1.0000000000
  Conv. in RMS gradients     =                  YES
 ---------------------------------------------------

 --------------------------
 OPTIMIZATION STEP:      2
 --------------------------

 Spin 1

 Number of electrons:                                                        712
 Number of occupied orbitals:                                                712
 Number of molecular orbitals:                                               712

 Spin 2

 Number of electrons:                                                        712
 Number of occupied orbitals:                                                712
 Number of molecular orbitals:                                               712

 Number of orbital functions:                                               2683
 Number of independent orbital functions:                                   2683

 Extrapolation method: PS Nth order


 SCF WAVEFUNCTION OPTIMIZATION

  ----------------------------------- OT ---------------------------------------
  Minimizer      : CG                  : conjugate gradient
  Preconditioner : FULL_ALL            : diagonalization, state selective
  Precond_solver : DEFAULT
  Line search    : 3PNT                : 3 energies
  stepsize       :    0.15000000                  energy_gap     :    0.08000000
  eps_taylor     :   0.10000E-15                  max_taylor     :             4
  ----------------------------------- OT ---------------------------------------

  Step     Update method      Time    Convergence         Total energy    Change
  ------------------------------------------------------------------------------
     1 OT CG       0.12E+00   20.1     0.00013312     -8104.4893419586 -8.10E+03
     2 OT LS       0.17E+00    8.5                    -8104.4962102203
     3 OT LS       0.39E+00    8.5                    -8104.4982575018
     4 OT CG       0.31E+00   17.4     0.00009987     -8104.5025738174 -1.32E-02
     5 OT LS       0.16E+00    8.5                    -8104.4975421267
     6 OT LS       0.11E+00    8.5                    -8104.5043266146
     7 OT CG       0.88E-01   17.0     0.00003385     -8104.5046922817 -2.12E-03
     8 OT LS       0.12E+00    8.5                    -8104.5049403074
     9 OT LS       0.12E+00    8.5                    -8104.5049622784
    10 OT CG       0.98E-01   16.9     0.00001680     -8104.5049622785 -2.70E-04
    11 OT LS       0.14E+00    8.5                    -8104.5050226740
    12 OT LS       0.11E+00    8.5                    -8104.5050212184
    13 OT CG       0.91E-01   16.9     0.00000842     -8104.5050238468 -6.16E-05

  *** SCF run converged in    13 steps ***


  Electronic density on regular grids:      -1423.9999923356        0.0000076644
  Core density on regular grids:             1423.9999996436       -0.0000003564
  Total charge density on r-space grids:        0.0000073080
  Total charge density g-space grids:           0.0000073080

  Overlap energy of the core charge distribution:               0.00000190033723
  Self energy of the core charge distribution:             -14544.97670297458353
  Core Hamiltonian energy:                                   4077.96272423273513
  Hartree energy:                                            3395.43755881646575
  Exchange-correlation energy:                              -1033.89788066479127
  Dispersion energy:                                           -0.54084029452862

  DFT+U energy:                                                 1.51011513757645

  Total energy:                                             -8104.50502384678930

  outer SCF iter =    1 RMS gradient =   0.84E-05 energy =      -8104.5050238468
  outer SCF loop converged in   1 iterations or   13 steps


  Integrated absolute spin density  :                             232.2051769775
  Ideal and single determinant S**2 :                    0.000000     127.267488

 ENERGY| Total FORCE_EVAL ( QS ) energy (a.u.):            -8104.505040310698860


 --------  Informations at step =     2 ------------
  Optimization Method        =                 BFGS
  Total Energy               =     -8104.5050403107
  Real energy change         =        -0.0053798669
  Predicted change in energy =        -0.0062461855
  Scaling factor             =         0.0000000000
  Step size                  =         0.4115987632
  Trust radius               =         0.4724315332
  Decrease in energy         =                  YES
  Used time                  =              204.988

  Convergence check :
  Max. step size             =         0.4115987632
  Conv. limit for step size  =         1.0000000000
  Convergence in step size   =                  YES
  RMS step size              =         0.0309992219
  Conv. limit for RMS step   =         1.0000000000
  Convergence in RMS step    =                  YES
  Max. gradient              =         0.0128754950
  Conv. limit for gradients  =         0.0100000000
  Conv. for gradients        =                   NO
  RMS gradient               =         0.0018698262
  Conv. limit for RMS grad.  =         1.0000000000
  Conv. in RMS gradients     =                  YES
 ---------------------------------------------------

 --------------------------
 OPTIMIZATION STEP:      3
 --------------------------

 Spin 1

 Number of electrons:                                                        712
 Number of occupied orbitals:                                                712
 Number of molecular orbitals:                                               712

 Spin 2

 Number of electrons:                                                        712
 Number of occupied orbitals:                                                712
 Number of molecular orbitals:                                               712

 Number of orbital functions:                                               2683
 Number of independent orbital functions:                                   2683

 Extrapolation method: PS Nth order


 SCF WAVEFUNCTION OPTIMIZATION

  ----------------------------------- OT ---------------------------------------
  Minimizer      : CG                  : conjugate gradient
  Preconditioner : FULL_ALL            : diagonalization, state selective
  Precond_solver : DEFAULT
  Line search    : 3PNT                : 3 energies
  stepsize       :    0.15000000                  energy_gap     :    0.08000000
  eps_taylor     :   0.10000E-15                  max_taylor     :             4
  ----------------------------------- OT ---------------------------------------

  Step     Update method      Time    Convergence         Total energy    Change
  ------------------------------------------------------------------------------
     1 OT CG       0.12E+00   20.0     0.00040443     -8104.4134292454 -8.10E+03
     2 OT LS       0.17E+00    8.5                    -8104.4587897438
     3 OT LS       0.16E+00    8.5                    -8104.4614334455
     4 OT CG       0.13E+00   17.4     0.00028393     -8104.4615644848 -4.81E-02
     5 OT LS       0.18E+00    8.9                    -8104.4917035586
     6 OT LS       0.27E+00    8.9                    -8104.4985467668
     7 OT CG       0.21E+00   17.4     0.00011992     -8104.5030848473 -4.15E-02
     8 OT LS       0.11E+00    8.9                    -8104.5025391378
     9 OT LS       0.10E+00    8.9                    -8104.5058153154
    10 OT CG       0.82E-01   17.4     0.00006586     -8104.5058218303 -2.74E-03
    11 OT LS       0.11E+00    8.9                    -8104.5067947205
    12 OT LS       0.14E+00    8.9                    -8104.5069688731
    13 OT CG       0.12E+00   17.4     0.00004149     -8104.5070207546 -1.20E-03
    14 OT LS       0.16E+00    8.9                    -8104.5074753527
    15 OT LS       0.14E+00    8.9                    -8104.5074848987
    16 OT CG       0.11E+00   17.4     0.00002118     -8104.5074928864 -4.72E-04
    17 OT LS       0.16E+00    8.9                    -8104.5076239076
    18 OT LS       0.17E+00    8.9                    -8104.5076393019
    19 OT CG       0.14E+00   17.4     0.00001479     -8104.5076398424 -1.47E-04
    20 OT LS       0.19E+00    8.9                    -8104.5077102675
    21 OT LS       0.18E+00    8.9                    -8104.5077138326
    22 OT CG       0.14E+00   17.3     0.00001012     -8104.5077142580 -7.44E-05
    23 OT LS       0.20E+00    8.9                    -8104.5077360499
    24 OT LS       0.12E+00    8.9                    -8104.5077257152
    25 OT CG       0.94E-01   17.4     0.00000535     -8104.5077371488 -2.29E-05

  *** SCF run converged in    25 steps ***


  Electronic density on regular grids:      -1423.9999923107        0.0000076893
  Core density on regular grids:             1423.9999996422       -0.0000003578
  Total charge density on r-space grids:        0.0000073316
  Total charge density g-space grids:           0.0000073316

  Overlap energy of the core charge distribution:               0.00000188829116
  Self energy of the core charge distribution:             -14544.97670297458353
  Core Hamiltonian energy:                                   4078.04624591017455
  Hartree energy:                                            3395.37197383115108
  Exchange-correlation energy:                              -1033.91750772582691
  Dispersion energy:                                           -0.54092938968044

  DFT+U energy:                                                 1.50918131171150

  Total energy:                                             -8104.50773714876232

  outer SCF iter =    1 RMS gradient =   0.54E-05 energy =      -8104.5077371488
  outer SCF loop converged in   1 iterations or   25 steps


  Integrated absolute spin density  :                             232.2141763631
  Ideal and single determinant S**2 :                    0.000000     127.267491

 ENERGY| Total FORCE_EVAL ( QS ) energy (a.u.):            -8104.507744371206172


 --------  Informations at step =     3 ------------
  Optimization Method        =                 BFGS
  Total Energy               =     -8104.5077443712
  Real energy change         =        -0.0027040605
  Predicted change in energy =        -0.0025638359
  Scaling factor             =         0.0000000000
  Step size                  =         0.0806921742
  Trust radius               =         0.4724315332
  Decrease in energy         =                  YES
  Used time                  =              349.655

  Convergence check :
  Max. step size             =         0.0806921742
  Conv. limit for step size  =         1.0000000000
  Convergence in step size   =                  YES
  RMS step size              =         0.0087104644
  Conv. limit for RMS step   =         1.0000000000
  Convergence in RMS step    =                  YES
  Max. gradient              =         0.0117608180
  Conv. limit for gradients  =         0.0100000000
  Conv. for gradients        =                   NO
  RMS gradient               =         0.0015199269
  Conv. limit for RMS grad.  =         1.0000000000
  Conv. in RMS gradients     =                  YES
 ---------------------------------------------------

 --------------------------
 OPTIMIZATION STEP:      4
 --------------------------

 Spin 1

 Number of electrons:                                                        712
 Number of occupied orbitals:                                                712
 Number of molecular orbitals:                                               712

 Spin 2

 Number of electrons:                                                        712
 Number of occupied orbitals:                                                712
 Number of molecular orbitals:                                               712

 Number of orbital functions:                                               2683
 Number of independent orbital functions:                                   2683

 Extrapolation method: PS Nth order


 SCF WAVEFUNCTION OPTIMIZATION

  ----------------------------------- OT ---------------------------------------
  Minimizer      : CG                  : conjugate gradient
  Preconditioner : FULL_ALL            : diagonalization, state selective
  Precond_solver : DEFAULT
  Line search    : 3PNT                : 3 energies
  stepsize       :    0.15000000                  energy_gap     :    0.08000000
  eps_taylor     :   0.10000E-15                  max_taylor     :             4
  ----------------------------------- OT ---------------------------------------

  Step     Update method      Time    Convergence         Total energy    Change
  ------------------------------------------------------------------------------
     1 OT CG       0.12E+00   20.0     0.00020991     -8104.4749989837 -8.10E+03
     2 OT LS       0.17E+00    8.4                    -8104.4912001902
     3 OT LS       0.30E+00    8.4                    -8104.4954172680
     4 OT CG       0.24E+00   17.3     0.00019246     -8104.5002088835 -2.52E-02
     5 OT LS       0.34E+00    8.9                    -8104.5049281686
     6 OT LS       0.14E+00    8.4                    -8104.4912164247
     7 OT CG       0.11E+00   16.9     0.00005841     -8104.5098629367 -9.65E-03
     8 OT LS       0.16E+00    8.4                    -8104.5105016358
     9 OT LS       0.10E+00    8.4                    -8104.5102974356
    10 OT CG       0.80E-01   16.9     0.00002890     -8104.5105116143 -6.49E-04
    11 OT LS       0.11E+00    8.4                    -8104.5106874055
    12 OT LS       0.13E+00    8.4                    -8104.5107131473
    13 OT CG       0.10E+00   16.9     0.00001470     -8104.5107164751 -2.05E-04
    14 OT LS       0.14E+00    8.5                    -8104.5107650502
    15 OT LS       0.12E+00    8.4                    -8104.5107642332
    16 OT CG       0.96E-01   16.9     0.00000544     -8104.5107661170 -4.96E-05

  *** SCF run converged in    16 steps ***


  Electronic density on regular grids:      -1423.9999923509        0.0000076491
  Core density on regular grids:             1423.9999996430       -0.0000003570
  Total charge density on r-space grids:        0.0000072921
  Total charge density g-space grids:           0.0000072921

  Overlap energy of the core charge distribution:               0.00000186199867
  Self energy of the core charge distribution:             -14544.97670297458353
  Core Hamiltonian energy:                                   4078.13096371062102
  Hartree energy:                                            3395.31212549259999
  Exchange-correlation energy:                              -1033.94276188845834
  Dispersion energy:                                           -0.54092500550921

  DFT+U energy:                                                 1.50653268630159

  Total energy:                                             -8104.51076611702956

  outer SCF iter =    1 RMS gradient =   0.54E-05 energy =      -8104.5107661170
  outer SCF loop converged in   1 iterations or   16 steps


  Integrated absolute spin density  :                             232.2111197594
  Ideal and single determinant S**2 :                    0.000000     127.263588

 ENERGY| Total FORCE_EVAL ( QS ) energy (a.u.):            -8104.510773643612993


 --------  Informations at step =     4 ------------
  Optimization Method        =                 BFGS
  Total Energy               =     -8104.5107736436
  Real energy change         =        -0.0030292724
  Predicted change in energy =        -0.0025276518
  Scaling factor             =         0.0000000000
  Step size                  =         0.1053045673
  Trust radius               =         0.4724315332
  Decrease in energy         =                  YES
  Used time                  =              238.451

  Convergence check :
  Max. step size             =         0.1053045673
  Conv. limit for step size  =         1.0000000000
  Convergence in step size   =                  YES
  RMS step size              =         0.0123010356
  Conv. limit for RMS step   =         1.0000000000
  Convergence in RMS step    =                  YES
  Max. gradient              =         0.0076155339
  Conv. limit for gradients  =         0.0100000000
  Conv. in gradients         =                  YES
  RMS gradient               =         0.0009860176
  Conv. limit for RMS grad.  =         1.0000000000
  Conv. in RMS gradients     =                  YES
 ---------------------------------------------------

 *******************************************************************************
 ***                    GEOMETRY OPTIMIZATION COMPLETED                      ***
 *******************************************************************************

                    Reevaluating energy at the minimum

 Spin 1

 Number of electrons:                                                        712
 Number of occupied orbitals:                                                712
 Number of molecular orbitals:                                               712

 Spin 2

 Number of electrons:                                                        712
 Number of occupied orbitals:                                                712
 Number of molecular orbitals:                                               712

 Number of orbital functions:                                               2683
 Number of independent orbital functions:                                   2683

 Extrapolation method: PS Nth order


 SCF WAVEFUNCTION OPTIMIZATION

  ----------------------------------- OT ---------------------------------------
  Minimizer      : CG                  : conjugate gradient
  Preconditioner : FULL_ALL            : diagonalization, state selective
  Precond_solver : DEFAULT
  Line search    : 3PNT                : 3 energies
  stepsize       :    0.15000000                  energy_gap     :    0.08000000
  eps_taylor     :   0.10000E-15                  max_taylor     :             4
  ----------------------------------- OT ---------------------------------------

  Step     Update method      Time    Convergence         Total energy    Change
  ------------------------------------------------------------------------------
     1 OT CG       0.12E+00   19.9     0.00011441     -8104.5009247866 -8.10E+03
     2 OT LS       0.17E+00    8.4                    -8104.5054243099
     3 OT LS       0.24E+00    8.4                    -8104.5063842058
     4 OT CG       0.19E+00   16.8     0.00010382     -8104.5069254887 -6.00E-03
     5 OT LS       0.27E+00    8.4                    -8104.5103217923
     6 OT LS       0.17E+00    8.4                    -8104.5091492718
     7 OT CG       0.13E+00   16.8     0.00004274     -8104.5103914281 -3.47E-03
     8 OT LS       0.19E+00    8.4                    -8104.5105755613
     9 OT LS       0.84E-01    8.4                    -8104.5102249362
    10 OT CG       0.67E-01   17.1     0.00001598     -8104.5106837441 -2.92E-04
    11 OT LS       0.94E-01    8.5                    -8104.5107328125
    12 OT LS       0.13E+00    8.5                    -8104.5107433585
    13 OT CG       0.11E+00   16.8     0.00000903     -8104.5107494516 -6.57E-05

  *** SCF run converged in    13 steps ***


  Electronic density on regular grids:      -1423.9999923509        0.0000076491
  Core density on regular grids:             1423.9999996430       -0.0000003570
  Total charge density on r-space grids:        0.0000072921
  Total charge density g-space grids:           0.0000072921

  Overlap energy of the core charge distribution:               0.00000186199867
  Self energy of the core charge distribution:             -14544.97670297458353
  Core Hamiltonian energy:                                   4078.12117463848290
  Hartree energy:                                            3395.32073320829249
  Exchange-correlation energy:                              -1033.94151642760335
  Dispersion energy:                                           -0.54092500550921

  DFT+U energy:                                                 1.50648524728476

  Total energy:                                             -8104.51074945163600

  outer SCF iter =    1 RMS gradient =   0.90E-05 energy =      -8104.5107494516
  outer SCF loop converged in   1 iterations or   13 steps


  Integrated absolute spin density  :                             232.2046592890
  Ideal and single determinant S**2 :                    0.000000     127.262625

 ENERGY| Total FORCE_EVAL ( QS ) energy (a.u.):            -8104.510749451636002


 -------------------------------------------------------------------------------
 -                                                                             -
 -                                DBCSR STATISTICS                             -
 -                                                                             -
 -------------------------------------------------------------------------------
 COUNTER                                    TOTAL       BLAS       SMM       ACC
 flops     5 x     8 x     8               107520       0.0%    100.0%      0.0%
 flops    13 x     8 x     8              1857024       0.0%    100.0%      0.0%
 flops    26 x     8 x     8              2156544       0.0%    100.0%      0.0%
 flops     5 x    32 x    32             37847040       0.0%    100.0%      0.0%
 flops     5 x     8 x     5             71030400       0.0%    100.0%      0.0%
 flops     5 x     5 x    64            206976000       0.0%    100.0%      0.0%
 flops     5 x     5 x    72            232848000       0.0%    100.0%      0.0%
 flops    13 x    32 x    32            653672448       0.0%    100.0%      0.0%
 flops    26 x    32 x    32            759103488       0.0%    100.0%      0.0%
 flops     5 x     8 x    13           1226796480       0.0%    100.0%      0.0%
 flops    13 x     8 x     5           1226796480       0.0%    100.0%      0.0%
 flops    64 x    64 x    64           1272446976       0.0%    100.0%      0.0%
 flops     5 x     8 x    26           1424666880       0.0%    100.0%      0.0%
 flops    26 x     8 x     5           1424666880       0.0%    100.0%      0.0%
 flops    64 x    64 x    72           1431502848       0.0%    100.0%      0.0%
 flops    64 x    72 x    64           1431502848       0.0%    100.0%      0.0%
 flops    72 x    64 x    64           1431502848       0.0%    100.0%      0.0%
 flops    64 x    72 x    72           1610440704       0.0%    100.0%      0.0%
 flops    72 x    64 x    72           1610440704       0.0%    100.0%      0.0%
 flops    72 x    72 x    64           1610440704       0.0%    100.0%      0.0%
 flops    72 x    72 x    72           1811745792       0.0%    100.0%      0.0%
 flops     5 x     5 x    96           1862784000       0.0%    100.0%      0.0%
 flops     5 x    13 x    64           3315952640       0.0%    100.0%      0.0%
 flops    13 x     5 x    64           3356953600       0.0%    100.0%      0.0%
 flops    64 x    64 x   338           3389128704       0.0%    100.0%      0.0%
 flops     5 x    13 x    72           3730446720       0.0%    100.0%      0.0%
 flops    13 x     5 x    72           3776572800       0.0%    100.0%      0.0%
 flops    64 x    72 x   338           3812769792       0.0%    100.0%      0.0%
 flops    72 x    64 x   338           3812769792       0.0%    100.0%      0.0%
 flops    26 x     5 x    64           3833589760       0.0%    100.0%      0.0%
 flops     5 x    26 x    64           3915591680       0.0%    100.0%      0.0%
 flops    72 x    72 x   338           4289366016       0.0%    100.0%      0.0%
 flops    26 x     5 x    72           4312788480       0.0%    100.0%      0.0%
 flops     5 x    26 x    72           4405040640       0.0%    100.0%      0.0%
 flops   338 x    64 x    64           5000626176       0.0%    100.0%      0.0%
 flops   338 x    64 x    72           5625704448       0.0%    100.0%      0.0%
 flops   338 x    72 x    64           5625704448       0.0%    100.0%      0.0%
 flops     5 x    32 x     5           6250675200       0.0%    100.0%      0.0%
 flops   338 x    72 x    72           6328917504       0.0%    100.0%      0.0%
 flops   338 x    64 x   338           6375729152     100.0%      0.0%      0.0%
 flops   338 x    72 x   338           7172695296     100.0%      0.0%      0.0%
 flops    64 x    64 x    96          11452022784       0.0%    100.0%      0.0%
 flops    64 x    96 x    64          11452022784       0.0%    100.0%      0.0%
 flops    96 x    64 x    64          11452022784       0.0%    100.0%      0.0%
 flops    64 x    72 x    96          12883525632       0.0%    100.0%      0.0%
 flops    64 x    96 x    72          12883525632       0.0%    100.0%      0.0%
 flops    72 x    64 x    96          12883525632       0.0%    100.0%      0.0%
 flops    72 x    96 x    64          12883525632       0.0%    100.0%      0.0%
 flops    96 x    64 x    72          12883525632       0.0%    100.0%      0.0%
 flops    96 x    72 x    64          12883525632       0.0%    100.0%      0.0%
 flops    72 x    72 x    96          14493966336       0.0%    100.0%      0.0%
 flops    72 x    96 x    72          14493966336       0.0%    100.0%      0.0%
 flops    96 x    72 x    72          14493966336       0.0%    100.0%      0.0%
 flops    13 x     8 x    13          20851495808       0.0%    100.0%      0.0%
 flops    64 x    64 x   335          23513333760       0.0%    100.0%      0.0%
 flops    26 x     8 x    13          24400247040       0.0%    100.0%      0.0%
 flops    13 x     8 x    26          24400247040       0.0%    100.0%      0.0%
 flops    64 x    72 x   335          26452500480       0.0%    100.0%      0.0%
 flops    72 x    64 x   335          26452500480       0.0%    100.0%      0.0%
 flops    26 x     8 x    26          28574747136       0.0%    100.0%      0.0%
 flops    72 x    72 x   335          29759063040       0.0%    100.0%      0.0%
 flops     5 x    13 x    96          29843573760       0.0%    100.0%      0.0%
 flops    13 x     5 x    96          30212582400       0.0%    100.0%      0.0%
 flops    64 x    96 x   338          30502158336       0.0%    100.0%      0.0%
 flops    96 x    64 x   338          30502158336       0.0%    100.0%      0.0%
 flops    72 x    96 x   338          34314928128     100.0%      0.0%      0.0%
 flops    96 x    72 x   338          34314928128     100.0%      0.0%      0.0%
 flops    26 x     5 x    96          34502307840       0.0%    100.0%      0.0%
 flops   335 x    64 x    64          34693693440       0.0%    100.0%      0.0%
 flops     5 x    26 x    96          35240325120       0.0%    100.0%      0.0%
 flops   335 x    64 x    72          39030405120       0.0%    100.0%      0.0%
 flops   335 x    72 x    64          39030405120       0.0%    100.0%      0.0%
 flops   335 x    72 x    72          43909205760       0.0%    100.0%      0.0%
 flops   335 x    64 x   338          44233978880     100.0%      0.0%      0.0%
 flops   338 x    64 x   335          44233978880     100.0%      0.0%      0.0%
 flops   338 x    64 x    96          45005635584       0.0%    100.0%      0.0%
 flops   338 x    96 x    64          45005635584       0.0%    100.0%      0.0%
 flops   335 x    72 x   338          49763226240     100.0%      0.0%      0.0%
 flops   338 x    72 x   335          49763226240     100.0%      0.0%      0.0%
 flops   338 x    72 x    96          50631340032     100.0%      0.0%      0.0%
 flops   338 x    96 x    72          50631340032     100.0%      0.0%      0.0%
 flops    13 x    13 x    64          57328044800       0.0%    100.0%      0.0%
 flops   338 x    96 x   338          57381562368     100.0%      0.0%      0.0%
 flops    13 x    13 x    72          64494050400       0.0%    100.0%      0.0%
 flops    13 x    26 x    64          66280101888       0.0%    100.0%      0.0%
 flops    26 x    13 x    64          66440005632       0.0%    100.0%      0.0%
 flops    13 x    26 x    72          74565114624       0.0%    100.0%      0.0%
 flops    26 x    13 x    72          74745006336       0.0%    100.0%      0.0%
 flops    26 x    26 x    64          79152353280       0.0%    100.0%      0.0%
 flops    26 x    26 x    72          89046397440       0.0%    100.0%      0.0%
 flops    96 x    96 x    64         103068205056       0.0%    100.0%      0.0%
 flops    64 x    96 x    96         103068205056       0.0%    100.0%      0.0%
 flops    96 x    64 x    96         103068205056       0.0%    100.0%      0.0%
 flops     5 x    32 x    13         107958090240       0.0%    100.0%      0.0%
 flops    13 x    32 x     5         107958090240       0.0%    100.0%      0.0%
 flops    96 x    96 x    72         115951730688       0.0%    100.0%      0.0%
 flops    72 x    96 x    96         115951730688       0.0%    100.0%      0.0%
 flops    96 x    72 x    96         115951730688       0.0%    100.0%      0.0%
 flops     5 x    32 x    26         125370685440       0.0%    100.0%      0.0%
 flops    26 x    32 x     5         125370685440       0.0%    100.0%      0.0%
 flops    64 x    96 x   335         211620003840       0.0%    100.0%      0.0%
 flops    96 x    64 x   335         211620003840       0.0%    100.0%      0.0%
 flops    72 x    96 x   335         238072504320     100.0%      0.0%      0.0%
 flops    96 x    72 x   335         238072504320     100.0%      0.0%      0.0%
 flops    96 x    96 x   338         274519425024     100.0%      0.0%      0.0%
 flops   335 x    64 x   335         306889587200     100.0%      0.0%      0.0%
 flops   335 x    96 x    64         312243240960       0.0%    100.0%      0.0%
 flops   335 x    64 x    96         312243240960       0.0%    100.0%      0.0%
 flops   335 x    72 x   335         345250785600     100.0%      0.0%      0.0%
 flops   335 x    96 x    72         351273646080     100.0%      0.0%      0.0%
 flops   335 x    72 x    96         351273646080     100.0%      0.0%      0.0%
 flops   335 x    96 x   338         398105809920     100.0%      0.0%      0.0%
 flops   338 x    96 x   335         398105809920     100.0%      0.0%      0.0%
 flops   338 x    96 x    96         405050720256     100.0%      0.0%      0.0%
 flops    13 x    13 x    96         515952403200       0.0%    100.0%      0.0%
 flops    13 x    26 x    96         596520916992       0.0%    100.0%      0.0%
 flops    26 x    13 x    96         597960050688       0.0%    100.0%      0.0%
 flops    26 x    26 x    96         712371179520       0.0%    100.0%      0.0%
 flops    96 x    96 x    96         927613845504       0.0%    100.0%      0.0%
 flops    13 x    32 x    13        1834931631104       0.0%    100.0%      0.0%
 flops    96 x    96 x   335        1904580034560     100.0%      0.0%      0.0%
 flops    26 x    32 x    13        2147221739520       0.0%    100.0%      0.0%
 flops    13 x    32 x    26        2147221739520       0.0%    100.0%      0.0%
 flops    26 x    32 x    26        2514577747968       0.0%    100.0%      0.0%
 flops   335 x    96 x   335        2762006284800     100.0%      0.0%      0.0%
 flops   335 x    96 x    96        2810189168640     100.0%      0.0%      0.0%
 flops inhomo. stacks                           0       0.0%      0.0%      0.0%
 flops total                        26.843218E+12      41.8%     58.2%      0.0%
 flops max/rank                    484.262685E+09      43.9%     56.1%      0.0%
 matmuls inhomo. stacks                         0       0.0%      0.0%      0.0%
 matmuls total                          602306276       0.2%     99.8%      0.0%
 number of processed stacks               9940078      14.0%     86.0%      0.0%
 average stack size                                     1.0      70.3       0.0
 marketing flops                    30.129447E+12
 -------------------------------------------------------------------------------
 # multiplications                           7439
 max memory usage/rank             788.287488E+06
 # max total images/rank                        1
 # max 3D layers                                1
 # MPI messages exchanged                 6665344
 MPI messages size (bytes):
  total size                         1.458966E+12
  min size                           0.000000E+00
  max size                         913.952000E+03
  average size                     218.888406E+03
 MPI breakdown and total messages size (bytes):
             size <=      128               15456                        0
       128 < size <=     8192                   0                        0
      8192 < size <=    32768               47292               1542825984
     32768 < size <=   131072             2937060             187542190080
    131072 < size <=  4194304             3665536            1270080516768
   4194304 < size <= 16777216                   0                        0
  16777216 < size                               0                        0
 -------------------------------------------------------------------------------
 
 MEMORY| Estimated peak process memory [MiB]                                 753

 -------------------------------------------------------------------------------
 -                                                                             -
 -                         MESSAGE PASSING PERFORMANCE                         -
 -                                                                             -
 -------------------------------------------------------------------------------

 ROUTINE             CALLS      AVE VOLUME [Bytes]
 MP_Group              643
 MP_Bcast            29895                  37894.
 MP_Allreduce       115905                    417.
 MP_Sync               505
 MP_Alltoall         34404                 789002.
 MP_SendRecv          7820                 464330.
 MP_ISendRecv       155358                  29184.
 MP_Wait            877880
 MP_comm_split         500
 MP_ISend           357138                 124332.
 MP_IRecv           357138                 123112.
 MP_Recv                60                 123648.
 MP_Memory          300384
 -------------------------------------------------------------------------------


 -------------------------------------------------------------------------------
 -                                                                             -
 -                           R E F E R E N C E S                               -
 -                                                                             -
 -------------------------------------------------------------------------------
 
 CP2K version 6.1, the CP2K developers group (2018).
 CP2K is freely available from https://www.cp2k.org/ .

 Schuett, Ole; Messmer, Peter; Hutter, Juerg; VandeVondele, Joost. 
 Electronic Structure Calculations on Graphics Processing Units, John Wiley & Sons, Ltd, 173-190 (2016). 
 GPU-Accelerated Sparse Matrix-Matrix Multiplication for Linear Scaling Density Functional Theory.
 http://dx.doi.org/10.1002/9781118670712.ch8


 Borstnik, U; VandeVondele, J; Weber, V; Hutter, J. 
 PARALLEL COMPUTING, 40 (5-6), 47-58 (2014). 
 Sparse matrix multiplication: The distributed block-compressed sparse
 row library.
 http://dx.doi.org/10.1016/j.parco.2014.03.012


 Hutter, J; Iannuzzi, M; Schiffmann, F; VandeVondele, J. 
 WILEY INTERDISCIPLINARY REVIEWS-COMPUTATIONAL MOLECULAR SCIENCE, 4 (1), 15-25 (2014). 
 CP2K: atomistic simulations of condensed matter systems.
 http://dx.doi.org/10.1002/wcms.1159


 Grimme, S; Ehrlich, S; Goerigk, L. 
 JOURNAL OF COMPUTATIONAL CHEMISTRY, 32, 1456 (2011). 
 Effect of the damping function in dispersion corrected density functional theory.
 http://dx.doi.org/10.1002/jcc.21759


 Grimme, S; Antony, J; Ehrlich, S; Krieg, H. 
 JOURNAL OF CHEMICAL PHYSICS, 132 (15), 154104 (2010). 
 A consistent and accurate ab initio parametrization of density
 functional dispersion correction (DFT-D) for the 94 elements H-Pu.
 http://dx.doi.org/10.1063/1.3382344


 VandeVondele, J; Hutter, J. 
 JOURNAL OF CHEMICAL PHYSICS, 127 (11), 114105 (2007). 
 Gaussian basis sets for accurate calculations on molecular systems in
 gas and condensed phases.
 http://dx.doi.org/10.1063/1.2770708


 Krack, M. 
 THEORETICAL CHEMISTRY ACCOUNTS, 114 (1-3), 145-152 (2005). 
 Pseudopotentials for H to Kr optimized for gradient-corrected
 exchange-correlation functionals.
 http://dx.doi.org/10.1007/s00214-005-0655-y


 VandeVondele, J; Krack, M; Mohamed, F; Parrinello, M; Chassaing, T;
 Hutter, J. COMPUTER PHYSICS COMMUNICATIONS, 167 (2), 103-128 (2005). 
 QUICKSTEP: Fast and accurate density functional calculations using a
 mixed Gaussian and plane waves approach.
 http://dx.doi.org/10.1016/j.cpc.2004.12.014


 Frigo, M; Johnson, SG. 
 PROCEEDINGS OF THE IEEE, 93 (2), 216-231 (2005). 
 The design and implementation of FFTW3.
 http://dx.doi.org/10.1109/JPROC.2004.840301


 VandeVondele, J; Hutter, J. 
 JOURNAL OF CHEMICAL PHYSICS, 118 (10), 4365-4369 (2003). 
 An efficient orbital transformation method for electronic structure
 calculations.
 http://dx.doi.org/10.1063/1.1543154


 Hartwigsen, C; Goedecker, S; Hutter, J. 
 PHYSICAL REVIEW B, 58 (7), 3641-3662 (1998). 
 Relativistic separable dual-space Gaussian pseudopotentials from H to Rn.
 http://dx.doi.org/10.1103/PhysRevB.58.3641


 Dudarev, SL; Botton, GA; Savrasov, SY; Humphreys, CJ; Sutton, AP. 
 PHYSICAL REVIEW B, 57 (3), 1505-1509 (1998). 
 Electron-energy-loss spectra and the structural stability of
 nickel oxide: An LSDA+U study.
 http://dx.doi.org/10.1103/PhysRevB.57.1505


 Lippert, G; Hutter, J; Parrinello, M. 
 MOLECULAR PHYSICS, 92 (3), 477-487 (1997). 
 A hybrid Gaussian and plane wave density functional scheme.
 http://dx.doi.org/10.1080/002689797170220


 Dudarev, SL; Manh, DN; Sutton, AP. 
 PHILOSOPHICAL MAGAZINE B, 75 (5), 613-628 (1997). 
 Effect of Mott-Hubbard correlations on the electronic
 structure and structural stability of uranium dioxide.
 http://dx.doi.org/10.1080/13642819708202343


 Perdew, JP; Burke, K; Ernzerhof, M. 
 PHYSICAL REVIEW LETTERS, 77 (18), 3865-3868 (1996). 
 Generalized gradient approximation made simple.
 http://dx.doi.org/10.1103/PhysRevLett.77.3865


 Goedecker, S; Teter, M; Hutter, J. 
 PHYSICAL REVIEW B, 54 (3), 1703-1710 (1996). 
 Separable dual-space Gaussian pseudopotentials.
 http://dx.doi.org/10.1103/PhysRevB.54.1703


 -------------------------------------------------------------------------------
 -                                                                             -
 -                                T I M I N G                                  -
 -                                                                             -
 -------------------------------------------------------------------------------
 SUBROUTINE                       CALLS  ASD         SELF TIME        TOTAL TIME
                                MAXIMUM       AVERAGE  MAXIMUM  AVERAGE  MAXIMUM
 CP2K                                 1  1.0    0.250    0.288 3898.640 3898.672
 cp_geo_opt                           1  2.0    0.011    0.012 3895.054 3895.086
 geoopt_bfgs                          1  3.0    0.107    0.156 3895.043 3895.075
 cp_eval_at                           6  4.0    0.018    0.020 3892.988 3893.025
 qs_energies                          6  5.8    0.020    0.022 3763.880 3763.916
 qs_forces                            5  5.0    0.013    0.014 3720.778 3720.808
 scf_env_do_scf                       6  6.8    0.014    0.015 3675.709 3675.738
 scf_env_do_scf_inner_loop          297  8.0    0.058    0.124 3559.311 3559.340
 qs_rho_update_rho                  303  9.0    0.014    0.016 2248.848 2248.877
 calculate_rho_elec                 606 10.0 1885.870 2087.438 2248.835 2248.863
 rebuild_ks_matrix                  302  9.9    0.013    0.014 1197.100 1197.178
 qs_ks_build_kohn_sham_matrix       302 10.9    0.160    0.170 1197.087 1197.164
 qs_ks_update_qs_env                303  9.0    0.020    0.023 1080.579 1080.652
 sum_up_and_integrate               108 11.8    1.182    1.186  867.246  867.397
 integrate_v_rspace                 216 12.8  702.176  805.441  866.063  866.209
 density_rs2pw                      606 11.0    0.113    0.119  348.366  675.677
 rs_pw_transfer                    4121 12.7    0.156    0.187  338.629  665.693
 rs_pw_transfer_RS2PW_200           612 12.9   28.249   32.899  240.899  568.223
 mp_waitany                      119138 14.7  236.405  560.599  236.405  560.599
 qs_scf_new_mos                     297  9.0    0.009    0.010  327.288  327.598
 qs_scf_loop_do_ot                  297 10.0    0.011    0.012  327.279  327.589
 ot_scf_mini                        297 11.0    0.070    0.073  314.587  315.128
 qs_vxc_create                      302 11.9    0.017    0.019  310.420  310.435
 rs_distribute_matrix               832 11.7    2.705    5.279  113.492  256.238
 mp_alltoall_d11v                  7282 16.0  110.232  254.731  110.232  254.731
 xc_rho_set_and_dset_create         302 13.9    8.805    8.835  250.043  252.354
 cp_fm_syevd                        500 14.7    0.016    0.024  242.046  242.170
 cp_fm_redistribute_end             500 15.7  175.910  239.418  176.344  239.564
 cp_fm_syevd_base                   500 15.5   63.018  237.151   63.018  237.151
 qs_ot_get_p                        606 11.9    0.018    0.019  228.141  229.289
 qs_ot_p2m_diag                     459 13.0    1.709    2.020  209.446  209.873
 cp_dbcsr_syevd                     483 13.9    0.198    0.218  209.534  209.561
 pw_nn_compose_r                   3280 14.6  162.428  163.849  167.507  169.518
 xc_exc_calc                        194 13.0    0.739    0.741  162.208  162.212
 xc_vxc_pw_create                   108 12.8    9.885    9.961  148.195  148.210
 dbcsr_multiply_generic            7439 13.7    1.629    1.673  127.738  129.847
 xc_functional_eval                 302 14.9    0.007    0.007  114.814  117.686
 pbe_lsd_eval                       302 15.9  114.807  117.680  114.807  117.680
 qs_ks_update_qs_env_forces           5  6.0    0.000    0.000  117.033  117.037
 init_scf_loop                        6  7.8    0.007    0.008  116.294  116.296
 multiply_cannon                   7439 14.7    6.162    6.438   84.484   90.143
 -------------------------------------------------------------------------------

 The number of warnings for this run is : 6
 
 -------------------------------------------------------------------------------
  **** **** ******  **  PROGRAM ENDED AT                 2020-10-29 21:19:32.443
 ***** ** ***  *** **   PROGRAM RAN ON                                 irene3803
 **    ****   ******    PROGRAM RAN BY                                  marticar
 ***** **    ** ** **   PROGRAM PROCESS ID                                182041
  **** **  *******  **  PROGRAM STOPPED IN /ccc/scratch/cont003/gen0609/marticar
                                           /5730737
