     161
 i =        1, E =     -8104.4996604438
 Fe         5.0938794100       11.8196869300        0.3885799900
 Fe         7.6575796300        7.3792284900        0.3885799900
 Fe        10.2212798400        2.9387700600        0.3885799900
 Fe        -0.0335205200       11.8196869300        0.3885799900
 Fe         2.5301797000        7.3792284900        0.3885799900
 Fe         5.0938799200        2.9387700600        0.3885799900
 Fe        -5.1609204400       11.8196869300        0.3885799900
 Fe        -2.5972202200        7.3792284900        0.3885799900
 Fe        -0.0335200000        2.9387700600        0.3885799900
  O         8.4519195100        8.9577468800        1.1642700400
  O        11.0156197300        4.5172884400        1.1642700400
  O        13.5793199500        0.0768300000        1.1642700400
  O         3.3245195900        8.9577468800        1.1642700400
  O         5.8882198100        4.5172884400        1.1642700400
  O         8.4519200300        0.0768300000        1.1642700400
  O        -1.8028803300        8.9577468800        1.1642700400
  O         0.7608198900        4.5172884400        1.1642700400
  O         3.3245201100        0.0768300000        1.1642700400
  O         8.4568493000       11.7183869300        1.1650400200
  O        11.0205495200        7.2779284900        1.1650400200
  O        13.5842497300        2.8374700500        1.1650400200
  O         3.3294493700       11.7183869300        1.1650400200
  O         5.8931495900        7.2779284900        1.1650400200
  O         8.4568498100        2.8374700500        1.1650400200
  O        -1.7979505500       11.7183869300        1.1650400200
  O         0.7657496700        7.2779284900        1.1650400200
  O         3.3294498900        2.8374700500        1.1650400200
  O         6.0627194200       10.3425368500        1.1660399400
  O         8.6264196400        5.9020784100        1.1660399400
  O        11.1901198600        1.4616199700        1.1660399400
  O         0.9353195000       10.3425368500        1.1660399400
  O         3.4990197200        5.9020784100        1.1660399400
  O         6.0627199400        1.4616199700        1.1660399400
  O        -4.1920804200       10.3425368500        1.1660399400
  O        -1.6283802000        5.9020784100        1.1660399400
  O         0.9353200200        1.4616199700        1.1660399400
 Fe         7.6576695000       13.2997167500        1.9292099500
 Fe        10.2213697200        8.8592583200        1.9292099500
 Fe        12.7850699400        4.4187998800        1.9292099500
 Fe         2.5302695800       13.2997167500        1.9292099500
 Fe         5.0939698000        8.8592583200        1.9292099500
 Fe         7.6576700200        4.4187998800        1.9292099500
 Fe        -2.5971303400       13.2997167500        1.9292099500
 Fe        -0.0334301200        8.8592583200        1.9292099500
 Fe         2.5302701000        4.4187998800        1.9292099500
 Fe         7.6573893600       10.3392168700        2.7128999200
 Fe        10.2210895800        5.8987584300        2.7128999200
 Fe        12.7847898000        1.4582999900        2.7128999200
 Fe         2.5299894400       10.3392168700        2.7128999200
 Fe         5.0936896600        5.8987584300        2.7128999200
 Fe         7.6573898800        1.4582999900        2.7128999200
 Fe        -2.5974104800       10.3392168700        2.7128999200
 Fe        -0.0337102600        5.8987584300        2.7128999200
 Fe         2.5299899600        1.4582999900        2.7128999200
  O         4.1325643204       13.3040340054        3.4992956603
  O         6.6964539446        8.8645050464        3.4993958145
  O         9.2603895407        4.4237861234        3.5008252780
  O        -0.9945547353       13.3036623286        3.4992756412
  O         1.5689474606        8.8641359396        3.4985790355
  O         4.1322935513        4.4215061366        3.4962315023
  O        -6.1222515256       13.3034272330        3.4988602630
  O        -3.5583823934        8.8628553413        3.4994695934
  O        -0.9950294305        4.4226285427        3.4988107910
  O         6.8609857760       11.9100385136        3.5010552647
  O         9.4241784270        7.4689097994        3.5025561618
  O        11.9881341274        3.0292509832        3.5012050628
  O         1.7334140706       11.9104532841        3.5004812253
  O         4.2972053074        7.4712273711        3.4982060711
  O         6.8610762224        3.0291753446        3.4995321316
  O        -3.3939304581       11.9097413130        3.5008308609
  O        -0.8306905055        7.4698387588        3.5003464826
  O         1.7341438505        3.0277206021        3.5012310519
  O         9.4154791801       10.2450473550        3.5016415882
  O        11.9786953223        5.8045965944        3.5022899121
  O        14.5426259076        1.3641072686        3.5013988009
  O         4.2895181215       10.2439788788        3.5015099255
  O         6.8535695516        5.8044396596        3.4993495760
  O         9.4156569795        1.3636825622        3.5010741288
  O        -0.8397609764       10.2449542168        3.5014865294
  O         1.7236026300        5.8040200286        3.4998889665
  O         4.2890074233        1.3651934537        3.5015834459
 Fe         5.0943462162       11.8190323387        4.4863028354
 Fe         7.6557514508        7.3785866163        4.4873740086
 Fe        10.2212560050        2.9375574123        4.4857812313
 Fe        -0.0327936607       11.8191013306        4.4862216727
 Fe         2.5300230069        7.3800243255        4.4841697462
 Fe         5.0957753026        2.9415690723        4.4886441204
 Fe        -5.1601775450       11.8196541348        4.4863267032
 Fe        -2.5959989775        7.3786822141        4.4866040492
 Fe        -0.0321732418        2.9383157289        4.4858470685
 Fe         7.6589949423       13.2995036887        4.8224336187
 Fe        10.2220416940        8.8592235215        4.8223047756
 Fe        12.7872518062        4.4183686796        4.8223615636
 Fe         2.5313995134       13.2990270723        4.8227408668
 Fe         5.0970398567        8.8543792224        4.8255791924
 Fe         7.6572897921        4.4186874983        4.8232170099
 Fe        -2.5961623610       13.2992504602        4.8225390459
 Fe        -0.0316038902        8.8589703315        4.8219301600
 Fe         2.5307852161        4.4162693514        4.8216398467
  O         5.8656305116       10.3884931263        5.7286777629
  O         8.4290668286        5.9482784077        5.7350469831
  O        10.9930692978        1.5079059736        5.7276676025
  O         0.7377958729       10.3888496899        5.7276062559
  O         3.2920338538        5.9500301403        5.7078627163
  O         5.8657264308        1.5069597649        5.7273207275
  O        -4.3893545121       10.3882860041        5.7275084747
  O        -1.8252166802        5.9480528432        5.7281203947
  O         0.7380385481        1.5075136876        5.7272341980
  O         5.9485311338       13.2029599479        5.7285605160
  O         8.5130057325        8.7606346403        5.7326796865
  O        11.0770071457        4.3194730428        5.7298081095
  O         0.8207140377       13.2035466644        5.7281394126
  O         3.3844442832        8.7642619438        5.7267749371
  O         5.9457525941        4.3352004173        5.7211847289
  O        -4.3066905424       13.2029848048        5.7280423353
  O        -1.7425346451        8.7628417858        5.7280476325
  O         0.8193949458        4.3213652940        5.7276037758
  O         3.4699343222       11.8660072573        5.7302502670
  O         6.0299004298        7.4121694201        5.7249713378
  O         8.5978607142        2.9856333452        5.7312928254
  O        -1.6575271909       11.8656586902        5.7300596573
  O         0.9049355718        7.4262504890        5.7299508232
  O         3.4695282395        2.9829278431        5.7280977426
  O        -6.7851569436       11.8658222817        5.7301852258
  O        -4.2212343655        7.4270385059        5.7326323770
  O        -1.6576655669        2.9848573201        5.7298437088
 Fe         7.6579638272       10.3386593071        5.9763203427
 Fe        10.2240923162        5.8973400972        5.9653842158
 Fe        12.7852525278        1.4580759618        5.9785520029
 Fe         2.5299601147       10.3392990274        5.9791286339
 Fe         5.0716777910        5.8985141441        6.0306992114
 Fe         7.6573980365        1.4588235028        5.9790022496
 Fe        -2.5971636031       10.3391852711        5.9788394698
 Fe        -0.0323004387        5.8985771548        5.9796247865
 Fe         2.5300930484        1.4581434038        5.9804213343
  C         8.6598791118        6.0810996293       11.9396381113
  C         8.3692711772        7.3896730462       11.1937655978
  H         9.6107771119        6.2085716872       12.4896444562
  O         7.6425438178        5.7267400491       12.8874027487
  H         8.8030039889        5.2670900397       11.2104688260
  C         7.3224996902        7.3276576382       10.0634437761
  C         5.8157886748        7.1471226672       10.4518111302
  O         7.6985966749        6.3000647311        9.1228077211
  H         7.4026424032        8.3064918919        9.5590579844
  C         5.0873274889        5.8994562951        9.8847388977
  H         5.2841319837        8.0124809244       10.0256650880
  O         5.6131910941        7.2246782254       11.8920792543
  C         5.5570196213        4.5459029715       10.4474995061
  O         5.1218316814        5.9016830091        8.4535984964
  H         4.0317665395        6.0194397675       10.1837313103
  H         6.6167457340        4.3699194240       10.2145077113
  O         5.3282376376        4.4695915471       11.8734170896
  H         4.9604130852        3.7604958155        9.9602244078
  H         6.9473920906        6.4264518113       12.7930790035
  H         8.5921903894        6.5420471905        8.8083950165
  H         5.0932831104        6.4221621861       12.1355393272
  H         6.0827119801        5.9143771605        8.2418627317
  H         6.2042870509        4.5908678619       12.3113544106
  O         9.5595018906        7.8074507998       10.4868709992
  H         8.0570694168        8.1671890904       11.9159365405
  H        10.2976365397        7.8497191024       11.1200502458
     161
 i =        2, E =     -8104.5050403107
 Fe         5.0938794100       11.8196869300        0.3885799900
 Fe         7.6575796300        7.3792284900        0.3885799900
 Fe        10.2212798400        2.9387700600        0.3885799900
 Fe        -0.0335205200       11.8196869300        0.3885799900
 Fe         2.5301797000        7.3792284900        0.3885799900
 Fe         5.0938799200        2.9387700600        0.3885799900
 Fe        -5.1609204400       11.8196869300        0.3885799900
 Fe        -2.5972202200        7.3792284900        0.3885799900
 Fe        -0.0335200000        2.9387700600        0.3885799900
  O         8.4519195100        8.9577468800        1.1642700400
  O        11.0156197300        4.5172884400        1.1642700400
  O        13.5793199500        0.0768300000        1.1642700400
  O         3.3245195900        8.9577468800        1.1642700400
  O         5.8882198100        4.5172884400        1.1642700400
  O         8.4519200300        0.0768300000        1.1642700400
  O        -1.8028803300        8.9577468800        1.1642700400
  O         0.7608198900        4.5172884400        1.1642700400
  O         3.3245201100        0.0768300000        1.1642700400
  O         8.4568493000       11.7183869300        1.1650400200
  O        11.0205495200        7.2779284900        1.1650400200
  O        13.5842497300        2.8374700500        1.1650400200
  O         3.3294493700       11.7183869300        1.1650400200
  O         5.8931495900        7.2779284900        1.1650400200
  O         8.4568498100        2.8374700500        1.1650400200
  O        -1.7979505500       11.7183869300        1.1650400200
  O         0.7657496700        7.2779284900        1.1650400200
  O         3.3294498900        2.8374700500        1.1650400200
  O         6.0627194200       10.3425368500        1.1660399400
  O         8.6264196400        5.9020784100        1.1660399400
  O        11.1901198600        1.4616199700        1.1660399400
  O         0.9353195000       10.3425368500        1.1660399400
  O         3.4990197200        5.9020784100        1.1660399400
  O         6.0627199400        1.4616199700        1.1660399400
  O        -4.1920804200       10.3425368500        1.1660399400
  O        -1.6283802000        5.9020784100        1.1660399400
  O         0.9353200200        1.4616199700        1.1660399400
 Fe         7.6576695000       13.2997167500        1.9292099500
 Fe        10.2213697200        8.8592583200        1.9292099500
 Fe        12.7850699400        4.4187998800        1.9292099500
 Fe         2.5302695800       13.2997167500        1.9292099500
 Fe         5.0939698000        8.8592583200        1.9292099500
 Fe         7.6576700200        4.4187998800        1.9292099500
 Fe        -2.5971303400       13.2997167500        1.9292099500
 Fe        -0.0334301200        8.8592583200        1.9292099500
 Fe         2.5302701000        4.4187998800        1.9292099500
 Fe         7.6573893600       10.3392168700        2.7128999200
 Fe        10.2210895800        5.8987584300        2.7128999200
 Fe        12.7847898000        1.4582999900        2.7128999200
 Fe         2.5299894400       10.3392168700        2.7128999200
 Fe         5.0936896600        5.8987584300        2.7128999200
 Fe         7.6573898800        1.4582999900        2.7128999200
 Fe        -2.5974104800       10.3392168700        2.7128999200
 Fe        -0.0337102600        5.8987584300        2.7128999200
 Fe         2.5299899600        1.4582999900        2.7128999200
  O         4.1358520727       13.2987650273        3.4998264046
  O         6.7024316501        8.8625890117        3.5049919693
  O         9.2646101456        4.4220396139        3.5105049093
  O        -0.9916497615       13.2976651950        3.4980142451
  O         1.5708545865        8.8599709080        3.4974007592
  O         4.1296697221        4.4098431922        3.4778243249
  O        -6.1203454535       13.2972192874        3.4974516856
  O        -3.5576350394        8.8560501213        3.4982315254
  O        -0.9937634357        4.4165522076        3.4965386557
  O         6.8577296348       11.9113275257        3.5017061026
  O         9.4182001777        7.4668998543        3.5108290570
  O        11.9835124818        3.0314523444        3.5004069446
  O         1.7298750255       11.9121224126        3.5006739946
  O         4.2916555502        7.4825730862        3.4814899663
  O         6.8618589898        3.0294159492        3.5009712349
  O        -3.3976242589       11.9115345322        3.5002745736
  O        -0.8350972658        7.4719578719        3.4989264563
  O         1.7275435599        3.0247622581        3.5011938775
  O         9.4198903909       10.2469022940        3.5018979380
  O        11.9807132449        5.8086696071        3.5061916580
  O        14.5469784665        1.3674351635        3.4995231587
  O         4.2959671264       10.2457652344        3.5019803330
  O         6.8718184319        5.8055927706        3.4765264822
  O         9.4209214353        1.3671960864        3.4994567771
  O        -0.8359448264       10.2492251383        3.4998127671
  O         1.7228074172        5.8070263321        3.4914093225
  O         4.2951337829        1.3693844766        3.4999707664
 Fe         5.0947683111       11.8155827587        4.5018834329
 Fe         7.6425649063        7.3689600367        4.5056118094
 Fe        10.2209653622        2.9345338537        4.5024233128
 Fe        -0.0325643680       11.8190526511        4.5011614501
 Fe         2.5322138598        7.3788284821        4.4922824050
 Fe         5.0964782834        2.9544467767        4.5020619352
 Fe        -5.1594848821       11.8205159886        4.5008257272
 Fe        -2.5929395797        7.3798158944        4.5017756440
 Fe        -0.0316759280        2.9378561697        4.5012218807
 Fe         7.6601782557       13.3007267279        4.8176931295
 Fe        10.2206415565        8.8601231197        4.8195465595
 Fe        12.7919521866        4.4177691279        4.8174324888
 Fe         2.5323911130       13.2987444397        4.8186686123
 Fe         5.1001069757        8.8396257528        4.8293544815
 Fe         7.6453114180        4.4262269839        4.8232254834
 Fe        -2.5947677909       13.3030082431        4.8179537338
 Fe        -0.0300926103        8.8604553945        4.8159508591
 Fe         2.5316383575        4.4155383151        4.8085514674
  O         5.8661009321       10.3792805098        5.7427492172
  O         8.4286727348        5.9436069665        5.7700305451
  O        10.9939190730        1.5020759143        5.7378991537
  O         0.7380010892       10.3850768881        5.7363069945
  O         3.2734726296        5.9503238106        5.6714851332
  O         5.8660867701        1.5073556275        5.7351766709
  O        -4.3891517494       10.3835373232        5.7360460272
  O        -1.8239899869        5.9435729164        5.7377883810
  O         0.7390027125        1.5021405888        5.7362236598
  O         5.9519678377       13.2059163753        5.7360620542
  O         8.5138192625        8.7564285333        5.7502757016
  O        11.0851730321        4.3171527448        5.7416049793
  O         0.8240720668       13.2081290924        5.7359497788
  O         3.3863426830        8.7689849400        5.7342778568
  O         5.9331539762        4.3734553504        5.7115255354
  O        -4.3030482097       13.2061063785        5.7354684676
  O        -1.7389671581        8.7673994148        5.7362534604
  O         0.8215899424        4.3233249662        5.7331081917
  O         3.4657397476       11.8690807971        5.7415506653
  O         6.0086165203        7.3759088407        5.7210266752
  O         8.5904985124        2.9926233121        5.7430870797
  O        -1.6632834788       11.8686706624        5.7397404045
  O         0.8974991878        7.4314153843        5.7386917729
  O         3.4640018003        2.9854166089        5.7350242613
  O        -6.7899945485       11.8683393972        5.7410800979
  O        -4.2242794366        7.4329685295        5.7496202470
  O        -1.6627637011        2.9863417484        5.7407940665
 Fe         7.6583181244       10.3380897581        5.9955100866
 Fe        10.2303614508        5.8945382003        5.9574542453
 Fe        12.7849440218        1.4577181977        6.0014929191
 Fe         2.5294370518       10.3397507321        6.0005464105
 Fe         5.0147656712        5.8971440501        6.2485078960
 Fe         7.6562247603        1.4607522085        6.0010994568
 Fe        -2.5980151667       10.3402439787        6.0019417511
 Fe        -0.0299659685        5.8989157095        6.0015223301
 Fe         2.5307436812        1.4595479129        6.0019302864
  C         8.6596264063        6.0876185600       11.9369183232
  C         8.3645457159        7.3978211758       11.1937803133
  H         9.6115600928        6.2059454658       12.4871040025
  O         7.6464639110        5.7342764011       12.8945289855
  H         8.8001391399        5.2697024658       11.2115165583
  C         7.3104033839        7.3195020591       10.0689647312
  C         5.7997121724        7.1566895952       10.4521519930
  O         7.6919621284        6.2808730790        9.1561624230
  H         7.4050342267        8.2907016631        9.5474960619
  C         5.0885202123        5.9016579961        9.8668170584
  H         5.2819707225        8.0192034951       10.0090696685
  O         5.5994822067        7.2288824230       11.8936718669
  C         5.5518005448        4.5435715123       10.4338757262
  O         5.2256551831        5.9059124878        8.4169024409
  H         4.0275077037        6.0215151950       10.1395686990
  H         6.6113929731        4.3752001009       10.1990366703
  O         5.3215369853        4.4888955168       11.8610760277
  H         4.9619538822        3.7536489139        9.9492733325
  H         6.9460316608        6.4259513270       12.7862982875
  H         8.5454321574        6.5467148161        8.7397804403
  H         5.0963328884        6.4126058686       12.1252965589
  H         6.2312342031        5.9192633085        8.3479335846
  H         6.2043754048        4.5884045598       12.2939626114
  O         9.5540014441        7.8101843468       10.4870325453
  H         8.0566283790        8.1696930607       11.9232366849
  H        10.2994404548        7.8428820388       11.1128559856
     161
 i =        3, E =     -8104.5077443712
 Fe         5.0938794100       11.8196869300        0.3885799900
 Fe         7.6575796300        7.3792284900        0.3885799900
 Fe        10.2212798400        2.9387700600        0.3885799900
 Fe        -0.0335205200       11.8196869300        0.3885799900
 Fe         2.5301797000        7.3792284900        0.3885799900
 Fe         5.0938799200        2.9387700600        0.3885799900
 Fe        -5.1609204400       11.8196869300        0.3885799900
 Fe        -2.5972202200        7.3792284900        0.3885799900
 Fe        -0.0335200000        2.9387700600        0.3885799900
  O         8.4519195100        8.9577468800        1.1642700400
  O        11.0156197300        4.5172884400        1.1642700400
  O        13.5793199500        0.0768300000        1.1642700400
  O         3.3245195900        8.9577468800        1.1642700400
  O         5.8882198100        4.5172884400        1.1642700400
  O         8.4519200300        0.0768300000        1.1642700400
  O        -1.8028803300        8.9577468800        1.1642700400
  O         0.7608198900        4.5172884400        1.1642700400
  O         3.3245201100        0.0768300000        1.1642700400
  O         8.4568493000       11.7183869300        1.1650400200
  O        11.0205495200        7.2779284900        1.1650400200
  O        13.5842497300        2.8374700500        1.1650400200
  O         3.3294493700       11.7183869300        1.1650400200
  O         5.8931495900        7.2779284900        1.1650400200
  O         8.4568498100        2.8374700500        1.1650400200
  O        -1.7979505500       11.7183869300        1.1650400200
  O         0.7657496700        7.2779284900        1.1650400200
  O         3.3294498900        2.8374700500        1.1650400200
  O         6.0627194200       10.3425368500        1.1660399400
  O         8.6264196400        5.9020784100        1.1660399400
  O        11.1901198600        1.4616199700        1.1660399400
  O         0.9353195000       10.3425368500        1.1660399400
  O         3.4990197200        5.9020784100        1.1660399400
  O         6.0627199400        1.4616199700        1.1660399400
  O        -4.1920804200       10.3425368500        1.1660399400
  O        -1.6283802000        5.9020784100        1.1660399400
  O         0.9353200200        1.4616199700        1.1660399400
 Fe         7.6576695000       13.2997167500        1.9292099500
 Fe        10.2213697200        8.8592583200        1.9292099500
 Fe        12.7850699400        4.4187998800        1.9292099500
 Fe         2.5302695800       13.2997167500        1.9292099500
 Fe         5.0939698000        8.8592583200        1.9292099500
 Fe         7.6576700200        4.4187998800        1.9292099500
 Fe        -2.5971303400       13.2997167500        1.9292099500
 Fe        -0.0334301200        8.8592583200        1.9292099500
 Fe         2.5302701000        4.4187998800        1.9292099500
 Fe         7.6573893600       10.3392168700        2.7128999200
 Fe        10.2210895800        5.8987584300        2.7128999200
 Fe        12.7847898000        1.4582999900        2.7128999200
 Fe         2.5299894400       10.3392168700        2.7128999200
 Fe         5.0936896600        5.8987584300        2.7128999200
 Fe         7.6573898800        1.4582999900        2.7128999200
 Fe        -2.5974104800       10.3392168700        2.7128999200
 Fe        -0.0337102600        5.8987584300        2.7128999200
 Fe         2.5299899600        1.4582999900        2.7128999200
  O         4.1354445366       13.3005341856        3.5017196405
  O         6.7034314309        8.8650861954        3.5109957345
  O         9.2645069542        4.4276718159        3.5197609947
  O        -0.9922424740       13.3000521065        3.4996523040
  O         1.5706413184        8.8609377681        3.5001232963
  O         4.1340548968        4.4134662035        3.4864435964
  O        -6.1210652769       13.2993559343        3.4993964905
  O        -3.5600390513        8.8583441977        3.4995481932
  O        -0.9956689459        4.4188999405        3.4977924789
  O         6.8603185300       11.9105986686        3.5035176532
  O         9.4185033499        7.4641427515        3.5160836908
  O        11.9858859644        3.0309207149        3.5016840048
  O         1.7324410441       11.9117423471        3.5023036192
  O         4.2931101274        7.4854081660        3.4768103653
  O         6.8643159515        3.0275568441        3.5069916195
  O        -3.3949390676       11.9113341407        3.5019775022
  O        -0.8330179271        7.4714880056        3.5008121581
  O         1.7275671806        3.0155145188        3.5165274815
  O         9.4189372639       10.2441136562        3.5038499444
  O        11.9788472348        5.8073535250        3.5090825890
  O        14.5455040288        1.3651100452        3.5012961836
  O         4.2927672752       10.2441930591        3.5067839553
  O         6.8732636173        5.8023856487        3.4750571878
  O         9.4199919100        1.3653773826        3.5012827308
  O        -0.8373832699       10.2477046245        3.5018763991
  O         1.7122302684        5.8111878384        3.5052120679
  O         4.2934975488        1.3687376579        3.5024321177
 Fe         5.0952557880       11.8136970847        4.4966363226
 Fe         7.6354102205        7.3647304891        4.5045847261
 Fe        10.2204338312        2.9348718269        4.4977006226
 Fe        -0.0326635327       11.8196987857        4.4954545628
 Fe         2.5381179269        7.3778034646        4.4908691896
 Fe         5.0962926841        2.9579910133        4.4997130332
 Fe        -5.1590169657       11.8206668628        4.4951209694
 Fe        -2.5927862055        7.3809018373        4.4962114263
 Fe        -0.0354861045        2.9377139101        4.4978919086
 Fe         7.6600816543       13.3002899285        4.8163309943
 Fe        10.2183409110        8.8584963519        4.8201547344
 Fe        12.7919775474        4.4173405787        4.8160934652
 Fe         2.5327368047       13.2981439302        4.8173527942
 Fe         5.0986122258        8.8341181475        4.8299955040
 Fe         7.6371282435        4.4290981914        4.8284637833
 Fe        -2.5942728252       13.3052753125        4.8161120117
 Fe        -0.0298293284        8.8604288231        4.8147295402
 Fe         2.5338394119        4.4198602882        4.8096657660
  O         5.8636448849       10.3768620495        5.7433952570
  O         8.4259416553        5.9449273261        5.7767949898
  O        10.9920122869        1.5032715384        5.7371555895
  O         0.7363873789       10.3871372351        5.7355288066
  O         3.2759984304        5.9519809050        5.6846109535
  O         5.8643764702        1.5109881136        5.7359808400
  O        -4.3910219588       10.3846348832        5.7349401937
  O        -1.8251482305        5.9451488487        5.7363370010
  O         0.7375380000        1.5032702396        5.7357298756
  O         5.9509754621       13.2036659220        5.7348429377
  O         8.5098165193        8.7524926659        5.7523474974
  O        11.0851876279        4.3147514378        5.7419162445
  O         0.8234063606       13.2066805928        5.7349166394
  O         3.3861496274        8.7660964439        5.7387459931
  O         5.9242388009        4.3756329471        5.7175671731
  O        -4.3033823002       13.2049343002        5.7346242913
  O        -1.7399306417        8.7663767929        5.7352711232
  O         0.8212410238        4.3216957202        5.7317169717
  O         3.4681819756       11.8692676182        5.7416674492
  O         6.0034252194        7.3733231888        5.7274183489
  O         8.5902990071        2.9944148648        5.7428139915
  O        -1.6619596392       11.8701195951        5.7387407752
  O         0.8996930560        7.4318276301        5.7377711448
  O         3.4648951835        2.9887401010        5.7376526706
  O        -6.7874760746       11.8687531069        5.7405102150
  O        -4.2211635377        7.4330896053        5.7501072048
  O        -1.6620111847        2.9865120817        5.7415745483
 Fe         7.6579700976       10.3382451029        5.9815918679
 Fe        10.2305640574        5.8943085607        5.9461850215
 Fe        12.7843412348        1.4570931949        5.9895717023
 Fe         2.5292822781       10.3397604197        5.9869825145
 Fe         5.0107797427        5.8974813939        6.2559653818
 Fe         7.6560962072        1.4611172881        5.9878575149
 Fe        -2.5985124917       10.3409797509        5.9900723927
 Fe        -0.0301291678        5.8991707662        5.9883800832
 Fe         2.5307181738        1.4601844257        5.9889539632
  C         8.6615535966        6.0825004757       11.9417631080
  C         8.3697278116        7.3947133115       11.2021340041
  H         9.6150304056        6.2092667738       12.4863972743
  O         7.6404272020        5.7335075430       12.8928796611
  H         8.7984939915        5.2709144637       11.2086258363
  C         7.3260288797        7.3241840677       10.0668393917
  C         5.8144091472        7.1576840084       10.4458596196
  O         7.6860588733        6.2714039533        9.1577175953
  H         7.4022892252        8.2921166040        9.5398058355
  C         5.0856519354        5.9051919824        9.8789774381
  H         5.2804891716        8.0175460626       10.0130006567
  O         5.5899719849        7.2271218524       11.8824110840
  C         5.5526152785        4.5432666540       10.4301380172
  O         5.2683556426        5.9056518115        8.4283681267
  H         4.0132634891        6.0214419416       10.1122288288
  H         6.6123586568        4.3736343671       10.1970218951
  O         5.3212370209        4.4920712083       11.8561917190
  H         4.9603393584        3.7533630223        9.9469018443
  H         6.9430841101        6.4281887231       12.7881645631
  H         8.5258853720        6.5483885764        8.7239386819
  H         5.0957071082        6.4084399925       12.1272750143
  H         6.2681121807        5.9248492039        8.3501481720
  H         6.2031321699        4.5889232139       12.2908773820
  O         9.5490146329        7.8145314065       10.4839049102
  H         8.0546954352        8.1723897164       11.9228326832
  H        10.2949346647        7.8403581577       11.1094523480
     161
 i =        4, E =     -8104.5107736436
 Fe         5.0938794100       11.8196869300        0.3885799900
 Fe         7.6575796300        7.3792284900        0.3885799900
 Fe        10.2212798400        2.9387700600        0.3885799900
 Fe        -0.0335205200       11.8196869300        0.3885799900
 Fe         2.5301797000        7.3792284900        0.3885799900
 Fe         5.0938799200        2.9387700600        0.3885799900
 Fe        -5.1609204400       11.8196869300        0.3885799900
 Fe        -2.5972202200        7.3792284900        0.3885799900
 Fe        -0.0335200000        2.9387700600        0.3885799900
  O         8.4519195100        8.9577468800        1.1642700400
  O        11.0156197300        4.5172884400        1.1642700400
  O        13.5793199500        0.0768300000        1.1642700400
  O         3.3245195900        8.9577468800        1.1642700400
  O         5.8882198100        4.5172884400        1.1642700400
  O         8.4519200300        0.0768300000        1.1642700400
  O        -1.8028803300        8.9577468800        1.1642700400
  O         0.7608198900        4.5172884400        1.1642700400
  O         3.3245201100        0.0768300000        1.1642700400
  O         8.4568493000       11.7183869300        1.1650400200
  O        11.0205495200        7.2779284900        1.1650400200
  O        13.5842497300        2.8374700500        1.1650400200
  O         3.3294493700       11.7183869300        1.1650400200
  O         5.8931495900        7.2779284900        1.1650400200
  O         8.4568498100        2.8374700500        1.1650400200
  O        -1.7979505500       11.7183869300        1.1650400200
  O         0.7657496700        7.2779284900        1.1650400200
  O         3.3294498900        2.8374700500        1.1650400200
  O         6.0627194200       10.3425368500        1.1660399400
  O         8.6264196400        5.9020784100        1.1660399400
  O        11.1901198600        1.4616199700        1.1660399400
  O         0.9353195000       10.3425368500        1.1660399400
  O         3.4990197200        5.9020784100        1.1660399400
  O         6.0627199400        1.4616199700        1.1660399400
  O        -4.1920804200       10.3425368500        1.1660399400
  O        -1.6283802000        5.9020784100        1.1660399400
  O         0.9353200200        1.4616199700        1.1660399400
 Fe         7.6576695000       13.2997167500        1.9292099500
 Fe        10.2213697200        8.8592583200        1.9292099500
 Fe        12.7850699400        4.4187998800        1.9292099500
 Fe         2.5302695800       13.2997167500        1.9292099500
 Fe         5.0939698000        8.8592583200        1.9292099500
 Fe         7.6576700200        4.4187998800        1.9292099500
 Fe        -2.5971303400       13.2997167500        1.9292099500
 Fe        -0.0334301200        8.8592583200        1.9292099500
 Fe         2.5302701000        4.4187998800        1.9292099500
 Fe         7.6573893600       10.3392168700        2.7128999200
 Fe        10.2210895800        5.8987584300        2.7128999200
 Fe        12.7847898000        1.4582999900        2.7128999200
 Fe         2.5299894400       10.3392168700        2.7128999200
 Fe         5.0936896600        5.8987584300        2.7128999200
 Fe         7.6573898800        1.4582999900        2.7128999200
 Fe        -2.5974104800       10.3392168700        2.7128999200
 Fe        -0.0337102600        5.8987584300        2.7128999200
 Fe         2.5299899600        1.4582999900        2.7128999200
  O         4.1351004252       13.3029891748        3.5037662766
  O         6.7038224733        8.8676704481        3.5196768393
  O         9.2620984811        4.4368016115        3.5310561312
  O        -0.9931140841       13.3041276871        3.5018406359
  O         1.5703886357        8.8632774460        3.5040072046
  O         4.1266203133        4.4156187896        3.4818448345
  O        -6.1217102281       13.3014954124        3.5011506337
  O        -3.5645797999        8.8621427656        3.5009472548
  O        -0.9986153293        4.4218367755        3.4995874074
  O         6.8640779467       11.9087899812        3.5060711269
  O         9.4198789586        7.4587016460        3.5241165827
  O        11.9894215172        3.0295552537        3.5037376381
  O         1.7358517349       11.9110967268        3.5040030103
  O         4.2952196352        7.4882425818        3.4734036919
  O         6.8669861550        3.0274542286        3.5150105248
  O        -3.3913217518       11.9116307018        3.5032519129
  O        -0.8311357989        7.4713436904        3.5020832012
  O         1.7298498692        3.0141107729        3.5208478044
  O         9.4167803449       10.2394760975        3.5068508693
  O        11.9766084385        5.8060006495        3.5118027182
  O        14.5427436268        1.3618720310        3.5043114224
  O         4.2871598650       10.2413978660        3.5138181171
  O         6.8740864969        5.7949810542        3.4760972221
  O         9.4182920347        1.3631094075        3.5035785278
  O        -0.8393065929       10.2450955961        3.5041009397
  O         1.7073901519        5.8099461282        3.5091711867
  O         4.2905716649        1.3687647780        3.5060943149
 Fe         5.0957496643       11.8097254182        4.4883511792
 Fe         7.6242729311        7.3584445327        4.5017542444
 Fe        10.2175032822        2.9378350212        4.4893856275
 Fe        -0.0331350927       11.8205141688        4.4869801280
 Fe         2.5436652761        7.3714249583        4.4867876269
 Fe         5.0923298964        2.9689351237        4.4930849235
 Fe        -5.1579247641       11.8202958640        4.4871422204
 Fe        -2.5932553266        7.3829452739        4.4878443848
 Fe        -0.0343440004        2.9375840695        4.4894250309
 Fe         7.6601199028       13.2993713389        4.8147411493
 Fe        10.2124715996        8.8546475875        4.8225865283
 Fe        12.7911556020        4.4168312019        4.8149117461
 Fe         2.5335877790       13.2975340818        4.8154850537
 Fe         5.0953224884        8.8262803480        4.8335533092
 Fe         7.6240018884        4.4332268589        4.8417059464
 Fe        -2.5932795163       13.3103811340        4.8138273553
 Fe        -0.0284911805        8.8599829028        4.8133499859
 Fe         2.5370773863        4.4269145831        4.8095182951
  O         5.8605782936       10.3736942314        5.7430625431
  O         8.4172250636        5.9489279441        5.7869852156
  O        10.9896561088        1.5068110250        5.7334231321
  O         0.7363596776       10.3906983941        5.7327207992
  O         3.2877193584        5.9537894897        5.7116795049
  O         5.8619168111        1.5203823069        5.7349369139
  O        -4.3929525521       10.3853234180        5.7310588942
  O        -1.8259289997        5.9480332139        5.7318160944
  O         0.7347651423        1.5044511293        5.7356023861
  O         5.9488668109       13.1996939486        5.7312820700
  O         8.5012544386        8.7459836269        5.7554614444
  O        11.0847498219        4.3097326197        5.7416054254
  O         0.8219269537       13.2048966107        5.7310352816
  O         3.3833884656        8.7575386620        5.7440703803
  O         5.9090798247        4.3777295765        5.7292495093
  O        -4.3044364323       13.2043004676        5.7313030690
  O        -1.7414762415        8.7657833568        5.7308632179
  O         0.8209384651        4.3199483327        5.7300647858
  O         3.4722601046       11.8693168186        5.7404421630
  O         5.9944810502        7.3699888019        5.7372118402
  O         8.5901700308        2.9963458047        5.7426490196
  O        -1.6599197080       11.8725194038        5.7349285140
  O         0.9037622253        7.4327458852        5.7373940693
  O         3.4667935454        2.9956225677        5.7432691194
  O        -6.7836883101       11.8681355884        5.7373428603
  O        -4.2156676945        7.4333350558        5.7487437289
  O        -1.6576743962        2.9852077404        5.7380518761
 Fe         7.6575090254       10.3381099842        5.9632075086
 Fe        10.2284586531        5.8939777812        5.9083909054
 Fe        12.7841582463        1.4560737328        5.9727267594
 Fe         2.5315107196       10.3390850155        5.9682929505
 Fe         5.0121147100        5.8975367381        6.2648549095
 Fe         7.6563882135        1.4620137512        5.9697896446
 Fe        -2.5986215898       10.3426741865        5.9729189143
 Fe        -0.0301261553        5.9003465894        5.9686869455
 Fe         2.5304388094        1.4622630264        5.9686514509
  C         8.6602711667        6.0875515562       11.9428677147
  C         8.3679675331        7.3948498363       11.1963320692
  H         9.6143845343        6.2088208106       12.4872216281
  O         7.6359576212        5.7319374469       12.8872756306
  H         8.7962238163        5.2756361104       11.2103782116
  C         7.3179622023        7.3240630702       10.0670262158
  C         5.8077931755        7.1523666032       10.4545499997
  O         7.6931823977        6.2657237242        9.1620652905
  H         7.4068958072        8.2847126190        9.5322972000
  C         5.1023869182        5.9033531679        9.8599561919
  H         5.2847237951        8.0177958721       10.0150395163
  O         5.5807033472        7.2326781397       11.8868906387
  C         5.5477392658        4.5488000662       10.4328768248
  O         5.3132095989        5.9013499478        8.4132013102
  H         4.0203817948        6.0233826924       10.0565040518
  H         6.6058900468        4.3729831484       10.1953437835
  O         5.3211147209        4.4867242865       11.8572141560
  H         4.9589739494        3.7581173095        9.9438148335
  H         6.9425328265        6.4310070417       12.7919117467
  H         8.5063878112        6.5493136756        8.6905628473
  H         5.0980262799        6.4031255241       12.1233702001
  H         6.3176336646        5.9366130654        8.3659862729
  H         6.2021270716        4.5899960821       12.2891719612
  O         9.5477051414        7.8208382679       10.4850802672
  H         8.0537697527        8.1701697268       11.9213562507
  H        10.2979980640        7.8384059669       11.1051473038
     161
 i =        5, E =     -8104.5107494516
 Fe         5.0938794100       11.8196869300        0.3885799900
 Fe         7.6575796300        7.3792284900        0.3885799900
 Fe        10.2212798400        2.9387700600        0.3885799900
 Fe        -0.0335205200       11.8196869300        0.3885799900
 Fe         2.5301797000        7.3792284900        0.3885799900
 Fe         5.0938799200        2.9387700600        0.3885799900
 Fe        -5.1609204400       11.8196869300        0.3885799900
 Fe        -2.5972202200        7.3792284900        0.3885799900
 Fe        -0.0335200000        2.9387700600        0.3885799900
  O         8.4519195100        8.9577468800        1.1642700400
  O        11.0156197300        4.5172884400        1.1642700400
  O        13.5793199500        0.0768300000        1.1642700400
  O         3.3245195900        8.9577468800        1.1642700400
  O         5.8882198100        4.5172884400        1.1642700400
  O         8.4519200300        0.0768300000        1.1642700400
  O        -1.8028803300        8.9577468800        1.1642700400
  O         0.7608198900        4.5172884400        1.1642700400
  O         3.3245201100        0.0768300000        1.1642700400
  O         8.4568493000       11.7183869300        1.1650400200
  O        11.0205495200        7.2779284900        1.1650400200
  O        13.5842497300        2.8374700500        1.1650400200
  O         3.3294493700       11.7183869300        1.1650400200
  O         5.8931495900        7.2779284900        1.1650400200
  O         8.4568498100        2.8374700500        1.1650400200
  O        -1.7979505500       11.7183869300        1.1650400200
  O         0.7657496700        7.2779284900        1.1650400200
  O         3.3294498900        2.8374700500        1.1650400200
  O         6.0627194200       10.3425368500        1.1660399400
  O         8.6264196400        5.9020784100        1.1660399400
  O        11.1901198600        1.4616199700        1.1660399400
  O         0.9353195000       10.3425368500        1.1660399400
  O         3.4990197200        5.9020784100        1.1660399400
  O         6.0627199400        1.4616199700        1.1660399400
  O        -4.1920804200       10.3425368500        1.1660399400
  O        -1.6283802000        5.9020784100        1.1660399400
  O         0.9353200200        1.4616199700        1.1660399400
 Fe         7.6576695000       13.2997167500        1.9292099500
 Fe        10.2213697200        8.8592583200        1.9292099500
 Fe        12.7850699400        4.4187998800        1.9292099500
 Fe         2.5302695800       13.2997167500        1.9292099500
 Fe         5.0939698000        8.8592583200        1.9292099500
 Fe         7.6576700200        4.4187998800        1.9292099500
 Fe        -2.5971303400       13.2997167500        1.9292099500
 Fe        -0.0334301200        8.8592583200        1.9292099500
 Fe         2.5302701000        4.4187998800        1.9292099500
 Fe         7.6573893600       10.3392168700        2.7128999200
 Fe        10.2210895800        5.8987584300        2.7128999200
 Fe        12.7847898000        1.4582999900        2.7128999200
 Fe         2.5299894400       10.3392168700        2.7128999200
 Fe         5.0936896600        5.8987584300        2.7128999200
 Fe         7.6573898800        1.4582999900        2.7128999200
 Fe        -2.5974104800       10.3392168700        2.7128999200
 Fe        -0.0337102600        5.8987584300        2.7128999200
 Fe         2.5299899600        1.4582999900        2.7128999200
  O         4.1351004252       13.3029891748        3.5037662766
  O         6.7038224733        8.8676704481        3.5196768393
  O         9.2620984811        4.4368016115        3.5310561312
  O        -0.9931140841       13.3041276871        3.5018406359
  O         1.5703886357        8.8632774460        3.5040072046
  O         4.1266203133        4.4156187896        3.4818448345
  O        -6.1217102281       13.3014954124        3.5011506337
  O        -3.5645797999        8.8621427656        3.5009472548
  O        -0.9986153293        4.4218367755        3.4995874074
  O         6.8640779467       11.9087899812        3.5060711269
  O         9.4198789586        7.4587016460        3.5241165827
  O        11.9894215172        3.0295552537        3.5037376381
  O         1.7358517349       11.9110967268        3.5040030103
  O         4.2952196352        7.4882425818        3.4734036919
  O         6.8669861550        3.0274542286        3.5150105248
  O        -3.3913217518       11.9116307018        3.5032519129
  O        -0.8311357989        7.4713436904        3.5020832012
  O         1.7298498692        3.0141107729        3.5208478044
  O         9.4167803449       10.2394760975        3.5068508693
  O        11.9766084385        5.8060006495        3.5118027182
  O        14.5427436268        1.3618720310        3.5043114224
  O         4.2871598650       10.2413978660        3.5138181171
  O         6.8740864969        5.7949810542        3.4760972221
  O         9.4182920347        1.3631094075        3.5035785278
  O        -0.8393065929       10.2450955961        3.5041009397
  O         1.7073901519        5.8099461282        3.5091711867
  O         4.2905716649        1.3687647780        3.5060943149
 Fe         5.0957496643       11.8097254182        4.4883511792
 Fe         7.6242729311        7.3584445327        4.5017542444
 Fe        10.2175032822        2.9378350212        4.4893856275
 Fe        -0.0331350927       11.8205141688        4.4869801280
 Fe         2.5436652761        7.3714249583        4.4867876269
 Fe         5.0923298964        2.9689351237        4.4930849235
 Fe        -5.1579247641       11.8202958640        4.4871422204
 Fe        -2.5932553266        7.3829452739        4.4878443848
 Fe        -0.0343440004        2.9375840695        4.4894250309
 Fe         7.6601199028       13.2993713389        4.8147411493
 Fe        10.2124715996        8.8546475875        4.8225865283
 Fe        12.7911556020        4.4168312019        4.8149117461
 Fe         2.5335877790       13.2975340818        4.8154850537
 Fe         5.0953224884        8.8262803480        4.8335533092
 Fe         7.6240018884        4.4332268589        4.8417059464
 Fe        -2.5932795163       13.3103811340        4.8138273553
 Fe        -0.0284911805        8.8599829028        4.8133499859
 Fe         2.5370773863        4.4269145831        4.8095182951
  O         5.8605782936       10.3736942314        5.7430625431
  O         8.4172250636        5.9489279441        5.7869852156
  O        10.9896561088        1.5068110250        5.7334231321
  O         0.7363596776       10.3906983941        5.7327207992
  O         3.2877193584        5.9537894897        5.7116795049
  O         5.8619168111        1.5203823069        5.7349369139
  O        -4.3929525521       10.3853234180        5.7310588942
  O        -1.8259289997        5.9480332139        5.7318160944
  O         0.7347651423        1.5044511293        5.7356023861
  O         5.9488668109       13.1996939486        5.7312820700
  O         8.5012544386        8.7459836269        5.7554614444
  O        11.0847498219        4.3097326197        5.7416054254
  O         0.8219269537       13.2048966107        5.7310352816
  O         3.3833884656        8.7575386620        5.7440703803
  O         5.9090798247        4.3777295765        5.7292495093
  O        -4.3044364323       13.2043004676        5.7313030690
  O        -1.7414762415        8.7657833568        5.7308632179
  O         0.8209384651        4.3199483327        5.7300647858
  O         3.4722601046       11.8693168186        5.7404421630
  O         5.9944810502        7.3699888019        5.7372118402
  O         8.5901700308        2.9963458047        5.7426490196
  O        -1.6599197080       11.8725194038        5.7349285140
  O         0.9037622253        7.4327458852        5.7373940693
  O         3.4667935454        2.9956225677        5.7432691194
  O        -6.7836883101       11.8681355884        5.7373428603
  O        -4.2156676945        7.4333350558        5.7487437289
  O        -1.6576743962        2.9852077404        5.7380518761
 Fe         7.6575090254       10.3381099842        5.9632075086
 Fe        10.2284586531        5.8939777812        5.9083909054
 Fe        12.7841582463        1.4560737328        5.9727267594
 Fe         2.5315107196       10.3390850155        5.9682929505
 Fe         5.0121147100        5.8975367381        6.2648549095
 Fe         7.6563882135        1.4620137512        5.9697896446
 Fe        -2.5986215898       10.3426741865        5.9729189143
 Fe        -0.0301261553        5.9003465894        5.9686869455
 Fe         2.5304388094        1.4622630264        5.9686514509
  C         8.6602711667        6.0875515562       11.9428677147
  C         8.3679675331        7.3948498363       11.1963320692
  H         9.6143845343        6.2088208106       12.4872216281
  O         7.6359576212        5.7319374469       12.8872756306
  H         8.7962238163        5.2756361104       11.2103782116
  C         7.3179622023        7.3240630702       10.0670262158
  C         5.8077931755        7.1523666032       10.4545499997
  O         7.6931823977        6.2657237242        9.1620652905
  H         7.4068958072        8.2847126190        9.5322972000
  C         5.1023869182        5.9033531679        9.8599561919
  H         5.2847237951        8.0177958721       10.0150395163
  O         5.5807033472        7.2326781397       11.8868906387
  C         5.5477392658        4.5488000662       10.4328768248
  O         5.3132095989        5.9013499478        8.4132013102
  H         4.0203817948        6.0233826924       10.0565040518
  H         6.6058900468        4.3729831484       10.1953437835
  O         5.3211147209        4.4867242865       11.8572141560
  H         4.9589739494        3.7581173095        9.9438148335
  H         6.9425328265        6.4310070417       12.7919117467
  H         8.5063878112        6.5493136756        8.6905628473
  H         5.0980262799        6.4031255241       12.1233702001
  H         6.3176336646        5.9366130654        8.3659862729
  H         6.2021270716        4.5899960821       12.2891719612
  O         9.5477051414        7.8208382679       10.4850802672
  H         8.0537697527        8.1701697268       11.9213562507
  H        10.2979980640        7.8384059669       11.1051473038
