12
Lattice="5.1123820279787395 0.0 0.0 2.5561910139893698 4.427452710080594 0.0 0.0 0.0 24.174242446240996" Properties=species:S:1:pos:R:3:tags:I:1 pbc="T T F"
Cu       1.27809551       0.73790879      10.00000000        3
Cu       3.83428652       0.73790879      10.00000000        3
Cu       2.55619101       2.95163514      10.00000000        3
Cu       5.11238203       2.95163514      10.00000000        3
Cu      -0.00000000       1.47581757      12.08712122        2
Cu       2.55619101       1.47581757      12.08712122        2
Cu       1.27809551       3.68954393      12.08712122        2
Cu       3.83428652       3.68954393      12.08712122        2
Cu       0.00000000       0.00000000      14.17424245        1
Cu       2.55619101       0.00000000      14.17424245        1
Cu       1.27809551       2.21372636      14.17424245        1
Cu       3.83428652       2.21372636      14.17424245        1
