     161
 i =        1, E =     -8104.5023571834
 Fe         5.0938794100       11.8196869300        0.3885799900
 Fe         7.6575796300        7.3792284900        0.3885799900
 Fe        10.2212798400        2.9387700600        0.3885799900
 Fe        -0.0335205200       11.8196869300        0.3885799900
 Fe         2.5301797000        7.3792284900        0.3885799900
 Fe         5.0938799200        2.9387700600        0.3885799900
 Fe        -5.1609204400       11.8196869300        0.3885799900
 Fe        -2.5972202200        7.3792284900        0.3885799900
 Fe        -0.0335200000        2.9387700600        0.3885799900
  O         8.4519195100        8.9577468800        1.1642700400
  O        11.0156197300        4.5172884400        1.1642700400
  O        13.5793199500        0.0768300000        1.1642700400
  O         3.3245195900        8.9577468800        1.1642700400
  O         5.8882198100        4.5172884400        1.1642700400
  O         8.4519200300        0.0768300000        1.1642700400
  O        -1.8028803300        8.9577468800        1.1642700400
  O         0.7608198900        4.5172884400        1.1642700400
  O         3.3245201100        0.0768300000        1.1642700400
  O         8.4568493000       11.7183869300        1.1650400200
  O        11.0205495200        7.2779284900        1.1650400200
  O        13.5842497300        2.8374700500        1.1650400200
  O         3.3294493700       11.7183869300        1.1650400200
  O         5.8931495900        7.2779284900        1.1650400200
  O         8.4568498100        2.8374700500        1.1650400200
  O        -1.7979505500       11.7183869300        1.1650400200
  O         0.7657496700        7.2779284900        1.1650400200
  O         3.3294498900        2.8374700500        1.1650400200
  O         6.0627194200       10.3425368500        1.1660399400
  O         8.6264196400        5.9020784100        1.1660399400
  O        11.1901198600        1.4616199700        1.1660399400
  O         0.9353195000       10.3425368500        1.1660399400
  O         3.4990197200        5.9020784100        1.1660399400
  O         6.0627199400        1.4616199700        1.1660399400
  O        -4.1920804200       10.3425368500        1.1660399400
  O        -1.6283802000        5.9020784100        1.1660399400
  O         0.9353200200        1.4616199700        1.1660399400
 Fe         7.6576695000       13.2997167500        1.9292099500
 Fe        10.2213697200        8.8592583200        1.9292099500
 Fe        12.7850699400        4.4187998800        1.9292099500
 Fe         2.5302695800       13.2997167500        1.9292099500
 Fe         5.0939698000        8.8592583200        1.9292099500
 Fe         7.6576700200        4.4187998800        1.9292099500
 Fe        -2.5971303400       13.2997167500        1.9292099500
 Fe        -0.0334301200        8.8592583200        1.9292099500
 Fe         2.5302701000        4.4187998800        1.9292099500
 Fe         7.6573893600       10.3392168700        2.7128999200
 Fe        10.2210895800        5.8987584300        2.7128999200
 Fe        12.7847898000        1.4582999900        2.7128999200
 Fe         2.5299894400       10.3392168700        2.7128999200
 Fe         5.0936896600        5.8987584300        2.7128999200
 Fe         7.6573898800        1.4582999900        2.7128999200
 Fe        -2.5974104800       10.3392168700        2.7128999200
 Fe        -0.0337102600        5.8987584300        2.7128999200
 Fe         2.5299899600        1.4582999900        2.7128999200
  O         4.1323378348       13.3041677378        3.4986970970
  O         6.6957479497        8.8635826870        3.4994885349
  O         9.2609642782        4.4230823367        3.4995304284
  O        -0.9946087734       13.3040107118        3.4993681447
  O         1.5685264328        8.8646046243        3.4983233148
  O         4.1331157223        4.4224290675        3.4984715026
  O        -6.1221306873       13.3036330370        3.4987854084
  O        -3.5585672878        8.8629422513        3.4989387991
  O        -0.9949173913        4.4226503915        3.4987249743
  O         6.8609562941       11.9102435956        3.5003886812
  O         9.4243391733        7.4691125555        3.5016933843
  O        11.9879390014        3.0293778474        3.5007320273
  O         1.7334868275       11.9103721782        3.5005192312
  O         4.2982407497        7.4705514669        3.5008501908
  O         6.8601399576        3.0289419408        3.4998734378
  O        -3.3941236557       11.9101808340        3.5004465602
  O        -0.8301492162        7.4698883828        3.5002854461
  O         1.7342060389        3.0279202856        3.5010809640
  O         9.4156292261       10.2449161777        3.5008825110
  O        11.9789590933        5.8043902679        3.5017380857
  O        14.5430865668        1.3640533521        3.5010364407
  O         4.2893088368       10.2435935764        3.5016186638
  O         6.8521769551        5.8048571200        3.5009210911
  O         9.4156354133        1.3637484465        3.5012758963
  O        -0.8391413608       10.2448041610        3.5008255238
  O         1.7242461625        5.8039132818        3.5000853555
  O         4.2891701417        1.3653428606        3.5016523071
 Fe         5.0941365314       11.8199828795        4.4856773870
 Fe         7.6571638867        7.3787221178        4.4872960791
 Fe        10.2214539525        2.9378411812        4.4864323933
 Fe        -0.0328343961       11.8189607628        4.4864078313
 Fe         2.5288288316        7.3813453305        4.4826965540
 Fe         5.0957308232        2.9411391561        4.4890745661
 Fe        -5.1605865851       11.8192690039        4.4866719971
 Fe        -2.5960877980        7.3788018981        4.4862593462
 Fe        -0.0324204732        2.9383292830        4.4861181490
 Fe         7.6592173279       13.2989465607        4.8229295584
 Fe        10.2223192034        8.8594584457        4.8226435540
 Fe        12.7868020625        4.4181488590        4.8227199199
 Fe         2.5321553798       13.2986420549        4.8231406833
 Fe         5.0968859507        8.8563466458        4.8269258856
 Fe         7.6589718339        4.4181057778        4.8199584995
 Fe        -2.5959529169       13.2990905649        4.8230308195
 Fe        -0.0317008370        8.8588365376        4.8226729684
 Fe         2.5300827591        4.4156862754        4.8212920242
  O         5.8651550772       10.3908401036        5.7249866290
  O         8.4253242456        5.9464566483        5.7361750716
  O        10.9932927407        1.5081241543        5.7266613411
  O         0.7399014983       10.3885975617        5.7257659874
  O         3.2859878718        5.9516215061        5.7133343069
  O         5.8661463048        1.5080924487        5.7268387483
  O        -4.3881260296       10.3884988947        5.7267310529
  O        -1.8251627877        5.9481303605        5.7271402776
  O         0.7386488479        1.5077094137        5.7265261149
  O         5.9482644492       13.2034556839        5.7273135635
  O         8.5116757969        8.7622207232        5.7286057743
  O        11.0754656241        4.3220578662        5.7284493913
  O         0.8214190524       13.2030591447        5.7278685581
  O         3.3835377823        8.7630465458        5.7271553611
  O         5.9512043115        4.3314089810        5.7308246658
  O        -4.3069240102       13.2035884237        5.7270195703
  O        -1.7429458677        8.7631700704        5.7265584041
  O         0.8199451573        4.3222056592        5.7274909856
  O         3.4697113383       11.8640908806        5.7296564062
  O         6.0298136760        7.4131848088        5.7291049404
  O         8.5960219065        2.9859186898        5.7317538534
  O        -1.6576216341       11.8651706361        5.7282707860
  O         0.9059165459        7.4255133602        5.7301493882
  O         3.4699837559        2.9835240762        5.7280776702
  O        -6.7864352457       11.8635014921        5.7292171334
  O        -4.2215786437        7.4256934963        5.7302205709
  O        -1.6579523131        2.9840770980        5.7290641777
 Fe         7.6555174170       10.3377154019        5.9855476705
 Fe        10.2212456263        5.8988209585        5.9752422140
 Fe        12.7849585894        1.4577294223        5.9826831549
 Fe         2.5302529473       10.3386887726        5.9895221875
 Fe         5.0693235872        5.8965377793        5.9864863588
 Fe         7.6576614195        1.4573948724        5.9794951938
 Fe        -2.5964490334       10.3392594261        5.9838406394
 Fe        -0.0330170756        5.8987694819        5.9810944634
 Fe         2.5302478363        1.4583093825        5.9818333346
  C         2.1008205432       10.6261310411       11.2427026350
  C         3.0286211338        9.8829448510       10.2865422944
  H         1.4840483076        9.9203214049       11.8247541541
  O         1.1922966328       11.4723081193       10.5467795170
  H         2.7224002032       11.2044667473       11.9562278102
  C         3.9612649021        8.9007509101       11.0226761079
  C         5.1800570043        8.4956422203       10.1537754374
  O         3.2274967212        7.7090943258       11.4203729520
  H         4.3654265845        9.3859548139       11.9310168905
  C         5.8057483517        7.1250060321       10.5198198004
  H         5.9427917560        9.2643560576       10.3623068531
  O         4.9086297832        8.5998880723        8.7477492106
  C         5.0875243227        5.9009417651        9.9135458210
  O         5.9066857554        6.9597256080       11.9374569367
  H         6.8448738619        7.1312589419       10.1478937462
  H         5.5829653864        4.9955547454       10.3000351373
  O         5.1172173903        5.8903548975        8.4564692319
  H         4.0322289404        5.8821284827       10.2048351454
  H         1.7339597516       11.9478923357        9.8857826579
  H         2.4438122010        7.9911830557       11.9242830104
  H         4.7975961213        7.6971502049        8.3674999096
  H         4.9850757211        6.9697586876       12.2718573517
  H         6.0431936274        5.7126477556        8.1958540904
  O         3.7527466923       10.9064774419        9.5884069867
  H         2.4226054342        9.2942219446        9.5737785221
  H         4.2116083228       10.4522864783        8.8487541117
     161
 i =        2, E =     -8104.5023619401
 Fe         5.0938794100       11.8196869300        0.3885799900
 Fe         7.6575796300        7.3792284900        0.3885799900
 Fe        10.2212798400        2.9387700600        0.3885799900
 Fe        -0.0335205200       11.8196869300        0.3885799900
 Fe         2.5301797000        7.3792284900        0.3885799900
 Fe         5.0938799200        2.9387700600        0.3885799900
 Fe        -5.1609204400       11.8196869300        0.3885799900
 Fe        -2.5972202200        7.3792284900        0.3885799900
 Fe        -0.0335200000        2.9387700600        0.3885799900
  O         8.4519195100        8.9577468800        1.1642700400
  O        11.0156197300        4.5172884400        1.1642700400
  O        13.5793199500        0.0768300000        1.1642700400
  O         3.3245195900        8.9577468800        1.1642700400
  O         5.8882198100        4.5172884400        1.1642700400
  O         8.4519200300        0.0768300000        1.1642700400
  O        -1.8028803300        8.9577468800        1.1642700400
  O         0.7608198900        4.5172884400        1.1642700400
  O         3.3245201100        0.0768300000        1.1642700400
  O         8.4568493000       11.7183869300        1.1650400200
  O        11.0205495200        7.2779284900        1.1650400200
  O        13.5842497300        2.8374700500        1.1650400200
  O         3.3294493700       11.7183869300        1.1650400200
  O         5.8931495900        7.2779284900        1.1650400200
  O         8.4568498100        2.8374700500        1.1650400200
  O        -1.7979505500       11.7183869300        1.1650400200
  O         0.7657496700        7.2779284900        1.1650400200
  O         3.3294498900        2.8374700500        1.1650400200
  O         6.0627194200       10.3425368500        1.1660399400
  O         8.6264196400        5.9020784100        1.1660399400
  O        11.1901198600        1.4616199700        1.1660399400
  O         0.9353195000       10.3425368500        1.1660399400
  O         3.4990197200        5.9020784100        1.1660399400
  O         6.0627199400        1.4616199700        1.1660399400
  O        -4.1920804200       10.3425368500        1.1660399400
  O        -1.6283802000        5.9020784100        1.1660399400
  O         0.9353200200        1.4616199700        1.1660399400
 Fe         7.6576695000       13.2997167500        1.9292099500
 Fe        10.2213697200        8.8592583200        1.9292099500
 Fe        12.7850699400        4.4187998800        1.9292099500
 Fe         2.5302695800       13.2997167500        1.9292099500
 Fe         5.0939698000        8.8592583200        1.9292099500
 Fe         7.6576700200        4.4187998800        1.9292099500
 Fe        -2.5971303400       13.2997167500        1.9292099500
 Fe        -0.0334301200        8.8592583200        1.9292099500
 Fe         2.5302701000        4.4187998800        1.9292099500
 Fe         7.6573893600       10.3392168700        2.7128999200
 Fe        10.2210895800        5.8987584300        2.7128999200
 Fe        12.7847898000        1.4582999900        2.7128999200
 Fe         2.5299894400       10.3392168700        2.7128999200
 Fe         5.0936896600        5.8987584300        2.7128999200
 Fe         7.6573898800        1.4582999900        2.7128999200
 Fe        -2.5974104800       10.3392168700        2.7128999200
 Fe        -0.0337102600        5.8987584300        2.7128999200
 Fe         2.5299899600        1.4582999900        2.7128999200
  O         4.1323378348       13.3041677378        3.4986970970
  O         6.6957479497        8.8635826870        3.4994885349
  O         9.2609642782        4.4230823367        3.4995304284
  O        -0.9946087734       13.3040107118        3.4993681447
  O         1.5685264328        8.8646046243        3.4983233148
  O         4.1331157223        4.4224290675        3.4984715026
  O        -6.1221306873       13.3036330370        3.4987854084
  O        -3.5585672878        8.8629422513        3.4989387991
  O        -0.9949173913        4.4226503915        3.4987249743
  O         6.8609562941       11.9102435956        3.5003886812
  O         9.4243391733        7.4691125555        3.5016933843
  O        11.9879390014        3.0293778474        3.5007320273
  O         1.7334868275       11.9103721782        3.5005192312
  O         4.2982407497        7.4705514669        3.5008501908
  O         6.8601399576        3.0289419408        3.4998734378
  O        -3.3941236557       11.9101808340        3.5004465602
  O        -0.8301492162        7.4698883828        3.5002854461
  O         1.7342060389        3.0279202856        3.5010809640
  O         9.4156292261       10.2449161777        3.5008825110
  O        11.9789590933        5.8043902679        3.5017380857
  O        14.5430865668        1.3640533521        3.5010364407
  O         4.2893088368       10.2435935764        3.5016186638
  O         6.8521769551        5.8048571200        3.5009210911
  O         9.4156354133        1.3637484465        3.5012758963
  O        -0.8391413608       10.2448041610        3.5008255238
  O         1.7242461625        5.8039132818        3.5000853555
  O         4.2891701417        1.3653428606        3.5016523071
 Fe         5.0941365314       11.8199828795        4.4856773870
 Fe         7.6571638867        7.3787221178        4.4872960791
 Fe        10.2214539525        2.9378411812        4.4864323933
 Fe        -0.0328343961       11.8189607628        4.4864078313
 Fe         2.5288288316        7.3813453305        4.4826965540
 Fe         5.0957308232        2.9411391561        4.4890745661
 Fe        -5.1605865851       11.8192690039        4.4866719971
 Fe        -2.5960877980        7.3788018981        4.4862593462
 Fe        -0.0324204732        2.9383292830        4.4861181490
 Fe         7.6592173279       13.2989465607        4.8229295584
 Fe        10.2223192034        8.8594584457        4.8226435540
 Fe        12.7868020625        4.4181488590        4.8227199199
 Fe         2.5321553798       13.2986420549        4.8231406833
 Fe         5.0968859507        8.8563466458        4.8269258856
 Fe         7.6589718339        4.4181057778        4.8199584995
 Fe        -2.5959529169       13.2990905649        4.8230308195
 Fe        -0.0317008370        8.8588365376        4.8226729684
 Fe         2.5300827591        4.4156862754        4.8212920242
  O         5.8651550772       10.3908401036        5.7249866290
  O         8.4253242456        5.9464566483        5.7361750716
  O        10.9932927407        1.5081241543        5.7266613411
  O         0.7399014983       10.3885975617        5.7257659874
  O         3.2859878718        5.9516215061        5.7133343069
  O         5.8661463048        1.5080924487        5.7268387483
  O        -4.3881260296       10.3884988947        5.7267310529
  O        -1.8251627877        5.9481303605        5.7271402776
  O         0.7386488479        1.5077094137        5.7265261149
  O         5.9482644492       13.2034556839        5.7273135635
  O         8.5116757969        8.7622207232        5.7286057743
  O        11.0754656241        4.3220578662        5.7284493913
  O         0.8214190524       13.2030591447        5.7278685581
  O         3.3835377823        8.7630465458        5.7271553611
  O         5.9512043115        4.3314089810        5.7308246658
  O        -4.3069240102       13.2035884237        5.7270195703
  O        -1.7429458677        8.7631700704        5.7265584041
  O         0.8199451573        4.3222056592        5.7274909856
  O         3.4697113383       11.8640908806        5.7296564062
  O         6.0298136760        7.4131848088        5.7291049404
  O         8.5960219065        2.9859186898        5.7317538534
  O        -1.6576216341       11.8651706361        5.7282707860
  O         0.9059165459        7.4255133602        5.7301493882
  O         3.4699837559        2.9835240762        5.7280776702
  O        -6.7864352457       11.8635014921        5.7292171334
  O        -4.2215786437        7.4256934963        5.7302205709
  O        -1.6579523131        2.9840770980        5.7290641777
 Fe         7.6555174170       10.3377154019        5.9855476705
 Fe        10.2212456263        5.8988209585        5.9752422140
 Fe        12.7849585894        1.4577294223        5.9826831549
 Fe         2.5302529473       10.3386887726        5.9895221875
 Fe         5.0693235872        5.8965377793        5.9864863588
 Fe         7.6576614195        1.4573948724        5.9794951938
 Fe        -2.5964490334       10.3392594261        5.9838406394
 Fe        -0.0330170756        5.8987694819        5.9810944634
 Fe         2.5302478363        1.4583093825        5.9818333346
  C         2.1008205432       10.6261310411       11.2427026350
  C         3.0286211338        9.8829448510       10.2865422944
  H         1.4840483076        9.9203214049       11.8247541541
  O         1.1922966328       11.4723081193       10.5467795170
  H         2.7224002032       11.2044667473       11.9562278102
  C         3.9612649021        8.9007509101       11.0226761079
  C         5.1800570043        8.4956422203       10.1537754374
  O         3.2274967212        7.7090943258       11.4203729520
  H         4.3654265845        9.3859548139       11.9310168905
  C         5.8057483517        7.1250060321       10.5198198004
  H         5.9427917560        9.2643560576       10.3623068531
  O         4.9086297832        8.5998880723        8.7477492106
  C         5.0875243227        5.9009417651        9.9135458210
  O         5.9066857554        6.9597256080       11.9374569367
  H         6.8448738619        7.1312589419       10.1478937462
  H         5.5829653864        4.9955547454       10.3000351373
  O         5.1172173903        5.8903548975        8.4564692319
  H         4.0322289404        5.8821284827       10.2048351454
  H         1.7339597516       11.9478923357        9.8857826579
  H         2.4438122010        7.9911830557       11.9242830104
  H         4.7975961213        7.6971502049        8.3674999096
  H         4.9850757211        6.9697586876       12.2718573517
  H         6.0431936274        5.7126477556        8.1958540904
  O         3.7527466923       10.9064774419        9.5884069867
  H         2.4226054342        9.2942219446        9.5737785221
  H         4.2116083228       10.4522864783        8.8487541117
