     168
 i =        1, E =     -8144.3707032532
 Fe         5.0938794100       11.8196869300        0.3885799900
 Fe         7.6575796300        7.3792284900        0.3885799900
 Fe        10.2212798400        2.9387700600        0.3885799900
 Fe        -0.0335205200       11.8196869300        0.3885799900
 Fe         2.5301797000        7.3792284900        0.3885799900
 Fe         5.0938799200        2.9387700600        0.3885799900
 Fe        -5.1609204400       11.8196869300        0.3885799900
 Fe        -2.5972202200        7.3792284900        0.3885799900
 Fe        -0.0335200000        2.9387700600        0.3885799900
  O         8.4519195100        8.9577468800        1.1642700400
  O        11.0156197300        4.5172884400        1.1642700400
  O        13.5793199500        0.0768300000        1.1642700400
  O         3.3245195900        8.9577468800        1.1642700400
  O         5.8882198100        4.5172884400        1.1642700400
  O         8.4519200300        0.0768300000        1.1642700400
  O        -1.8028803300        8.9577468800        1.1642700400
  O         0.7608198900        4.5172884400        1.1642700400
  O         3.3245201100        0.0768300000        1.1642700400
  O         8.4568493000       11.7183869300        1.1650400200
  O        11.0205495200        7.2779284900        1.1650400200
  O        13.5842497300        2.8374700500        1.1650400200
  O         3.3294493700       11.7183869300        1.1650400200
  O         5.8931495900        7.2779284900        1.1650400200
  O         8.4568498100        2.8374700500        1.1650400200
  O        -1.7979505500       11.7183869300        1.1650400200
  O         0.7657496700        7.2779284900        1.1650400200
  O         3.3294498900        2.8374700500        1.1650400200
  O         6.0627194200       10.3425368500        1.1660399400
  O         8.6264196400        5.9020784100        1.1660399400
  O        11.1901198600        1.4616199700        1.1660399400
  O         0.9353195000       10.3425368500        1.1660399400
  O         3.4990197200        5.9020784100        1.1660399400
  O         6.0627199400        1.4616199700        1.1660399400
  O        -4.1920804200       10.3425368500        1.1660399400
  O        -1.6283802000        5.9020784100        1.1660399400
  O         0.9353200200        1.4616199700        1.1660399400
 Fe         7.6576695000       13.2997167500        1.9292099500
 Fe        10.2213697200        8.8592583200        1.9292099500
 Fe        12.7850699400        4.4187998800        1.9292099500
 Fe         2.5302695800       13.2997167500        1.9292099500
 Fe         5.0939698000        8.8592583200        1.9292099500
 Fe         7.6576700200        4.4187998800        1.9292099500
 Fe        -2.5971303400       13.2997167500        1.9292099500
 Fe        -0.0334301200        8.8592583200        1.9292099500
 Fe         2.5302701000        4.4187998800        1.9292099500
 Fe         7.6573893600       10.3392168700        2.7128999200
 Fe        10.2210895800        5.8987584300        2.7128999200
 Fe        12.7847898000        1.4582999900        2.7128999200
 Fe         2.5299894400       10.3392168700        2.7128999200
 Fe         5.0936896600        5.8987584300        2.7128999200
 Fe         7.6573898800        1.4582999900        2.7128999200
 Fe        -2.5974104800       10.3392168700        2.7128999200
 Fe        -0.0337102600        5.8987584300        2.7128999200
 Fe         2.5299899600        1.4582999900        2.7128999200
  O         4.0862535550       13.3132928620        3.5028306732
  O         6.6553941013        8.8751126919        3.5083095592
  O         9.2089068940        4.4301980978        3.5131014442
  O        -1.0374566360       13.3132918600        3.5073548707
  O         1.5204134977        8.8749934379        3.5118548931
  O         4.1061195380        4.4334388695        3.5263361228
  O        -6.1687854517       13.3142899122        3.5058018524
  O        -3.6035708646        8.8738872995        3.5121369716
  O        -1.0247975222        4.4363007260        3.5312981882
  O         6.8149061029       11.8799571993        3.4941740978
  O         9.3871905362        7.4381046526        3.4963704261
  O        11.9326298748        2.9757696962        3.5174536112
  O         1.6854009854       11.8814437793        3.4789372619
  O         4.2539519169        7.4326529004        3.5012939345
  O         6.8188671007        2.9967247718        3.5101505853
  O        -3.4406165988       11.8773192861        3.4918887163
  O        -0.8744096552        7.4344462992        3.4993142815
  O         1.6851712944        2.9859277154        3.5027971817
  O         9.4342233246       10.2197701483        3.4851989694
  O        11.9800817906        5.7898976981        3.5088858921
  O        14.5590553062        1.3363730368        3.4789581493
  O         4.3048064275       10.2218191947        3.4879624507
  O         6.8729593612        5.7666951471        3.4781760995
  O         9.4293450552        1.3468058690        3.4822985590
  O        -0.8232580144       10.2180981367        3.4847365388
  O         1.7295728252        5.7865089334        3.4945562555
  O         4.3042883954        1.3442535480        3.4849205837
 Fe         5.0363315060       11.8361582528        4.4197424262
 Fe         7.6075504342        7.3969054654        4.4035826813
 Fe        10.1496454842        2.9556024330        4.4215913202
 Fe        -0.0936337326       11.8255388861        4.4113121571
 Fe         2.4732130378        7.4023379066        4.4242746916
 Fe         5.0405489417        2.9563297003        4.4255795975
 Fe        -5.2211548271       11.8360845312        4.4151601560
 Fe        -2.6485709553        7.4043914149        4.4187644177
 Fe        -0.0928564604        2.9437850706        4.4224521722
 Fe         7.6106865260       13.1858127771        4.8218057820
 Fe        10.1767102995        8.7438459045        4.8434684244
 Fe        12.7358931607        4.3032669667        4.8150849597
 Fe         2.4859675310       13.1820772273        4.8030492268
 Fe         5.0482077999        8.7447111690        4.8302191340
 Fe         7.6019061503        4.3035888593        4.8446770192
 Fe        -2.6447351654       13.1869781623        4.8107969129
 Fe        -0.0812352060        8.7415367957        4.8401161940
 Fe         2.4790996483        4.3032802222        4.8145488807
  O         5.8548222049       10.3508210551        5.8822503178
  O         8.4248609137        5.9169647197        5.8791101856
  O        10.9785752204        1.4652820366        5.8733217308
  O         0.7262372397       10.3493685788        5.8827697847
  O         3.2711634310        5.9129999919        5.8455711465
  O         5.8593099599        1.4706035680        5.8839812686
  O        -4.4010142109       10.3524216361        5.8866977190
  O        -1.8374303092        5.9045283558        5.8712848892
  O         0.7294088982        1.4699600692        5.8760493851
  O         5.9222751104       13.1737899448        5.6929318982
  O         8.4922976531        8.7237044719        5.7080368449
  O        11.0510732545        4.2901034660        5.6916796298
  O         0.7970101960       13.1614694487        5.6655660189
  O         3.3644726657        8.7311909915        5.7016716749
  O         5.9303452249        4.3138324467        5.7447806926
  O        -4.3259681328       13.1736425559        5.6884598074
  O        -1.7649991775        8.7317105893        5.7066680624
  O         0.7938058740        4.2891113840        5.6841905754
  O         3.4671567945       11.7833979422        5.6796739348
  O         6.0596630075        7.3297968765        5.6568331353
  O         8.5880613553        2.8926820832        5.7176907994
  O        -1.6581119963       11.7829597171        5.6762493680
  O         0.9079713945        7.3308982104        5.6838881777
  O         3.4715436515        2.8950310162        5.6702952179
  O        -6.7826467612       11.7797373496        5.6822501066
  O        -4.2151166689        7.3290196311        5.6871489137
  O        -1.6612908385        2.8966122374        5.6746911564
 Fe         7.7840538513       10.2727230459        6.4359852569
 Fe        10.3483442143        5.8247921598        6.4399356920
 Fe        12.9086764148        1.3940436586        6.4360200684
 Fe         2.6565993218       10.2720942500        6.4375546136
 Fe         5.1904178204        5.8696877657        6.4388506573
 Fe         7.7845023678        1.3615791217        6.4278289308
 Fe        -2.4701078906       10.2777012367        6.4363890616
 Fe         0.0904619853        5.8248364118        6.4391084987
 Fe         2.6565857890        1.3905465790        6.4350806214
  O         7.8485205223       10.3913153934        8.2632820686
  H         7.8620133133        9.5691789193        8.7860348285
  H         5.3489741071       10.6104460412        6.6850139124
  O        10.3670281247        5.9034911445        8.2778699773
  H        10.6266810893        5.1035629297        8.7691428483
  H         7.9172088622        6.2647364583        6.6459925423
  O        12.9464573018        1.5119662607        8.2649844492
  H        13.0070570874        0.6896621969        8.7843204872
  H        10.4763156054        1.7193815223        6.6805490373
  O         2.6949248627       10.3802012020        8.2659471731
  H         2.7910968794        9.5553429018        8.7769117344
  H         0.2258263686       10.6133879838        6.6877466448
  O         4.9745633877        6.3291690792        8.1833548789
  H         4.9229812145        5.7582366536        8.9736438480
  H         2.8104270518        6.1924167386        6.6700304554
  O         7.9107741942        1.2277441752        8.2616995699
  H         7.9653974841        0.3293348827        8.6366204315
  H         5.3389626800        1.7325614313        6.6766644304
  O        -2.4069559141       10.3923490395        8.2642191769
  H        -2.3590194844        9.5687433152        8.7826694116
  H        -4.9037033156       10.6276656295        6.6870379752
  O         0.1056339793        5.9399660043        8.2661412417
  H         0.2145483004        5.1303574312        8.7970289989
  H        -2.3388499870        6.1749213018        6.6730824870
  O         2.7123322415        1.4979460253        8.2602134265
  H         2.7633730603        0.6808372413        8.7883232230
  H         0.2241119751        1.7398841395        6.6757188696
  C         7.3771092732        4.0097681106        9.2194346415
  C         6.3292853337        4.3942496496       10.1389807277
  H         7.4128120417        2.9132004629        9.0894663098
  H         7.1782155431        4.4606976100        8.2356143994
  H         8.3575335829        4.3608075779        9.5666105921
  N         5.4666550131        4.7120709365       10.8620689959
     168
 i =        2, E =     -8144.3526831215
 Fe         5.0938794100       11.8196869300        0.3885799900
 Fe         7.6575796300        7.3792284900        0.3885799900
 Fe        10.2212798400        2.9387700600        0.3885799900
 Fe        -0.0335205200       11.8196869300        0.3885799900
 Fe         2.5301797000        7.3792284900        0.3885799900
 Fe         5.0938799200        2.9387700600        0.3885799900
 Fe        -5.1609204400       11.8196869300        0.3885799900
 Fe        -2.5972202200        7.3792284900        0.3885799900
 Fe        -0.0335200000        2.9387700600        0.3885799900
  O         8.4519195100        8.9577468800        1.1642700400
  O        11.0156197300        4.5172884400        1.1642700400
  O        13.5793199500        0.0768300000        1.1642700400
  O         3.3245195900        8.9577468800        1.1642700400
  O         5.8882198100        4.5172884400        1.1642700400
  O         8.4519200300        0.0768300000        1.1642700400
  O        -1.8028803300        8.9577468800        1.1642700400
  O         0.7608198900        4.5172884400        1.1642700400
  O         3.3245201100        0.0768300000        1.1642700400
  O         8.4568493000       11.7183869300        1.1650400200
  O        11.0205495200        7.2779284900        1.1650400200
  O        13.5842497300        2.8374700500        1.1650400200
  O         3.3294493700       11.7183869300        1.1650400200
  O         5.8931495900        7.2779284900        1.1650400200
  O         8.4568498100        2.8374700500        1.1650400200
  O        -1.7979505500       11.7183869300        1.1650400200
  O         0.7657496700        7.2779284900        1.1650400200
  O         3.3294498900        2.8374700500        1.1650400200
  O         6.0627194200       10.3425368500        1.1660399400
  O         8.6264196400        5.9020784100        1.1660399400
  O        11.1901198600        1.4616199700        1.1660399400
  O         0.9353195000       10.3425368500        1.1660399400
  O         3.4990197200        5.9020784100        1.1660399400
  O         6.0627199400        1.4616199700        1.1660399400
  O        -4.1920804200       10.3425368500        1.1660399400
  O        -1.6283802000        5.9020784100        1.1660399400
  O         0.9353200200        1.4616199700        1.1660399400
 Fe         7.6576695000       13.2997167500        1.9292099500
 Fe        10.2213697200        8.8592583200        1.9292099500
 Fe        12.7850699400        4.4187998800        1.9292099500
 Fe         2.5302695800       13.2997167500        1.9292099500
 Fe         5.0939698000        8.8592583200        1.9292099500
 Fe         7.6576700200        4.4187998800        1.9292099500
 Fe        -2.5971303400       13.2997167500        1.9292099500
 Fe        -0.0334301200        8.8592583200        1.9292099500
 Fe         2.5302701000        4.4187998800        1.9292099500
 Fe         7.6573893600       10.3392168700        2.7128999200
 Fe        10.2210895800        5.8987584300        2.7128999200
 Fe        12.7847898000        1.4582999900        2.7128999200
 Fe         2.5299894400       10.3392168700        2.7128999200
 Fe         5.0936896600        5.8987584300        2.7128999200
 Fe         7.6573898800        1.4582999900        2.7128999200
 Fe        -2.5974104800       10.3392168700        2.7128999200
 Fe        -0.0337102600        5.8987584300        2.7128999200
 Fe         2.5299899600        1.4582999900        2.7128999200
  O         4.1199701444       13.3275578522        3.5592008702
  O         6.6219961069        8.8602767679        3.4559789530
  O         9.1977163420        4.4270969559        3.4944851991
  O        -1.0324682214       13.3171994200        3.5172450349
  O         1.4928289379        8.8691560210        3.4720695931
  O         4.1131873031        4.4368503998        3.5399484143
  O        -6.1668027552       13.3117004839        3.5069227601
  O        -3.6251508842        8.8650677224        3.4766069509
  O        -1.0136261540        4.4454619866        3.5548064707
  O         6.8184129681       11.8791386043        3.4947980511
  O         9.3886368429        7.4626409655        3.4653814800
  O        11.9314341772        2.9624305581        3.5370166568
  O         1.6815407107       11.8445923169        3.5317319514
  O         4.2639686625        7.4708467394        3.4537121380
  O         6.8213682914        3.0060003536        3.4967298107
  O        -3.4429783559       11.8714626819        3.4979524924
  O        -0.8717416116        7.4623650648        3.4646772963
  O         1.6845595662        2.9768447470        3.5124307373
  O         9.4498025592       10.2046633326        3.4549519933
  O        11.9702551671        5.7999804401        3.5307990301
  O        14.5569402396        1.3352881416        3.4810803117
  O         4.3326322057       10.1960732212        3.4357456740
  O         6.8805697297        5.7660805480        3.4673134069
  O         9.4010848422        1.3678297586        3.5356518117
  O        -0.8049452016       10.2002934351        3.4493650477
  O         1.7243553419        5.7885063164        3.5025454887
  O         4.2975585079        1.3467362185        3.4941041479
 Fe         5.0392973849       11.8068485070        4.4153264593
 Fe         7.6046184954        7.4086737840        4.3893259338
 Fe        10.1479993087        2.9745193317        4.4309456320
 Fe        -0.1086494574       11.8126833074        4.4104875169
 Fe         2.4791481036        7.4167881946        4.3959838535
 Fe         5.0474897579        2.9547478608        4.4263937580
 Fe        -5.2267164343       11.8247764483        4.4093359237
 Fe        -2.6439750837        7.4195894514        4.4115374334
 Fe        -0.0919876080        2.9394467766        4.4255021149
 Fe         7.6093365961       13.1859650713        4.8227691340
 Fe        10.1784074441        8.7445639530        4.8351459866
 Fe        12.7373418825        4.3026960226        4.8237024611
 Fe         2.4853863632       13.1810006729        4.8200285203
 Fe         5.0497665333        8.7452681059        4.8242145314
 Fe         7.6019145813        4.3047703044        4.8399534443
 Fe        -2.6471996374       13.1881602386        4.8075160267
 Fe        -0.0776713175        8.7410743944        4.8345677171
 Fe         2.4768713046        4.3031726276        4.8155573696
  O         5.8552829691       10.3503931855        5.8852152640
  O         8.4244497086        5.9158739375        5.8780368179
  O        10.9787989081        1.4680080255        5.8714093134
  O         0.7261515311       10.3510862663        5.8817569333
  O         3.2680580734        5.9189468708        5.8424952346
  O         5.8598606306        1.4697906049        5.8825964385
  O        -4.3997263321       10.3523758526        5.8841421838
  O        -1.8373227381        5.9072464195        5.8706170116
  O         0.7286032817        1.4677927830        5.8763986373
  O         5.9177364164       13.1701300608        5.6861712149
  O         8.4958180506        8.7253594913        5.7052458879
  O        11.0531645760        4.2945848350        5.6966777399
  O         0.7865554561       13.1579969040        5.6611927556
  O         3.3647962124        8.7306457830        5.6993349737
  O         5.9337507608        4.3122164313        5.7450579544
  O        -4.3312403657       13.1742243013        5.6786572651
  O        -1.7627701485        8.7382709978        5.7029585800
  O         0.7918869255        4.2855119762        5.6862356011
  O         3.4705700718       11.7798830035        5.6797759232
  O         6.0600818122        7.3309327144        5.6570432057
  O         8.5852170894        2.8935333834        5.7188818307
  O        -1.6644394579       11.7839316170        5.6737555980
  O         0.9169116872        7.3313566047        5.6790021502
  O         3.4730806170        2.8916868350        5.6650969840
  O        -6.7858113965       11.7787673838        5.6784719536
  O        -4.2135187612        7.3306568935        5.6836167110
  O        -1.6596381091        2.8924438413        5.6754229059
 Fe         7.7851325363       10.2718408412        6.4365795917
 Fe        10.3484111418        5.8279722863        6.4403631873
 Fe        12.9068234462        1.3914407485        6.4350598132
 Fe         2.6565551591       10.2725203042        6.4378168668
 Fe         5.1898332604        5.8673481330        6.4392361852
 Fe         7.7837933238        1.3602013540        6.4263100936
 Fe        -2.4717144601       10.2798613071        6.4364903929
 Fe         0.0928490398        5.8255674157        6.4369594737
 Fe         2.6570677261        1.3901773260        6.4349714947
  O         7.8477191198       10.3919901978        8.2633466523
  H         7.8613144854        9.5700199216        8.7862365008
  H         5.3503520833       10.6124859272        6.6885423633
  O        10.3669165308        5.9000674136        8.2790271420
  H        10.6339412012        5.1029649557        8.7684314354
  H         7.9172733212        6.2650462844        6.6450967797
  O        12.9457700757        1.5131504188        8.2644233173
  H        13.0061762009        0.6908961808        8.7840161367
  H        10.4755613027        1.7185188917        6.6780105533
  O         2.6953163702       10.3821119299        8.2662542549
  H         2.7918494447        9.5557757086        8.7749643037
  H         0.2253598780       10.6141135057        6.6867646599
  O         4.9723141744        6.3226645639        8.1837170614
  H         4.9147207514        5.7614525665        8.9817612616
  H         2.8079743235        6.1881026197        6.6718393312
  O         7.9099734712        1.2256719342        8.2611005313
  H         7.9675877245        0.3283130966        8.6374712448
  H         5.3396539260        1.7318582736        6.6754791579
  O        -2.4056213750       10.3924548622        8.2635407514
  H        -2.3582008777        9.5696270324        8.7830214027
  H        -4.9020192601       10.6283255605        6.6845579508
  O         0.1048461726        5.9390471257        8.2653184453
  H         0.2145705782        5.1305337497        8.7979394007
  H        -2.3395104058        6.1761620075        6.6723631714
  O         2.7116384754        1.4991721098        8.2599764303
  H         2.7640147593        0.6819255010        8.7875955902
  H         0.2257646899        1.7419629833        6.6764735639
  C         7.3845190510        4.0121167402        9.2252285510
  C         6.3255205876        4.3953118911       10.1302208257
  H         7.4201051882        2.9158218627        9.1005366929
  H         7.1730895678        4.4574165676        8.2411750640
  H         8.3620302939        4.3730949261        9.5667849048
  N         5.4686250209        4.7064239453       10.8662981747
     168
 i =        3, E =     -8144.3585564810
 Fe         5.0938794100       11.8196869300        0.3885799900
 Fe         7.6575796300        7.3792284900        0.3885799900
 Fe        10.2212798400        2.9387700600        0.3885799900
 Fe        -0.0335205200       11.8196869300        0.3885799900
 Fe         2.5301797000        7.3792284900        0.3885799900
 Fe         5.0938799200        2.9387700600        0.3885799900
 Fe        -5.1609204400       11.8196869300        0.3885799900
 Fe        -2.5972202200        7.3792284900        0.3885799900
 Fe        -0.0335200000        2.9387700600        0.3885799900
  O         8.4519195100        8.9577468800        1.1642700400
  O        11.0156197300        4.5172884400        1.1642700400
  O        13.5793199500        0.0768300000        1.1642700400
  O         3.3245195900        8.9577468800        1.1642700400
  O         5.8882198100        4.5172884400        1.1642700400
  O         8.4519200300        0.0768300000        1.1642700400
  O        -1.8028803300        8.9577468800        1.1642700400
  O         0.7608198900        4.5172884400        1.1642700400
  O         3.3245201100        0.0768300000        1.1642700400
  O         8.4568493000       11.7183869300        1.1650400200
  O        11.0205495200        7.2779284900        1.1650400200
  O        13.5842497300        2.8374700500        1.1650400200
  O         3.3294493700       11.7183869300        1.1650400200
  O         5.8931495900        7.2779284900        1.1650400200
  O         8.4568498100        2.8374700500        1.1650400200
  O        -1.7979505500       11.7183869300        1.1650400200
  O         0.7657496700        7.2779284900        1.1650400200
  O         3.3294498900        2.8374700500        1.1650400200
  O         6.0627194200       10.3425368500        1.1660399400
  O         8.6264196400        5.9020784100        1.1660399400
  O        11.1901198600        1.4616199700        1.1660399400
  O         0.9353195000       10.3425368500        1.1660399400
  O         3.4990197200        5.9020784100        1.1660399400
  O         6.0627199400        1.4616199700        1.1660399400
  O        -4.1920804200       10.3425368500        1.1660399400
  O        -1.6283802000        5.9020784100        1.1660399400
  O         0.9353200200        1.4616199700        1.1660399400
 Fe         7.6576695000       13.2997167500        1.9292099500
 Fe        10.2213697200        8.8592583200        1.9292099500
 Fe        12.7850699400        4.4187998800        1.9292099500
 Fe         2.5302695800       13.2997167500        1.9292099500
 Fe         5.0939698000        8.8592583200        1.9292099500
 Fe         7.6576700200        4.4187998800        1.9292099500
 Fe        -2.5971303400       13.2997167500        1.9292099500
 Fe        -0.0334301200        8.8592583200        1.9292099500
 Fe         2.5302701000        4.4187998800        1.9292099500
 Fe         7.6573893600       10.3392168700        2.7128999200
 Fe        10.2210895800        5.8987584300        2.7128999200
 Fe        12.7847898000        1.4582999900        2.7128999200
 Fe         2.5299894400       10.3392168700        2.7128999200
 Fe         5.0936896600        5.8987584300        2.7128999200
 Fe         7.6573898800        1.4582999900        2.7128999200
 Fe        -2.5974104800       10.3392168700        2.7128999200
 Fe        -0.0337102600        5.8987584300        2.7128999200
 Fe         2.5299899600        1.4582999900        2.7128999200
  O         4.1161772602       13.3247546509        3.5537018145
  O         6.6362778206        8.8663829239        3.4725656332
  O         9.2357552921        4.4410781576        3.5571949349
  O        -1.0353821148       13.3146062798        3.5128148272
  O         1.5073738829        8.8670280341        3.4839982639
  O         4.1016780954        4.4388546210        3.5240520737
  O        -6.1501758412       13.3181097198        3.5346938766
  O        -3.6142378784        8.8684152142        3.4902932433
  O        -1.0297035015        4.4401852839        3.5300851167
  O         6.8171983328       11.8580823296        3.5210605947
  O         9.3860549814        7.4564707495        3.4709989805
  O        11.9359729559        2.9795336223        3.5159372519
  O         1.6865957230       11.8439638104        3.5354140671
  O         4.2566153343        7.4600993734        3.4635932087
  O         6.8160473833        2.9693215853        3.5516704704
  O        -3.4418884131       11.8715475583        3.4953645730
  O        -0.8763910476        7.4556354289        3.4721464511
  O         1.6867977775        2.9872371583        3.4989067981
  O         9.4402682641       10.2089180066        3.4679613786
  O        11.9821641833        5.7894825006        3.5069157496
  O        14.5452579117        1.3487014851        3.5078085995
  O         4.3206138998       10.2064529599        3.4555196182
  O         6.8511196530        5.7855140108        3.5204354089
  O         9.4009460320        1.3629716866        3.5332638415
  O        -0.8149188798       10.2069624260        3.4637953650
  O         1.7341204453        5.7833676398        3.4856239068
  O         4.3016356006        1.3470702715        3.4892666763
 Fe         5.0372107995       11.8163249783        4.4238884220
 Fe         7.6105330584        7.4147750589        4.4034003139
 Fe        10.1646969286        2.9540754942        4.4404922395
 Fe        -0.1038545400       11.8181786061        4.4139266323
 Fe         2.4742902467        7.4035298195        4.4061540680
 Fe         5.0288828481        2.9612000912        4.4293866176
 Fe        -5.2185058261       11.8212413210        4.4183765219
 Fe        -2.6503437605        7.4060442008        4.4134532135
 Fe        -0.0880752975        2.9563253740        4.4243954231
 Fe         7.6091148860       13.1847518072        4.8295571589
 Fe        10.1786306504        8.7448682323        4.8273899080
 Fe        12.7379769803        4.3033127656        4.8231363084
 Fe         2.4866719323       13.1822931983        4.8255716174
 Fe         5.0505647444        8.7455418934        4.8127160248
 Fe         7.6004605427        4.3067476930        4.8596702525
 Fe        -2.6480720081       13.1873165309        4.8063580106
 Fe        -0.0776013009        8.7426190447        4.8269061020
 Fe         2.4783980806        4.3046569828        4.8112832885
  O         5.8549470593       10.3456783821        5.8806282296
  O         8.4285464503        5.9184123105        5.8761434803
  O        10.9791504042        1.4645131495        5.8762802959
  O         0.7259341957       10.3478397189        5.8805698253
  O         3.2732853004        5.9145867620        5.8428208445
  O         5.8594753370        1.4705056783        5.8815804223
  O        -4.3998220028       10.3474334367        5.8822959933
  O        -1.8336941390        5.9083501607        5.8718755708
  O         0.7271393270        1.4673412483        5.8754609224
  O         5.9217341314       13.1715234393        5.6919312949
  O         8.4981744848        8.7350240816        5.6984061890
  O        11.0509430046        4.2962673929        5.6973322620
  O         0.7884309026       13.1585857409        5.6670493888
  O         3.3660837774        8.7368025237        5.6837720386
  O         5.9277069310        4.3118091611        5.7468701831
  O        -4.3300376800       13.1751727416        5.6813047966
  O        -1.7653917736        8.7398237268        5.6907728538
  O         0.7997881874        4.2882928365        5.6919419050
  O         3.4676942823       11.7725972916        5.6767296321
  O         6.0532661497        7.3327843025        5.6491861159
  O         8.5880976758        2.8933716812        5.7182696635
  O        -1.6648435402       11.7788452986        5.6700331489
  O         0.9075208413        7.3352217827        5.6763868532
  O         3.4674404705        2.8938802633        5.6717286076
  O        -6.7856764660       11.7725018630        5.6734190965
  O        -4.2191496714        7.3367788432        5.6838972127
  O        -1.6580842192        2.8901707398        5.6753156356
 Fe         7.7828850862       10.2726263194        6.4372822555
 Fe        10.3484185875        5.8317778390        6.4394705467
 Fe        12.9042938440        1.3901656323        6.4334694097
 Fe         2.6553195506       10.2692871708        6.4384692832
 Fe         5.1911785852        5.8690851605        6.4381741083
 Fe         7.7849113709        1.3617288564        6.4269759965
 Fe        -2.4731194655       10.2773985368        6.4373095689
 Fe         0.0948635170        5.8264825378        6.4358277603
 Fe         2.6551966520        1.3895291814        6.4345484957
  O         7.8476316998       10.3914772584        8.2627456083
  H         7.8611914681        9.5703548321        8.7867384311
  H         5.3527653561       10.6123120238        6.6845237607
  O        10.3669894484        5.8996539966        8.2780307053
  H        10.6360378148        5.1029339807        8.7678983813
  H         7.9179043666        6.2647914407        6.6412653024
  O        12.9457621189        1.5121104672        8.2622223405
  H        13.0058245309        0.6916040702        8.7843129957
  H        10.4747328269        1.7194262223        6.6796899529
  O         2.6956958815       10.3822088862        8.2658462571
  H         2.7918230302        9.5560158185        8.7745716800
  H         0.2256905459       10.6134363539        6.6851786122
  O         4.9714150111        6.3207688864        8.1823098429
  H         4.9132424833        5.7622681650        8.9818023892
  H         2.8080433842        6.1903916538        6.6665331831
  O         7.9096619477        1.2253205269        8.2615223308
  H         7.9681576458        0.3278862897        8.6377153081
  H         5.3396945977        1.7320217377        6.6751799999
  O        -2.4054422822       10.3930244408        8.2639516008
  H        -2.3579068227        9.5698525315        8.7829288088
  H        -4.9012066773       10.6279985821        6.6815314373
  O         0.1050094491        5.9388177811        8.2633206879
  H         0.2144423849        5.1311943355        8.7971108786
  H        -2.3388607319        6.1781343251        6.6713927251
  O         2.7119732776        1.4990372441        8.2590382027
  H         2.7640556087        0.6824230781        8.7875319227
  H         0.2261783323        1.7416625912        6.6764940832
  C         7.3799143100        4.0139765346        9.2224470506
  C         6.3339011970        4.3934936163       10.1436131623
  H         7.4244411259        2.9171186195        9.1027668515
  H         7.1771724854        4.4557595485        8.2357551562
  H         8.3568758759        4.3758709424        9.5674944164
  N         5.4652559129        4.7065669767       10.8625382869
     168
 i =        4, E =     -8144.3648233164
 Fe         5.0938794100       11.8196869300        0.3885799900
 Fe         7.6575796300        7.3792284900        0.3885799900
 Fe        10.2212798400        2.9387700600        0.3885799900
 Fe        -0.0335205200       11.8196869300        0.3885799900
 Fe         2.5301797000        7.3792284900        0.3885799900
 Fe         5.0938799200        2.9387700600        0.3885799900
 Fe        -5.1609204400       11.8196869300        0.3885799900
 Fe        -2.5972202200        7.3792284900        0.3885799900
 Fe        -0.0335200000        2.9387700600        0.3885799900
  O         8.4519195100        8.9577468800        1.1642700400
  O        11.0156197300        4.5172884400        1.1642700400
  O        13.5793199500        0.0768300000        1.1642700400
  O         3.3245195900        8.9577468800        1.1642700400
  O         5.8882198100        4.5172884400        1.1642700400
  O         8.4519200300        0.0768300000        1.1642700400
  O        -1.8028803300        8.9577468800        1.1642700400
  O         0.7608198900        4.5172884400        1.1642700400
  O         3.3245201100        0.0768300000        1.1642700400
  O         8.4568493000       11.7183869300        1.1650400200
  O        11.0205495200        7.2779284900        1.1650400200
  O        13.5842497300        2.8374700500        1.1650400200
  O         3.3294493700       11.7183869300        1.1650400200
  O         5.8931495900        7.2779284900        1.1650400200
  O         8.4568498100        2.8374700500        1.1650400200
  O        -1.7979505500       11.7183869300        1.1650400200
  O         0.7657496700        7.2779284900        1.1650400200
  O         3.3294498900        2.8374700500        1.1650400200
  O         6.0627194200       10.3425368500        1.1660399400
  O         8.6264196400        5.9020784100        1.1660399400
  O        11.1901198600        1.4616199700        1.1660399400
  O         0.9353195000       10.3425368500        1.1660399400
  O         3.4990197200        5.9020784100        1.1660399400
  O         6.0627199400        1.4616199700        1.1660399400
  O        -4.1920804200       10.3425368500        1.1660399400
  O        -1.6283802000        5.9020784100        1.1660399400
  O         0.9353200200        1.4616199700        1.1660399400
 Fe         7.6576695000       13.2997167500        1.9292099500
 Fe        10.2213697200        8.8592583200        1.9292099500
 Fe        12.7850699400        4.4187998800        1.9292099500
 Fe         2.5302695800       13.2997167500        1.9292099500
 Fe         5.0939698000        8.8592583200        1.9292099500
 Fe         7.6576700200        4.4187998800        1.9292099500
 Fe        -2.5971303400       13.2997167500        1.9292099500
 Fe        -0.0334301200        8.8592583200        1.9292099500
 Fe         2.5302701000        4.4187998800        1.9292099500
 Fe         7.6573893600       10.3392168700        2.7128999200
 Fe        10.2210895800        5.8987584300        2.7128999200
 Fe        12.7847898000        1.4582999900        2.7128999200
 Fe         2.5299894400       10.3392168700        2.7128999200
 Fe         5.0936896600        5.8987584300        2.7128999200
 Fe         7.6573898800        1.4582999900        2.7128999200
 Fe        -2.5974104800       10.3392168700        2.7128999200
 Fe        -0.0337102600        5.8987584300        2.7128999200
 Fe         2.5299899600        1.4582999900        2.7128999200
  O         4.0959962907       13.3165307799        3.5249023218
  O         6.6702466444        8.8761064554        3.5156886991
  O         9.2242807278        4.4403164719        3.5422057542
  O        -1.0368564622       13.3080550588        3.5054942088
  O         1.5360164395        8.8692959514        3.5180008542
  O         4.0856040148        4.4312812098        3.4955089418
  O        -6.1587669860       13.3189031828        3.5241445104
  O        -3.5877833643        8.8766057920        3.5282321223
  O        -1.0536430181        4.4277719243        3.4859645639
  O         6.8177924753       11.8611683208        3.5147701365
  O         9.3777766668        7.4314086199        3.5006830196
  O        11.9383636104        3.0071277145        3.4787012874
  O         1.6899102905       11.8602805237        3.5111855686
  O         4.2432707142        7.4287983189        3.4950477813
  O         6.8144343569        2.9826844494        3.5326406823
  O        -3.4391891340       11.8710977578        3.4955003199
  O        -0.8807455935        7.4297163235        3.5005366143
  O         1.6880785450        3.0059883143        3.4757911675
  O         9.4215499699       10.2258078908        3.5009210879
  O        12.0038007084        5.7726800776        3.4629929014
  O        14.5534534218        1.3479683276        3.4977575891
  O         4.2939208888       10.2296563967        3.4985963758
  O         6.8607340626        5.7741063736        3.4976633252
  O         9.4190821952        1.3534774521        3.5075443508
  O        -0.8343733419       10.2249251694        3.4954022299
  O         1.7480970398        5.7765145500        3.4612159548
  O         4.3052006423        1.3491768741        3.4862398596
 Fe         5.0424551772       11.8383976502        4.4265742822
 Fe         7.6030862519        7.3907382244        4.4148821394
 Fe        10.1659815140        2.9561280943        4.4274512098
 Fe        -0.0908113462       11.8288048983        4.4206480709
 Fe         2.4667510073        7.3836944321        4.4281779839
 Fe         5.0300410458        2.9698383221        4.4233211981
 Fe        -5.2147305152       11.8378500371        4.4211930371
 Fe        -2.6575672128        7.3817415324        4.4186552418
 Fe        -0.0910366616        2.9655683762        4.4126071859
 Fe         7.6106785484       13.1833275207        4.8307559577
 Fe        10.1763303174        8.7447753704        4.8244329084
 Fe        12.7376751876        4.3059297004        4.8109347698
 Fe         2.4872195257       13.1784580713        4.8281626151
 Fe         5.0479030889        8.7460183424        4.7974510017
 Fe         7.6002559811        4.3050323649        4.8578116906
 Fe        -2.6462687331       13.1870304653        4.8074438232
 Fe        -0.0822210448        8.7446137461        4.8185006626
 Fe         2.4797140182        4.3059716183        4.8041399139
  O         5.8534593788       10.3402095016        5.8745254690
  O         8.4305277323        5.9210740127        5.8774689625
  O        10.9782634150        1.4653206158        5.8815352434
  O         0.7247595389       10.3412085317        5.8791150245
  O         3.2783518648        5.9092958814        5.8417196337
  O         5.8551776293        1.4698514510        5.8829139110
  O        -4.4002209369       10.3477474235        5.8801270763
  O        -1.8312449016        5.9079272691        5.8714759580
  O         0.7267080880        1.4697893541        5.8763301942
  O         5.9291538507       13.1709365728        5.7033553466
  O         8.4893432343        8.7349343828        5.6846258406
  O        11.0560922794        4.2926280750        5.7015855726
  O         0.7938688282       13.1599895677        5.6784734139
  O         3.3665907014        8.7394181216        5.6696161448
  O         5.9273099298        4.3143953710        5.7520659695
  O        -4.3237570824       13.1731924287        5.6918310014
  O        -1.7698263698        8.7336340797        5.6831421658
  O         0.8015165622        4.2921990749        5.6897606954
  O         3.4726654323       11.7644394846        5.6755986325
  O         6.0433573284        7.3417903847        5.6480611683
  O         8.5935737789        2.8959778778        5.7254055101
  O        -1.6618557831       11.7736297649        5.6671602354
  O         0.8929138509        7.3380298015        5.6721583259
  O         3.4686564903        2.8971368732        5.6721640686
  O        -6.7807648345       11.7678778150        5.6747615603
  O        -4.2247893698        7.3396765536        5.6833479681
  O        -1.6580895053        2.8969903438        5.6760500020
 Fe         7.7813256498       10.2710345552        6.4369659014
 Fe        10.3494205171        5.8313594702        6.4379937818
 Fe        12.9102273169        1.3914455520        6.4346625203
 Fe         2.6539623037       10.2638252969        6.4369936837
 Fe         5.1921341413        5.8742576031        6.4370417423
 Fe         7.7818778456        1.3639624181        6.4292671580
 Fe        -2.4707544682       10.2727854455        6.4368749919
 Fe         0.0946919021        5.8283200765        6.4374716488
 Fe         2.6562778587        1.3897849786        6.4338631745
  O         7.8475314107       10.3912471860        8.2629482715
  H         7.8612447108        9.5703255855        8.7874721165
  H         5.3529077646       10.6094117530        6.6783208844
  O        10.3673642658        5.9012711377        8.2765197746
  H        10.6361408393        5.1031542669        8.7667150880
  H         7.9176275362        6.2666438821        6.6410731127
  O        12.9454994413        1.5118409434        8.2636525975
  H        13.0058224370        0.6910282516        8.7850587146
  H        10.4734396726        1.7210871811        6.6859856459
  O         2.6959073285       10.3803540596        8.2641140932
  H         2.7916076245        9.5561693982        8.7759339609
  H         0.2256273350       10.6113351914        6.6829258086
  O         4.9708514265        6.3229250046        8.1817868325
  H         4.9149093559        5.7610647645        8.9778823136
  H         2.8103679481        6.1944533850        6.6599007320
  O         7.9100943178        1.2265694277        8.2635440548
  H         7.9679107296        0.3277583599        8.6371103959
  H         5.3386287964        1.7316907611        6.6778632007
  O        -2.4057724187       10.3931787864        8.2640786236
  H        -2.3578214170        9.5698947414        8.7831171514
  H        -4.9028282933       10.6259881525        6.6796652906
  O         0.1054939101        5.9403160690        8.2634933784
  H         0.2145013343        5.1315762424        8.7954134266
  H        -2.3362267019        6.1800463455        6.6705099512
  O         2.7121746012        1.4983297769        8.2590786323
  H         2.7640297580        0.6821967802        8.7885884342
  H         0.2238961920        1.7411887471        6.6772129164
  C         7.3758530640        4.0142703049        9.2207585876
  C         6.3380444392        4.3926677161       10.1533471739
  H         7.4271008487        2.9170520778        9.1004643037
  H         7.1806967832        4.4544698113        8.2319580990
  H         8.3536410682        4.3758726352        9.5671326437
  N         5.4627992251        4.7086795441       10.8599314493
     168
 i =        5, E =     -8144.3669388210
 Fe         5.0938794100       11.8196869300        0.3885799900
 Fe         7.6575796300        7.3792284900        0.3885799900
 Fe        10.2212798400        2.9387700600        0.3885799900
 Fe        -0.0335205200       11.8196869300        0.3885799900
 Fe         2.5301797000        7.3792284900        0.3885799900
 Fe         5.0938799200        2.9387700600        0.3885799900
 Fe        -5.1609204400       11.8196869300        0.3885799900
 Fe        -2.5972202200        7.3792284900        0.3885799900
 Fe        -0.0335200000        2.9387700600        0.3885799900
  O         8.4519195100        8.9577468800        1.1642700400
  O        11.0156197300        4.5172884400        1.1642700400
  O        13.5793199500        0.0768300000        1.1642700400
  O         3.3245195900        8.9577468800        1.1642700400
  O         5.8882198100        4.5172884400        1.1642700400
  O         8.4519200300        0.0768300000        1.1642700400
  O        -1.8028803300        8.9577468800        1.1642700400
  O         0.7608198900        4.5172884400        1.1642700400
  O         3.3245201100        0.0768300000        1.1642700400
  O         8.4568493000       11.7183869300        1.1650400200
  O        11.0205495200        7.2779284900        1.1650400200
  O        13.5842497300        2.8374700500        1.1650400200
  O         3.3294493700       11.7183869300        1.1650400200
  O         5.8931495900        7.2779284900        1.1650400200
  O         8.4568498100        2.8374700500        1.1650400200
  O        -1.7979505500       11.7183869300        1.1650400200
  O         0.7657496700        7.2779284900        1.1650400200
  O         3.3294498900        2.8374700500        1.1650400200
  O         6.0627194200       10.3425368500        1.1660399400
  O         8.6264196400        5.9020784100        1.1660399400
  O        11.1901198600        1.4616199700        1.1660399400
  O         0.9353195000       10.3425368500        1.1660399400
  O         3.4990197200        5.9020784100        1.1660399400
  O         6.0627199400        1.4616199700        1.1660399400
  O        -4.1920804200       10.3425368500        1.1660399400
  O        -1.6283802000        5.9020784100        1.1660399400
  O         0.9353200200        1.4616199700        1.1660399400
 Fe         7.6576695000       13.2997167500        1.9292099500
 Fe        10.2213697200        8.8592583200        1.9292099500
 Fe        12.7850699400        4.4187998800        1.9292099500
 Fe         2.5302695800       13.2997167500        1.9292099500
 Fe         5.0939698000        8.8592583200        1.9292099500
 Fe         7.6576700200        4.4187998800        1.9292099500
 Fe        -2.5971303400       13.2997167500        1.9292099500
 Fe        -0.0334301200        8.8592583200        1.9292099500
 Fe         2.5302701000        4.4187998800        1.9292099500
 Fe         7.6573893600       10.3392168700        2.7128999200
 Fe        10.2210895800        5.8987584300        2.7128999200
 Fe        12.7847898000        1.4582999900        2.7128999200
 Fe         2.5299894400       10.3392168700        2.7128999200
 Fe         5.0936896600        5.8987584300        2.7128999200
 Fe         7.6573898800        1.4582999900        2.7128999200
 Fe        -2.5974104800       10.3392168700        2.7128999200
 Fe        -0.0337102600        5.8987584300        2.7128999200
 Fe         2.5299899600        1.4582999900        2.7128999200
  O         4.0957865250       13.3173157732        3.5248974741
  O         6.6549571832        8.8721461791        3.4978822767
  O         9.2203866465        4.4381040693        3.5336296836
  O        -1.0317979720       13.3120371049        3.5148410043
  O         1.5223611150        8.8702355417        3.5024344947
  O         4.0948553037        4.4328946775        3.5087998193
  O        -6.1617220845       13.3169273194        3.5182071730
  O        -3.6005654452        8.8723347581        3.5100310891
  O        -1.0469136181        4.4279797007        3.4926022402
  O         6.8174838404       11.8681110236        3.5072390863
  O         9.3812323860        7.4402832026        3.4880511679
  O        11.9367995966        3.0020664595        3.4830294960
  O         1.6892561257       11.8629121154        3.5083902126
  O         4.2498025300        7.4401367723        3.4813253197
  O         6.8152605439        2.9865009686        3.5267820273
  O        -3.4420172818       11.8683379724        3.5003511595
  O        -0.8783870175        7.4372147445        3.4877511699
  O         1.6852066086        2.9982023942        3.4855317004
  O         9.4315784194       10.2212802293        3.4834270129
  O        11.9991936123        5.7769749330        3.4725771983
  O        14.5546331258        1.3434093634        3.4923257135
  O         4.3064940876       10.2231697615        3.4778198200
  O         6.8624573781        5.7721866449        3.4951642896
  O         9.4194637212        1.3521575479        3.5062043293
  O        -0.8246513863       10.2195713500        3.4789933858
  O         1.7398015534        5.7779658345        3.4747569980
  O         4.2998134789        1.3493605178        3.4937492210
 Fe         5.0408720243       11.8334184762        4.4213787867
 Fe         7.6036574039        7.3965882578        4.4058146213
 Fe        10.1620338697        2.9572788585        4.4250636733
 Fe        -0.0915126026       11.8232468410        4.4179890472
 Fe         2.4697173728        7.3943191439        4.4140825580
 Fe         5.0349878987        2.9652495983        4.4267432152
 Fe        -5.2198806240       11.8345322490        4.4194899697
 Fe        -2.6544183061        7.3917443763        4.4137114485
 Fe        -0.0941455070        2.9586111676        4.4161035231
 Fe         7.6108805640       13.1847321995        4.8296091172
 Fe        10.1753700996        8.7455527182        4.8205621250
 Fe        12.7380054293        4.3052872737        4.8052552615
 Fe         2.4871419253       13.1786701147        4.8277246986
 Fe         5.0462213003        8.7471183657        4.7985043868
 Fe         7.6017165728        4.3039263429        4.8543078726
 Fe        -2.6458157854       13.1868872194        4.8088364006
 Fe        -0.0823571226        8.7434532527        4.8137381532
 Fe         2.4792471783        4.3049448459        4.8039913935
  O         5.8550592964       10.3424856788        5.8742751902
  O         8.4279016113        5.9212219522        5.8772597431
  O        10.9791887103        1.4658931357        5.8801305070
  O         0.7251791569       10.3410534934        5.8780702549
  O         3.2750912277        5.9133515059        5.8375917722
  O         5.8568784250        1.4697443184        5.8832625608
  O        -4.3997717046       10.3479352343        5.8790925301
  O        -1.8340283632        5.9071436510        5.8682512181
  O         0.7285578815        1.4696202820        5.8765027052
  O         5.9272913959       13.1713294446        5.6994157652
  O         8.4896546458        8.7313832718        5.6871915694
  O        11.0579404977        4.2942497177        5.6964738483
  O         0.7923303884       13.1597531112        5.6755091683
  O         3.3643081285        8.7353530683        5.6741744045
  O         5.9289315618        4.3163283699        5.7497666935
  O        -4.3262429909       13.1742333118        5.6872474974
  O        -1.7673604319        8.7342067566        5.6852576800
  O         0.7983736418        4.2937441354        5.6842891333
  O         3.4731879306       11.7671095249        5.6766033654
  O         6.0459139300        7.3391734245        5.6462766290
  O         8.5927536053        2.8957637355        5.7251960003
  O        -1.6606389852       11.7745534782        5.6670659286
  O         0.8984254861        7.3353356022        5.6680731333
  O         3.4682754558        2.8960212304        5.6681679356
  O        -6.7824735657       11.7708662297        5.6762369495
  O        -4.2237358625        7.3357942875        5.6783142564
  O        -1.6620740755        2.8976790460        5.6736021497
 Fe         7.7827613832       10.2702770772        6.4351641511
 Fe        10.3487937377        5.8298503361        6.4389772849
 Fe        12.9107015673        1.3918531839        6.4353509337
 Fe         2.6551209788       10.2641117399        6.4354597891
 Fe         5.1903102550        5.8742533484        6.4388175155
 Fe         7.7820569785        1.3637040353        6.4289407355
 Fe        -2.4707973210       10.2733984146        6.4345027631
 Fe         0.0935339483        5.8291290614        6.4375508713
 Fe         2.6572938513        1.3903604728        6.4341615230
  O         7.8471016380       10.3907193398        8.2616886930
  H         7.8608290441        9.5709391369        8.7880252259
  H         5.3516465892       10.6082070471        6.6772374724
  O        10.3676442841        5.9009366064        8.2777618576
  H        10.6395294731        5.1028303600        8.7656367418
  H         7.9180926703        6.2673998017        6.6428739338
  O        12.9452401373        1.5126160076        8.2641139438
  H        13.0054994815        0.6913907672        8.7849417845
  H        10.4743789605        1.7215972460        6.6848926085
  O         2.6958392956       10.3796856485        8.2630126374
  H         2.7919529862        9.5563660410        8.7762118624
  H         0.2248113995       10.6099824691        6.6815359737
  O         4.9692926124        6.3225329241        8.1833844666
  H         4.9119563936        5.7612503114        8.9801229607
  H         2.8107949762        6.1925001594        6.6603199310
  O         7.9095520510        1.2263114078        8.2633516814
  H         7.9687566236        0.3276196221        8.6368999198
  H         5.3381328661        1.7310124846        6.6769538480
  O        -2.4050258552       10.3922606148        8.2620391576
  H        -2.3574093176        9.5706269710        8.7836959780
  H        -4.9032173003       10.6256019278        6.6780580515
  O         0.1055176878        5.9408501798        8.2640094577
  H         0.2146414540        5.1316626863        8.7954186441
  H        -2.3348211654        6.1803596895        6.6698191275
  O         2.7118620765        1.4989214238        8.2589972198
  H         2.7643828611        0.6827264271        8.7882458943
  H         0.2245681893        1.7422890914        6.6762735195
  C         7.3808412953        4.0149443377        9.2246770243
  C         6.3335798956        4.3935059172       10.1462168360
  H         7.4308380429        2.9178848834        9.1050628215
  H         7.1770655160        4.4527205052        8.2360647079
  H         8.3574612370        4.3820859806        9.5668047670
  N         5.4644482161        4.7067229732       10.8628078859
     168
 i =        6, E =     -8144.3261729439
 Fe         5.0938794100       11.8196869300        0.3885799900
 Fe         7.6575796300        7.3792284900        0.3885799900
 Fe        10.2212798400        2.9387700600        0.3885799900
 Fe        -0.0335205200       11.8196869300        0.3885799900
 Fe         2.5301797000        7.3792284900        0.3885799900
 Fe         5.0938799200        2.9387700600        0.3885799900
 Fe        -5.1609204400       11.8196869300        0.3885799900
 Fe        -2.5972202200        7.3792284900        0.3885799900
 Fe        -0.0335200000        2.9387700600        0.3885799900
  O         8.4519195100        8.9577468800        1.1642700400
  O        11.0156197300        4.5172884400        1.1642700400
  O        13.5793199500        0.0768300000        1.1642700400
  O         3.3245195900        8.9577468800        1.1642700400
  O         5.8882198100        4.5172884400        1.1642700400
  O         8.4519200300        0.0768300000        1.1642700400
  O        -1.8028803300        8.9577468800        1.1642700400
  O         0.7608198900        4.5172884400        1.1642700400
  O         3.3245201100        0.0768300000        1.1642700400
  O         8.4568493000       11.7183869300        1.1650400200
  O        11.0205495200        7.2779284900        1.1650400200
  O        13.5842497300        2.8374700500        1.1650400200
  O         3.3294493700       11.7183869300        1.1650400200
  O         5.8931495900        7.2779284900        1.1650400200
  O         8.4568498100        2.8374700500        1.1650400200
  O        -1.7979505500       11.7183869300        1.1650400200
  O         0.7657496700        7.2779284900        1.1650400200
  O         3.3294498900        2.8374700500        1.1650400200
  O         6.0627194200       10.3425368500        1.1660399400
  O         8.6264196400        5.9020784100        1.1660399400
  O        11.1901198600        1.4616199700        1.1660399400
  O         0.9353195000       10.3425368500        1.1660399400
  O         3.4990197200        5.9020784100        1.1660399400
  O         6.0627199400        1.4616199700        1.1660399400
  O        -4.1920804200       10.3425368500        1.1660399400
  O        -1.6283802000        5.9020784100        1.1660399400
  O         0.9353200200        1.4616199700        1.1660399400
 Fe         7.6576695000       13.2997167500        1.9292099500
 Fe        10.2213697200        8.8592583200        1.9292099500
 Fe        12.7850699400        4.4187998800        1.9292099500
 Fe         2.5302695800       13.2997167500        1.9292099500
 Fe         5.0939698000        8.8592583200        1.9292099500
 Fe         7.6576700200        4.4187998800        1.9292099500
 Fe        -2.5971303400       13.2997167500        1.9292099500
 Fe        -0.0334301200        8.8592583200        1.9292099500
 Fe         2.5302701000        4.4187998800        1.9292099500
 Fe         7.6573893600       10.3392168700        2.7128999200
 Fe        10.2210895800        5.8987584300        2.7128999200
 Fe        12.7847898000        1.4582999900        2.7128999200
 Fe         2.5299894400       10.3392168700        2.7128999200
 Fe         5.0936896600        5.8987584300        2.7128999200
 Fe         7.6573898800        1.4582999900        2.7128999200
 Fe        -2.5974104800       10.3392168700        2.7128999200
 Fe        -0.0337102600        5.8987584300        2.7128999200
 Fe         2.5299899600        1.4582999900        2.7128999200
  O         4.0893060983       13.3239854323        3.5181868352
  O         6.6214201455        8.8741055964        3.4901147096
  O         9.1908461776        4.4213318336        3.4725294042
  O        -1.0059091377       13.3376481872        3.5655776833
  O         1.4815817769        8.8972978689        3.4805934105
  O         4.1793216252        4.4531624541        3.6382483149
  O        -6.1793752463       13.3082769769        3.4848387085
  O        -3.6597818249        8.8559363911        3.4322496694
  O        -0.9924225343        4.4344992386        3.5564029942
  O         6.8139383044       11.9115722360        3.4614654958
  O         9.4024057314        7.4713561408        3.4423043404
  O        11.9253906067        2.9556723252        3.5322749937
  O         1.6853704157       11.8863843772        3.4826407413
  O         4.2833113632        7.4437083344        3.4916896768
  O         6.8240393713        3.0162247375        3.4837590816
  O        -3.4573781410       11.8569221864        3.5256005118
  O        -0.8680615602        7.4353786570        3.4767860582
  O         1.6661452144        2.9212730758        3.5921792562
  O         9.4771133866       10.2063194784        3.4081308498
  O        11.9577451400        5.8084268715        3.5538560723
  O        14.5599607802        1.3152708526        3.4603864430
  O         4.3323401531       10.2197480634        3.4462932676
  O         6.8764721664        5.7527589740        3.4702474379
  O         9.4248136969        1.3419286066        3.4920239545
  O        -0.8007052846       10.2127508535        3.4473024269
  O         1.6651358112        5.8021450348        3.6029992056
  O         4.2703176622        1.3461503217        3.5338654921
 Fe         5.0387444798       11.8277254823        4.4082067732
 Fe         7.6162930462        7.4046741072        4.3738369273
 Fe        10.1308431175        2.9643577895        4.4116199239
 Fe        -0.0899556299       11.8087025781        4.4127581860
 Fe         2.4833341524        7.4521688493        4.3709452868
 Fe         5.0750203456        2.9222423784        4.4565768658
 Fe        -5.2463419602       11.8229131042        4.4153434002
 Fe        -2.6423452652        7.4494776699        4.4042825690
 Fe        -0.1194364770        2.9088211506        4.4508629080
 Fe         7.6140158234       13.1939617324        4.8209230972
 Fe        10.1687918543        8.7496819099        4.8103588516
 Fe        12.7388224843        4.3022951413        4.7763314961
 Fe         2.4883485299       13.1821740630        4.8199782460
 Fe         5.0363391670        8.7527495424        4.8416706561
 Fe         7.6107950320        4.2983865390        4.8296523592
 Fe        -2.6409418364       13.1857966175        4.8197400658
 Fe        -0.0842624836        8.7362329473        4.8096548486
 Fe         2.4769747276        4.2976371489        4.8256309149
  O         5.8674429369       10.3600709847        5.8742401127
  O         8.4133595351        5.9182566756        5.8781746263
  O        10.9856411601        1.4682603347        5.8697912537
  O         0.7301436746       10.3429207012        5.8726741186
  O         3.2584834443        5.9346279920        5.8168693074
  O         5.8695907658        1.4674669124        5.8872902068
  O        -4.3968050758       10.3497372653        5.8755890149
  O        -1.8500428859        5.9002433470        5.8490382575
  O         0.7411649395        1.4677213673        5.8775960888
  O         5.9214293971       13.1837704867        5.6793139880
  O         8.4892050469        8.7077845737        5.7084639873
  O        11.0667782270        4.3046030988        5.6617238471
  O         0.7921482341       13.1653675880        5.6601171685
  O         3.3466240906        8.7130586636        5.7154678752
  O         5.9388673707        4.3302195570        5.7335543520
  O        -4.3373981156       13.1823349047        5.6647284326
  O        -1.7544331540        8.7358636204        5.7069529395
  O         0.7727787243        4.3043345754        5.6511260461
  O         3.4728032818       11.7870545340        5.6824615473
  O         6.0651017965        7.3156167666        5.6406996037
  O         8.5829282478        2.8932602124        5.7201686033
  O        -1.6528093688       11.7814570493        5.6711726193
  O         0.9252664109        7.3149746084        5.6537219490
  O         3.4693381974        2.8869439370        5.6475216855
  O        -6.7924561329       11.7913382421        5.6876492401
  O        -4.2217041468        7.3075802991        5.6530516016
  O        -1.6924137837        2.9022159989        5.6596541804
 Fe         7.7908246779       10.2667157841        6.4236271040
 Fe        10.3425294739        5.8171115450        6.4441619001
 Fe        12.9115811562        1.3972639401        6.4406155262
 Fe         2.6611946377       10.2694993163        6.4271006654
 Fe         5.1777847706        5.8734373568        6.4489637415
 Fe         7.7826270047        1.3632112570        6.4272220615
 Fe        -2.4710481390       10.2770897659        6.4202622286
 Fe         0.0824799177        5.8324501437        6.4391975767
 Fe         2.6621231745        1.3942136008        6.4359217453
  O         7.8450366349       10.3868534419        8.2533935626
  H         7.8587126536        9.5742577330        8.7910595232
  H         5.3425248313       10.6001397546        6.6693173239
  O        10.3696987864        5.9001742030        8.2823784000
  H        10.6551399983        5.1019196780        8.7593124337
  H         7.9217064932        6.2712029310        6.6535760119
  O        12.9444016857        1.5162502951        8.2661662275
  H        13.0041482259        0.6931581173        8.7841154473
  H        10.4823114883        1.7247283529        6.6771961456
  O         2.6951497439       10.3741138714        8.2559805490
  H         2.7936076115        9.5573089232        8.7791803569
  H         0.2205112436       10.6011968263        6.6734329251
  O         4.9613969735        6.3236948145        8.1917198515
  H         4.8993686580        5.7607219216        8.9882348251
  H         2.8147127090        6.1827868822        6.6625549443
  O         7.9065872565        1.2256675281        8.2604434023
  H         7.9724209044        0.3280204353        8.6349054606
  H         5.3353839764        1.7271199083        6.6709255316
  O        -2.4011842590       10.3862624626        8.2491601676
  H        -2.3554739807        9.5747557809        8.7866557838
  H        -4.9063967112       10.6228957888        6.6703508971
  O         0.1062258518        5.9440746863        8.2661788484
  H         0.2154381635        5.1325884771        8.7947597162
  H        -2.3259394692        6.1803300968        6.6648879373
  O         2.7104052366        1.5014684924        8.2579083721
  H         2.7661333237        0.6854917923        8.7865267242
  H         0.2285848428        1.7476682941        6.6693037486
  C         7.4072711034        4.0173773153        9.2448869991
  C         6.3080274850        4.3981165593       10.1064063813
  H         7.4483518194        2.9211141050        9.1262896184
  H         7.1574241844        4.4446016109        8.2581408867
  H         8.3783825523        4.4119134891        9.5648468311
  N         5.4737463678        4.6982646656       10.8781129908
     168
 i =        7, E =     -8144.3676245582
 Fe         5.0938794100       11.8196869300        0.3885799900
 Fe         7.6575796300        7.3792284900        0.3885799900
 Fe        10.2212798400        2.9387700600        0.3885799900
 Fe        -0.0335205200       11.8196869300        0.3885799900
 Fe         2.5301797000        7.3792284900        0.3885799900
 Fe         5.0938799200        2.9387700600        0.3885799900
 Fe        -5.1609204400       11.8196869300        0.3885799900
 Fe        -2.5972202200        7.3792284900        0.3885799900
 Fe        -0.0335200000        2.9387700600        0.3885799900
  O         8.4519195100        8.9577468800        1.1642700400
  O        11.0156197300        4.5172884400        1.1642700400
  O        13.5793199500        0.0768300000        1.1642700400
  O         3.3245195900        8.9577468800        1.1642700400
  O         5.8882198100        4.5172884400        1.1642700400
  O         8.4519200300        0.0768300000        1.1642700400
  O        -1.8028803300        8.9577468800        1.1642700400
  O         0.7608198900        4.5172884400        1.1642700400
  O         3.3245201100        0.0768300000        1.1642700400
  O         8.4568493000       11.7183869300        1.1650400200
  O        11.0205495200        7.2779284900        1.1650400200
  O        13.5842497300        2.8374700500        1.1650400200
  O         3.3294493700       11.7183869300        1.1650400200
  O         5.8931495900        7.2779284900        1.1650400200
  O         8.4568498100        2.8374700500        1.1650400200
  O        -1.7979505500       11.7183869300        1.1650400200
  O         0.7657496700        7.2779284900        1.1650400200
  O         3.3294498900        2.8374700500        1.1650400200
  O         6.0627194200       10.3425368500        1.1660399400
  O         8.6264196400        5.9020784100        1.1660399400
  O        11.1901198600        1.4616199700        1.1660399400
  O         0.9353195000       10.3425368500        1.1660399400
  O         3.4990197200        5.9020784100        1.1660399400
  O         6.0627199400        1.4616199700        1.1660399400
  O        -4.1920804200       10.3425368500        1.1660399400
  O        -1.6283802000        5.9020784100        1.1660399400
  O         0.9353200200        1.4616199700        1.1660399400
 Fe         7.6576695000       13.2997167500        1.9292099500
 Fe        10.2213697200        8.8592583200        1.9292099500
 Fe        12.7850699400        4.4187998800        1.9292099500
 Fe         2.5302695800       13.2997167500        1.9292099500
 Fe         5.0939698000        8.8592583200        1.9292099500
 Fe         7.6576700200        4.4187998800        1.9292099500
 Fe        -2.5971303400       13.2997167500        1.9292099500
 Fe        -0.0334301200        8.8592583200        1.9292099500
 Fe         2.5302701000        4.4187998800        1.9292099500
 Fe         7.6573893600       10.3392168700        2.7128999200
 Fe        10.2210895800        5.8987584300        2.7128999200
 Fe        12.7847898000        1.4582999900        2.7128999200
 Fe         2.5299894400       10.3392168700        2.7128999200
 Fe         5.0936896600        5.8987584300        2.7128999200
 Fe         7.6573898800        1.4582999900        2.7128999200
 Fe        -2.5974104800       10.3392168700        2.7128999200
 Fe        -0.0337102600        5.8987584300        2.7128999200
 Fe         2.5299899600        1.4582999900        2.7128999200
  O         4.0919083989       13.3181105251        3.5167637680
  O         6.6542742184        8.8769884442        3.5086327223
  O         9.2082519965        4.4287159948        3.5087097412
  O        -1.0289407123       13.3206812959        3.5253239715
  O         1.5192210479        8.8780029242        3.5041748232
  O         4.1191693560        4.4426428427        3.5500272610
  O        -6.1709950080       13.3110844552        3.5003133123
  O        -3.6096817757        8.8672939751        3.4932631622
  O        -1.0353135548        4.4285722121        3.5096812958
  O         6.8166541386       11.8832664815        3.4881042477
  O         9.3833599221        7.4459542257        3.4742708838
  O        11.9357582118        2.9899406877        3.4979952964
  O         1.6899909804       11.8734769343        3.4959699081
  O         4.2545585555        7.4355346202        3.4935453471
  O         6.8186238990        2.9990116755        3.5094897095
  O        -3.4447679494       11.8673006259        3.5027298257
  O        -0.8810060043        7.4336678387        3.4880437785
  O         1.6817054490        2.9717596570        3.5222730339
  O         9.4375947806       10.2183889662        3.4706343343
  O        11.9887796852        5.7840213127        3.4910894748
  O        14.5583589287        1.3360948636        3.4793638365
  O         4.3048141342       10.2254070646        3.4858668631
  O         6.8731249791        5.7654678891        3.4748870833
  O         9.4232944419        1.3488077026        3.4965160707
  O        -0.8238506180       10.2202017818        3.4796847978
  O         1.7214054193        5.7880064205        3.5061561128
  O         4.2979946770        1.3488913771        3.4990362647
 Fe         5.0419390828       11.8363400469        4.4180404544
 Fe         7.6064562005        7.3936029150        4.3975820428
 Fe        10.1538907285        2.9581933931        4.4193323622
 Fe        -0.0901462095       11.8243204192        4.4140858364
 Fe         2.4709503392        7.4044402464        4.4091967066
 Fe         5.0447731934        2.9559862339        4.4365523447
 Fe        -5.2247227567       11.8346487306        4.4150591231
 Fe        -2.6539062312        7.4018662756        4.4165550605
 Fe        -0.0998158641        2.9469355086        4.4268158013
 Fe         7.6118342276       13.1867360342        4.8206090506
 Fe        10.1733010606        8.7461742389        4.8091878044
 Fe        12.7360445041        4.3063345521        4.8014696025
 Fe         2.4887841519       13.1815793173        4.8205746789
 Fe         5.0464075046        8.7469559632        4.8173780551
 Fe         7.6020469482        4.3067170371        4.8409254135
 Fe        -2.6453622442       13.1836695247        4.8132917730
 Fe        -0.0828366531        8.7415523620        4.8103451089
 Fe         2.4771791502        4.3020589923        4.8179467094
  O         5.8592654777       10.3494937379        5.8733709443
  O         8.4259252595        5.9196476537        5.8760290584
  O        10.9792736154        1.4648890369        5.8758800485
  O         0.7274899735       10.3442561660        5.8742134011
  O         3.2731516342        5.9171010694        5.8352728333
  O         5.8607794677        1.4697806259        5.8856216766
  O        -4.4007136997       10.3466043223        5.8756414086
  O        -1.8355600728        5.9072479218        5.8629357599
  O         0.7278116286        1.4673453466        5.8763304878
  O         5.9272043558       13.1783115440        5.6914439258
  O         8.4912102886        8.7260232462        5.6889001274
  O        11.0545598610        4.2965584731        5.6855828136
  O         0.7968962709       13.1612839135        5.6719625848
  O         3.3585456913        8.7311273602        5.6843624865
  O         5.9354297656        4.3175743126        5.7487862852
  O        -4.3303839867       13.1750670095        5.6840819006
  O        -1.7654987829        8.7358411737        5.6870004347
  O         0.7890406664        4.2926821678        5.6829977506
  O         3.4710554973       11.7728000755        5.6749692956
  O         6.0535973165        7.3310137084        5.6464157020
  O         8.5870737076        2.8964586581        5.7174046846
  O        -1.6558729413       11.7739757203        5.6698833988
  O         0.9032566529        7.3353511816        5.6687297293
  O         3.4718954449        2.8939288317        5.6717831768
  O        -6.7858572717       11.7741240622        5.6738993405
  O        -4.2267532770        7.3319870626        5.6709188761
  O        -1.6696736213        2.8957151841        5.6673298586
 Fe         7.7850988906       10.2678481690        6.4332747148
 Fe        10.3484718961        5.8282710437        6.4380628317
 Fe        12.9074861504        1.3936848820        6.4364593359
 Fe         2.6570003278       10.2662770673        6.4357688990
 Fe         5.1882854571        5.8729769202        6.4388392418
 Fe         7.7852062267        1.3635914710        6.4289043080
 Fe        -2.4725442821       10.2733927764        6.4328065347
 Fe         0.0921710195        5.8317223195        6.4352317755
 Fe         2.6555189155        1.3907760008        6.4345917385
  O         7.8464879019       10.3899204479        8.2600279998
  H         7.8598881321        9.5719629626        8.7889928755
  H         5.3493485113       10.6066101408        6.6741413262
  O        10.3685089179        5.8991918314        8.2768731375
  H        10.6473428791        5.1029156798        8.7631588016
  H         7.9191556144        6.2679461311        6.6431290764
  O        12.9452039694        1.5137874085        8.2643700203
  H        13.0049096456        0.6923926943        8.7851197390
  H        10.4776631214        1.7233894254        6.6818366599
  O         2.6959937878       10.3787215715        8.2629130698
  H         2.7925957021        9.5560890452        8.7768958248
  H         0.2233339399       10.6053833629        6.6779845616
  O         4.9652702882        6.3213550593        8.1833074379
  H         4.9063191652        5.7620385417        8.9818975205
  H         2.8094403086        6.1922887978        6.6588808460
  O         7.9080867044        1.2264534341        8.2634352286
  H         7.9705357497        0.3275582574        8.6360348083
  H         5.3371122750        1.7296747176        6.6768892002
  O        -2.4034051213       10.3918055484        8.2598566776
  H        -2.3563894535        9.5719511264        8.7839525817
  H        -4.9036321773       10.6234637269        6.6748542620
  O         0.1055533618        5.9416694673        8.2621388617
  H         0.2148293444        5.1330237557        8.7945167183
  H        -2.3339749618        6.1796456570        6.6658339339
  O         2.7119842897        1.5001951149        8.2588448950
  H         2.7650950820        0.6839711419        8.7878975312
  H         0.2268204930        1.7433335468        6.6765875063
  C         7.3838344912        4.0179358272        9.2271913263
  C         6.3367771124        4.3926280576       10.1500265400
  H         7.4418919138        2.9204483568        9.1157384213
  H         7.1755230332        4.4485403257        8.2365495811
  H         8.3572318134        4.3955276028        9.5671380441
  N         5.4634305705        4.7041108694       10.8626241127
     168
 i =        8, E =     -8144.2337871487
 Fe         5.0938794100       11.8196869300        0.3885799900
 Fe         7.6575796300        7.3792284900        0.3885799900
 Fe        10.2212798400        2.9387700600        0.3885799900
 Fe        -0.0335205200       11.8196869300        0.3885799900
 Fe         2.5301797000        7.3792284900        0.3885799900
 Fe         5.0938799200        2.9387700600        0.3885799900
 Fe        -5.1609204400       11.8196869300        0.3885799900
 Fe        -2.5972202200        7.3792284900        0.3885799900
 Fe        -0.0335200000        2.9387700600        0.3885799900
  O         8.4519195100        8.9577468800        1.1642700400
  O        11.0156197300        4.5172884400        1.1642700400
  O        13.5793199500        0.0768300000        1.1642700400
  O         3.3245195900        8.9577468800        1.1642700400
  O         5.8882198100        4.5172884400        1.1642700400
  O         8.4519200300        0.0768300000        1.1642700400
  O        -1.8028803300        8.9577468800        1.1642700400
  O         0.7608198900        4.5172884400        1.1642700400
  O         3.3245201100        0.0768300000        1.1642700400
  O         8.4568493000       11.7183869300        1.1650400200
  O        11.0205495200        7.2779284900        1.1650400200
  O        13.5842497300        2.8374700500        1.1650400200
  O         3.3294493700       11.7183869300        1.1650400200
  O         5.8931495900        7.2779284900        1.1650400200
  O         8.4568498100        2.8374700500        1.1650400200
  O        -1.7979505500       11.7183869300        1.1650400200
  O         0.7657496700        7.2779284900        1.1650400200
  O         3.3294498900        2.8374700500        1.1650400200
  O         6.0627194200       10.3425368500        1.1660399400
  O         8.6264196400        5.9020784100        1.1660399400
  O        11.1901198600        1.4616199700        1.1660399400
  O         0.9353195000       10.3425368500        1.1660399400
  O         3.4990197200        5.9020784100        1.1660399400
  O         6.0627199400        1.4616199700        1.1660399400
  O        -4.1920804200       10.3425368500        1.1660399400
  O        -1.6283802000        5.9020784100        1.1660399400
  O         0.9353200200        1.4616199700        1.1660399400
 Fe         7.6576695000       13.2997167500        1.9292099500
 Fe        10.2213697200        8.8592583200        1.9292099500
 Fe        12.7850699400        4.4187998800        1.9292099500
 Fe         2.5302695800       13.2997167500        1.9292099500
 Fe         5.0939698000        8.8592583200        1.9292099500
 Fe         7.6576700200        4.4187998800        1.9292099500
 Fe        -2.5971303400       13.2997167500        1.9292099500
 Fe        -0.0334301200        8.8592583200        1.9292099500
 Fe         2.5302701000        4.4187998800        1.9292099500
 Fe         7.6573893600       10.3392168700        2.7128999200
 Fe        10.2210895800        5.8987584300        2.7128999200
 Fe        12.7847898000        1.4582999900        2.7128999200
 Fe         2.5299894400       10.3392168700        2.7128999200
 Fe         5.0936896600        5.8987584300        2.7128999200
 Fe         7.6573898800        1.4582999900        2.7128999200
 Fe        -2.5974104800       10.3392168700        2.7128999200
 Fe        -0.0337102600        5.8987584300        2.7128999200
 Fe         2.5299899600        1.4582999900        2.7128999200
  O         4.0844535861       13.3018262766        3.4925889956
  O         6.7124173863        8.8733848492        3.5211746413
  O         9.2502218256        4.4528170172        3.6003743174
  O        -1.0857875797       13.2751864063        3.4194771208
  O         1.6483271566        8.8521379730        3.6372824804
  O         3.9575863888        4.4039048789        3.3028781653
  O        -6.0770168230       13.3497983467        3.6622952767
  O        -3.4893820955        8.9036378439        3.6538033481
  O        -1.1357504616        4.4191473465        3.3955928134
  O         6.8126546769       11.7415261907        3.6645054559
  O         9.3423986869        7.3732408908        3.5780266133
  O        11.9550166567        3.0709491784        3.4104358544
  O         1.6955834415       11.8582787876        3.5002496609
  O         4.1926938485        7.4302514512        3.4735255414
  O         6.8044266488        2.9572794611        3.5709381354
  O        -3.4131332576       11.8977783237        3.4421201142
  O        -0.9061726260        7.3779814437        3.5919906518
  O         1.7224205625        3.1191351349        3.3188490842
  O         9.3418423410       10.2486354760        3.6260390612
  O        12.0616763619        5.7272438551        3.3442888343
  O        14.4956132840        1.4211913375        3.6340228409
  O         4.2587202264       10.2296444202        3.5415055360
  O         6.8610878979        5.7966821965        3.5003533184
  O         9.4307774617        1.3565348237        3.4879335381
  O        -0.9108823587       10.2653808717        3.6223076899
  O         1.8650101421        5.7379470386        3.2561561128
  O         4.3601483263        1.3508772311        3.4140074169
 Fe         5.0134382927       11.8518002769        4.4477941947
 Fe         7.5761812321        7.3783882105        4.4592407078
 Fe        10.2028955436        2.9416228341        4.4332735290
 Fe        -0.0804774127       11.8783394405        4.4307005487
 Fe         2.4596280326        7.2719211470        4.5081867138
 Fe         4.9702513265        3.0372865422        4.3761219970
 Fe        -5.1519527042       11.8315746932        4.4446035633
 Fe        -2.6915469873        7.2922418294        4.4513095472
 Fe        -0.0373081407        3.0614824062        4.3759813546
 Fe         7.6056375184       13.1691523453        4.8704323424
 Fe        10.1846053857        8.7412295095        4.8256129759
 Fe        12.7310195766        4.3124489930        4.8489869333
 Fe         2.4889646542       13.1782840968        4.8098964925
 Fe         5.0650921955        8.7359488710        4.7460635906
 Fe         7.5853476804        4.3173113765        4.8780769671
 Fe        -2.6525568211       13.1828884932        4.7917217227
 Fe        -0.0819287879        8.7529008736        4.8507450170
 Fe         2.4829332474        4.3138870576        4.7779068299
  O         5.8385696839       10.3226864916        5.8731040585
  O         8.4532049016        5.9250423304        5.8732990985
  O        10.9667202935        1.4583002467        5.8906885482
  O         0.7223682514       10.3479766678        5.8817631882
  O         3.3033520640        5.8698400014        5.8779477560
  O         5.8372226333        1.4741855622        5.8794062844
  O        -4.4033736099       10.3394481945        5.8816066274
  O        -1.8070275152        5.9189872507        5.8938867925
  O         0.7049617941        1.4755063392        5.8757517085
  O         5.9235392307       13.1542654989        5.7265259117
  O         8.4944696633        8.7671905848        5.6515270329
  O        11.0335053457        4.2739241197        5.7406989837
  O         0.8151557180       13.1605420439        5.7019855173
  O         3.3899214631        8.7691412765        5.6170163623
  O         5.9205065723        4.2904267902        5.7785172108
  O        -4.3077292560       13.1620411799        5.7277326802
  O        -1.8004135297        8.7291140151        5.6542378913
  O         0.8410875211        4.2812590282        5.7511054032
  O         3.4567706957       11.7473101373        5.6706286378
  O         6.0190278245        7.3702388111        5.6636265431
  O         8.6039096915        2.8984160969        5.7199227148
  O        -1.6665320728       11.7615023702        5.6648195667
  O         0.8591323218        7.3676573770        5.7010408203
  O         3.4728191571        2.9122078611        5.7151343468
  O        -6.7614660422       11.7314190138        5.6528677915
  O        -4.2401450289        7.3815198709        5.7158304841
  O        -1.6136225238        2.8873545344        5.6849510902
 Fe         7.7722045762       10.2720961464        6.4537653058
 Fe        10.3613744916        5.8477055786        6.4268205939
 Fe        12.9057515594        1.3875622271        6.4274336066
 Fe         2.6461574874       10.2572220141        6.4513532094
 Fe         5.2083295521        5.8711991325        6.4196803110
 Fe         7.7851746055        1.3649484756        6.4329752411
 Fe        -2.4748648295       10.2674926160        6.4574977166
 Fe         0.1082614114        5.8284314909        6.4319960907
 Fe         2.6450178290        1.3847938404        6.4316266944
  O         7.8498346210       10.3961407443        8.2739643582
  H         7.8631636905        9.5665585804        8.7842730929
  H         5.3643684681       10.6215451818        6.6872639221
  O        10.3660736307        5.8993383905        8.2658927085
  H        10.6246146426        5.1051344679        8.7723535924
  H         7.9126506130        6.2610667286        6.6225215135
  O        12.9464002659        1.5081332298        8.2614191089
  H        13.0071098812        0.6898905698        8.7872875156
  H        10.4649295628        1.7189317511        6.6931410873
  O         2.6978375590       10.3882046152        8.2752991077
  H         2.7899262772        9.5541623944        8.7716492642
  H         0.2300932894       10.6177021027        6.6899169448
  O         4.9763293759        6.3197376000        8.1668453307
  H         4.9262948477        5.7629082360        8.9653604664
  H         2.8012249623        6.2126047759        6.6540331968
  O         7.9129187913        1.2284951969        8.2692848771
  H         7.9651391254        0.3271104472        8.6385864999
  H         5.3424410322        1.7357953394        6.6903312681
  O        -2.4096818582       10.4019597971        8.2805653526
  H        -2.3591205495        9.5656807929        8.7785233439
  H        -4.8984905237       10.6249270988        6.6848934548
  O         0.1041436897        5.9366749495        8.2563638415
  H         0.2135211494        5.1328567799        8.7943408251
  H        -2.3495694398        6.1778968028        6.6712160157
  O         2.7147797006        1.4960994448        8.2609372370
  H         2.7623338440        0.6796908450        8.7914374789
  H         0.2197533652        1.7324967752        6.6913821437
  C         7.3405776840        4.0149680073        9.1949055658
  C         6.3803089101        4.3852593354       10.2188534336
  H         7.4188047304        2.9161348051        9.0834160896
  H         7.2081154269        4.4593354242        8.1996527650
  H         8.3221073618        4.3518583491        9.5698832545
  N         5.4472136357        4.7180804640       10.8370997870
     168
 i =        9, E =     -8144.3567770325
 Fe         5.0938794100       11.8196869300        0.3885799900
 Fe         7.6575796300        7.3792284900        0.3885799900
 Fe        10.2212798400        2.9387700600        0.3885799900
 Fe        -0.0335205200       11.8196869300        0.3885799900
 Fe         2.5301797000        7.3792284900        0.3885799900
 Fe         5.0938799200        2.9387700600        0.3885799900
 Fe        -5.1609204400       11.8196869300        0.3885799900
 Fe        -2.5972202200        7.3792284900        0.3885799900
 Fe        -0.0335200000        2.9387700600        0.3885799900
  O         8.4519195100        8.9577468800        1.1642700400
  O        11.0156197300        4.5172884400        1.1642700400
  O        13.5793199500        0.0768300000        1.1642700400
  O         3.3245195900        8.9577468800        1.1642700400
  O         5.8882198100        4.5172884400        1.1642700400
  O         8.4519200300        0.0768300000        1.1642700400
  O        -1.8028803300        8.9577468800        1.1642700400
  O         0.7608198900        4.5172884400        1.1642700400
  O         3.3245201100        0.0768300000        1.1642700400
  O         8.4568493000       11.7183869300        1.1650400200
  O        11.0205495200        7.2779284900        1.1650400200
  O        13.5842497300        2.8374700500        1.1650400200
  O         3.3294493700       11.7183869300        1.1650400200
  O         5.8931495900        7.2779284900        1.1650400200
  O         8.4568498100        2.8374700500        1.1650400200
  O        -1.7979505500       11.7183869300        1.1650400200
  O         0.7657496700        7.2779284900        1.1650400200
  O         3.3294498900        2.8374700500        1.1650400200
  O         6.0627194200       10.3425368500        1.1660399400
  O         8.6264196400        5.9020784100        1.1660399400
  O        11.1901198600        1.4616199700        1.1660399400
  O         0.9353195000       10.3425368500        1.1660399400
  O         3.4990197200        5.9020784100        1.1660399400
  O         6.0627199400        1.4616199700        1.1660399400
  O        -4.1920804200       10.3425368500        1.1660399400
  O        -1.6283802000        5.9020784100        1.1660399400
  O         0.9353200200        1.4616199700        1.1660399400
 Fe         7.6576695000       13.2997167500        1.9292099500
 Fe        10.2213697200        8.8592583200        1.9292099500
 Fe        12.7850699400        4.4187998800        1.9292099500
 Fe         2.5302695800       13.2997167500        1.9292099500
 Fe         5.0939698000        8.8592583200        1.9292099500
 Fe         7.6576700200        4.4187998800        1.9292099500
 Fe        -2.5971303400       13.2997167500        1.9292099500
 Fe        -0.0334301200        8.8592583200        1.9292099500
 Fe         2.5302701000        4.4187998800        1.9292099500
 Fe         7.6573893600       10.3392168700        2.7128999200
 Fe        10.2210895800        5.8987584300        2.7128999200
 Fe        12.7847898000        1.4582999900        2.7128999200
 Fe         2.5299894400       10.3392168700        2.7128999200
 Fe         5.0936896600        5.8987584300        2.7128999200
 Fe         7.6573898800        1.4582999900        2.7128999200
 Fe        -2.5974104800       10.3392168700        2.7128999200
 Fe        -0.0337102600        5.8987584300        2.7128999200
 Fe         2.5299899600        1.4582999900        2.7128999200
  O         4.0936172651       13.3118810623        3.5117774669
  O         6.6621789362        8.8701155241        3.4992340698
  O         9.2222793004        4.4351370463        3.5337069972
  O        -1.0495165341       13.3063055357        3.4856924482
  O         1.5558879647        8.8770921882        3.5491368880
  O         4.0844450722        4.4304810643        3.4868936761
  O        -6.1319771111       13.3295640390        3.5667929622
  O        -3.5777292421        8.8774168434        3.5358472116
  O        -1.0589128147        4.4280435801        3.4831274032
  O         6.8108307773       11.8292439362        3.5555072952
  O         9.3730113901        7.4259786786        3.5011396714
  O        11.9388936106        3.0101020298        3.4753871697
  O         1.6883712174       11.8707636685        3.4943924711
  O         4.2430450569        7.4396185377        3.4820912125
  O         6.8137089921        2.9867735639        3.5248311212
  O        -3.4367870073       11.8842596782        3.4751415637
  O        -0.8862174020        7.4109701102        3.5286135092
  O         1.6903894838        3.0123167233        3.4634846289
  O         9.4148557939       10.2291625123        3.5085108701
  O        12.0044063096        5.7723797505        3.4579185100
  O        14.5307490529        1.3659392094        3.5376874813
  O         4.2990313825       10.2243323906        3.4886379602
  O         6.8679284297        5.7754232616        3.4849486270
  O         9.4243461827        1.3522062818        3.4945293471
  O        -0.8502731341       10.2372301764        3.5253836739
  O         1.7570986414        5.7781282756        3.4413770385
  O         4.3195388173        1.3451519992        3.4644996282
 Fe         5.0305103450       11.8350098790        4.4327763804
 Fe         7.5986496153        7.3940399979        4.4134031244
 Fe        10.1668175735        2.9543610632        4.4253115602
 Fe        -0.0910393931       11.8427304387        4.4190577774
 Fe         2.4717407044        7.3745486325        4.4319536108
 Fe         5.0259557230        2.9704853674        4.4212897685
 Fe        -5.2013060267       11.8309643409        4.4283032559
 Fe        -2.6641464799        7.3763299762        4.4297415875
 Fe        -0.0837832710        2.9787421798        4.4154517819
 Fe         7.6094204066       13.1796655963        4.8430131536
 Fe        10.1751660026        8.7447016181        4.8115847266
 Fe        12.7348882553        4.3062456357        4.8149063440
 Fe         2.4882526613       13.1827661243        4.8105477777
 Fe         5.0505786408        8.7460346031        4.7981381377
 Fe         7.5986131123        4.3087197627        4.8457907936
 Fe        -2.6467154911       13.1860582443        4.8016028223
 Fe        -0.0824842334        8.7437618416        4.8324688239
 Fe         2.4803782613        4.3050419166        4.8011812924
  O         5.8528156979       10.3403510718        5.8760133549
  O         8.4313920509        5.9192609551        5.8745732551
  O        10.9764577173        1.4629552257        5.8776689623
  O         0.7275057596       10.3479082950        5.8775024026
  O         3.2800846391        5.9055096743        5.8461509967
  O         5.8560090087        1.4693039549        5.8852837077
  O        -4.4001993828       10.3446760113        5.8770259403
  O        -1.8296763327        5.9093034777        5.8724914303
  O         0.7232137052        1.4692878093        5.8806766002
  O         5.9226217030       13.1702334164        5.7047046355
  O         8.4925521812        8.7362508972        5.6819122128
  O        11.0493008955        4.2905395955        5.7010464870
  O         0.8028806712       13.1628157136        5.6767879700
  O         3.3702417005        8.7374036528        5.6749998495
  O         5.9333096591        4.3111563944        5.7529776906
  O        -4.3186665102       13.1696207127        5.6992168601
  O        -1.7753531617        8.7314077580        5.6879312448
  O         0.8056644494        4.2899384399        5.6989716000
  O         3.4619132315       11.7690000969        5.6725906725
  O         6.0433395182        7.3405225024        5.6497767240
  O         8.5897966832        2.8957813854        5.7150615005
  O        -1.6611902590       11.7767971579        5.6713829189
  O         0.8981718447        7.3408068011        5.6819878583
  O         3.4714296206        2.8994178413        5.6804808805
  O        -6.7762171333       11.7640950179        5.6768723196
  O        -4.2301243067        7.3438102220        5.6838140448
  O        -1.6539312767        2.8983835706        5.6787772950
 Fe         7.7805366290       10.2685159382        6.4384611592
 Fe        10.3502126005        5.8326501542        6.4357403626
 Fe        12.9071190005        1.3938788056        6.4334326974
 Fe         2.6553461113       10.2637230006        6.4386937094
 Fe         5.1946872272        5.8711788526        6.4357221984
 Fe         7.7858652748        1.3638448449        6.4297530500
 Fe        -2.4720906844       10.2739373472        6.4391835018
 Fe         0.0962040503        5.8292753455        6.4358401992
 Fe         2.6555185344        1.3880990477        6.4323602490
  O         7.8473423033       10.3913948292        8.2634945203
  H         7.8604741778        9.5709226545        8.7882825596
  H         5.3526842315       10.6103860382        6.6789958842
  O        10.3686352103        5.8986739894        8.2742925616
  H        10.6442890138        5.1032671853        8.7646482083
  H         7.9181709508        6.2659650931        6.6375760283
  O        12.9452834468        1.5128531049        8.2631476550
  H        13.0051707562        0.6924107921        8.7854709536
  H        10.4742613870        1.7216707621        6.6825776619
  O         2.6966311825       10.3807335912        8.2652133928
  H         2.7922463855        9.5557488896        8.7755834770
  H         0.2242430843       10.6094571592        6.6812713830
  O         4.9670025147        6.3211205115        8.1798983595
  H         4.9096406207        5.7621215897        8.9782133426
  H         2.8078743292        6.1968814737        6.6585462883
  O         7.9090751440        1.2269706233        8.2645987944
  H         7.9699321352        0.3276060946        8.6364805172
  H         5.3387391493        1.7306680527        6.6803508901
  O        -2.4047505310       10.3947554913        8.2653660668
  H        -2.3567929745        9.5708333529        8.7828468444
  H        -4.9031866247       10.6225980165        6.6763960723
  O         0.1048630575        5.9414144493        8.2617606378
  H         0.2145560409        5.1330868811        8.7940420346
  H        -2.3381737611        6.1787883263        6.6689577085
  O         2.7122693032        1.4990587006        8.2581994825
  H         2.7646502561        0.6834825704        8.7886896673
  H         0.2240651598        1.7416887574        6.6827947989
  C         7.3764755399        4.0177094767        9.2236784006
  C         6.3431530839        4.3912299800       10.1622454642
  H         7.4389802800        2.9203427266        9.1106591423
  H         7.1820981493        4.4492476506        8.2314237691
  H         8.3519370586        4.3894323588        9.5660449277
  N         5.4611582086        4.7064827918       10.8575998857
     168
 i =       10, E =     -8144.3528571462
 Fe         5.0938794100       11.8196869300        0.3885799900
 Fe         7.6575796300        7.3792284900        0.3885799900
 Fe        10.2212798400        2.9387700600        0.3885799900
 Fe        -0.0335205200       11.8196869300        0.3885799900
 Fe         2.5301797000        7.3792284900        0.3885799900
 Fe         5.0938799200        2.9387700600        0.3885799900
 Fe        -5.1609204400       11.8196869300        0.3885799900
 Fe        -2.5972202200        7.3792284900        0.3885799900
 Fe        -0.0335200000        2.9387700600        0.3885799900
  O         8.4519195100        8.9577468800        1.1642700400
  O        11.0156197300        4.5172884400        1.1642700400
  O        13.5793199500        0.0768300000        1.1642700400
  O         3.3245195900        8.9577468800        1.1642700400
  O         5.8882198100        4.5172884400        1.1642700400
  O         8.4519200300        0.0768300000        1.1642700400
  O        -1.8028803300        8.9577468800        1.1642700400
  O         0.7608198900        4.5172884400        1.1642700400
  O         3.3245201100        0.0768300000        1.1642700400
  O         8.4568493000       11.7183869300        1.1650400200
  O        11.0205495200        7.2779284900        1.1650400200
  O        13.5842497300        2.8374700500        1.1650400200
  O         3.3294493700       11.7183869300        1.1650400200
  O         5.8931495900        7.2779284900        1.1650400200
  O         8.4568498100        2.8374700500        1.1650400200
  O        -1.7979505500       11.7183869300        1.1650400200
  O         0.7657496700        7.2779284900        1.1650400200
  O         3.3294498900        2.8374700500        1.1650400200
  O         6.0627194200       10.3425368500        1.1660399400
  O         8.6264196400        5.9020784100        1.1660399400
  O        11.1901198600        1.4616199700        1.1660399400
  O         0.9353195000       10.3425368500        1.1660399400
  O         3.4990197200        5.9020784100        1.1660399400
  O         6.0627199400        1.4616199700        1.1660399400
  O        -4.1920804200       10.3425368500        1.1660399400
  O        -1.6283802000        5.9020784100        1.1660399400
  O         0.9353200200        1.4616199700        1.1660399400
 Fe         7.6576695000       13.2997167500        1.9292099500
 Fe        10.2213697200        8.8592583200        1.9292099500
 Fe        12.7850699400        4.4187998800        1.9292099500
 Fe         2.5302695800       13.2997167500        1.9292099500
 Fe         5.0939698000        8.8592583200        1.9292099500
 Fe         7.6576700200        4.4187998800        1.9292099500
 Fe        -2.5971303400       13.2997167500        1.9292099500
 Fe        -0.0334301200        8.8592583200        1.9292099500
 Fe         2.5302701000        4.4187998800        1.9292099500
 Fe         7.6573893600       10.3392168700        2.7128999200
 Fe        10.2210895800        5.8987584300        2.7128999200
 Fe        12.7847898000        1.4582999900        2.7128999200
 Fe         2.5299894400       10.3392168700        2.7128999200
 Fe         5.0936896600        5.8987584300        2.7128999200
 Fe         7.6573898800        1.4582999900        2.7128999200
 Fe        -2.5974104800       10.3392168700        2.7128999200
 Fe        -0.0337102600        5.8987584300        2.7128999200
 Fe         2.5299899600        1.4582999900        2.7128999200
  O         4.0822795047       13.3160145120        3.4997746532
  O         6.6882344865        8.8884810081        3.5676992481
  O         9.2039807597        4.4287730718        3.5019964488
  O        -1.0250849805       13.3178812966        3.5233242187
  O         1.5044284563        8.8813618445        3.4956499410
  O         4.0945966607        4.4264150329        3.5008799588
  O        -6.1569799823       13.3264212282        3.5359220265
  O        -3.6244558030        8.8662354597        3.4787887244
  O        -1.0404370837        4.4209742559        3.4885725088
  O         6.8161325956       11.8693178769        3.5172248812
  O         9.3904828502        7.4516270679        3.4656378716
  O        11.9328068898        3.0015149824        3.4736803181
  O         1.6834736176       11.8885194514        3.4711493993
  O         4.2585930094        7.3915412479        3.5563513811
  O         6.8206972034        3.0035459850        3.5049796433
  O        -3.4474771335       11.8721361824        3.4990486118
  O        -0.8692765376        7.4366418781        3.4885577500
  O         1.6810133739        3.0065029798        3.4751088516
  O         9.4532305850       10.2154197144        3.4489441877
  O        11.9941485636        5.7784428689        3.4781241169
  O        14.5442679500        1.3402337354        3.5060808640
  O         4.2753540530       10.2477814724        3.5380907425
  O         6.8722017662        5.7583256975        3.4766557918
  O         9.4318579349        1.3431532817        3.4795877689
  O        -0.8134025284       10.2153999430        3.4662595231
  O         1.7389983255        5.7680150608        3.4718303586
  O         4.2936523681        1.3474243119        3.5029707323
 Fe         5.0408619343       11.8507893052        4.4269997938
 Fe         7.6211570267        7.3786055332        4.4046294129
 Fe        10.1540654955        2.9588577756        4.4099113855
 Fe        -0.0918137779       11.8170511655        4.4132008399
 Fe         2.4545198006        7.4057795977        4.3970752168
 Fe         5.0415825799        2.9642075251        4.4250579393
 Fe        -5.2260758723       11.8282292576        4.4189425946
 Fe        -2.6495213437        7.4088189514        4.4014499298
 Fe        -0.0970361074        2.9496878480        4.4227656580
 Fe         7.6131004402       13.1853424723        4.8515102227
 Fe        10.1708865418        8.7457151597        4.8060942536
 Fe        12.7370813055        4.3030422552        4.7787748822
 Fe         2.4870019489       13.1819447546        4.8035943573
 Fe         5.0418852624        8.7489086763        4.8416819546
 Fe         7.6059643576        4.3022659874        4.8417921353
 Fe        -2.6425444576       13.1876285751        4.8067296258
 Fe        -0.0846818330        8.7410368622        4.8250122369
 Fe         2.4818755073        4.3025865382        4.7928654087
  O         5.8590141992       10.3514310323        5.8758598278
  O         8.4232510566        5.9190384692        5.8750253249
  O        10.9816182852        1.4662807574        5.8705602814
  O         0.7287442070       10.3459538497        5.8770806740
  O         3.2690347892        5.9206187238        5.8280702966
  O         5.8610394800        1.4719200437        5.8824335429
  O        -4.3977470580       10.3479201623        5.8741093023
  O        -1.8444770782        5.9025355761        5.8590243952
  O         0.7341369630        1.4736468728        5.8823691353
  O         5.9203638917       13.1787946731        5.7026196402
  O         8.4889599059        8.7210298136        5.6922217221
  O        11.0612976234        4.2993364583        5.6766550133
  O         0.7953420419       13.1660533587        5.6602687465
  O         3.3507631002        8.7190224825        5.6961358210
  O         5.9334694691        4.3220719902        5.7405893297
  O        -4.3244489230       13.1751020277        5.6817184386
  O        -1.7679027191        8.7278093272        5.7008750180
  O         0.7942420502        4.3028192200        5.6652435423
  O         3.4667303970       11.7787048956        5.6730600450
  O         6.0576660734        7.3227076724        5.6424280884
  O         8.5916215540        2.8910250356        5.7129154358
  O        -1.6574198590       11.7845095881        5.6724550578
  O         0.9070019037        7.3256328600        5.6727539850
  O         3.4670945503        2.8935089388        5.6581094712
  O        -6.7774061953       11.7743297142        5.6902135639
  O        -4.2224787648        7.3208680234        5.6617099291
  O        -1.6726874496        2.9076071177        5.6689586252
 Fe         7.7841980365       10.2660425575        6.4297611274
 Fe        10.3436101595        5.8239790953        6.4400143383
 Fe        12.9109495419        1.4005206700        6.4381417454
 Fe         2.6582099062       10.2660915620        6.4312061350
 Fe         5.1871111939        5.8722278723        6.4450630126
 Fe         7.7845319733        1.3645711147        6.4298568528
 Fe        -2.4686544695       10.2765493921        6.4277574747
 Fe         0.0862599243        5.8289039876        6.4405532767
 Fe         2.6605349735        1.3896907040        6.4367000440
  O         7.8458248784       10.3879384869        8.2572924989
  H         7.8592138119        9.5727348835        8.7907074864
  H         5.3473757064       10.6037186468        6.6757590454
  O        10.3701320477        5.8994257002        8.2781779170
  H        10.6529077175        5.1022951556        8.7608639350
  H         7.9199242076        6.2676001991        6.6436769074
  O        12.9441624603        1.5154187954        8.2657535395
  H        13.0043112950        0.6930965454        8.7848226856
  H        10.4782324542        1.7220344383        6.6777142686
  O         2.6962265516       10.3768694620        8.2597274167
  H         2.7933723782        9.5565111287        8.7776974704
  H         0.2217634946       10.6071722976        6.6783350067
  O         4.9625741572        6.3239659432        8.1873621653
  H         4.9035007900        5.7601366089        8.9821447750
  H         2.8124480555        6.1907372379        6.6595498099
  O         7.9081517953        1.2274313235        8.2643207038
  H         7.9720273979        0.3278302592        8.6352168627
  H         5.3381722196        1.7270801037        6.6761129988
  O        -2.4030082145       10.3907889538        8.2565722223
  H        -2.3556984819        9.5731861695        8.7848171176
  H        -4.9064436719       10.6203085636        6.6712291259
  O         0.1052151719        5.9447612313        8.2662806451
  H         0.2150229695        5.1328100967        8.7933630042
  H        -2.3307514077        6.1785940746        6.6694394603
  O         2.7113970263        1.5015605597        8.2604258020
  H         2.7657560197        0.6843087013        8.7876067873
  H         0.2252207565        1.7454581965        6.6789710178
  C         7.3967072744        4.0177731161        9.2372139585
  C         6.3223615040        4.3968149704       10.1287183877
  H         7.4489210052        2.9209796826        9.1213776190
  H         7.1658555851        4.4444487510        8.2475532892
  H         8.3686276604        4.4067730545        9.5658672595
  N         5.4676402746        4.7018315852       10.8704360501
     168
 i =       11, E =     -8144.3641329222
 Fe         5.0938794100       11.8196869300        0.3885799900
 Fe         7.6575796300        7.3792284900        0.3885799900
 Fe        10.2212798400        2.9387700600        0.3885799900
 Fe        -0.0335205200       11.8196869300        0.3885799900
 Fe         2.5301797000        7.3792284900        0.3885799900
 Fe         5.0938799200        2.9387700600        0.3885799900
 Fe        -5.1609204400       11.8196869300        0.3885799900
 Fe        -2.5972202200        7.3792284900        0.3885799900
 Fe        -0.0335200000        2.9387700600        0.3885799900
  O         8.4519195100        8.9577468800        1.1642700400
  O        11.0156197300        4.5172884400        1.1642700400
  O        13.5793199500        0.0768300000        1.1642700400
  O         3.3245195900        8.9577468800        1.1642700400
  O         5.8882198100        4.5172884400        1.1642700400
  O         8.4519200300        0.0768300000        1.1642700400
  O        -1.8028803300        8.9577468800        1.1642700400
  O         0.7608198900        4.5172884400        1.1642700400
  O         3.3245201100        0.0768300000        1.1642700400
  O         8.4568493000       11.7183869300        1.1650400200
  O        11.0205495200        7.2779284900        1.1650400200
  O        13.5842497300        2.8374700500        1.1650400200
  O         3.3294493700       11.7183869300        1.1650400200
  O         5.8931495900        7.2779284900        1.1650400200
  O         8.4568498100        2.8374700500        1.1650400200
  O        -1.7979505500       11.7183869300        1.1650400200
  O         0.7657496700        7.2779284900        1.1650400200
  O         3.3294498900        2.8374700500        1.1650400200
  O         6.0627194200       10.3425368500        1.1660399400
  O         8.6264196400        5.9020784100        1.1660399400
  O        11.1901198600        1.4616199700        1.1660399400
  O         0.9353195000       10.3425368500        1.1660399400
  O         3.4990197200        5.9020784100        1.1660399400
  O         6.0627199400        1.4616199700        1.1660399400
  O        -4.1920804200       10.3425368500        1.1660399400
  O        -1.6283802000        5.9020784100        1.1660399400
  O         0.9353200200        1.4616199700        1.1660399400
 Fe         7.6576695000       13.2997167500        1.9292099500
 Fe        10.2213697200        8.8592583200        1.9292099500
 Fe        12.7850699400        4.4187998800        1.9292099500
 Fe         2.5302695800       13.2997167500        1.9292099500
 Fe         5.0939698000        8.8592583200        1.9292099500
 Fe         7.6576700200        4.4187998800        1.9292099500
 Fe        -2.5971303400       13.2997167500        1.9292099500
 Fe        -0.0334301200        8.8592583200        1.9292099500
 Fe         2.5302701000        4.4187998800        1.9292099500
 Fe         7.6573893600       10.3392168700        2.7128999200
 Fe        10.2210895800        5.8987584300        2.7128999200
 Fe        12.7847898000        1.4582999900        2.7128999200
 Fe         2.5299894400       10.3392168700        2.7128999200
 Fe         5.0936896600        5.8987584300        2.7128999200
 Fe         7.6573898800        1.4582999900        2.7128999200
 Fe        -2.5974104800       10.3392168700        2.7128999200
 Fe        -0.0337102600        5.8987584300        2.7128999200
 Fe         2.5299899600        1.4582999900        2.7128999200
  O         4.1044137884       13.3268463350        3.5388905918
  O         6.6751350015        8.8859319797        3.5479504525
  O         9.2300614190        4.4431193886        3.5501968929
  O        -1.0328933059       13.3152355820        3.5111027584
  O         1.5161599026        8.8793851726        3.5102913105
  O         4.0971738922        4.4257084113        3.5088837686
  O        -6.1749707662       13.3190535971        3.5095432422
  O        -3.6277129122        8.8645251967        3.4696727712
  O        -1.0365337870        4.4278107368        3.5032137039
  O         6.8217793414       11.8864629824        3.4967600475
  O         9.3881027682        7.4585472955        3.4569683497
  O        11.9341029818        2.9957712226        3.4862096258
  O         1.6811674493       11.8628951984        3.5068303582
  O         4.2588150499        7.4054321430        3.5382000436
  O         6.8188083951        2.9740711829        3.5476309757
  O        -3.4440800676       11.8765010333        3.4927280152
  O        -0.8704885951        7.4295122349        3.5030120334
  O         1.6837480348        3.0003031928        3.4877326950
  O         9.4568635692       10.2116111231        3.4440632800
  O        11.9909289608        5.7815165947        3.4866299674
  O        14.5578912878        1.3286768392        3.4824610661
  O         4.2841661875       10.2344388012        3.5218107215
  O         6.8521535736        5.7754931134        3.5205006865
  O         9.4143715773        1.3570038628        3.5124684142
  O        -0.8235176072       10.2182158180        3.4835033624
  O         1.7338398090        5.7716193285        3.4822623185
  O         4.2965783907        1.3433676123        3.4938860778
 Fe         5.0493289647       11.8346642182        4.4236850019
 Fe         7.6208898069        7.3969502806        4.4118794302
 Fe        10.1626192330        2.9565246555        4.4301503292
 Fe        -0.0999217991       11.8235122725        4.4171857672
 Fe         2.4663462030        7.4017922074        4.4075447243
 Fe         5.0336833028        2.9570198762        4.4297459904
 Fe        -5.2279887837       11.8348279411        4.4079974907
 Fe        -2.6539149372        7.4113500358        4.4054897356
 Fe        -0.1013882376        2.9407578850        4.4174846755
 Fe         7.6132659266       13.1852622352        4.8525286756
 Fe        10.1746679541        8.7465458466        4.7990907119
 Fe        12.7375783912        4.3046591629        4.7887192536
 Fe         2.4856347372       13.1808118044        4.8131912597
 Fe         5.0450353403        8.7444263120        4.8458797471
 Fe         7.6047352284        4.2998428544        4.8635085437
 Fe        -2.6436878220       13.1907818906        4.8008733544
 Fe        -0.0832602848        8.7417516299        4.8339749021
 Fe         2.4789265337        4.3056132460        4.7978967330
  O         5.8573895379       10.3501024107        5.8814381900
  O         8.4267538209        5.9208165220        5.8755465624
  O        10.9833045300        1.4655941876        5.8694011273
  O         0.7268231344       10.3476256538        5.8768784518
  O         3.2694726328        5.9163389864        5.8297646610
  O         5.8606574910        1.4710665814        5.8803446121
  O        -4.3980596469       10.3486640281        5.8713701927
  O        -1.8409837146        5.9050105915        5.8597796878
  O         0.7344358276        1.4753040059        5.8833590488
  O         5.9177671232       13.1762720719        5.7025410668
  O         8.5003042355        8.7264181938        5.6949702516
  O        11.0619426278        4.3011436116        5.6816412396
  O         0.7914086588       13.1668767226        5.6607898472
  O         3.3538089639        8.7248105093        5.6996193784
  O         5.9246310159        4.3192405312        5.7401249726
  O        -4.3234626005       13.1747989999        5.6798415782
  O        -1.7704471140        8.7319667781        5.6987220438
  O         0.7878815132        4.2982873977        5.6617988703
  O         3.4709318645       11.7791095444        5.6741497210
  O         6.0605163570        7.3229983042        5.6532633855
  O         8.5939747209        2.8870695927        5.7180679787
  O        -1.6638574093       11.7846838429        5.6693416123
  O         0.9065714893        7.3231011380        5.6692126238
  O         3.4621945996        2.8932884748        5.6559310958
  O        -6.7753133614       11.7711066235        5.6882062567
  O        -4.2258165629        7.3225551095        5.6600855314
  O        -1.6706442562        2.9070125839        5.6715589759
 Fe         7.7837913640       10.2649817777        6.4314020608
 Fe        10.3460490206        5.8255507439        6.4396449102
 Fe        12.9095256620        1.4008714949        6.4372981386
 Fe         2.6560442169       10.2703987080        6.4327867534
 Fe         5.1839429473        5.8705533429        6.4432458367
 Fe         7.7812529173        1.3635197422        6.4282876417
 Fe        -2.4700908982       10.2783876234        6.4307204862
 Fe         0.0884305955        5.8267050130        6.4400776650
 Fe         2.6618929190        1.3889419093        6.4357206477
  O         7.8454483180       10.3880961219        8.2581168456
  H         7.8589334495        9.5725766708        8.7908430564
  H         5.3479709213       10.6064160401        6.6819238656
  O        10.3700621616        5.8976320239        8.2773404700
  H        10.6556321605        5.1023325648        8.7607486932
  H         7.9190742142        6.2671598336        6.6422838789
  O        12.9438215288        1.5163014977        8.2652257117
  H        13.0038750004        0.6938773949        8.7842440300
  H        10.4778934686        1.7208342964        6.6743620731
  O         2.6967705654       10.3782382496        8.2612349944
  H         2.7937236436        9.5563050723        8.7767575285
  H         0.2228231272       10.6092732439        6.6796661947
  O         4.9621199448        6.3210090292        8.1858214416
  H         4.9008827585        5.7614992076        8.9837827495
  H         2.8108521135        6.1891889834        6.6586033199
  O         7.9082327963        1.2264657942        8.2620405383
  H         7.9728348911        0.3281827197        8.6355565836
  H         5.3397783696        1.7265130334        6.6747550171
  O        -2.4024885489       10.3920064082        8.2583936555
  H        -2.3554160977        9.5730296207        8.7843058376
  H        -4.9055271659       10.6195725933        6.6702492043
  O         0.1042780995        5.9439725057        8.2659237763
  H         0.2149661688        5.1329027919        8.7941551167
  H        -2.3328988861        6.1778431840        6.6676041923
  O         2.7112287075        1.5015855185        8.2593257186
  H         2.7661265665        0.6849611240        8.7873957458
  H         0.2261132340        1.7474700082        6.6806369942
  C         7.3959210507        4.0194308333        9.2359793740
  C         6.3269253118        4.3960443065       10.1338683683
  H         7.4529083846        2.9221900647        9.1256913490
  H         7.1666719120        4.4432059901        8.2452207803
  H         8.3662787734        4.4110020323        9.5667608861
  N         5.4662044213        4.7007122207       10.8695022700
     168
 i =       12, E =     -8144.3175408867
 Fe         5.0938794100       11.8196869300        0.3885799900
 Fe         7.6575796300        7.3792284900        0.3885799900
 Fe        10.2212798400        2.9387700600        0.3885799900
 Fe        -0.0335205200       11.8196869300        0.3885799900
 Fe         2.5301797000        7.3792284900        0.3885799900
 Fe         5.0938799200        2.9387700600        0.3885799900
 Fe        -5.1609204400       11.8196869300        0.3885799900
 Fe        -2.5972202200        7.3792284900        0.3885799900
 Fe        -0.0335200000        2.9387700600        0.3885799900
  O         8.4519195100        8.9577468800        1.1642700400
  O        11.0156197300        4.5172884400        1.1642700400
  O        13.5793199500        0.0768300000        1.1642700400
  O         3.3245195900        8.9577468800        1.1642700400
  O         5.8882198100        4.5172884400        1.1642700400
  O         8.4519200300        0.0768300000        1.1642700400
  O        -1.8028803300        8.9577468800        1.1642700400
  O         0.7608198900        4.5172884400        1.1642700400
  O         3.3245201100        0.0768300000        1.1642700400
  O         8.4568493000       11.7183869300        1.1650400200
  O        11.0205495200        7.2779284900        1.1650400200
  O        13.5842497300        2.8374700500        1.1650400200
  O         3.3294493700       11.7183869300        1.1650400200
  O         5.8931495900        7.2779284900        1.1650400200
  O         8.4568498100        2.8374700500        1.1650400200
  O        -1.7979505500       11.7183869300        1.1650400200
  O         0.7657496700        7.2779284900        1.1650400200
  O         3.3294498900        2.8374700500        1.1650400200
  O         6.0627194200       10.3425368500        1.1660399400
  O         8.6264196400        5.9020784100        1.1660399400
  O        11.1901198600        1.4616199700        1.1660399400
  O         0.9353195000       10.3425368500        1.1660399400
  O         3.4990197200        5.9020784100        1.1660399400
  O         6.0627199400        1.4616199700        1.1660399400
  O        -4.1920804200       10.3425368500        1.1660399400
  O        -1.6283802000        5.9020784100        1.1660399400
  O         0.9353200200        1.4616199700        1.1660399400
 Fe         7.6576695000       13.2997167500        1.9292099500
 Fe        10.2213697200        8.8592583200        1.9292099500
 Fe        12.7850699400        4.4187998800        1.9292099500
 Fe         2.5302695800       13.2997167500        1.9292099500
 Fe         5.0939698000        8.8592583200        1.9292099500
 Fe         7.6576700200        4.4187998800        1.9292099500
 Fe        -2.5971303400       13.2997167500        1.9292099500
 Fe        -0.0334301200        8.8592583200        1.9292099500
 Fe         2.5302701000        4.4187998800        1.9292099500
 Fe         7.6573893600       10.3392168700        2.7128999200
 Fe        10.2210895800        5.8987584300        2.7128999200
 Fe        12.7847898000        1.4582999900        2.7128999200
 Fe         2.5299894400       10.3392168700        2.7128999200
 Fe         5.0936896600        5.8987584300        2.7128999200
 Fe         7.6573898800        1.4582999900        2.7128999200
 Fe        -2.5974104800       10.3392168700        2.7128999200
 Fe        -0.0337102600        5.8987584300        2.7128999200
 Fe         2.5299899600        1.4582999900        2.7128999200
  O         4.1508141306       13.3488174181        3.6156377755
  O         6.6099362464        8.8738486723        3.4475746206
  O         9.2615302660        4.4657666734        3.6181322235
  O        -1.0495059650       13.3130463717        3.4967890586
  O         1.5267614612        8.8564799076        3.5001202476
  O         4.1428037098        4.4550878338        3.6155348251
  O        -6.1953764037       13.2954295065        3.4685462765
  O        -3.6253701290        8.8531955163        3.4416562846
  O        -0.9699219143        4.4752530861        3.6590579475
  O         6.8354681701       11.9052581185        3.4737332111
  O         9.3721901826        7.4842470822        3.4206255925
  O        11.9397681396        2.9071369715        3.6446646770
  O         1.6803745111       11.8055902978        3.5859349669
  O         4.2495006263        7.4882771401        3.4301265506
  O         6.8166694590        2.9298635936        3.6077076136
  O        -3.4321585990       11.8751760988        3.4883469194
  O        -0.8820757028        7.4524756938        3.4831090654
  O         1.6953764200        2.9228234918        3.6031124007
  O         9.4530295749       10.1965669206        3.4411249650
  O        11.9285552031        5.8268854301        3.6126307129
  O        14.5735578218        1.3166156234        3.4556704323
  O         4.3349710154       10.1758292615        3.4350079906
  O         6.8352561103        5.8090209567        3.5671629002
  O         9.3762470934        1.3869799799        3.5803430007
  O        -0.8337094735       10.2043928385        3.4916567100
  O         1.6945540273        5.8149615553        3.5668100645
  O         4.3049459246        1.3381655738        3.4796565300
 Fe         5.0514631344       11.7888073310        4.4039180158
 Fe         7.5995412038        7.4446899286        4.4079573515
 Fe        10.1477941289        2.9563439311        4.4808837342
 Fe        -0.1168152916       11.8285736604        4.4158012106
 Fe         2.5049324496        7.4090695244        4.4437564222
 Fe         5.0327135039        2.9333478762        4.4541935465
 Fe        -5.2207487953       11.8365873498        4.3903340841
 Fe        -2.6469933546        7.4315707967        4.4408672056
 Fe        -0.0938851927        2.9071827827        4.4466780455
 Fe         7.6122270882       13.1877436719        4.8424544837
 Fe        10.1860042977        8.7518568306        4.7587659998
 Fe        12.7345571586        4.3198728744        4.8838987427
 Fe         2.4847310780       13.1794967676        4.8329028527
 Fe         5.0626232213        8.7272776757        4.8483377222
 Fe         7.5924375630        4.3037662651        4.8936330098
 Fe        -2.6522368283       13.1901148938        4.7969419959
 Fe        -0.0734994610        8.7440038828        4.8306493739
 Fe         2.4660473547        4.3074545570        4.8572561651
  O         5.8561730933       10.3508381208        5.8948626824
  O         8.4407346908        5.9241372175        5.8757525769
  O        10.9825540543        1.4662295825        5.8662081492
  O         0.7202866601       10.3516131882        5.8723697365
  O         3.2748582177        5.9019068669        5.8422890643
  O         5.8593822590        1.4671597133        5.8775038229
  O        -4.3998284322       10.3428899844        5.8568544394
  O        -1.8184488250        5.9266800060        5.8667298509
  O         0.7250962407        1.4666115803        5.8820309315
  O         5.9152020764       13.1699429239        5.6889835245
  O         8.5317938077        8.7435445500        5.6823603896
  O        11.0352701300        4.2947712269        5.7038798128
  O         0.7834503396       13.1615475681        5.6632092770
  O         3.3716567214        8.7563493442        5.7019310037
  O         5.9137169809        4.3032968883        5.7542205506
  O        -4.3343201744       13.1790225720        5.6735887457
  O        -1.7686036191        8.7656759932        5.6773597504
  O         0.7667102117        4.2776117780        5.6866134279
  O         3.4751683063       11.7773956576        5.6784916657
  O         6.0726381899        7.3308199873        5.6944638095
  O         8.5836680487        2.8893962354        5.7365074595
  O        -1.6741131328       11.7726308132        5.6570319855
  O         0.8996177654        7.3328874287        5.6623384976
  O         3.4664186365        2.8840577618        5.6693717106
  O        -6.7817147208       11.7558972940        5.6572231665
  O        -4.2404300057        7.3442820719        5.6505940770
  O        -1.6606491462        2.8810041877        5.6745134584
 Fe         7.7894645299       10.2585862672        6.4417254442
 Fe        10.3623060551        5.8394495466        6.4330567670
 Fe        12.8977413326        1.3922556753        6.4339273667
 Fe         2.6463467225       10.2836586633        6.4449835256
 Fe         5.1780889587        5.8635803418        6.4299816727
 Fe         7.7767119996        1.3570874162        6.4238318821
 Fe        -2.4838087422       10.2855253108        6.4445334099
 Fe         0.0981429225        5.8271866151        6.4280749587
 Fe         2.6520149360        1.3891263595        6.4321024795
  O         7.8433207305       10.3903607528        8.2643336454
  H         7.8574981986        9.5718353972        8.7913232981
  H         5.3524186487       10.6193862709        6.6989584677
  O        10.3694606135        5.8884096178        8.2719947693
  H        10.6722677227        5.1026720497        8.7598469011
  H         7.9149415469        6.2665695172        6.6341623692
  O        12.9434971420        1.5196468538        8.2621397819
  H        13.0016738745        0.6978441405        8.7827412847
  H        10.4760785397        1.7192643412        6.6668031207
  O         2.6993429369       10.3858478712        8.2702755602
  H         2.7950184813        9.5550304184        8.7711241771
  H         0.2264099019       10.6121761371        6.6820908522
  O         4.9563756958        6.3057430246        8.1760705155
  H         4.8864220393        5.7686178179        8.9910690879
  H         2.7986229487        6.1885944554        6.6526793598
  O         7.9065728426        1.2237813335        8.2574061574
  H         7.9770540426        0.3285267784        8.6361330289
  H         5.3436454903        1.7242168708        6.6738507546
  O        -2.3993339500       10.3974921964        8.2652315892
  H        -2.3534414383        9.5732676548        8.7814184495
  H        -4.8993113846       10.6158425610        6.6606300266
  O         0.1015413788        5.9378012489        8.2551634142
  H         0.2143782589        5.1359671719        8.7968072693
  H        -2.3446768944        6.1761527690        6.6568847020
  O         2.7120868787        1.5017461560        8.2544944586
  H         2.7678875338        0.6885411904        8.7875621807
  H         0.2353851789        1.7531517240        6.6858522594
  C         7.3809413538        4.0305069934        9.2233592841
  C         6.3676138820        4.3876381745       10.1883497884
  H         7.4793285993        2.9303786140        9.1499493808
  H         7.1802603425        4.4351974583        8.2227559315
  H         8.3425938915        4.4351951776        9.5716316485
  N         5.4527007415        4.6962321635       10.8554792971
     168
 i =       13, E =     -8144.3529839786
 Fe         5.0938794100       11.8196869300        0.3885799900
 Fe         7.6575796300        7.3792284900        0.3885799900
 Fe        10.2212798400        2.9387700600        0.3885799900
 Fe        -0.0335205200       11.8196869300        0.3885799900
 Fe         2.5301797000        7.3792284900        0.3885799900
 Fe         5.0938799200        2.9387700600        0.3885799900
 Fe        -5.1609204400       11.8196869300        0.3885799900
 Fe        -2.5972202200        7.3792284900        0.3885799900
 Fe        -0.0335200000        2.9387700600        0.3885799900
  O         8.4519195100        8.9577468800        1.1642700400
  O        11.0156197300        4.5172884400        1.1642700400
  O        13.5793199500        0.0768300000        1.1642700400
  O         3.3245195900        8.9577468800        1.1642700400
  O         5.8882198100        4.5172884400        1.1642700400
  O         8.4519200300        0.0768300000        1.1642700400
  O        -1.8028803300        8.9577468800        1.1642700400
  O         0.7608198900        4.5172884400        1.1642700400
  O         3.3245201100        0.0768300000        1.1642700400
  O         8.4568493000       11.7183869300        1.1650400200
  O        11.0205495200        7.2779284900        1.1650400200
  O        13.5842497300        2.8374700500        1.1650400200
  O         3.3294493700       11.7183869300        1.1650400200
  O         5.8931495900        7.2779284900        1.1650400200
  O         8.4568498100        2.8374700500        1.1650400200
  O        -1.7979505500       11.7183869300        1.1650400200
  O         0.7657496700        7.2779284900        1.1650400200
  O         3.3294498900        2.8374700500        1.1650400200
  O         6.0627194200       10.3425368500        1.1660399400
  O         8.6264196400        5.9020784100        1.1660399400
  O        11.1901198600        1.4616199700        1.1660399400
  O         0.9353195000       10.3425368500        1.1660399400
  O         3.4990197200        5.9020784100        1.1660399400
  O         6.0627199400        1.4616199700        1.1660399400
  O        -4.1920804200       10.3425368500        1.1660399400
  O        -1.6283802000        5.9020784100        1.1660399400
  O         0.9353200200        1.4616199700        1.1660399400
 Fe         7.6576695000       13.2997167500        1.9292099500
 Fe        10.2213697200        8.8592583200        1.9292099500
 Fe        12.7850699400        4.4187998800        1.9292099500
 Fe         2.5302695800       13.2997167500        1.9292099500
 Fe         5.0939698000        8.8592583200        1.9292099500
 Fe         7.6576700200        4.4187998800        1.9292099500
 Fe        -2.5971303400       13.2997167500        1.9292099500
 Fe        -0.0334301200        8.8592583200        1.9292099500
 Fe         2.5302701000        4.4187998800        1.9292099500
 Fe         7.6573893600       10.3392168700        2.7128999200
 Fe        10.2210895800        5.8987584300        2.7128999200
 Fe        12.7847898000        1.4582999900        2.7128999200
 Fe         2.5299894400       10.3392168700        2.7128999200
 Fe         5.0936896600        5.8987584300        2.7128999200
 Fe         7.6573898800        1.4582999900        2.7128999200
 Fe        -2.5974104800       10.3392168700        2.7128999200
 Fe        -0.0337102600        5.8987584300        2.7128999200
 Fe         2.5299899600        1.4582999900        2.7128999200
  O         4.1146763990       13.3227337340        3.5499477178
  O         6.6308603373        8.8718221766        3.4686879007
  O         9.2422450362        4.4502935170        3.5745040608
  O        -1.0203574113       13.3191274998        3.5412257328
  O         1.5485688613        8.8741658199        3.5374927607
  O         4.1234409595        4.4495687038        3.5704235525
  O        -6.1724277150       13.3048481926        3.4952970764
  O        -3.6043384358        8.8651551323        3.4842283823
  O        -1.0082801215        4.4522235099        3.5768834790
  O         6.8201770673       11.8776951004        3.4925095623
  O         9.3714019883        7.4610111355        3.4525585651
  O        11.9362336337        2.9492034796        3.5718475432
  O         1.6878497415       11.8434844346        3.5338885723
  O         4.2495756508        7.4697027774        3.4505944537
  O         6.8134174624        2.9577726134        3.5643512496
  O        -3.4410925305       11.8481653607        3.5274304144
  O        -0.8871881807        7.4236881617        3.5158499047
  O         1.6893102602        2.9519014692        3.5514536735
  O         9.4358129433       10.2134387374        3.4687188418
  O        11.9630134403        5.8029188555        3.5415785851
  O        14.5633762139        1.3386492420        3.4785028563
  O         4.3258429021       10.2048868345        3.4498378663
  O         6.8510388638        5.7929981129        3.5222944416
  O         9.4060115599        1.3668412704        3.5305923855
  O        -0.8490375536       10.2245601458        3.5177498549
  O         1.7195816060        5.8010578202        3.5198004446
  O         4.2884414259        1.3582697478        3.5200282187
 Fe         5.0422123411       11.8179348273        4.4179043370
 Fe         7.5957635200        7.4169797019        4.4056019876
 Fe        10.1538663803        2.9559040070        4.4617666857
 Fe        -0.0896992623       11.8238956728        4.4298277514
 Fe         2.4914648277        7.3937519343        4.4368736299
 Fe         5.0389710563        2.9621439292        4.4546104316
 Fe        -5.2255617468       11.8366338362        4.4154588315
 Fe        -2.6596759712        7.4035698021        4.4370065890
 Fe        -0.0919109826        2.9423665504        4.4373031274
 Fe         7.6106433692       13.1836824870        4.8269436283
 Fe        10.1781659395        8.7505959643        4.7762087451
 Fe        12.7364458083        4.3104595676        4.8598988944
 Fe         2.4886783715       13.1786476803        4.8298733081
 Fe         5.0544924921        8.7402547896        4.8203075977
 Fe         7.5958219212        4.3064520498        4.8692370722
 Fe        -2.6503927878       13.1851509211        4.8192067550
 Fe        -0.0770453524        8.7427123020        4.8319369048
 Fe         2.4718238738        4.3017244042        4.8437362054
  O         5.8577897834       10.3439441652        5.8845522214
  O         8.4332828723        5.9225912662        5.8771044815
  O        10.9760508924        1.4650173539        5.8799316394
  O         0.7245662783       10.3451060661        5.8787527274
  O         3.2776815947        5.9077312092        5.8460932897
  O         5.8566509984        1.4678187493        5.8848377161
  O        -4.3969205121       10.3445904290        5.8609792374
  O        -1.8269551945        5.9219110044        5.8742464319
  O         0.7206084198        1.4621257735        5.8821787332
  O         5.9318410829       13.1694839892        5.6996421431
  O         8.5073713184        8.7386356884        5.6731950606
  O        11.0455747343        4.2908718833        5.7189459546
  O         0.7924169964       13.1609749172        5.6769555995
  O         3.3714789102        8.7446378865        5.6887256075
  O         5.9313974519        4.3096209252        5.7676887065
  O        -4.3350640539       13.1742704055        5.6853761595
  O        -1.7745598564        8.7492172773        5.6771128637
  O         0.7882110075        4.2783041201        5.7093361560
  O         3.4724415987       11.7694341394        5.6804223745
  O         6.0567438351        7.3435048681        5.6761302598
  O         8.5854611168        2.8988285882        5.7394909700
  O        -1.6615831467       11.7710240555        5.6658805019
  O         0.9020207647        7.3401078136        5.6762911013
  O         3.4741522725        2.8885229549        5.6839506809
  O        -6.7879506489       11.7624094004        5.6645648999
  O        -4.2367190889        7.3517489113        5.6686673847
  O        -1.6539491202        2.8842966765        5.6853221269
 Fe         7.7887924301       10.2616390832        6.4393728788
 Fe        10.3548696725        5.8421082945        6.4346236737
 Fe        12.9005755191        1.3873447987        6.4336026273
 Fe         2.6505407697       10.2715423013        6.4404089789
 Fe         5.1879446417        5.8699167524        6.4361369300
 Fe         7.7799653847        1.3611217723        6.4295036917
 Fe        -2.4780093746       10.2794731341        6.4398751456
 Fe         0.0963102000        5.8296578072        6.4310028985
 Fe         2.6517195186        1.3879198535        6.4339854499
  O         7.8438470777       10.3897779785        8.2631360993
  H         7.8584306301        9.5718294821        8.7914722353
  H         5.3541569634       10.6161872618        6.6865496322
  O        10.3709658884        5.8934862813        8.2741925917
  H        10.6665794661        5.1024120900        8.7594614434
  H         7.9170102900        6.2698480970        6.6382060276
  O        12.9441076312        1.5176853479        8.2624530169
  H        13.0021424159        0.6966547541        8.7840414382
  H        10.4716163362        1.7214152122        6.6819021113
  O         2.6980098093       10.3833264146        8.2662457883
  H         2.7941523448        9.5559666137        8.7725404999
  H         0.2228829716       10.6100738001        6.6816263435
  O         4.9560724400        6.3128840734        8.1803489199
  H         4.8930947386        5.7641024532        8.9855090047
  H         2.8017752053        6.1939997713        6.6574880722
  O         7.9066224568        1.2256953915        8.2634181797
  H         7.9754087731        0.3275994661        8.6361585882
  H         5.3394049647        1.7251663954        6.6798672654
  O        -2.4010904803       10.3964808852        8.2635887380
  H        -2.3539946150        9.5734685271        8.7822964694
  H        -4.9038496025       10.6154815152        6.6600958087
  O         0.1032271927        5.9401323879        8.2579537635
  H         0.2144505513        5.1353149325        8.7953138824
  H        -2.3414590407        6.1826894145        6.6682350962
  O         2.7122410463        1.5011928127        8.2572629519
  H         2.7671501872        0.6869648044        8.7889882328
  H         0.2307570875        1.7487323703        6.6860893153
  C         7.3865348896        4.0261114062        9.2332860407
  C         6.3450750166        4.3906463303       10.1655075030
  H         7.4713427546        2.9286151196        9.1370404321
  H         7.1769147412        4.4355014459        8.2344245614
  H         8.3541181488        4.4272755479        9.5654078643
  N         5.4603943949        4.6993837294       10.8620363640
     168
 i =       14, E =     -8144.2724104704
 Fe         5.0938794100       11.8196869300        0.3885799900
 Fe         7.6575796300        7.3792284900        0.3885799900
 Fe        10.2212798400        2.9387700600        0.3885799900
 Fe        -0.0335205200       11.8196869300        0.3885799900
 Fe         2.5301797000        7.3792284900        0.3885799900
 Fe         5.0938799200        2.9387700600        0.3885799900
 Fe        -5.1609204400       11.8196869300        0.3885799900
 Fe        -2.5972202200        7.3792284900        0.3885799900
 Fe        -0.0335200000        2.9387700600        0.3885799900
  O         8.4519195100        8.9577468800        1.1642700400
  O        11.0156197300        4.5172884400        1.1642700400
  O        13.5793199500        0.0768300000        1.1642700400
  O         3.3245195900        8.9577468800        1.1642700400
  O         5.8882198100        4.5172884400        1.1642700400
  O         8.4519200300        0.0768300000        1.1642700400
  O        -1.8028803300        8.9577468800        1.1642700400
  O         0.7608198900        4.5172884400        1.1642700400
  O         3.3245201100        0.0768300000        1.1642700400
  O         8.4568493000       11.7183869300        1.1650400200
  O        11.0205495200        7.2779284900        1.1650400200
  O        13.5842497300        2.8374700500        1.1650400200
  O         3.3294493700       11.7183869300        1.1650400200
  O         5.8931495900        7.2779284900        1.1650400200
  O         8.4568498100        2.8374700500        1.1650400200
  O        -1.7979505500       11.7183869300        1.1650400200
  O         0.7657496700        7.2779284900        1.1650400200
  O         3.3294498900        2.8374700500        1.1650400200
  O         6.0627194200       10.3425368500        1.1660399400
  O         8.6264196400        5.9020784100        1.1660399400
  O        11.1901198600        1.4616199700        1.1660399400
  O         0.9353195000       10.3425368500        1.1660399400
  O         3.4990197200        5.9020784100        1.1660399400
  O         6.0627199400        1.4616199700        1.1660399400
  O        -4.1920804200       10.3425368500        1.1660399400
  O        -1.6283802000        5.9020784100        1.1660399400
  O         0.9353200200        1.4616199700        1.1660399400
 Fe         7.6576695000       13.2997167500        1.9292099500
 Fe        10.2213697200        8.8592583200        1.9292099500
 Fe        12.7850699400        4.4187998800        1.9292099500
 Fe         2.5302695800       13.2997167500        1.9292099500
 Fe         5.0939698000        8.8592583200        1.9292099500
 Fe         7.6576700200        4.4187998800        1.9292099500
 Fe        -2.5971303400       13.2997167500        1.9292099500
 Fe        -0.0334301200        8.8592583200        1.9292099500
 Fe         2.5302701000        4.4187998800        1.9292099500
 Fe         7.6573893600       10.3392168700        2.7128999200
 Fe        10.2210895800        5.8987584300        2.7128999200
 Fe        12.7847898000        1.4582999900        2.7128999200
 Fe         2.5299894400       10.3392168700        2.7128999200
 Fe         5.0936896600        5.8987584300        2.7128999200
 Fe         7.6573898800        1.4582999900        2.7128999200
 Fe        -2.5974104800       10.3392168700        2.7128999200
 Fe        -0.0337102600        5.8987584300        2.7128999200
 Fe         2.5299899600        1.4582999900        2.7128999200
  O         4.0264025226       13.2604154623        3.3907231445
  O         6.7260523442        8.8689220332        3.5638874051
  O         9.1859738647        4.4001136247        3.4470975343
  O        -1.0433514361       13.2968601729        3.4855552968
  O         1.5526764345        8.8974162660        3.5557615349
  O         4.0550959754        4.4230985521        3.4196181499
  O        -6.0365602043       13.3665149752        3.7059397739
  O        -3.5450924899        8.8933454700        3.6081905038
  O        -1.1386332784        4.3873811502        3.3268834790
  O         6.7822637399       11.7200768138        3.6729137047
  O         9.3745216183        7.3908411639        3.5574332067
  O        11.9344319775        3.0911689652        3.3441078415
  O         1.7010467435       11.9381625042        3.4056964858
  O         4.2405633208        7.3862755072        3.5468643218
  O         6.8038735023        3.0454434552        3.4397959879
  O        -3.4454541698       11.8808594638        3.4769718362
  O        -0.8909419048        7.4017591687        3.5302690884
  O         1.6804296031        3.0668080414        3.3762290606
  O         9.3854591244       10.2546109463        3.5550628510
  O        12.0702036215        5.7207977300        3.3264872723
  O        14.4697348731        1.4355477109        3.6595139490
  O         4.2593902804       10.2879679630        3.5450641942
  O         6.8986454954        5.7412336417        3.3961331488
  O         9.4784747312        1.3205257858        3.4103871165
  O        -0.8391369761       10.2525749695        3.5095365849
  O         1.8025879554        5.7534949050        3.3651066234
  O         4.3285075394        1.3562836690        3.4650253074
 Fe         5.0018752091       11.8899668575        4.4695889306
 Fe         7.5952776194        7.3292595655        4.4151440804
 Fe        10.1835934012        2.9580166188        4.4081325790
 Fe        -0.0665583870       11.8424242563        4.4154483842
 Fe         2.4271860339        7.3671252543        4.4077897439
 Fe         5.0296654645        3.0002225197        4.4214778684
 Fe        -5.1739247083       11.8099487928        4.4800267816
 Fe        -2.6757517258        7.3222039998        4.4109499507
 Fe        -0.0755544733        3.0663276022        4.4071347901
 Fe         7.6060816406       13.1695395999        4.8489599464
 Fe        10.1598820264        8.7409463415        4.8523527922
 Fe        12.7400004192        4.2852468107        4.7952469092
 Fe         2.4938658731       13.1839600775        4.8104946808
 Fe         5.0366436352        8.7759202397        4.7398319495
 Fe         7.6064564015        4.3154522503        4.8016077880
 Fe        -2.6423262199       13.1751007553        4.8231571719
 Fe        -0.0897039917        8.7380783066        4.8302768188
 Fe         2.4943476506        4.2925522684        4.8011431303
  O         5.8520481080       10.3247823613        5.8555020297
  O         8.4178988362        5.9211403366        5.8771775387
  O        10.9674151390        1.4608779559        5.9119858232
  O         0.7329964976       10.3410984153        5.8930420636
  O         3.2864579459        5.9287051668        5.8562027081
  O         5.8476404084        1.4664197498        5.9075862734
  O        -4.3957272253       10.3480633668        5.8848725654
  O        -1.8489743002        5.9031499350        5.8958807509
  O         0.7152692797        1.4630196760        5.8852067480
  O         5.9456110813       13.1611027840        5.7278692880
  O         8.4364081621        8.7306444603        5.6601719377
  O        11.0712109933        4.2833737356        5.7532112323
  O         0.8159514927       13.1489058644        5.7053480884
  O         3.3784706790        8.7142712220        5.6486969075
  O         5.9636208262        4.3184038245        5.7794111368
  O        -4.3122241711       13.1569904169        5.7295941739
  O        -1.7863543147        8.6963236395        5.6935617677
  O         0.8508947877        4.2906527358        5.7608855125
  O         3.4532948299       11.7516097812        5.6770096405
  O         6.0078890298        7.3739248392        5.6133099313
  O         8.5930399191        2.9165876508        5.7311182498
  O        -1.6363246778       11.7824700061        5.7018255231
  O         0.9029848367        7.3560362838        5.7207684640
  O         3.4923478291        2.9105060314        5.7287479861
  O        -6.7721189459       11.7661402942        5.6846893727
  O        -4.2145772838        7.3589810822        5.7201458229
  O        -1.6331537139        2.9033476333        5.7138798838
 Fe         7.7751987330       10.2782758714        6.4347683440
 Fe        10.3321810742        5.8440172964        6.4429231421
 Fe        12.9206511832        1.3784842353        6.4323216924
 Fe         2.6676472857       10.2373312171        6.4327666300
 Fe         5.2197462174        5.8857964589        6.4517108675
 Fe         7.7937933025        1.3664952094        6.4407231365
 Fe        -2.4643882393       10.2632519077        6.4295169761
 Fe         0.0895916499        5.8335979489        6.4475795097
 Fe         2.6547431036        1.3829716126        6.4379143759
  O         7.8477009980       10.3886777736        8.2623023694
  H         7.8617645847        9.5704519709        8.7916573683
  H         5.3599908246       10.6055505737        6.6579552877
  O        10.3734856365        5.9100433792        8.2825077459
  H        10.6419474082        5.1020105800        8.7600325495
  H         7.9210690658        6.2740937475        6.6452596810
  O        12.9445769966        1.5091947948        8.2625128505
  H        13.0047731637        0.6917749807        8.7885411584
  H        10.4626947191        1.7229591451        6.7170948431
  O         2.6942386724       10.3780571028        8.2603816578
  H         2.7914402732        9.5571700134        8.7771600057
  H         0.2153653176       10.6081575985        6.6870644373
  O         4.9613307125        6.3355637973        8.1922046658
  H         4.9170333701        5.7514855820        8.9701139827
  H         2.8130531808        6.2094623286        6.6740610442
  O         7.9083180399        1.2309340040        8.2785098226
  H         7.9688163903        0.3253965701        8.6370952783
  H         5.3280954749        1.7322074645        6.6999394142
  O        -2.4072844370       10.3943683150        8.2627980815
  H        -2.3570128809        9.5721395497        8.7844681454
  H        -4.9145424644       10.6177863777        6.6744299697
  O         0.1069937289        5.9486528560        8.2715169673
  H         0.2146851460        5.1315863742        8.7902436712
  H        -2.3317519837        6.1959372405        6.7013069502
  O         2.7123624337        1.4986058339        8.2658535945
  H         2.7638614682        0.6806666028        8.7929804197
  H         0.2130222696        1.7318401650        6.6861679858
  C         7.3887845135        4.0125240058        9.2411352096
  C         6.3109057150        4.3969210488       10.1288431115
  H         7.4368585131        2.9192332583        9.0977424227
  H         7.1748895389        4.4452334846        8.2502575329
  H         8.3698953545        4.3895320743        9.5563529527
  N         5.4723607748        4.7098981373       10.8671893405
     168
 i =       15, E =     -8144.3623087097
 Fe         5.0938794100       11.8196869300        0.3885799900
 Fe         7.6575796300        7.3792284900        0.3885799900
 Fe        10.2212798400        2.9387700600        0.3885799900
 Fe        -0.0335205200       11.8196869300        0.3885799900
 Fe         2.5301797000        7.3792284900        0.3885799900
 Fe         5.0938799200        2.9387700600        0.3885799900
 Fe        -5.1609204400       11.8196869300        0.3885799900
 Fe        -2.5972202200        7.3792284900        0.3885799900
 Fe        -0.0335200000        2.9387700600        0.3885799900
  O         8.4519195100        8.9577468800        1.1642700400
  O        11.0156197300        4.5172884400        1.1642700400
  O        13.5793199500        0.0768300000        1.1642700400
  O         3.3245195900        8.9577468800        1.1642700400
  O         5.8882198100        4.5172884400        1.1642700400
  O         8.4519200300        0.0768300000        1.1642700400
  O        -1.8028803300        8.9577468800        1.1642700400
  O         0.7608198900        4.5172884400        1.1642700400
  O         3.3245201100        0.0768300000        1.1642700400
  O         8.4568493000       11.7183869300        1.1650400200
  O        11.0205495200        7.2779284900        1.1650400200
  O        13.5842497300        2.8374700500        1.1650400200
  O         3.3294493700       11.7183869300        1.1650400200
  O         5.8931495900        7.2779284900        1.1650400200
  O         8.4568498100        2.8374700500        1.1650400200
  O        -1.7979505500       11.7183869300        1.1650400200
  O         0.7657496700        7.2779284900        1.1650400200
  O         3.3294498900        2.8374700500        1.1650400200
  O         6.0627194200       10.3425368500        1.1660399400
  O         8.6264196400        5.9020784100        1.1660399400
  O        11.1901198600        1.4616199700        1.1660399400
  O         0.9353195000       10.3425368500        1.1660399400
  O         3.4990197200        5.9020784100        1.1660399400
  O         6.0627199400        1.4616199700        1.1660399400
  O        -4.1920804200       10.3425368500        1.1660399400
  O        -1.6283802000        5.9020784100        1.1660399400
  O         0.9353200200        1.4616199700        1.1660399400
 Fe         7.6576695000       13.2997167500        1.9292099500
 Fe        10.2213697200        8.8592583200        1.9292099500
 Fe        12.7850699400        4.4187998800        1.9292099500
 Fe         2.5302695800       13.2997167500        1.9292099500
 Fe         5.0939698000        8.8592583200        1.9292099500
 Fe         7.6576700200        4.4187998800        1.9292099500
 Fe        -2.5971303400       13.2997167500        1.9292099500
 Fe        -0.0334301200        8.8592583200        1.9292099500
 Fe         2.5302701000        4.4187998800        1.9292099500
 Fe         7.6573893600       10.3392168700        2.7128999200
 Fe        10.2210895800        5.8987584300        2.7128999200
 Fe        12.7847898000        1.4582999900        2.7128999200
 Fe         2.5299894400       10.3392168700        2.7128999200
 Fe         5.0936896600        5.8987584300        2.7128999200
 Fe         7.6573898800        1.4582999900        2.7128999200
 Fe        -2.5974104800       10.3392168700        2.7128999200
 Fe        -0.0337102600        5.8987584300        2.7128999200
 Fe         2.5299899600        1.4582999900        2.7128999200
  O         4.0867404662       13.3030455917        3.4983583031
  O         6.6717597267        8.8729458141        3.5157032554
  O         9.2200936327        4.4331762033        3.5275382485
  O        -1.0170186705       13.3192231699        3.5403344634
  O         1.5343476855        8.8784537744        3.5273446022
  O         4.0960008025        4.4344550147        3.5096040463
  O        -6.1242443882       13.3338484171        3.5805223193
  O        -3.5997984813        8.8717517548        3.5114728727
  O        -1.0476086723        4.4264986144        3.4886066621
  O         6.8097943914       11.8248938469        3.5651641374
  O         9.3813087442        7.4396689790        3.4872938979
  O        11.9357465064        3.0044823994        3.4799528249
  O         1.6906396914       11.8819541239        3.4787343155
  O         4.2494224257        7.4253459971        3.5056551907
  O         6.8127148606        2.9916407809        3.5190542369
  O        -3.4426222369       11.8507905002        3.5290783647
  O        -0.8794189162        7.4234608149        3.5119125669
  O         1.6876550633        3.0021828076        3.4873566729
  O         9.4318646147       10.2244845707        3.4839678074
  O        11.9990475374        5.7736114789        3.4661593480
  O        14.5216406855        1.3660743286        3.5509950589
  O         4.2874806668       10.2362377127        3.5060683880
  O         6.8663551203        5.7724879736        3.4843632919
  O         9.4312475814        1.3473760473        3.4849695464
  O        -0.8314909364       10.2265000404        3.4952418106
  O         1.7447398333        5.7760591498        3.4692456756
  O         4.2921083125        1.3622950503        3.5195988276
 Fe         5.0313292069       11.8403054792        4.4395514251
 Fe         7.6036772535        7.3886629724        4.4087164337
 Fe        10.1649505739        2.9556178138        4.4404335693
 Fe        -0.0820152457       11.8227590130        4.4221721799
 Fe         2.4640651008        7.3883830254        4.4200150737
 Fe         5.0376884321        2.9762700906        4.4469531837
 Fe        -5.2130883098       11.8272997172        4.4433264355
 Fe        -2.6615291778        7.3860299654        4.4172253751
 Fe        -0.0884184994        2.9742462158        4.4269440909
 Fe         7.6113203896       13.1799026166        4.8580174503
 Fe        10.1716489687        8.7447619991        4.8133960222
 Fe        12.7385823186        4.3021874226        4.8167735215
 Fe         2.4876026725       13.1815986696        4.8104735709
 Fe         5.0488728405        8.7521286974        4.8028781050
 Fe         7.6025545479        4.3087424308        4.8392085783
 Fe        -2.6434091281       13.1838940539        4.8303102863
 Fe        -0.0845118075        8.7416970840        4.8336747623
 Fe         2.4842102436        4.3019654071        4.8268506358
  O         5.8529462804       10.3406334708        5.8753086805
  O         8.4265277427        5.9227879802        5.8743166786
  O        10.9768609842        1.4560960458        5.8903273195
  O         0.7284379827       10.3438888764        5.8827332195
  O         3.2782570445        5.9182980037        5.8454305238
  O         5.8567625832        1.4696059241        5.8947714806
  O        -4.3978205948       10.3469005087        5.8734889064
  O        -1.8385937833        5.9098573246        5.8776174256
  O         0.7269260914        1.4688349023        5.8895666515
  O         5.9248360234       13.1673317397        5.7122626528
  O         8.4827164365        8.7313823753        5.6798630708
  O        11.0620103702        4.2946318542        5.7176046646
  O         0.8028794040       13.1591875954        5.6794112807
  O         3.3690159103        8.7322642891        5.6763245438
  O         5.9443600959        4.3216149381        5.7611745042
  O        -4.3211126818       13.1650741837        5.7091395652
  O        -1.7764092325        8.7261630226        5.6932785523
  O         0.8069105080        4.2888036712        5.7113426999
  O         3.4623160246       11.7696421523        5.6757050753
  O         6.0440146974        7.3424091590        5.6458543345
  O         8.5854606794        2.9009030076        5.7276335837
  O        -1.6502382709       11.7759579201        5.6818467862
  O         0.9020011450        7.3401453443        5.6877061279
  O         3.4766932734        2.8986051026        5.6945062750
  O        -6.7775131964       11.7627295259        5.6866394926
  O        -4.2249063132        7.3407614888        5.6835512568
  O        -1.6539570434        2.9057499278        5.6941764546
 Fe         7.7775729088       10.2655591991        6.4348765039
 Fe        10.3439952750        5.8362668449        6.4418220466
 Fe        12.9143115648        1.3925356185        6.4359450039
 Fe         2.6577540197       10.2605624337        6.4368058376
 Fe         5.1948953783        5.8769279282        6.4427031290
 Fe         7.7850563402        1.3622280552        6.4317664853
 Fe        -2.4717484272       10.2732297366        6.4345320054
 Fe         0.0925733993        5.8309867116        6.4421697903
 Fe         2.6569691101        1.3862048080        6.4363745950
  O         7.8459167369       10.3878706410        8.2602423122
  H         7.8589094808        9.5719413847        8.7921897503
  H         5.3534614703       10.6079285467        6.6784585277
  O        10.3720907104        5.9012906162        8.2802372658
  H        10.6604793354        5.1021366423        8.7571037031
  H         7.9185878699        6.2701965725        6.6403958202
  O        12.9430965297        1.5145657771        8.2647940111
  H        13.0029256572        0.6942675229        8.7869063099
  H        10.4723613071        1.7202755473        6.6932248956
  O         2.6967105279       10.3796715386        8.2635548421
  H         2.7937836035        9.5561210978        8.7760101911
  H         0.2214759013       10.6092414530        6.6829925017
  O         4.9577469429        6.3216607346        8.1854827285
  H         4.8998310678        5.7591223721        8.9806164770
  H         2.8097293163        6.1998553097        6.6643581596
  O         7.9077647800        1.2270613485        8.2669700560
  H         7.9736384595        0.3271065059        8.6367724285
  H         5.3356603564        1.7271634533        6.6880672487
  O        -2.4028960838       10.3945365331        8.2618136188
  H        -2.3548967727        9.5733330535        8.7839124361
  H        -4.9084511072       10.6160799747        6.6698159029
  O         0.1035470751        5.9460675013        8.2674177284
  H         0.2148065834        5.1333904177        8.7927372084
  H        -2.3348002042        6.1874505395        6.6802641315
  O         2.7117072061        1.5003014932        8.2609636412
  H         2.7660400543        0.6846221883        8.7905986290
  H         0.2214313510        1.7427002199        6.6868951282
  C         7.3885450802        4.0226709749        9.2314596725
  C         6.3409361495        4.3925660321       10.1563750015
  H         7.4631639605        2.9252963775        9.1302095428
  H         7.1738338256        4.4389036919        8.2361032118
  H         8.3565793456        4.4192630286        9.5665253512
  N         5.4630663060        4.7016802566       10.8634153216
     168
 i =       16, E =     -8144.2476120265
 Fe         5.0938794100       11.8196869300        0.3885799900
 Fe         7.6575796300        7.3792284900        0.3885799900
 Fe        10.2212798400        2.9387700600        0.3885799900
 Fe        -0.0335205200       11.8196869300        0.3885799900
 Fe         2.5301797000        7.3792284900        0.3885799900
 Fe         5.0938799200        2.9387700600        0.3885799900
 Fe        -5.1609204400       11.8196869300        0.3885799900
 Fe        -2.5972202200        7.3792284900        0.3885799900
 Fe        -0.0335200000        2.9387700600        0.3885799900
  O         8.4519195100        8.9577468800        1.1642700400
  O        11.0156197300        4.5172884400        1.1642700400
  O        13.5793199500        0.0768300000        1.1642700400
  O         3.3245195900        8.9577468800        1.1642700400
  O         5.8882198100        4.5172884400        1.1642700400
  O         8.4519200300        0.0768300000        1.1642700400
  O        -1.8028803300        8.9577468800        1.1642700400
  O         0.7608198900        4.5172884400        1.1642700400
  O         3.3245201100        0.0768300000        1.1642700400
  O         8.4568493000       11.7183869300        1.1650400200
  O        11.0205495200        7.2779284900        1.1650400200
  O        13.5842497300        2.8374700500        1.1650400200
  O         3.3294493700       11.7183869300        1.1650400200
  O         5.8931495900        7.2779284900        1.1650400200
  O         8.4568498100        2.8374700500        1.1650400200
  O        -1.7979505500       11.7183869300        1.1650400200
  O         0.7657496700        7.2779284900        1.1650400200
  O         3.3294498900        2.8374700500        1.1650400200
  O         6.0627194200       10.3425368500        1.1660399400
  O         8.6264196400        5.9020784100        1.1660399400
  O        11.1901198600        1.4616199700        1.1660399400
  O         0.9353195000       10.3425368500        1.1660399400
  O         3.4990197200        5.9020784100        1.1660399400
  O         6.0627199400        1.4616199700        1.1660399400
  O        -4.1920804200       10.3425368500        1.1660399400
  O        -1.6283802000        5.9020784100        1.1660399400
  O         0.9353200200        1.4616199700        1.1660399400
 Fe         7.6576695000       13.2997167500        1.9292099500
 Fe        10.2213697200        8.8592583200        1.9292099500
 Fe        12.7850699400        4.4187998800        1.9292099500
 Fe         2.5302695800       13.2997167500        1.9292099500
 Fe         5.0939698000        8.8592583200        1.9292099500
 Fe         7.6576700200        4.4187998800        1.9292099500
 Fe        -2.5971303400       13.2997167500        1.9292099500
 Fe        -0.0334301200        8.8592583200        1.9292099500
 Fe         2.5302701000        4.4187998800        1.9292099500
 Fe         7.6573893600       10.3392168700        2.7128999200
 Fe        10.2210895800        5.8987584300        2.7128999200
 Fe        12.7847898000        1.4582999900        2.7128999200
 Fe         2.5299894400       10.3392168700        2.7128999200
 Fe         5.0936896600        5.8987584300        2.7128999200
 Fe         7.6573898800        1.4582999900        2.7128999200
 Fe        -2.5974104800       10.3392168700        2.7128999200
 Fe        -0.0337102600        5.8987584300        2.7128999200
 Fe         2.5299899600        1.4582999900        2.7128999200
  O         4.2021076354       13.3753657761        3.7090541146
  O         6.5666611119        8.8666306456        3.3966006312
  O         9.2697264729        4.4793429410        3.6430248101
  O        -1.0443496119       13.3209436318        3.5177942074
  O         1.5100822691        8.8622388996        3.4858595575
  O         4.1911708221        4.4784074122        3.7120608433
  O        -6.2519572719       13.2675882139        3.3778308996
  O        -3.6172536100        8.8623249687        3.4586665319
  O        -0.9206344466        4.4979032914        3.7386066621
  O         6.8465664719       11.9672190347        3.3893683532
  O         9.3733655009        7.4702996006        3.4425996732
  O        11.9344435131        2.8528726097        3.7206980304
  O         1.6742945676       11.7422790977        3.6800865791
  O         4.2628954203        7.5242090962        3.3799236875
  O         6.8201875778        2.9153664219        3.6379252546
  O        -3.4306399738       11.8672788949        3.5092686353
  O        -0.8752982244        7.4608879320        3.4734528311
  O         1.6865093218        2.8621789077        3.6934341554
  O         9.4419626638       10.2044605269        3.4615813834
  O        11.8889925336        5.8508044934        3.6874852100
  O        14.6214127846        1.2802055757        3.3704038080
  O         4.3744852241       10.1555297811        3.3692737045
  O         6.8209709158        5.8166634579        3.6014869406
  O         9.3281618649        1.4161436613        3.6711343618
  O        -0.8279784159       10.1950290521        3.4821680071
  O         1.6486152556        5.8339755001        3.6606206234
  O         4.2887216634        1.3319279663        3.5059024874
 Fe         5.0773667896       11.7602050330        4.3933487329
 Fe         7.5864581658        7.4665052801        4.3995568970
 Fe        10.1408464894        2.9725246805        4.5071280536
 Fe        -0.1352444276       11.8219638504        4.4265752491
 Fe         2.5255993957        7.4364479814        4.4301811253
 Fe         5.0426856534        2.9079878590        4.4807628101
 Fe        -5.2341944624       11.8615022039        4.3779793978
 Fe        -2.6313119603        7.4442621505        4.4477953834
 Fe        -0.1121719249        2.8660279926        4.4634672308
 Fe         7.6098068105       13.1883235075        4.8253860175
 Fe        10.1876648731        8.7545973831        4.7591190229
 Fe        12.7385978691        4.3173284758        4.9005351760
 Fe         2.4868199014       13.1743890401        4.8789120778
 Fe         5.0570062727        8.7275243754        4.8379664250
 Fe         7.5970094373        4.3001786539        4.9211538750
 Fe        -2.6520828384       13.1913066558        4.8181580276
 Fe        -0.0673958628        8.7394711680        4.8330359275
 Fe         2.4623729884        4.3012811416        4.9017082645
  O         5.8596058830       10.3470003982        5.8988620025
  O         8.4420179520        5.9328755725        5.8761824166
  O        10.9797198741        1.4788040297        5.8681088462
  O         0.7156379272       10.3476674601        5.8734528060
  O         3.2704540919        5.9144308358        5.8407783675
  O         5.8623657431        1.4692719311        5.8820205043
  O        -4.3983246220       10.3430909798        5.8515951327
  O        -1.8242699940        5.9287808042        5.8652484373
  O         0.7238299898        1.4579448843        5.8858385686
  O         5.9223058535       13.1661807846        5.6963882889
  O         8.5344437578        8.7409317845        5.6797569413
  O        11.0415106912        4.2996340426        5.7106840579
  O         0.7686044791       13.1602852744        5.6683490031
  O         3.3730900788        8.7590161166        5.7099838636
  O         5.9081349014        4.3031008975        5.7580073748
  O        -4.3423046476       13.1860053347        5.6708385171
  O        -1.7657226495        8.7779836711        5.6684856962
  O         0.7504232308        4.2718612261        5.6899553937
  O         3.4965051066       11.7705218513        5.6857745811
  O         6.0706330867        7.3342804014        5.6999010751
  O         8.5893439210        2.8876041708        5.7537108920
  O        -1.6767403341       11.7699327476        5.6612664724
  O         0.9119694819        7.3273355526        5.6563962259
  O         3.4713722042        2.8782415763        5.6816250666
  O        -6.7854297483       11.7591741568        5.6544999070
  O        -4.2400788065        7.3413340063        5.6396131622
  O        -1.6696160197        2.8759691355        5.6839736321
 Fe         7.7965698483       10.2544312819        6.4400924677
 Fe        10.3632342242        5.8431649721        6.4338252941
 Fe        12.8876108750        1.3890978668        6.4363860432
 Fe         2.6425183393       10.2880649070        6.4411840745
 Fe         5.1741836696        5.8637910729        6.4364810604
 Fe         7.7732273080        1.3578569892        6.4251490606
 Fe        -2.4869622253       10.2870406757        6.4414082093
 Fe         0.0911970792        5.8293818418        6.4254827940
 Fe         2.6486104338        1.3908149791        6.4383832452
  O         7.8396038003       10.3874796111        8.2631423011
  H         7.8554073859        9.5723512322        8.7954648217
  H         5.3514260627       10.6179915903        6.7019516972
  O        10.3721371420        5.8858846993        8.2733623395
  H        10.6913686432        5.1022782819        8.7542908392
  H         7.9136784898        6.2691896888        6.6351920748
  O        12.9430958971        1.5231526658        8.2637463133
  H        12.9985272696        0.7004123652        8.7830945139
  H        10.4763066072        1.7145703179        6.6738701796
  O         2.7004935946       10.3848804815        8.2678803458
  H         2.7968531598        9.5554269651        8.7713152810
  H         0.2248164357       10.6128133320        6.6828750484
  O         4.9467332036        6.3022813479        8.1810535090
  H         4.8729325967        5.7678619335        8.9976736565
  H         2.7988692635        6.1888629312        6.6597767667
  O         7.9048816432        1.2224974694        8.2572523681
  H         7.9822956169        0.3282354707        8.6361331218
  H         5.3452236866        1.7205851786        6.6789877369
  O        -2.3968348938       10.3962408202        8.2611925060
  H        -2.3511221768        9.5754722285        8.7830972709
  H        -4.9020307345       10.6104824865        6.6539388825
  O         0.1006457452        5.9385548081        8.2545117275
  H         0.2142640924        5.1375747890        8.7978868392
  H        -2.3417135859        6.1826466137        6.6592427343
  O         2.7111692645        1.5040591203        8.2579335936
  H         2.7698449217        0.6900387877        8.7885554425
  H         0.2405171139        1.7587806800        6.6905812483
  C         7.4112365504        4.0343927760        9.2518285070
  C         6.3302602495        4.3955029948       10.1394414143
  H         7.5057075532        2.9372197292        9.1683384369
  H         7.1595418057        4.4195568736        8.2488639970
  H         8.3694672766        4.4722228660        9.5645546379
  N         5.4646728621        4.6876534448       10.8779260733
     168
 i =       17, E =     -8144.3566361383
 Fe         5.0938794100       11.8196869300        0.3885799900
 Fe         7.6575796300        7.3792284900        0.3885799900
 Fe        10.2212798400        2.9387700600        0.3885799900
 Fe        -0.0335205200       11.8196869300        0.3885799900
 Fe         2.5301797000        7.3792284900        0.3885799900
 Fe         5.0938799200        2.9387700600        0.3885799900
 Fe        -5.1609204400       11.8196869300        0.3885799900
 Fe        -2.5972202200        7.3792284900        0.3885799900
 Fe        -0.0335200000        2.9387700600        0.3885799900
  O         8.4519195100        8.9577468800        1.1642700400
  O        11.0156197300        4.5172884400        1.1642700400
  O        13.5793199500        0.0768300000        1.1642700400
  O         3.3245195900        8.9577468800        1.1642700400
  O         5.8882198100        4.5172884400        1.1642700400
  O         8.4519200300        0.0768300000        1.1642700400
  O        -1.8028803300        8.9577468800        1.1642700400
  O         0.7608198900        4.5172884400        1.1642700400
  O         3.3245201100        0.0768300000        1.1642700400
  O         8.4568493000       11.7183869300        1.1650400200
  O        11.0205495200        7.2779284900        1.1650400200
  O        13.5842497300        2.8374700500        1.1650400200
  O         3.3294493700       11.7183869300        1.1650400200
  O         5.8931495900        7.2779284900        1.1650400200
  O         8.4568498100        2.8374700500        1.1650400200
  O        -1.7979505500       11.7183869300        1.1650400200
  O         0.7657496700        7.2779284900        1.1650400200
  O         3.3294498900        2.8374700500        1.1650400200
  O         6.0627194200       10.3425368500        1.1660399400
  O         8.6264196400        5.9020784100        1.1660399400
  O        11.1901198600        1.4616199700        1.1660399400
  O         0.9353195000       10.3425368500        1.1660399400
  O         3.4990197200        5.9020784100        1.1660399400
  O         6.0627199400        1.4616199700        1.1660399400
  O        -4.1920804200       10.3425368500        1.1660399400
  O        -1.6283802000        5.9020784100        1.1660399400
  O         0.9353200200        1.4616199700        1.1660399400
 Fe         7.6576695000       13.2997167500        1.9292099500
 Fe        10.2213697200        8.8592583200        1.9292099500
 Fe        12.7850699400        4.4187998800        1.9292099500
 Fe         2.5302695800       13.2997167500        1.9292099500
 Fe         5.0939698000        8.8592583200        1.9292099500
 Fe         7.6576700200        4.4187998800        1.9292099500
 Fe        -2.5971303400       13.2997167500        1.9292099500
 Fe        -0.0334301200        8.8592583200        1.9292099500
 Fe         2.5302701000        4.4187998800        1.9292099500
 Fe         7.6573893600       10.3392168700        2.7128999200
 Fe        10.2210895800        5.8987584300        2.7128999200
 Fe        12.7847898000        1.4582999900        2.7128999200
 Fe         2.5299894400       10.3392168700        2.7128999200
 Fe         5.0936896600        5.8987584300        2.7128999200
 Fe         7.6573898800        1.4582999900        2.7128999200
 Fe        -2.5974104800       10.3392168700        2.7128999200
 Fe        -0.0337102600        5.8987584300        2.7128999200
 Fe         2.5299899600        1.4582999900        2.7128999200
  O         4.1368428368       13.3296976544        3.5838044776
  O         6.6379498633        8.8677001494        3.4739440943
  O         9.2312673845        4.4475697313        3.5583397109
  O        -1.0330451320       13.3146101190        3.5210144725
  O         1.5219649809        8.8730595736        3.5073189162
  O         4.1345229693        4.4521752337        3.5848093793
  O        -6.1645570436       13.3114006806        3.5074105982
  O        -3.6025329806        8.8726271406        3.5041159397
  O        -1.0003089731        4.4497847922        3.5730216200
  O         6.8183404860       11.8734348800        3.4974129000
  O         9.3795562203        7.4435774135        3.4825518954
  O        11.9338610257        2.9523302897        3.5574695400
  O         1.6830764784       11.8219783937        3.5618063709
  O         4.2543472732        7.4574829242        3.4615349355
  O         6.8158526042        2.9708129669        3.5545118129
  O        -3.4407796597       11.8648605559        3.5108985178
  O        -0.8769705020        7.4367385519        3.4959689694
  O         1.6841347744        2.9467081540        3.5639748840
  O         9.4317047897       10.2214270252        3.4821005207
  O        11.9614148604        5.8019676013        3.5411961966
  O        14.5566219940        1.3396511970        3.4844975558
  O         4.3183534306       10.2155209410        3.4562891268
  O         6.8521916826        5.7860936599        3.5192990592
  O         9.3873948552        1.3745909836        3.5611609069
  O        -0.8266178159       10.2165556082        3.4829498604
  O         1.7084787968        5.7977253719        3.5386387462
  O         4.2949635350        1.3485141491        3.5073727079
 Fe         5.0507213342       11.8146893473        4.4304093407
 Fe         7.5983964105        7.4106262790        4.4065250289
 Fe        10.1561673571        2.9657891576        4.4606900850
 Fe        -0.1040284705       11.8225146487        4.4230488516
 Fe         2.4806840873        7.4064952052        4.4183418805
 Fe         5.0414381308        2.9513807192        4.4592275987
 Fe        -5.2203566029       11.8394968964        4.4207912135
 Fe        -2.6494301856        7.4058758782        4.4284552764
 Fe        -0.0979525723        2.9377871276        4.4442751432
 Fe         7.6116440639       13.1823884712        4.8336251043
 Fe        10.1753182459        8.7473531813        4.8057325204
 Fe        12.7402283693        4.3042262494        4.8419110096
 Fe         2.4880614469       13.1764359348        4.8425374414
 Fe         5.0486685950        8.7473603403        4.8032645576
 Fe         7.6014660188        4.3058094567        4.8694225878
 Fe        -2.6462024290       13.1862235414        4.8237920778
 Fe        -0.0786257316        8.7417605091        4.8310145967
 Fe         2.4778964250        4.3000940772        4.8538807078
  O         5.8567985711       10.3409856059        5.8804297647
  O         8.4294018113        5.9265937896        5.8780852986
  O        10.9755593140        1.4625549127        5.8915026140
  O         0.7233026415       10.3427474781        5.8835566044
  O         3.2736049447        5.9202365345        5.8453912846
  O         5.8576485016        1.4680269125        5.8942646315
  O        -4.3968608001       10.3474995351        5.8688280824
  O        -1.8364946932        5.9158827307        5.8764906831
  O         0.7243544376        1.4596427436        5.8910910185
  O         5.9354858662       13.1655258333        5.7123063427
  O         8.4933874147        8.7321993543        5.6828359825
  O        11.0593849677        4.2955423312        5.7197186831
  O         0.7894574568       13.1566417776        5.6804712593
  O         3.3700167425        8.7385669448        5.6826725238
  O         5.9346615853        4.3147096962        5.7671739629
  O        -4.3279013036       13.1716907994        5.6957533629
  O        -1.7696714397        8.7410593924        5.6885056486
  O         0.7939605911        4.2810129622        5.7134696606
  O         3.4780931332       11.7677744536        5.6847098648
  O         6.0486475864        7.3435175703        5.6586091040
  O         8.5894636542        2.9016746404        5.7453557395
  O        -1.6598254880       11.7762582641        5.6771417695
  O         0.9060345412        7.3395917382        5.6822439318
  O         3.4773968022        2.8927478812        5.6950710814
  O        -6.7816903879       11.7678828967        5.6767362223
  O        -4.2262742066        7.3423630060        5.6771699834
  O        -1.6594757083        2.8961397496        5.6960673877
 Fe         7.7856080641       10.2646613755        6.4351520606
 Fe        10.3486583044        5.8388924101        6.4402618700
 Fe        12.9063101480        1.3878255275        6.4367306511
 Fe         2.6536180885       10.2665791634        6.4363370294
 Fe         5.1886756165        5.8749359853        6.4417128015
 Fe         7.7825411392        1.3620038152        6.4305506086
 Fe        -2.4754245541       10.2766075446        6.4352470554
 Fe         0.0922138369        5.8308641890        6.4373252608
 Fe         2.6539968801        1.3874098941        6.4380859396
  O         7.8432130717       10.3867047046        8.2606297077
  H         7.8573630870        9.5720686173        8.7944708002
  H         5.3524773941       10.6086219139        6.6827099613
  O        10.3729056964        5.8971187060        8.2794960811
  H        10.6740041599        5.1021262695        8.7544386262
  H         7.9168996823        6.2719300372        6.6418877410
  O        12.9426063030        1.5173055274        8.2649518776
  H        13.0008986174        0.6964485516        8.7864814797
  H        10.4717024263        1.7189130884        6.6950528902
  O         2.6979227875       10.3803976925        8.2635427136
  H         2.7950163856        9.5561364515        8.7749994936
  H         0.2204946330       10.6097884643        6.6852456408
  O         4.9525051960        6.3159456034        8.1855638362
  H         4.8893219465        5.7609355812        8.9864147435
  H         2.8076879168        6.1995590213        6.6667015818
  O         7.9065249826        1.2258457972        8.2652906197
  H         7.9772223471        0.3272380634        8.6367879354
  H         5.3380984433        1.7246277765        6.6889251693
  O        -2.4008320590       10.3942757122        8.2607232787
  H        -2.3532492442        9.5743389322        8.7846181056
  H        -4.9084344739       10.6142325466        6.6653815861
  O         0.1023787774        5.9448519461        8.2641755584
  H         0.2145225538        5.1350189492        8.7939887620
  H        -2.3364773096        6.1892867892        6.6775238874
  O         2.7110086667        1.5013553941        8.2613918246
  H         2.7673880013        0.6860869652        8.7911908365
  H         0.2262558538        1.7468851694        6.6895078648
  C         7.3961906040        4.0282139393        9.2378321990
  C         6.3408527913        4.3923809154       10.1552830445
  H         7.4827204667        2.9306085504        9.1475164374
  H         7.1698337110        4.4304767652        8.2389571022
  H         8.3589800407        4.4430556295        9.5654572217
  N         5.4630552799        4.6964354968       10.8674117343
     168
 i =       18, E =     -8144.2973859710
 Fe         5.0938794100       11.8196869300        0.3885799900
 Fe         7.6575796300        7.3792284900        0.3885799900
 Fe        10.2212798400        2.9387700600        0.3885799900
 Fe        -0.0335205200       11.8196869300        0.3885799900
 Fe         2.5301797000        7.3792284900        0.3885799900
 Fe         5.0938799200        2.9387700600        0.3885799900
 Fe        -5.1609204400       11.8196869300        0.3885799900
 Fe        -2.5972202200        7.3792284900        0.3885799900
 Fe        -0.0335200000        2.9387700600        0.3885799900
  O         8.4519195100        8.9577468800        1.1642700400
  O        11.0156197300        4.5172884400        1.1642700400
  O        13.5793199500        0.0768300000        1.1642700400
  O         3.3245195900        8.9577468800        1.1642700400
  O         5.8882198100        4.5172884400        1.1642700400
  O         8.4519200300        0.0768300000        1.1642700400
  O        -1.8028803300        8.9577468800        1.1642700400
  O         0.7608198900        4.5172884400        1.1642700400
  O         3.3245201100        0.0768300000        1.1642700400
  O         8.4568493000       11.7183869300        1.1650400200
  O        11.0205495200        7.2779284900        1.1650400200
  O        13.5842497300        2.8374700500        1.1650400200
  O         3.3294493700       11.7183869300        1.1650400200
  O         5.8931495900        7.2779284900        1.1650400200
  O         8.4568498100        2.8374700500        1.1650400200
  O        -1.7979505500       11.7183869300        1.1650400200
  O         0.7657496700        7.2779284900        1.1650400200
  O         3.3294498900        2.8374700500        1.1650400200
  O         6.0627194200       10.3425368500        1.1660399400
  O         8.6264196400        5.9020784100        1.1660399400
  O        11.1901198600        1.4616199700        1.1660399400
  O         0.9353195000       10.3425368500        1.1660399400
  O         3.4990197200        5.9020784100        1.1660399400
  O         6.0627199400        1.4616199700        1.1660399400
  O        -4.1920804200       10.3425368500        1.1660399400
  O        -1.6283802000        5.9020784100        1.1660399400
  O         0.9353200200        1.4616199700        1.1660399400
 Fe         7.6576695000       13.2997167500        1.9292099500
 Fe        10.2213697200        8.8592583200        1.9292099500
 Fe        12.7850699400        4.4187998800        1.9292099500
 Fe         2.5302695800       13.2997167500        1.9292099500
 Fe         5.0939698000        8.8592583200        1.9292099500
 Fe         7.6576700200        4.4187998800        1.9292099500
 Fe        -2.5971303400       13.2997167500        1.9292099500
 Fe        -0.0334301200        8.8592583200        1.9292099500
 Fe         2.5302701000        4.4187998800        1.9292099500
 Fe         7.6573893600       10.3392168700        2.7128999200
 Fe        10.2210895800        5.8987584300        2.7128999200
 Fe        12.7847898000        1.4582999900        2.7128999200
 Fe         2.5299894400       10.3392168700        2.7128999200
 Fe         5.0936896600        5.8987584300        2.7128999200
 Fe         7.6573898800        1.4582999900        2.7128999200
 Fe        -2.5974104800       10.3392168700        2.7128999200
 Fe        -0.0337102600        5.8987584300        2.7128999200
 Fe         2.5299899600        1.4582999900        2.7128999200
  O         4.0501391183       13.2823733236        3.4388214005
  O         6.6773949068        8.8648202617        3.5085517869
  O         9.1961898831        4.4136548479        3.4761292514
  O        -1.0195450675       13.3182677250        3.5316746561
  O         1.5388388442        8.8761121625        3.5361205620
  O         4.0577211568        4.4084451824        3.4218968368
  O        -6.0856733553       13.3655197751        3.6492409531
  O        -3.4625134780        8.9338373787        3.7541159397
  O        -1.0871377611        4.3959258166        3.4042357082
  O         6.7969489734       11.7820628253        3.6245446702
  O         9.3741667694        7.2781191954        3.7227594689
  O        11.9410176549        3.0662155049        3.3951231963
  O         1.6955968313       11.9315379080        3.4128760881
  O         4.2427806575        7.4135234209        3.5079298813
  O         6.8081348941        3.0278416628        3.4635240402
  O        -3.4416320168       11.8646695906        3.5158885871
  O        -0.8692936154        7.4094629689        3.5215021802
  O         1.6937394605        3.0670785650        3.3996399227
  O         9.3214512995       10.3119678702        3.6961617948
  O        12.0374052499        5.7373560721        3.3854438439
  O        14.4864102912        1.3936319549        3.6120078848
  O         4.2772141352       10.2490772024        3.5154545557
  O         6.8854334206        5.7504700192        3.4340727737
  O         9.4642501410        1.3190016075        3.4257153235
  O        -0.8272174740       10.2396257306        3.4926913940
  O         1.7806861111        5.7475251237        3.3950332045
  O         4.3004431359        1.3665711615        3.5106842338
 Fe         5.0132902974       11.8583220229        4.4518512251
 Fe         7.5571749044        7.3702279380        4.4324084626
 Fe        10.1685072148        2.9484548780        4.4137598529
 Fe        -0.0679314344       11.8274397442        4.4158300664
 Fe         2.4466725539        7.3673286231        4.4144830992
 Fe         5.0363776849        2.9961159096        4.4354457900
 Fe        -5.1820502393       11.8687848702        4.5014445595
 Fe        -2.6323750774        7.3143335255        4.4449072762
 Fe        -0.0715495769        3.0023849542        4.4141183010
 Fe         7.6130376256       13.1789458143        4.8758407860
 Fe        10.1653610593        8.7360527970        4.9311560319
 Fe        12.7402358196        4.3005484724        4.7874372401
 Fe         2.4868902610       13.1814568164        4.8049580580
 Fe         5.0409708263        8.7629712693        4.7605054776
 Fe         7.6049434759        4.3110582528        4.7988978229
 Fe        -2.6330502248       13.1855549551        4.8318762981
 Fe        -0.0930430804        8.7428081471        4.8357857824
 Fe         2.4967367048        4.3044495621        4.7972895724
  O         5.8493694951       10.3379698897        5.8625232683
  O         8.4173367163        5.9202944915        5.8756484067
  O        10.9779897762        1.4495024835        5.9066708268
  O         0.7301315316       10.3380761585        5.8893497899
  O         3.2774164084        5.9182979586        5.8480937193
  O         5.8563939997        1.4672564573        5.9036733664
  O        -4.3963311779       10.3555033745        5.8957399308
  O        -1.8395794331        5.8955698266        5.8861014307
  O         0.7336496530        1.4735409205        5.8957689738
  O         5.9231021146       13.1620063406        5.7247564960
  O         8.4403344589        8.7176267275        5.7038046384
  O        11.0693150203        4.2920766335        5.7111056527
  O         0.8098577763       13.1588206057        5.6875971813
  O         3.3702409170        8.7228227642        5.6566124381
  O         5.9588856578        4.3352031179        5.7549327251
  O        -4.2893607673       13.1747355082        5.7409072594
  O        -1.7736151055        8.7045437883        5.7173817866
  O         0.8310963476        4.3017268188        5.7131001858
  O         3.4577487623       11.7679857343        5.6821849277
  O         6.0090678684        7.3441626211        5.6275679681
  O         8.5807276453        2.9128287700        5.7220581992
  O        -1.6438013788       11.7799987520        5.6898494939
  O         0.8974471246        7.3408704793        5.6965223935
  O         3.4758606505        2.9088716923        5.6968553698
  O        -6.7708689097       11.7720751646        5.7124284592
  O        -4.2030144016        7.3205544241        5.7141074170
  O        -1.6518332689        2.9231216199        5.6943369564
 Fe         7.7669375544       10.2746822959        6.4339617220
 Fe        10.3359787884        5.8260332556        6.4491746155
 Fe        12.9290435912        1.3963631647        6.4413326791
 Fe         2.6630373709       10.2455501922        6.4348693125
 Fe         5.1949868147        5.8807963579        6.4455081181
 Fe         7.7905129410        1.3677570341        6.4361532730
 Fe        -2.4658252511       10.2673557367        6.4333551391
 Fe         0.0893825517        5.8320816564        6.4503364683
 Fe         2.6581862289        1.3897686699        6.4372163197
  O         7.8484896785       10.3871332141        8.2603921650
  H         7.8593224748        9.5707819388        8.7916342799
  H         5.3498373614       10.5951522259        6.6664798181
  O        10.3724389971        5.9103726339        8.2860268660
  H        10.6504382344        5.1025223681        8.7559508940
  H         7.9197373971        6.2706105036        6.6473562794
  O        12.9424544162        1.5111481470        8.2706192189
  H        13.0041790857        0.6899746697        8.7910420818
  H        10.4736515781        1.7202860196        6.7114616298
  O         2.6957290487       10.3746786624        8.2620816446
  H         2.7929278217        9.5553027086        8.7809194248
  H         0.2212401184       10.6076955091        6.6876803975
  O         4.9635403329        6.3336922465        8.1868030119
  H         4.9118416509        5.7529828864        8.9686995339
  H         2.8218818880        6.2110001669        6.6706421195
  O         7.9097397791        1.2298676786        8.2719628411
  H         7.9705280977        0.3271059556        8.6371854736
  H         5.3344189209        1.7289290143        6.6961503677
  O        -2.4055419030       10.3921958794        8.2628027664
  H        -2.3561366187        9.5718041296        8.7860714431
  H        -4.9120357697       10.6220760277        6.6869363038
  O         0.1036637013        5.9507232466        8.2734206245
  H         0.2147010658        5.1324351788        8.7902663610
  H        -2.3293209007        6.1902281724        6.6882018141
  O         2.7112386078        1.4956121463        8.2622199084
  H         2.7641686157        0.6813540942        8.7942494853
  H         0.2125821316        1.7323174551        6.6870751551
  C         7.3797615512        4.0199329068        9.2215616367
  C         6.3491835228        4.3907259766       10.1673532501
  H         7.4526811221        2.9219140700        9.1189170013
  H         7.1798026162        4.4438004834        8.2278872495
  H         8.3493351818        4.4045926036        9.5666714799
  N         5.4622757796        4.7076375336       10.8573284223
     168
 i =       19, E =     -8144.3574287860
 Fe         5.0938794100       11.8196869300        0.3885799900
 Fe         7.6575796300        7.3792284900        0.3885799900
 Fe        10.2212798400        2.9387700600        0.3885799900
 Fe        -0.0335205200       11.8196869300        0.3885799900
 Fe         2.5301797000        7.3792284900        0.3885799900
 Fe         5.0938799200        2.9387700600        0.3885799900
 Fe        -5.1609204400       11.8196869300        0.3885799900
 Fe        -2.5972202200        7.3792284900        0.3885799900
 Fe        -0.0335200000        2.9387700600        0.3885799900
  O         8.4519195100        8.9577468800        1.1642700400
  O        11.0156197300        4.5172884400        1.1642700400
  O        13.5793199500        0.0768300000        1.1642700400
  O         3.3245195900        8.9577468800        1.1642700400
  O         5.8882198100        4.5172884400        1.1642700400
  O         8.4519200300        0.0768300000        1.1642700400
  O        -1.8028803300        8.9577468800        1.1642700400
  O         0.7608198900        4.5172884400        1.1642700400
  O         3.3245201100        0.0768300000        1.1642700400
  O         8.4568493000       11.7183869300        1.1650400200
  O        11.0205495200        7.2779284900        1.1650400200
  O        13.5842497300        2.8374700500        1.1650400200
  O         3.3294493700       11.7183869300        1.1650400200
  O         5.8931495900        7.2779284900        1.1650400200
  O         8.4568498100        2.8374700500        1.1650400200
  O        -1.7979505500       11.7183869300        1.1650400200
  O         0.7657496700        7.2779284900        1.1650400200
  O         3.3294498900        2.8374700500        1.1650400200
  O         6.0627194200       10.3425368500        1.1660399400
  O         8.6264196400        5.9020784100        1.1660399400
  O        11.1901198600        1.4616199700        1.1660399400
  O         0.9353195000       10.3425368500        1.1660399400
  O         3.4990197200        5.9020784100        1.1660399400
  O         6.0627199400        1.4616199700        1.1660399400
  O        -4.1920804200       10.3425368500        1.1660399400
  O        -1.6283802000        5.9020784100        1.1660399400
  O         0.9353200200        1.4616199700        1.1660399400
 Fe         7.6576695000       13.2997167500        1.9292099500
 Fe        10.2213697200        8.8592583200        1.9292099500
 Fe        12.7850699400        4.4187998800        1.9292099500
 Fe         2.5302695800       13.2997167500        1.9292099500
 Fe         5.0939698000        8.8592583200        1.9292099500
 Fe         7.6576700200        4.4187998800        1.9292099500
 Fe        -2.5971303400       13.2997167500        1.9292099500
 Fe        -0.0334301200        8.8592583200        1.9292099500
 Fe         2.5302701000        4.4187998800        1.9292099500
 Fe         7.6573893600       10.3392168700        2.7128999200
 Fe        10.2210895800        5.8987584300        2.7128999200
 Fe        12.7847898000        1.4582999900        2.7128999200
 Fe         2.5299894400       10.3392168700        2.7128999200
 Fe         5.0936896600        5.8987584300        2.7128999200
 Fe         7.6573898800        1.4582999900        2.7128999200
 Fe        -2.5974104800       10.3392168700        2.7128999200
 Fe        -0.0337102600        5.8987584300        2.7128999200
 Fe         2.5299899600        1.4582999900        2.7128999200
  O         4.0950666473       13.3118455263        3.5154422124
  O         6.6522451494        8.8630740882        3.4926763874
  O         9.2132898052        4.4222202459        3.5097435372
  O        -1.0360929896       13.3155753685        3.5114669295
  O         1.5263990105        8.8770987529        3.5184716934
  O         4.0973497140        4.4299752102        3.5068500293
  O        -6.1406178990       13.3353108395        3.5583589214
  O        -3.5374172815        8.9089617487        3.6273464246
  O        -1.0403456556        4.4263922852        3.4954566699
  O         6.8074599805       11.8499112119        3.5329894117
  O         9.3798585355        7.3556517054        3.6069562925
  O        11.9364693311        3.0040184697        3.4798769377
  O         1.6901399025       11.8756210272        3.4906301959
  O         4.2521082071        7.4359127294        3.4854598639
  O         6.8161842546        2.9989906560        3.5107663280
  O        -3.4421316021       11.8804454585        3.4968768005
  O        -0.8711028370        7.4220062290        3.5100636498
  O         1.6881300508        3.0039487438        3.4843976068
  O         9.3774351406       10.2649061178        3.5876667410
  O        12.0013362693        5.7754616267        3.4711294825
  O        14.5337223696        1.3558348941        3.5246048781
  O         4.3005164314       10.2289099072        3.4843722677
  O         6.8661640809        5.7652179721        3.4780614696
  O         9.4239323124        1.3487274609        3.4962530038
  O        -0.8222445578       10.2275937731        3.4859458335
  O         1.7417694614        5.7724765874        3.4697630816
  O         4.3030408199        1.3470514480        3.4955862209
 Fe         5.0368093737       11.8364283634        4.4343917699
 Fe         7.5844942842        7.3893718676        4.4191437105
 Fe        10.1608351040        2.9566479485        4.4361709061
 Fe        -0.0902582895       11.8298905044        4.4141240553
 Fe         2.4658967873        7.3908479334        4.4102087479
 Fe         5.0377695148        2.9643684505        4.4387395085
 Fe        -5.2068760560       11.8544174913        4.4551174543
 Fe        -2.6406292230        7.3771308365        4.4369879222
 Fe        -0.0889839662        2.9599658793        4.4247172666
 Fe         7.6102252132       13.1804186935        4.8509798602
 Fe        10.1721588425        8.7353185696        4.8886541039
 Fe        12.7412598692        4.2986815681        4.8064478788
 Fe         2.4883370539       13.1813672968        4.8192999062
 Fe         5.0400044636        8.7533185215        4.7951297796
 Fe         7.6047416649        4.3090488206        4.8307396840
 Fe        -2.6368289439       13.1875186023        4.8247613312
 Fe        -0.0830307428        8.7426732501        4.8341181224
 Fe         2.4842616765        4.3037008248        4.8168375638
  O         5.8529094723       10.3429837825        5.8722013128
  O         8.4179986572        5.9174437947        5.8837772528
  O        10.9765613073        1.4588459261        5.8907994474
  O         0.7269372295       10.3434699336        5.8829288841
  O         3.2727431301        5.9187026369        5.8411913828
  O         5.8604948859        1.4728774942        5.8972679573
  O        -4.3979986268       10.3537086486        5.8938494266
  O        -1.8380280145        5.9053705392        5.8750171574
  O         0.7292365503        1.4681986716        5.8924534592
  O         5.9258934897       13.1679270199        5.7177232209
  O         8.4651963881        8.7190188100        5.7107281318
  O        11.0652361168        4.2941819440        5.7013239531
  O         0.8006219245       13.1614664170        5.6765341539
  O         3.3605816882        8.7286216748        5.6757609229
  O         5.9408456806        4.3242283830        5.7487437019
  O        -4.3093237555       13.1757185974        5.7144294837
  O        -1.7560595729        8.7188757009        5.7196114496
  O         0.8062895357        4.2924025748        5.6986638318
  O         3.4675708936       11.7706769028        5.6783162407
  O         6.0336385960        7.3366496555        5.6408363888
  O         8.5841137828        2.9036933227        5.7246568814
  O        -1.6517340467       11.7775895986        5.6809638710
  O         0.9051418879        7.3342836269        5.6820221942
  O         3.4744964766        2.9033324907        5.6867074095
  O        -6.7742330774       11.7872211350        5.7131348351
  O        -4.2049906626        7.3214254583        5.7072102050
  O        -1.6580414774        2.9083504035        5.6902909917
 Fe         7.7771720659       10.2745407129        6.4346077057
 Fe        10.3387321603        5.8242904825        6.4419805651
 Fe        12.9123427520        1.3959309130        6.4395364691
 Fe         2.6578808128       10.2596940695        6.4360370986
 Fe         5.1889177959        5.8758688852        6.4431655252
 Fe         7.7881474218        1.3652516893        6.4319928344
 Fe        -2.4680550450       10.2696307032        6.4329967293
 Fe         0.0925534062        5.8300758126        6.4426206051
 Fe         2.6577123173        1.3927863292        6.4399402463
  O         7.8449522020       10.3872714713        8.2618753430
  H         7.8574093996        9.5709700855        8.7932132174
  H         5.3475361364       10.5987191725        6.6757143209
  O        10.3730322726        5.9008521975        8.2806448685
  H        10.6655364082        5.1024370640        8.7556063338
  H         7.9154439839        6.2689019828        6.6504371330
  O        12.9433031910        1.5151010499        8.2681423355
  H        13.0020745833        0.6935276278        8.7887322626
  H        10.4776607083        1.7174547741        6.6993513925
  O         2.6974305639       10.3762063156        8.2632419815
  H         2.7944939986        9.5549459111        8.7793100206
  H         0.2219085804       10.6076037843        6.6850838403
  O         4.9563422115        6.3239707969        8.1864978825
  H         4.8984377388        5.7571717811        8.9792877217
  H         2.8149419177        6.2038757431        6.6659181363
  O         7.9083500383        1.2277132670        8.2671765333
  H         7.9747859871        0.3275899571        8.6365939944
  H         5.3376685498        1.7250658389        6.6922065128
  O        -2.4023345676       10.3927802067        8.2606477969
  H        -2.3540951062        9.5733687441        8.7855174572
  H        -4.9114508641       10.6236920032        6.6866184466
  O         0.1024726910        5.9475679995        8.2684388617
  H         0.2145594283        5.1342794686        8.7931203003
  H        -2.3324529986        6.1870158651        6.6787666958
  O         2.7106307223        1.5002425409        8.2645300488
  H         2.7663398962        0.6834825726        8.7925127353
  H         0.2227092763        1.7418420423        6.6899295777
  C         7.3961791314        4.0246076518        9.2372047063
  C         6.3343805236        4.3942518801       10.1466919712
  H         7.4727415874        2.9274957170        9.1369150905
  H         7.1691313142        4.4338735900        8.2407338865
  H         8.3621600957        4.4315946018        9.5637433396
  N         5.4655748428        4.6999616803       10.8680660420
     168
 i =       20, E =     -8144.2737754605
 Fe         5.0938794100       11.8196869300        0.3885799900
 Fe         7.6575796300        7.3792284900        0.3885799900
 Fe        10.2212798400        2.9387700600        0.3885799900
 Fe        -0.0335205200       11.8196869300        0.3885799900
 Fe         2.5301797000        7.3792284900        0.3885799900
 Fe         5.0938799200        2.9387700600        0.3885799900
 Fe        -5.1609204400       11.8196869300        0.3885799900
 Fe        -2.5972202200        7.3792284900        0.3885799900
 Fe        -0.0335200000        2.9387700600        0.3885799900
  O         8.4519195100        8.9577468800        1.1642700400
  O        11.0156197300        4.5172884400        1.1642700400
  O        13.5793199500        0.0768300000        1.1642700400
  O         3.3245195900        8.9577468800        1.1642700400
  O         5.8882198100        4.5172884400        1.1642700400
  O         8.4519200300        0.0768300000        1.1642700400
  O        -1.8028803300        8.9577468800        1.1642700400
  O         0.7608198900        4.5172884400        1.1642700400
  O         3.3245201100        0.0768300000        1.1642700400
  O         8.4568493000       11.7183869300        1.1650400200
  O        11.0205495200        7.2779284900        1.1650400200
  O        13.5842497300        2.8374700500        1.1650400200
  O         3.3294493700       11.7183869300        1.1650400200
  O         5.8931495900        7.2779284900        1.1650400200
  O         8.4568498100        2.8374700500        1.1650400200
  O        -1.7979505500       11.7183869300        1.1650400200
  O         0.7657496700        7.2779284900        1.1650400200
  O         3.3294498900        2.8374700500        1.1650400200
  O         6.0627194200       10.3425368500        1.1660399400
  O         8.6264196400        5.9020784100        1.1660399400
  O        11.1901198600        1.4616199700        1.1660399400
  O         0.9353195000       10.3425368500        1.1660399400
  O         3.4990197200        5.9020784100        1.1660399400
  O         6.0627199400        1.4616199700        1.1660399400
  O        -4.1920804200       10.3425368500        1.1660399400
  O        -1.6283802000        5.9020784100        1.1660399400
  O         0.9353200200        1.4616199700        1.1660399400
 Fe         7.6576695000       13.2997167500        1.9292099500
 Fe        10.2213697200        8.8592583200        1.9292099500
 Fe        12.7850699400        4.4187998800        1.9292099500
 Fe         2.5302695800       13.2997167500        1.9292099500
 Fe         5.0939698000        8.8592583200        1.9292099500
 Fe         7.6576700200        4.4187998800        1.9292099500
 Fe        -2.5971303400       13.2997167500        1.9292099500
 Fe        -0.0334301200        8.8592583200        1.9292099500
 Fe         2.5302701000        4.4187998800        1.9292099500
 Fe         7.6573893600       10.3392168700        2.7128999200
 Fe        10.2210895800        5.8987584300        2.7128999200
 Fe        12.7847898000        1.4582999900        2.7128999200
 Fe         2.5299894400       10.3392168700        2.7128999200
 Fe         5.0936896600        5.8987584300        2.7128999200
 Fe         7.6573898800        1.4582999900        2.7128999200
 Fe        -2.5974104800       10.3392168700        2.7128999200
 Fe        -0.0337102600        5.8987584300        2.7128999200
 Fe         2.5299899600        1.4582999900        2.7128999200
  O         4.1703497049       13.3721964087        3.6631832215
  O         6.6437342249        8.8865651502        3.5293264688
  O         9.2575361559        4.4569896679        3.6066822987
  O        -1.0418087551       13.3121724491        3.5071954082
  O         1.4630719901        8.8654579938        3.4243275083
  O         4.2008795300        4.4783815385        3.7161593129
  O        -6.2482855594       13.2745976971        3.3856149583
  O        -3.6865994006        8.8515357023        3.3773464246
  O        -0.9633520336        4.4722032314        3.6453447178
  O         6.8390641708       11.9818319137        3.3729067944
  O         9.3911799546        7.5148408044        3.3759379264
  O        11.9295355545        2.8975565267        3.6284986346
  O         1.6760662276       11.7763870507        3.6350237372
  O         4.2673095775        7.4342626041        3.5067950292
  O         6.8276977598        2.9307572323        3.6169074573
  O        -3.4475814752       11.8873586540        3.4867776142
  O        -0.8677565920        7.4858613003        3.4290478824
  O         1.6730837538        2.8558294546        3.6910913397
  O         9.4953800394       10.1760295435        3.3651849132
  O        11.9356453142        5.8348493198        3.6169637325
  O        14.6209268767        1.2770670721        3.3666341351
  O         4.3158050235       10.2126741751        3.4769888970
  O         6.8232640287        5.7977909959        3.5824115140
  O         9.3501985381        1.3982033766        3.6316488231
  O        -0.7861894888       10.1826926990        3.4164295551
  O         1.6416946300        5.8317784726        3.6654832397
  O         4.2891313656        1.3238315945        3.4963561915
 Fe         5.0821372340       11.8077309077        4.3997165035
 Fe         7.6425701602        7.4197991776        4.4072038660
 Fe        10.1493093763        2.9680341204        4.4794552870
 Fe        -0.1308987796       11.8053242698        4.4141684176
 Fe         2.4839819384        7.4640260151        4.4036107462
 Fe         5.0522245568        2.8999753520        4.4714160712
 Fe        -5.2590290840       11.8272643765        4.3710332308
 Fe        -2.6415111225        7.4795704409        4.4020998113
 Fe        -0.1346553003        2.8819903135        4.4488014977
 Fe         7.6109645272       13.1914829492        4.8185782905
 Fe        10.1816562149        8.7429270492        4.7868079433
 Fe        12.7395678094        4.3012969540        4.8395540506
 Fe         2.4879856212       13.1745936549        4.8714249568
 Fe         5.0413110646        8.7361716112        4.8770568007
 Fe         7.6044781995        4.2962023045        4.9113014881
 Fe        -2.6476768882       13.1916022646        4.8081806293
 Fe        -0.0685176189        8.7427982668        4.8096103220
 Fe         2.4624406977        4.2992838940        4.8818925019
  O         5.8649181491       10.3567068791        5.8879066054
  O         8.4235361437        5.9185578213        5.8950296525
  O        10.9796246139        1.4801944080        5.8689934019
  O         0.7208703311       10.3478539593        5.8730056555
  O         3.2608827236        5.9317318149        5.8270919975
  O         5.8653348412        1.4719408093        5.8848562614
  O        -4.3987679172       10.3475920532        5.8804320981
  O        -1.8389609916        5.9219527529        5.8551942872
  O         0.7262226816        1.4657188081        5.8841639850
  O         5.9323997898       13.1778422755        5.6994056166
  O         8.5179594001        8.7239153375        5.7192756252
  O        11.0574252411        4.2984256196        5.6920244032
  O         0.7672138003       13.1620247518        5.6586648982
  O         3.3463786096        8.7374155767        5.7205971743
  O         5.9084785505        4.3065526085        5.7506904272
  O        -4.3501529424       13.1810701361        5.6524315684
  O        -1.7360046041        8.7485566008        5.7053747426
  O         0.7524125537        4.2775756531        5.6750372600
  O         3.4977200821       11.7745887059        5.6840530366
  O         6.0807664956        7.3217762933        5.6747702774
  O         8.6001682960        2.8861027924        5.7465314633
  O        -1.6718288554       11.7778482287        5.6608469516
  O         0.9125821739        7.3250301661        5.6575032019
  O         3.4723981857        2.8814344010        5.6699437329
  O        -6.7862064544       11.8003354313        5.6959293951
  O        -4.2128968257        7.3273195557        5.6723396630
  O        -1.6802035510        2.8796264870        5.6778084704
 Fe         7.7975305489       10.2703117820        6.4361218289
 Fe        10.3481222044        5.8271166635        6.4352585311
 Fe        12.8889523746        1.3901429697        6.4385913476
 Fe         2.6473001780       10.2856665388        6.4341503272
 Fe         5.1742737945        5.8670604504        6.4434956731
 Fe         7.7778737971        1.3624482042        6.4271008071
 Fe        -2.4717140420       10.2769448504        6.4314559034
 Fe         0.0912855281        5.8288624789        6.4308709023
 Fe         2.6553032614        1.3926996275        6.4438487949
  O         7.8375134504       10.3870586535        8.2636499642
  H         7.8534069544        9.5717321619        8.7963352060
  H         5.3456552329       10.6063326036        6.6886487138
  O        10.3735974556        5.8844808997        8.2768461961
  H        10.6988364168        5.1006675176        8.7534788859
  H         7.9106087243        6.2676127659        6.6555261380
  O        12.9421511081        1.5234142960        8.2644104041
  H        12.9978264863        0.7008855132        8.7839729990
  H        10.4809346776        1.7138290020        6.6803046572
  O         2.7007169120       10.3784023825        8.2618862842
  H         2.7975532738        9.5553316900        8.7756082529
  H         0.2204116158       10.6059868626        6.6790137208
  O         4.9415742541        6.3070887720        8.1882769621
  H         4.8702545112        5.7642850412        8.9991669182
  H         2.8027706767        6.1901269133        6.6617111096
  O         7.9053102777        1.2243133916        8.2603562301
  H         7.9837605326        0.3282194548        8.6352209953
  H         5.3449023623        1.7176571688        6.6822664027
  O        -2.3960195648       10.3939421579        8.2564906957
  H        -2.3493141205        9.5768267077        8.7851774432
  H        -4.9077464986       10.6238567642        6.6769357435
  O         0.1010914603        5.9433576972        8.2605346833
  H         0.2144346621        5.1377353442        8.7970887925
  H        -2.3356145426        6.1836244038        6.6636077148
  O         2.7093718626        1.5078164538        8.2658409885
  H         2.7703646232        0.6887075995        8.7892880903
  H         0.2391965042        1.7563841473        6.6911730111
  C         7.4275472147        4.0350079768        9.2655737905
  C         6.3113186898        4.3999210607       10.1129160517
  H         7.5167618022        2.9389584879        9.1770769171
  H         7.1487166538        4.4132876218        8.2632474655
  H         8.3837017110        4.4903635498        9.5592280050
  N         5.4715327416        4.6843282430       10.8871304530
     168
 i =       21, E =     -8144.3560894553
 Fe         5.0938794100       11.8196869300        0.3885799900
 Fe         7.6575796300        7.3792284900        0.3885799900
 Fe        10.2212798400        2.9387700600        0.3885799900
 Fe        -0.0335205200       11.8196869300        0.3885799900
 Fe         2.5301797000        7.3792284900        0.3885799900
 Fe         5.0938799200        2.9387700600        0.3885799900
 Fe        -5.1609204400       11.8196869300        0.3885799900
 Fe        -2.5972202200        7.3792284900        0.3885799900
 Fe        -0.0335200000        2.9387700600        0.3885799900
  O         8.4519195100        8.9577468800        1.1642700400
  O        11.0156197300        4.5172884400        1.1642700400
  O        13.5793199500        0.0768300000        1.1642700400
  O         3.3245195900        8.9577468800        1.1642700400
  O         5.8882198100        4.5172884400        1.1642700400
  O         8.4519200300        0.0768300000        1.1642700400
  O        -1.8028803300        8.9577468800        1.1642700400
  O         0.7608198900        4.5172884400        1.1642700400
  O         3.3245201100        0.0768300000        1.1642700400
  O         8.4568493000       11.7183869300        1.1650400200
  O        11.0205495200        7.2779284900        1.1650400200
  O        13.5842497300        2.8374700500        1.1650400200
  O         3.3294493700       11.7183869300        1.1650400200
  O         5.8931495900        7.2779284900        1.1650400200
  O         8.4568498100        2.8374700500        1.1650400200
  O        -1.7979505500       11.7183869300        1.1650400200
  O         0.7657496700        7.2779284900        1.1650400200
  O         3.3294498900        2.8374700500        1.1650400200
  O         6.0627194200       10.3425368500        1.1660399400
  O         8.6264196400        5.9020784100        1.1660399400
  O        11.1901198600        1.4616199700        1.1660399400
  O         0.9353195000       10.3425368500        1.1660399400
  O         3.4990197200        5.9020784100        1.1660399400
  O         6.0627199400        1.4616199700        1.1660399400
  O        -4.1920804200       10.3425368500        1.1660399400
  O        -1.6283802000        5.9020784100        1.1660399400
  O         0.9353200200        1.4616199700        1.1660399400
 Fe         7.6576695000       13.2997167500        1.9292099500
 Fe        10.2213697200        8.8592583200        1.9292099500
 Fe        12.7850699400        4.4187998800        1.9292099500
 Fe         2.5302695800       13.2997167500        1.9292099500
 Fe         5.0939698000        8.8592583200        1.9292099500
 Fe         7.6576700200        4.4187998800        1.9292099500
 Fe        -2.5971303400       13.2997167500        1.9292099500
 Fe        -0.0334301200        8.8592583200        1.9292099500
 Fe         2.5302701000        4.4187998800        1.9292099500
 Fe         7.6573893600       10.3392168700        2.7128999200
 Fe        10.2210895800        5.8987584300        2.7128999200
 Fe        12.7847898000        1.4582999900        2.7128999200
 Fe         2.5299894400       10.3392168700        2.7128999200
 Fe         5.0936896600        5.8987584300        2.7128999200
 Fe         7.6573898800        1.4582999900        2.7128999200
 Fe        -2.5974104800       10.3392168700        2.7128999200
 Fe        -0.0337102600        5.8987584300        2.7128999200
 Fe         2.5299899600        1.4582999900        2.7128999200
  O         4.1215692664       13.3346089318        3.5674056521
  O         6.6556177253        8.8778510835        3.5165843112
  O         9.2309063352        4.4372822214        3.5515119480
  O        -1.0291593053       13.3163176364        3.5256759391
  O         1.5081151783        8.8656052763        3.4778695058
  O         4.1435754029        4.4536479230        3.5974117445
  O        -6.1751141482       13.3100773461        3.4945407136
  O        -3.5985524177        8.8799073540        3.5124593672
  O        -1.0158370417        4.4432784156        3.5504627032
  O         6.8174693475       11.8918895650        3.4799095030
  O         9.3820800200        7.4306749242        3.4949798566
  O        11.9356722696        2.9637576565        3.5410863287
  O         1.6860661647       11.8372915357        3.5436571274
  O         4.2506104026        7.4336556241        3.4976923823
  O         6.8188914481        2.9709465261        3.5520495718
  O        -3.4426502813       11.8690683306        3.5095088000
  O        -0.8757447957        7.4520540351        3.4695503244
  O         1.6833343916        2.9343329078        3.5763024264
  O         9.4266743476       10.2233765269        3.4850774382
  O        11.9784226972        5.8004652397        3.5234869892
  O        14.5620598079        1.3324522734        3.4703554007
  O         4.3034809637       10.2241066798        3.4901673368
  O         6.8548693922        5.7806937703        3.5127481549
  O         9.3984255024        1.3682871210        3.5433817304
  O        -0.8128107041       10.2089500601        3.4606402500
  O         1.6980304464        5.8049112965        3.5512807359
  O         4.2925656485        1.3476053385        3.5104574898
 Fe         5.0492867567       11.8288733346        4.4244808869
 Fe         7.6101457297        7.4006158867        4.4153367694
 Fe        10.1553066971        2.9594117962        4.4552864487
 Fe        -0.1002518625       11.8162319121        4.4169749517
 Fe         2.4722956937        7.4161250996        4.4220230406
 Fe         5.0451667005        2.9471433698        4.4589963227
 Fe        -5.2293287899       11.8348128073        4.4190068113
 Fe        -2.6449456035        7.4172954685        4.4247331007
 Fe        -0.1042622389        2.9358207672        4.4335079388
 Fe         7.6118060805       13.1870569848        4.8276998477
 Fe        10.1779211410        8.7410525218        4.8327438610
 Fe        12.7391466843        4.3035521267        4.8260523417
 Fe         2.4874417310       13.1786660663        4.8373117786
 Fe         5.0445165286        8.7424875036        4.8335206299
 Fe         7.6025174758        4.3041870469        4.8640618523
 Fe        -2.6438913329       13.1864726779        4.8242010282
 Fe        -0.0766917991        8.7449076693        4.8111805806
 Fe         2.4742214255        4.3017948348        4.8456234138
  O         5.8585496712       10.3485777199        5.8806106126
  O         8.4229148080        5.9167427487        5.8919947409
  O        10.9774790043        1.4661259652        5.8838878441
  O         0.7243871579       10.3436028006        5.8763847357
  O         3.2686455105        5.9185872525        5.8411240648
  O         5.8611032839        1.4700069322        5.8933299465
  O        -4.4009277654       10.3481662258        5.8895352748
  O        -1.8327938554        5.9138150209        5.8678306106
  O         0.7231536779        1.4650997904        5.8882915247
  O         5.9337633938       13.1731744892        5.7062542527
  O         8.4954986953        8.7238155083        5.7130279109
  O        11.0580176719        4.2922245515        5.7014105089
  O         0.7890729697       13.1605129942        5.6723552139
  O         3.3556948360        8.7375452603        5.6928196685
  O         5.9323820942        4.3141238852        5.7596908035
  O        -4.3316649783       13.1747206028        5.6885678996
  O        -1.7443748047        8.7343623884        5.7080881285
  O         0.7846937593        4.2850391544        5.6956093644
  O         3.4760792766       11.7741831495        5.6845814247
  O         6.0560265531        7.3318565562        5.6628653126
  O         8.5913116850        2.8981963388        5.7372805493
  O        -1.6593284084       11.7701418726        5.6686148526
  O         0.8999387660        7.3394978457        5.6730770742
  O         3.4747252833        2.8951350341        5.6862759925
  O        -6.7839397795       11.7930227369        5.7003897209
  O        -4.2132855762        7.3331702760        5.6936789553
  O        -1.6652960393        2.8927815249        5.6807663178
 Fe         7.7873436471       10.2729444654        6.4376312253
 Fe        10.3474983312        5.8275201813        6.4385066648
 Fe        12.9040435353        1.3913262777        6.4376914329
 Fe         2.6514881010       10.2720391226        6.4379232141
 Fe         5.1821713129        5.8706443889        6.4397256844
 Fe         7.7841665768        1.3635175949        6.4299298320
 Fe        -2.4718997112       10.2703049274        6.4363175528
 Fe         0.0950811871        5.8318354307        6.4355549742
 Fe         2.6532439948        1.3917401610        6.4384858914
  O         7.8411544338       10.3884844628        8.2646823445
  H         7.8551935995        9.5707072679        8.7936254945
  H         5.3472395678       10.6048539991        6.6819339937
  O        10.3726495824        5.8914674936        8.2788559633
  H        10.6823994228        5.1011051703        8.7555851111
  H         7.9115074415        6.2665745778        6.6542466534
  O        12.9421924190        1.5184201997        8.2656991456
  H        13.0001078627        0.6972342239        8.7871900547
  H        10.4783689475        1.7164031442        6.6926701324
  O         2.6994014534       10.3781400661        8.2643758341
  H         2.7957743357        9.5546671582        8.7770047163
  H         0.2220294493       10.6050512922        6.6808961014
  O         4.9493188512        6.3147560034        8.1844467209
  H         4.8852478905        5.7609701083        8.9868502646
  H         2.8077213362        6.2012585613        6.6637346546
  O         7.9073826743        1.2264981209        8.2647329958
  H         7.9789864466        0.3279268567        8.6361299095
  H         5.3414151924        1.7218104162        6.6895709136
  O        -2.3991396937       10.3949186862        8.2616007663
  H        -2.3513167482        9.5746612774        8.7849147903
  H        -4.9068069568       10.6264552063        6.6861315665
  O         0.1017685469        5.9450282199        8.2629995683
  H         0.2143475522        5.1365610150        8.7949598974
  H        -2.3353869743        6.1855958538        6.6687555644
  O         2.7102207270        1.5025504884        8.2630977962
  H         2.7679738292        0.6863118211        8.7917930018
  H         0.2295232855        1.7468973885        6.6918255225
  C         7.4019808908        4.0318358113        9.2439385433
  C         6.3392921910        4.3932419249       10.1536502869
  H         7.4967505677        2.9343436143        9.1583601534
  H         7.1676754678        4.4236774846        8.2420647113
  H         8.3621304005        4.4601276371        9.5615862010
  N         5.4636371821        4.6935872790       10.8688359144
     168
 i =       22, E =     -8144.3476003848
 Fe         5.0938794100       11.8196869300        0.3885799900
 Fe         7.6575796300        7.3792284900        0.3885799900
 Fe        10.2212798400        2.9387700600        0.3885799900
 Fe        -0.0335205200       11.8196869300        0.3885799900
 Fe         2.5301797000        7.3792284900        0.3885799900
 Fe         5.0938799200        2.9387700600        0.3885799900
 Fe        -5.1609204400       11.8196869300        0.3885799900
 Fe        -2.5972202200        7.3792284900        0.3885799900
 Fe        -0.0335200000        2.9387700600        0.3885799900
  O         8.4519195100        8.9577468800        1.1642700400
  O        11.0156197300        4.5172884400        1.1642700400
  O        13.5793199500        0.0768300000        1.1642700400
  O         3.3245195900        8.9577468800        1.1642700400
  O         5.8882198100        4.5172884400        1.1642700400
  O         8.4519200300        0.0768300000        1.1642700400
  O        -1.8028803300        8.9577468800        1.1642700400
  O         0.7608198900        4.5172884400        1.1642700400
  O         3.3245201100        0.0768300000        1.1642700400
  O         8.4568493000       11.7183869300        1.1650400200
  O        11.0205495200        7.2779284900        1.1650400200
  O        13.5842497300        2.8374700500        1.1650400200
  O         3.3294493700       11.7183869300        1.1650400200
  O         5.8931495900        7.2779284900        1.1650400200
  O         8.4568498100        2.8374700500        1.1650400200
  O        -1.7979505500       11.7183869300        1.1650400200
  O         0.7657496700        7.2779284900        1.1650400200
  O         3.3294498900        2.8374700500        1.1650400200
  O         6.0627194200       10.3425368500        1.1660399400
  O         8.6264196400        5.9020784100        1.1660399400
  O        11.1901198600        1.4616199700        1.1660399400
  O         0.9353195000       10.3425368500        1.1660399400
  O         3.4990197200        5.9020784100        1.1660399400
  O         6.0627199400        1.4616199700        1.1660399400
  O        -4.1920804200       10.3425368500        1.1660399400
  O        -1.6283802000        5.9020784100        1.1660399400
  O         0.9353200200        1.4616199700        1.1660399400
 Fe         7.6576695000       13.2997167500        1.9292099500
 Fe        10.2213697200        8.8592583200        1.9292099500
 Fe        12.7850699400        4.4187998800        1.9292099500
 Fe         2.5302695800       13.2997167500        1.9292099500
 Fe         5.0939698000        8.8592583200        1.9292099500
 Fe         7.6576700200        4.4187998800        1.9292099500
 Fe        -2.5971303400       13.2997167500        1.9292099500
 Fe        -0.0334301200        8.8592583200        1.9292099500
 Fe         2.5302701000        4.4187998800        1.9292099500
 Fe         7.6573893600       10.3392168700        2.7128999200
 Fe        10.2210895800        5.8987584300        2.7128999200
 Fe        12.7847898000        1.4582999900        2.7128999200
 Fe         2.5299894400       10.3392168700        2.7128999200
 Fe         5.0936896600        5.8987584300        2.7128999200
 Fe         7.6573898800        1.4582999900        2.7128999200
 Fe        -2.5974104800       10.3392168700        2.7128999200
 Fe        -0.0337102600        5.8987584300        2.7128999200
 Fe         2.5299899600        1.4582999900        2.7128999200
  O         4.0668943005       13.3051273632        3.4820614451
  O         6.6742797072        8.8704857566        3.5255332603
  O         9.2035250264        4.4150756846        3.4916322951
  O        -1.0412312400       13.3109963277        3.5010438876
  O         1.5367560352        8.8733088101        3.5190640334
  O         4.0852164914        4.4243672963        3.4915265310
  O        -6.1204220652       13.3401061838        3.6020750030
  O        -3.5618004092        8.8953338125        3.5876101508
  O        -1.0643268785        4.4182176156        3.4603147608
  O         6.8108305809       11.8184524356        3.5869702740
  O         9.3840643396        7.3906419646        3.5633975859
  O        11.9397730357        3.0255388916        3.4552412556
  O         1.6973710363       11.9009298941        3.4629379144
  O         4.2463738750        7.4227085687        3.5122960238
  O         6.8139795557        3.0105803399        3.4891320911
  O        -3.4366359148       11.8807413599        3.4905465487
  O        -0.8785781244        7.4241004694        3.5039440941
  O         1.6950887414        3.0215950874        3.4679745112
  O         9.3973048281       10.2456772021        3.5543404810
  O        12.0161400180        5.7638367099        3.4395679378
  O        14.5156359103        1.3700883949        3.5656938089
  O         4.2839134152       10.2318391164        3.5163585210
  O         6.8829333042        5.7554383108        3.4485985896
  O         9.4431150002        1.3362165021        3.4690114739
  O        -0.8316991365       10.2311505811        3.4978511276
  O         1.7544842971        5.7631514379        3.4461706240
  O         4.3153138352        1.3493597257        3.4815573299
 Fe         5.0229905971       11.8480099937        4.4345267702
 Fe         7.5972211264        7.3763518198        4.4129984129
 Fe        10.1620874389        2.9538709966        4.4267039627
 Fe        -0.0802144041       11.8370074535        4.4116744689
 Fe         2.4569966226        7.3770153279        4.4166762011
 Fe         5.0362648120        2.9691869381        4.4397113840
 Fe        -5.1977921146       11.8344786452        4.4567703892
 Fe        -2.6538537448        7.3739288851        4.4213641204
 Fe        -0.0806218615        2.9807115054        4.4153574019
 Fe         7.6097893538       13.1804957701        4.8785875610
 Fe        10.1735055234        8.7355878033        4.8802078510
 Fe        12.7378014382        4.3039008205        4.7998017752
 Fe         2.4866913734       13.1847521634        4.8202254091
 Fe         5.0465965302        8.7477849428        4.8201342888
 Fe         7.6017377949        4.3111035508        4.8129810872
 Fe        -2.6401434440       13.1843907865        4.8237311715
 Fe        -0.0837137996        8.7453492597        4.8115977001
 Fe         2.4862350722        4.3036821931        4.8322012568
  O         5.8504202008       10.3461543054        5.8755316999
  O         8.4216821906        5.9137036796        5.8825677806
  O        10.9771283662        1.4634264944        5.8862281040
  O         0.7290185941       10.3443817981        5.8720467324
  O         3.2764896918        5.9204854735        5.8490722118
  O         5.8597220382        1.4689110940        5.8979538423
  O        -4.4009334039       10.3482558226        5.9012486078
  O        -1.8326723144        5.9063667890        5.8695721361
  O         0.7263042457        1.4784808902        5.8903791200
  O         5.9108390467       13.1709872479        5.7156037471
  O         8.4725803739        8.7214117958        5.7098272839
  O        11.0571417444        4.2952599022        5.6943383754
  O         0.8022470488       13.1634590837        5.6806901485
  O         3.3522578364        8.7319294554        5.6705714344
  O         5.9468878878        4.3196920236        5.7496037243
  O        -4.3088713165       13.1686236352        5.7208080230
  O        -1.7564369057        8.7210525169        5.7005031747
  O         0.8014832097        4.2961146341        5.7051709715
  O         3.4619980367       11.7711046161        5.6789823494
  O         6.0430595630        7.3281282004        5.6438485193
  O         8.5827728970        2.9026512324        5.7118193656
  O        -1.6508651167       11.7671278040        5.6710571391
  O         0.8953982074        7.3447949915        5.6767859127
  O         3.4802654924        2.9009687874        5.6999583101
  O        -6.7699928024       11.7757879922        5.7119708058
  O        -4.2066200371        7.3280351575        5.7073334709
  O        -1.6570095740        2.9098051599        5.6810580210
 Fe         7.7738313179       10.2728155055        6.4412880470
 Fe        10.3419838234        5.8258827969        6.4424142358
 Fe        12.9115547448        1.4021584852        6.4404544740
 Fe         2.6549270951       10.2621783781        6.4410109391
 Fe         5.1913773410        5.8695957530        6.4423475123
 Fe         7.7898491299        1.3675492799        6.4342158790
 Fe        -2.4662866023       10.2644769062        6.4383763780
 Fe         0.0942914873        5.8381646387        6.4415008613
 Fe         2.6530716105        1.3884426582        6.4390579317
  O         7.8437067035       10.3909418334        8.2676421075
  H         7.8560525414        9.5692837779        8.7905149422
  H         5.3479567394       10.6023361464        6.6800600501
  O        10.3723279540        5.8958703228        8.2813025546
  H        10.6705894595        5.1004207533        8.7584582525
  H         7.9147388920        6.2610642925        6.6502354643
  O        12.9423684597        1.5157278362        8.2697175051
  H        13.0019985267        0.6938852995        8.7897225311
  H        10.4802990181        1.7152755795        6.6982404495
  O         2.6984390192       10.3773979217        8.2672756014
  H         2.7945898357        9.5534097875        8.7790771278
  H         0.2236174290       10.6023488155        6.6768299431
  O         4.9542274971        6.3231944567        8.1844219820
  H         4.8970253557        5.7569350181        8.9774433719
  H         2.8108739051        6.2071531894        6.6675267158
  O         7.9097501868        1.2285493745        8.2690579788
  H         7.9757699239        0.3276185018        8.6366108241
  H         5.3408182820        1.7246095541        6.6945647930
  O        -2.4018313392       10.3953690263        8.2650784821
  H        -2.3522501344        9.5731444787        8.7853624092
  H        -4.9053529668       10.6299139791        6.6977110726
  O         0.1028220272        5.9475924085        8.2674343210
  H         0.2145214702        5.1351907606        8.7934058332
  H        -2.3318328310        6.1852899830        6.6706773124
  O         2.7110429419        1.5006380275        8.2645157338
  H         2.7659396497        0.6836900687        8.7922909917
  H         0.2220208134        1.7392703134        6.6927104215
  C         7.3987852063        4.0264231677        9.2407087343
  C         6.3333763635        4.3961522174       10.1462250269
  H         7.4819560783        2.9303323713        9.1408834617
  H         7.1680015718        4.4283291810        8.2415551292
  H         8.3636710377        4.4414309275        9.5613518736
  N         5.4666529077        4.6981799804       10.8691411296
     168
 i =       23, E =     -8144.3678044155
 Fe         5.0938794100       11.8196869300        0.3885799900
 Fe         7.6575796300        7.3792284900        0.3885799900
 Fe        10.2212798400        2.9387700600        0.3885799900
 Fe        -0.0335205200       11.8196869300        0.3885799900
 Fe         2.5301797000        7.3792284900        0.3885799900
 Fe         5.0938799200        2.9387700600        0.3885799900
 Fe        -5.1609204400       11.8196869300        0.3885799900
 Fe        -2.5972202200        7.3792284900        0.3885799900
 Fe        -0.0335200000        2.9387700600        0.3885799900
  O         8.4519195100        8.9577468800        1.1642700400
  O        11.0156197300        4.5172884400        1.1642700400
  O        13.5793199500        0.0768300000        1.1642700400
  O         3.3245195900        8.9577468800        1.1642700400
  O         5.8882198100        4.5172884400        1.1642700400
  O         8.4519200300        0.0768300000        1.1642700400
  O        -1.8028803300        8.9577468800        1.1642700400
  O         0.7608198900        4.5172884400        1.1642700400
  O         3.3245201100        0.0768300000        1.1642700400
  O         8.4568493000       11.7183869300        1.1650400200
  O        11.0205495200        7.2779284900        1.1650400200
  O        13.5842497300        2.8374700500        1.1650400200
  O         3.3294493700       11.7183869300        1.1650400200
  O         5.8931495900        7.2779284900        1.1650400200
  O         8.4568498100        2.8374700500        1.1650400200
  O        -1.7979505500       11.7183869300        1.1650400200
  O         0.7657496700        7.2779284900        1.1650400200
  O         3.3294498900        2.8374700500        1.1650400200
  O         6.0627194200       10.3425368500        1.1660399400
  O         8.6264196400        5.9020784100        1.1660399400
  O        11.1901198600        1.4616199700        1.1660399400
  O         0.9353195000       10.3425368500        1.1660399400
  O         3.4990197200        5.9020784100        1.1660399400
  O         6.0627199400        1.4616199700        1.1660399400
  O        -4.1920804200       10.3425368500        1.1660399400
  O        -1.6283802000        5.9020784100        1.1660399400
  O         0.9353200200        1.4616199700        1.1660399400
 Fe         7.6576695000       13.2997167500        1.9292099500
 Fe        10.2213697200        8.8592583200        1.9292099500
 Fe        12.7850699400        4.4187998800        1.9292099500
 Fe         2.5302695800       13.2997167500        1.9292099500
 Fe         5.0939698000        8.8592583200        1.9292099500
 Fe         7.6576700200        4.4187998800        1.9292099500
 Fe        -2.5971303400       13.2997167500        1.9292099500
 Fe        -0.0334301200        8.8592583200        1.9292099500
 Fe         2.5302701000        4.4187998800        1.9292099500
 Fe         7.6573893600       10.3392168700        2.7128999200
 Fe        10.2210895800        5.8987584300        2.7128999200
 Fe        12.7847898000        1.4582999900        2.7128999200
 Fe         2.5299894400       10.3392168700        2.7128999200
 Fe         5.0936896600        5.8987584300        2.7128999200
 Fe         7.6573898800        1.4582999900        2.7128999200
 Fe        -2.5974104800       10.3392168700        2.7128999200
 Fe        -0.0337102600        5.8987584300        2.7128999200
 Fe         2.5299899600        1.4582999900        2.7128999200
  O         4.0880417685       13.3161016053        3.5131030953
  O         6.6676304329        8.8734584113        3.5206298216
  O         9.2128124626        4.4268335230        3.5145495218
  O        -1.0304112006       13.3160465654        3.5204300414
  O         1.5271690551        8.8717497029        3.5060235485
  O         4.1066054539        4.4385028698        3.5353784463
  O        -6.1393989930       13.3272939235        3.5616114654
  O        -3.5839249782        8.8827040977        3.5421633754
  O        -1.0449084002        4.4284837692        3.4971567732
  O         6.8133563850       11.8436040909        3.5475867049
  O         9.3828125307        7.4176942990        3.5212411081
  O        11.9386827708        3.0006244329        3.4906018871
  O         1.6908136425       11.8755250298        3.4937727473
  O         4.2485668157        7.4269398315        3.5046129960
  O         6.8155392201        2.9952902249        3.5114110987
  O        -3.4404843082       11.8686277961        3.5065400932
  O        -0.8789188749        7.4337539914        3.4914545627
  O         1.6900641217        2.9869460656        3.5127447648
  O         9.4158300058       10.2320900344        3.5145528009
  O        11.9986533601        5.7784729246        3.4752013248
  O        14.5335738297        1.3559114138        3.5286041825
  O         4.2929096587       10.2273836626        3.5019641446
  O         6.8734359356        5.7664136124        3.4742114709
  O         9.4246219641        1.3485573014        3.4980346310
  O        -0.8261520925       10.2230689548        3.4854909105
  O         1.7319991188        5.7797306589        3.4901225207
  O         4.3005731074        1.3506722944        3.5027614873
 Fe         5.0315393897       11.8385551638        4.4271436899
 Fe         7.6042189065        7.3881602707        4.4140131235
 Fe        10.1584116149        2.9568281778        4.4323125650
 Fe        -0.0871491755       11.8274033303        4.4175370265
 Fe         2.4661574439        7.3928862515        4.4196192948
 Fe         5.0394583863        2.9630419772        4.4456306874
 Fe        -5.2126422944       11.8311645824        4.4427673842
 Fe        -2.6520467080        7.3913388095        4.4205665833
 Fe        -0.0907569520        2.9621401116        4.4237671717
 Fe         7.6105533319       13.1826645221        4.8563172563
 Fe        10.1754867415        8.7410232486        4.8484572173
 Fe        12.7367423080        4.3054338642        4.8098223697
 Fe         2.4870755073       13.1831057414        4.8233462210
 Fe         5.0468885218        8.7448558866        4.8230030807
 Fe         7.6020355477        4.3074000091        4.8292984091
 Fe        -2.6423651951       13.1843150938        4.8244307128
 Fe        -0.0815386617        8.7449555861        4.8088114059
 Fe         2.4820028297        4.3018727933        4.8415569199
  O         5.8525007508       10.3436459462        5.8803879757
  O         8.4250352922        5.9148416142        5.8824512420
  O        10.9771881296        1.4668142318        5.8829080363
  O         0.7282580419       10.3446294491        5.8716759759
  O         3.2733222115        5.9189057091        5.8475148131
  O         5.8599678212        1.4688693509        5.8948405757
  O        -4.4007971426       10.3455900456        5.8952302532
  O        -1.8324156260        5.9093670297        5.8663476769
  O         0.7246248662        1.4714807457        5.8904199463
  O         5.9191180844       13.1714572997        5.7087546157
  O         8.4880996265        8.7243947862        5.7084121665
  O        11.0532997228        4.2941452288        5.6936708956
  O         0.7978334578       13.1640276422        5.6767355721
  O         3.3574757116        8.7349485743        5.6817923814
  O         5.9412940878        4.3163389573        5.7506145348
  O        -4.3176063040       13.1696193117        5.7076053442
  O        -1.7560363730        8.7298598676        5.6957266157
  O         0.7929797800        4.2936481762        5.6988162961
  O         3.4663759227       11.7742537785        5.6801644462
  O         6.0475429031        7.3296956264        5.6524436662
  O         8.5878848584        2.8992559285        5.7167581398
  O        -1.6547430319       11.7685400689        5.6691359439
  O         0.8971637935        7.3412086030        5.6717342097
  O         3.4795225477        2.8972295260        5.6957000254
  O        -6.7777999654       11.7802714630        5.7054279573
  O        -4.2142880747        7.3327452244        5.6950230551
  O        -1.6628503194        2.9041476540        5.6803542680
 Fe         7.7796767670       10.2709214973        6.4394746531
 Fe        10.3459844494        5.8274713122        6.4408281156
 Fe        12.9092538141        1.3975046007        6.4375099608
 Fe         2.6534011170       10.2673994496        6.4376443447
 Fe         5.1887270381        5.8673956183        6.4408552469
 Fe         7.7875452852        1.3673669176        6.4316812589
 Fe        -2.4682724580       10.2682188272        6.4365521037
 Fe         0.0927098885        5.8365297176        6.4381737665
 Fe         2.6539110345        1.3880744622        6.4381139688
  O         7.8414224480       10.3896594721        8.2663281984
  H         7.8550574642        9.5697511599        8.7920788016
  H         5.3478664964       10.6058836188        6.6828479303
  O        10.3723909924        5.8918139124        8.2805175996
  H        10.6789743599        5.0999395716        8.7579199837
  H         7.9139845164        6.2603444900        6.6482441014
  O        12.9417538583        1.5174866444        8.2669452449
  H        13.0007825349        0.6962965459        8.7883167256
  H        10.4792022802        1.7155118576        6.6943650957
  O         2.6990802081       10.3773469117        8.2647123888
  H         2.7951394117        9.5540974030        8.7780278243
  H         0.2220230865       10.6024781710        6.6752448149
  O         4.9510188031        6.3180450385        8.1835096053
  H         4.8901477678        5.7590232401        8.9818763243
  H         2.8093508456        6.2058507028        6.6670079689
  O         7.9091849954        1.2279795840        8.2667123082
  H         7.9779353190        0.3281697158        8.6364192930
  H         5.3421745072        1.7229019486        6.6922522180
  O        -2.4000659631       10.3947169395        8.2628153704
  H        -2.3509836707        9.5742672979        8.7859688509
  H        -4.9034539196       10.6284567445        6.6927983717
  O         0.1029031896        5.9469551799        8.2647468291
  H         0.2143336123        5.1364405969        8.7937034907
  H        -2.3332659889        6.1854450125        6.6667512453
  O         2.7101328363        1.5012249303        8.2632902736
  H         2.7668992478        0.6851501672        8.7922750968
  H         0.2255515445        1.7447441036        6.6927248934
  C         7.3977927733        4.0310849982        9.2387797567
  C         6.3445473705        4.3929168940       10.1601296759
  H         7.4939119669        2.9334802625        9.1538263700
  H         7.1702098002        4.4246969052        8.2367343031
  H         8.3583785876        4.4552980747        9.5620180107
  N         5.4628482413        4.6956972282       10.8657204781
     168
 i =       24, E =     -8144.1891706019
 Fe         5.0938794100       11.8196869300        0.3885799900
 Fe         7.6575796300        7.3792284900        0.3885799900
 Fe        10.2212798400        2.9387700600        0.3885799900
 Fe        -0.0335205200       11.8196869300        0.3885799900
 Fe         2.5301797000        7.3792284900        0.3885799900
 Fe         5.0938799200        2.9387700600        0.3885799900
 Fe        -5.1609204400       11.8196869300        0.3885799900
 Fe        -2.5972202200        7.3792284900        0.3885799900
 Fe        -0.0335200000        2.9387700600        0.3885799900
  O         8.4519195100        8.9577468800        1.1642700400
  O        11.0156197300        4.5172884400        1.1642700400
  O        13.5793199500        0.0768300000        1.1642700400
  O         3.3245195900        8.9577468800        1.1642700400
  O         5.8882198100        4.5172884400        1.1642700400
  O         8.4519200300        0.0768300000        1.1642700400
  O        -1.8028803300        8.9577468800        1.1642700400
  O         0.7608198900        4.5172884400        1.1642700400
  O         3.3245201100        0.0768300000        1.1642700400
  O         8.4568493000       11.7183869300        1.1650400200
  O        11.0205495200        7.2779284900        1.1650400200
  O        13.5842497300        2.8374700500        1.1650400200
  O         3.3294493700       11.7183869300        1.1650400200
  O         5.8931495900        7.2779284900        1.1650400200
  O         8.4568498100        2.8374700500        1.1650400200
  O        -1.7979505500       11.7183869300        1.1650400200
  O         0.7657496700        7.2779284900        1.1650400200
  O         3.3294498900        2.8374700500        1.1650400200
  O         6.0627194200       10.3425368500        1.1660399400
  O         8.6264196400        5.9020784100        1.1660399400
  O        11.1901198600        1.4616199700        1.1660399400
  O         0.9353195000       10.3425368500        1.1660399400
  O         3.4990197200        5.9020784100        1.1660399400
  O         6.0627199400        1.4616199700        1.1660399400
  O        -4.1920804200       10.3425368500        1.1660399400
  O        -1.6283802000        5.9020784100        1.1660399400
  O         0.9353200200        1.4616199700        1.1660399400
 Fe         7.6576695000       13.2997167500        1.9292099500
 Fe        10.2213697200        8.8592583200        1.9292099500
 Fe        12.7850699400        4.4187998800        1.9292099500
 Fe         2.5302695800       13.2997167500        1.9292099500
 Fe         5.0939698000        8.8592583200        1.9292099500
 Fe         7.6576700200        4.4187998800        1.9292099500
 Fe        -2.5971303400       13.2997167500        1.9292099500
 Fe        -0.0334301200        8.8592583200        1.9292099500
 Fe         2.5302701000        4.4187998800        1.9292099500
 Fe         7.6573893600       10.3392168700        2.7128999200
 Fe        10.2210895800        5.8987584300        2.7128999200
 Fe        12.7847898000        1.4582999900        2.7128999200
 Fe         2.5299894400       10.3392168700        2.7128999200
 Fe         5.0936896600        5.8987584300        2.7128999200
 Fe         7.6573898800        1.4582999900        2.7128999200
 Fe        -2.5974104800       10.3392168700        2.7128999200
 Fe        -0.0337102600        5.8987584300        2.7128999200
 Fe         2.5299899600        1.4582999900        2.7128999200
  O         4.2095749930       13.3761299861        3.6927299047
  O         6.6282546295        8.8882633213        3.4853805814
  O         9.2694463816        4.4959405797        3.6524660622
  O        -0.9774693826       13.3396967937        3.6166600446
  O         1.4823659048        8.8635922721        3.4429212051
  O         4.2151289903        4.5123863948        3.7609538553
  O        -6.2458356268       13.2535645176        3.3337080332
  O        -3.7063823252        8.8141769552        3.2921633754
  O        -0.9159721139        4.4954033877        3.7415099851
  O         6.8295586546       11.9817468892        3.3305824837
  O         9.3749050096        7.5715629849        3.2856128231
  O        11.9301888978        2.8370666016        3.7263533918
  O         1.6555764565       11.7285096732        3.6744955904
  O         4.2589024429        7.4580171607        3.4535609138
  O         6.8217736259        2.9047061648        3.6440093564
  O        -3.4600829326       11.8052324180        3.5866007563
  O        -0.8838677340        7.4850637210        3.4264294614
  O         1.6661580582        2.8042100164        3.7455946467
  O         9.5165992096       10.1549000691        3.2971141415
  O        11.8831377840        5.8718146493        3.7072058593
  O        14.6345209705        1.2776340617        3.3223598510
  O         4.3461503974       10.2007905646        3.4162938604
  O         6.8176491780        5.8312740201        3.6218594586
  O         9.3188174169        1.4199200048        3.6658783563
  O        -0.8020875224       10.1816403419        3.4257948448
  O         1.6184308667        5.8665079747        3.7131456765
  O         4.2260302424        1.3587593820        3.6102553631
 Fe         5.0803609009       11.7837277090        4.3884662961
 Fe         7.6409278402        7.4553996972        4.4193376478
 Fe        10.1321493347        2.9725591720        4.4767385225
 Fe        -0.1267277653       11.7783472044        4.4503933630
 Fe         2.5151100119        7.4708046774        4.4359464633
 Fe         5.0515246374        2.9349373011        4.4794432045
 Fe        -5.2913694122       11.8138015425        4.3601728939
 Fe        -2.6419099137        7.4920019542        4.4239069664
 Fe        -0.1333846888        2.8535774827        4.4754397084
 Fe         7.6151360351       13.1947172337        4.7312616330
 Fe        10.1867165136        8.7717950596        4.6730098503
 Fe        12.7311648851        4.3126771205        4.8911503380
 Fe         2.4891560766       13.1728435668        4.8494130168
 Fe         5.0506648615        8.7291621829        4.8347993233
 Fe         7.6019083071        4.2886486416        4.9267081174
 Fe        -2.6568954238       13.1832916269        4.8247355126
 Fe        -0.0683911889        8.7431379991        4.7944391622
 Fe         2.4580877775        4.2916062155        4.8944189540
  O         5.8647259193       10.3295137217        5.9065506188
  O         8.4449614482        5.9233660820        5.8816575534
  O        10.9767401566        1.4841058067        5.8695421932
  O         0.7234556495       10.3455997576        5.8714748845
  O         3.2573275024        5.9097721975        5.8434371018
  O         5.8594822296        1.4665497510        5.8782767638
  O        -4.3995006141       10.3323160878        5.8585448470
  O        -1.8291690958        5.9298926608        5.8539021802
  O         0.7138360818        1.4305493993        5.8909590613
  O         5.9677968565       13.1725711549        5.6711710705
  O         8.5726373248        8.7443116800        5.6952227571
  O        11.0272384460        4.2867354406        5.7025639118
  O         0.7714791279       13.1645909561        5.6600287812
  O         3.3868711106        8.7518351277        5.7371723398
  O         5.9120111517        4.2947960769        5.7653113876
  O        -4.3674611898       13.1743032529        5.6334299325
  O        -1.7548639429        8.7829245364        5.6664202449
  O         0.7503936829        4.2755781665        5.6769838772
  O         3.4929073719       11.7882081167        5.6893826397
  O         6.0714648108        7.3423631550        5.7023095759
  O         8.6123532042        2.8835560245        5.7531997249
  O        -1.6777591696       11.7757853540        5.6579661940
  O         0.9063971575        7.3270908941        5.6496147918
  O         3.4754882859        2.8762123398        5.6792618246
  O        -6.8208100463       11.7997641519        5.6596530081
  O        -4.2576570840        7.3647122057        5.6302510283
  O        -1.6858072235        2.8656993362        5.6803034610
 Fe         7.8122050253       10.2608530194        6.4310907161
 Fe        10.3681487190        5.8413160024        6.4326977863
 Fe        12.8957277630        1.3685476943        6.4214030877
 Fe         2.6452746532       10.2943602923        6.4212291661
 Fe         5.1760779326        5.8554893472        6.4325326041
 Fe         7.7743553305        1.3653293825        6.4193647374
 Fe        -2.4809956925       10.2898868764        6.4289693012
 Fe         0.0856665836        5.8282960720        6.4194025907
 Fe         2.6559329321        1.3839972557        6.4322037057
  O         7.8289354633       10.3830788856        8.2599799581
  H         7.8497656728        9.5721210360        8.8004012752
  H         5.3494367579       10.6269630405        6.6980012535
  O        10.3729762553        5.8696087426        8.2764154728
  H        10.7252365612        5.0972182323        8.7548598195
  H         7.9102638156        6.2574446002        6.6368760831
  O        12.9381047163        1.5269282455        8.2515801937
  H        12.9940720693        0.7096872734        8.7807686538
  H        10.4707363043        1.7174914803        6.6755885053
  O         2.7024725245       10.3787804017        8.2524797679
  H         2.7981218683        9.5577698388        8.7710801777
  H         0.2128111343       10.6036695999        6.6682241204
  O         4.9331714556        6.2892792135        8.1782204227
  H         4.8523132640        5.7703729942        9.0059057575
  H         2.7994176765        6.1998518627        6.6660165929
  O         7.9058985136        1.2251103777        8.2550737966
  H         7.9898720513        0.3310620593        8.6352768307
  H         5.3494477259        1.7138313037        6.6804167030
  O        -2.3904569256       10.3920949868        8.2520125995
  H        -2.3439843304        9.5802292132        8.7888630227
  H        -4.8925851549       10.6191127103        6.6631221761
  O         0.1031995849        5.9431415054        8.2496516399
  H         0.2132474608        5.1433084227        8.7953740746
  H        -2.3427657597        6.1880624061        6.6480284674
  O         2.7053793374        1.5039806987        8.2557111555
  H         2.7720016405        0.6933937030        8.7923501958
  H         0.2442969798        1.7728079985        6.6930061414
  C         7.3921164699        4.0564781281        9.2292612711
  C         6.4048169429        4.3755271366       10.2362149045
  H         7.5600254205        2.9511942246        9.2238899070
  H         7.1827968336        4.4040966033        8.2110538393
  H         8.3294637420        4.5315088659        9.5648501653
  N         5.4425196010        4.6819861415       10.8471065392
     168
 i =       25, E =     -8144.3593330000
 Fe         5.0938794100       11.8196869300        0.3885799900
 Fe         7.6575796300        7.3792284900        0.3885799900
 Fe        10.2212798400        2.9387700600        0.3885799900
 Fe        -0.0335205200       11.8196869300        0.3885799900
 Fe         2.5301797000        7.3792284900        0.3885799900
 Fe         5.0938799200        2.9387700600        0.3885799900
 Fe        -5.1609204400       11.8196869300        0.3885799900
 Fe        -2.5972202200        7.3792284900        0.3885799900
 Fe        -0.0335200000        2.9387700600        0.3885799900
  O         8.4519195100        8.9577468800        1.1642700400
  O        11.0156197300        4.5172884400        1.1642700400
  O        13.5793199500        0.0768300000        1.1642700400
  O         3.3245195900        8.9577468800        1.1642700400
  O         5.8882198100        4.5172884400        1.1642700400
  O         8.4519200300        0.0768300000        1.1642700400
  O        -1.8028803300        8.9577468800        1.1642700400
  O         0.7608198900        4.5172884400        1.1642700400
  O         3.3245201100        0.0768300000        1.1642700400
  O         8.4568493000       11.7183869300        1.1650400200
  O        11.0205495200        7.2779284900        1.1650400200
  O        13.5842497300        2.8374700500        1.1650400200
  O         3.3294493700       11.7183869300        1.1650400200
  O         5.8931495900        7.2779284900        1.1650400200
  O         8.4568498100        2.8374700500        1.1650400200
  O        -1.7979505500       11.7183869300        1.1650400200
  O         0.7657496700        7.2779284900        1.1650400200
  O         3.3294498900        2.8374700500        1.1650400200
  O         6.0627194200       10.3425368500        1.1660399400
  O         8.6264196400        5.9020784100        1.1660399400
  O        11.1901198600        1.4616199700        1.1660399400
  O         0.9353195000       10.3425368500        1.1660399400
  O         3.4990197200        5.9020784100        1.1660399400
  O         6.0627199400        1.4616199700        1.1660399400
  O        -4.1920804200       10.3425368500        1.1660399400
  O        -1.6283802000        5.9020784100        1.1660399400
  O         0.9353200200        1.4616199700        1.1660399400
 Fe         7.6576695000       13.2997167500        1.9292099500
 Fe        10.2213697200        8.8592583200        1.9292099500
 Fe        12.7850699400        4.4187998800        1.9292099500
 Fe         2.5302695800       13.2997167500        1.9292099500
 Fe         5.0939698000        8.8592583200        1.9292099500
 Fe         7.6576700200        4.4187998800        1.9292099500
 Fe        -2.5971303400       13.2997167500        1.9292099500
 Fe        -0.0334301200        8.8592583200        1.9292099500
 Fe         2.5302701000        4.4187998800        1.9292099500
 Fe         7.6573893600       10.3392168700        2.7128999200
 Fe        10.2210895800        5.8987584300        2.7128999200
 Fe        12.7847898000        1.4582999900        2.7128999200
 Fe         2.5299894400       10.3392168700        2.7128999200
 Fe         5.0936896600        5.8987584300        2.7128999200
 Fe         7.6573898800        1.4582999900        2.7128999200
 Fe        -2.5974104800       10.3392168700        2.7128999200
 Fe        -0.0337102600        5.8987584300        2.7128999200
 Fe         2.5299899600        1.4582999900        2.7128999200
  O         4.1134367119       13.3253423495        3.5462529839
  O         6.6598558574        8.8771557290        3.5140543923
  O         9.2246749922        4.4416130644        3.5413782200
  O        -1.0169667713       13.3236953895        3.5460663767
  O         1.5181600925        8.8713953261        3.4951183758
  O         4.1245644625        4.4519099842        3.5722497418
  O        -6.1621268117       13.3102691383        3.5093082710
  O        -3.6086072352        8.8678146259        3.4882488779
  O        -1.0107839363        4.4435947348        3.5552982128
  O         6.8161176360       11.8737297382        3.4964314765
  O         9.3817354773        7.4486609957        3.4707707753
  O        11.9344455066        2.9612316577        3.5422024493
  O         1.6833404463       11.8459405605        3.5281466178
  O         4.2518929768        7.4328929265        3.4958007943
  O         6.8154906094        2.9781727395        3.5367144169
  O        -3.4450057461       11.8501954645        3.5294361117
  O        -0.8800522880        7.4428509186        3.4785297487
  O         1.6835869025        2.9529408466        3.5527996594
  O         9.4370894838       10.2188152109        3.4681650388
  O        11.9677924586        5.8001543248        3.5309118600
  O        14.5557733406        1.3393867850        3.4821661647
  O         4.3028475076       10.2231414881        3.4857424850
  O         6.8607121961        5.7810443469        3.5063568451
  O         9.4047484031        1.3635194006        3.5272523810
  O        -0.8196239795       10.2166614881        3.4716493225
  O         1.7118307479        5.7949962302        3.5266670910
  O         4.2829981310        1.3550386032        3.5284342266
 Fe         5.0429880982       11.8273461396        4.4185622159
 Fe         7.6121016193        7.4028301721        4.4142977468
 Fe        10.1524065420        2.9595979393        4.4410952087
 Fe        -0.0949450603       11.8186743311        4.4267013764
 Fe         2.4747715386        7.4058922265        4.4201440817
 Fe         5.0394246160        2.9601143180        4.4510992977
 Fe        -5.2285952632       11.8298189889        4.4264422333
 Fe        -2.6496542937        7.4116247293        4.4200496360
 Fe        -0.0977039723        2.9371593362        4.4385771236
 Fe         7.6117487091       13.1850736857        4.8232908403
 Fe        10.1775318275        8.7488225819        4.8030637094
 Fe        12.7356928950        4.3052194689        4.8251456658
 Fe         2.4872642081       13.1817953497        4.8248227683
 Fe         5.0485488588        8.7428942453        4.8246549956
 Fe         7.6029437052        4.3042686217        4.8461429184
 Fe        -2.6456520703       13.1834796730        4.8287314450
 Fe        -0.0798836885        8.7438056570        4.8047082570
 Fe         2.4770541822        4.2998838520        4.8477007233
  O         5.8559300505       10.3410743207        5.8859777549
  O         8.4292225653        5.9182003230        5.8796928573
  O        10.9770682474        1.4676626393        5.8811131655
  O         0.7277852192       10.3446295311        5.8720849341
  O         3.2692065841        5.9170304518        5.8477048213
  O         5.8604634395        1.4684864516        5.8930602798
  O        -4.4013199513       10.3419417220        5.8851354486
  O        -1.8339127596        5.9132487716        5.8640410919
  O         0.7225057706        1.4620648596        5.8914832753
  O         5.9308986358       13.1718792216        5.6984800135
  O         8.5070194050        8.7301001403        5.7003525903
  O        11.0487395369        4.2946770829        5.6958434612
  O         0.7953303918       13.1632365874        5.6760741751
  O         3.3639219433        8.7363813945        5.6921819389
  O         5.9369736013        4.3125545840        5.7526599641
  O        -4.3279473712       13.1685224129        5.6965740194
  O        -1.7592104853        8.7412059243        5.6865925228
  O         0.7875874992        4.2895512054        5.6966987410
  O         3.4713741089       11.7781600556        5.6806267442
  O         6.0521320460        7.3315153518        5.6610686375
  O         8.5912398437        2.8962932569        5.7220219181
  O        -1.6576954409       11.7704264663        5.6716679349
  O         0.9000217129        7.3393851557        5.6698490682
  O         3.4771388494        2.8961561488        5.6947611313
  O        -6.7880128804       11.7819765138        5.6910414987
  O        -4.2248887798        7.3415962707        5.6780090834
  O        -1.6681224250        2.8974240743        5.6830880192
 Fe         7.7870223207       10.2677300830        6.4370456490
 Fe        10.3502615258        5.8325944063        6.4389506782
 Fe        12.9072170338        1.3901583547        6.4337793191
 Fe         2.6536073150       10.2720830342        6.4342501522
 Fe         5.1868548015        5.8645594797        6.4406029961
 Fe         7.7857183399        1.3669438893        6.4289198983
 Fe        -2.4724802625       10.2724478096        6.4346141050
 Fe         0.0901996295        5.8347905509        6.4344447395
 Fe         2.6547794800        1.3869408342        6.4364604158
  O         7.8382394640       10.3877211557        8.2644289928
  H         7.8533932208        9.5702763728        8.7941180504
  H         5.3485186994       10.6097888477        6.6856760636
  O        10.3736890645        5.8860829001        8.2794713233
  H        10.6911636373        5.0988931870        8.7567997782
  H         7.9139913200        6.2586632382        6.6446643628
  O        12.9404248035        1.5196669112        8.2631165454
  H        12.9990188440        0.6997881556        8.7866347015
  H        10.4768539147        1.7164238935        6.6901532965
  O         2.6994580640       10.3781507958        8.2623343323
  H         2.7959702627        9.5548778282        8.7758024474
  H         0.2190194496       10.6014732449        6.6735761802
  O         4.9461772344        6.3119382159        8.1832481070
  H         4.8813932063        5.7602300418        8.9865001362
  H         2.8084351463        6.2056809933        6.6689268320
  O         7.9087592038        1.2283909895        8.2642804972
  H         7.9811406444        0.3295242904        8.6354533648
  H         5.3431456721        1.7212259355        6.6905295632
  O        -2.3973180436       10.3938610362        8.2602892957
  H        -2.3488527545        9.5758660397        8.7872210799
  H        -4.9005055890       10.6241758027        6.6853716591
  O         0.1030522264        5.9475058726        8.2617414069
  H         0.2140876349        5.1384728971        8.7931054258
  H        -2.3353703238        6.1879377457        6.6636717259
  O         2.7086543708        1.5012959680        8.2612781436
  H         2.7678372696        0.6870376004        8.7927246488
  H         0.2284802590        1.7495935297        6.6925279397
  C         7.4041473960        4.0361263380        9.2443201144
  C         6.3448375029        4.3922041568       10.1603205119
  H         7.5120127366        2.9391087715        9.1688207648
  H         7.1674630284        4.4166021966        8.2388735971
  H         8.3595897637        4.4775483028        9.5602865725
  N         5.4639254718        4.6910232680       10.8686341189
     168
 i =       26, E =     -8144.3600189707
 Fe         5.0938794100       11.8196869300        0.3885799900
 Fe         7.6575796300        7.3792284900        0.3885799900
 Fe        10.2212798400        2.9387700600        0.3885799900
 Fe        -0.0335205200       11.8196869300        0.3885799900
 Fe         2.5301797000        7.3792284900        0.3885799900
 Fe         5.0938799200        2.9387700600        0.3885799900
 Fe        -5.1609204400       11.8196869300        0.3885799900
 Fe        -2.5972202200        7.3792284900        0.3885799900
 Fe        -0.0335200000        2.9387700600        0.3885799900
  O         8.4519195100        8.9577468800        1.1642700400
  O        11.0156197300        4.5172884400        1.1642700400
  O        13.5793199500        0.0768300000        1.1642700400
  O         3.3245195900        8.9577468800        1.1642700400
  O         5.8882198100        4.5172884400        1.1642700400
  O         8.4519200300        0.0768300000        1.1642700400
  O        -1.8028803300        8.9577468800        1.1642700400
  O         0.7608198900        4.5172884400        1.1642700400
  O         3.3245201100        0.0768300000        1.1642700400
  O         8.4568493000       11.7183869300        1.1650400200
  O        11.0205495200        7.2779284900        1.1650400200
  O        13.5842497300        2.8374700500        1.1650400200
  O         3.3294493700       11.7183869300        1.1650400200
  O         5.8931495900        7.2779284900        1.1650400200
  O         8.4568498100        2.8374700500        1.1650400200
  O        -1.7979505500       11.7183869300        1.1650400200
  O         0.7657496700        7.2779284900        1.1650400200
  O         3.3294498900        2.8374700500        1.1650400200
  O         6.0627194200       10.3425368500        1.1660399400
  O         8.6264196400        5.9020784100        1.1660399400
  O        11.1901198600        1.4616199700        1.1660399400
  O         0.9353195000       10.3425368500        1.1660399400
  O         3.4990197200        5.9020784100        1.1660399400
  O         6.0627199400        1.4616199700        1.1660399400
  O        -4.1920804200       10.3425368500        1.1660399400
  O        -1.6283802000        5.9020784100        1.1660399400
  O         0.9353200200        1.4616199700        1.1660399400
 Fe         7.6576695000       13.2997167500        1.9292099500
 Fe        10.2213697200        8.8592583200        1.9292099500
 Fe        12.7850699400        4.4187998800        1.9292099500
 Fe         2.5302695800       13.2997167500        1.9292099500
 Fe         5.0939698000        8.8592583200        1.9292099500
 Fe         7.6576700200        4.4187998800        1.9292099500
 Fe        -2.5971303400       13.2997167500        1.9292099500
 Fe        -0.0334301200        8.8592583200        1.9292099500
 Fe         2.5302701000        4.4187998800        1.9292099500
 Fe         7.6573893600       10.3392168700        2.7128999200
 Fe        10.2210895800        5.8987584300        2.7128999200
 Fe        12.7847898000        1.4582999900        2.7128999200
 Fe         2.5299894400       10.3392168700        2.7128999200
 Fe         5.0936896600        5.8987584300        2.7128999200
 Fe         7.6573898800        1.4582999900        2.7128999200
 Fe        -2.5974104800       10.3392168700        2.7128999200
 Fe        -0.0337102600        5.8987584300        2.7128999200
 Fe         2.5299899600        1.4582999900        2.7128999200
  O         4.0768167997       13.3086947638        3.4927012288
  O         6.6611560628        8.8738383692        3.5130969165
  O         9.1959572752        4.4224357141        3.4901207398
  O        -1.0393646968       13.3177387008        3.5090700248
  O         1.5498127605        8.8836242549        3.5462588036
  O         4.0947001993        4.4302770563        3.5165724444
  O        -6.1461760924       13.3266010509        3.5577561300
  O        -3.5919853490        8.8764403413        3.5303442713
  O        -1.0526655141        4.4237741615        3.4861103941
  O         6.8136547365       11.8506640206        3.5405305176
  O         9.3819386178        7.4240696444        3.5119862427
  O        11.9418802226        3.0095118351        3.4810333371
  O         1.6927427943       11.8941661937        3.4699989800
  O         4.2519256061        7.4304424297        3.4970765783
  O         6.8171106856        3.0130089928        3.4900440154
  O        -3.4380349079       11.8768875754        3.4969496488
  O        -0.8825316102        7.4079231320        3.5261536604
  O         1.6947924828        3.0047757617        3.4948806405
  O         9.4209881068       10.2300760718        3.5086064356
  O        12.0018043615        5.7708285840        3.4662734798
  O        14.5376539296        1.3514660796        3.5239367204
  O         4.2989567583       10.2257276375        3.4914342222
  O         6.8840629003        5.7562346958        3.4571092587
  O         9.4353140093        1.3382978610        3.4767383181
  O        -0.8427181273       10.2367176216        3.5174478367
  O         1.7414392010        5.7687320547        3.4735772789
  O         4.3065241356        1.3455300549        3.4923225662
 Fe         5.0290872452       11.8371796078        4.4223412476
 Fe         7.6006720615        7.3888926589        4.4048254690
 Fe        10.1552976700        2.9575806548        4.4114664435
 Fe        -0.0820815048       11.8418456959        4.4135019588
 Fe         2.4734292213        7.3800466460        4.4194853657
 Fe         5.0389044000        2.9622343302        4.4377284675
 Fe        -5.2086605948       11.8344522549        4.4372624777
 Fe        -2.6623951340        7.3863889039        4.4216166927
 Fe        -0.0875027405        2.9629646159        4.4161799428
 Fe         7.6099814367       13.1830529819        4.8563193015
 Fe        10.1721927149        8.7443734067        4.8334343945
 Fe        12.7357921744        4.3067768901        4.8103109254
 Fe         2.4880708624       13.1847977803        4.8143496122
 Fe         5.0462331556        8.7453059785        4.8165233923
 Fe         7.6019306621        4.3074210103        4.8241038561
 Fe        -2.6408451742       13.1833539344        4.8267248852
 Fe        -0.0819109126        8.7428093230        4.8204152939
 Fe         2.4829128087        4.3027092387        4.8424682649
  O         5.8522894642       10.3421817138        5.8783760065
  O         8.4269111246        5.9203928209        5.8734961970
  O        10.9779268659        1.4676891145        5.8782215550
  O         0.7303921564       10.3494865504        5.8694537917
  O         3.2733402125        5.9183569233        5.8478171655
  O         5.8612870828        1.4689611817        5.8958628169
  O        -4.4011570688       10.3455917953        5.8896581240
  O        -1.8340296566        5.9102243425        5.8655732722
  O         0.7271299215        1.4757883168        5.8873417038
  O         5.9129978330       13.1737844711        5.7000527691
  O         8.4865316892        8.7249532622        5.6997063445
  O        11.0472613175        4.2950130362        5.6863627694
  O         0.8039756478       13.1670633864        5.6782766990
  O         3.3596532117        8.7312825536        5.6827698529
  O         5.9382092433        4.3172403357        5.7446573430
  O        -4.3172432662       13.1698983237        5.7086621138
  O        -1.7639610463        8.7274144645        5.6914007886
  O         0.7918622558        4.2955614476        5.6957561675
  O         3.4640291740       11.7760266913        5.6765797628
  O         6.0475907691        7.3272063134        5.6469503061
  O         8.5897194935        2.8954353257        5.7057052996
  O        -1.6485592438       11.7704606290        5.6737995638
  O         0.9023075556        7.3338931318        5.6693391268
  O         3.4790536765        2.8987072427        5.6956692615
  O        -6.7766675294       11.7727630414        5.6948048922
  O        -4.2243611801        7.3327885892        5.6862790485
  O        -1.6622439587        2.9030621134        5.6763549729
 Fe         7.7782678627       10.2686823967        6.4382772402
 Fe        10.3458534421        5.8275282009        6.4425837963
 Fe        12.9102497716        1.3978210142        6.4396416405
 Fe         2.6562900810       10.2657957560        6.4373148554
 Fe         5.1889030796        5.8676961813        6.4409498522
 Fe         7.7886500169        1.3686702886        6.4331963676
 Fe        -2.4681286507       10.2684681355        6.4352015312
 Fe         0.0901581896        5.8365076521        6.4402013009
 Fe         2.6553401505        1.3881300425        6.4397971575
  O         7.8399711429       10.3886177625        8.2657281821
  H         7.8539217721        9.5695156252        8.7928107355
  H         5.3485796239       10.6055598278        6.6808349349
  O        10.3733352140        5.8907880863        8.2816942169
  H        10.6847636148        5.0986703870        8.7562606844
  H         7.9160410065        6.2566468486        6.6440205399
  O        12.9409454162        1.5187835571        8.2685980768
  H        13.0001107152        0.6968359975        8.7884839935
  H        10.4802098268        1.7155328113        6.6911660993
  O         2.6988882226       10.3774980980        8.2647172323
  H         2.7954867842        9.5539080330        8.7772871301
  H         0.2209709292       10.6000999050        6.6732755753
  O         4.9496331032        6.3176445662        8.1834064340
  H         4.8881681677        5.7573142542        8.9809494009
  H         2.8126021404        6.2072374720        6.6683448959
  O         7.9097047642        1.2308275370        8.2680094782
  H         7.9794584866        0.3297943666        8.6349032097
  H         5.3424892317        1.7236367708        6.6925537485
  O        -2.3986620283       10.3938267280        8.2621453776
  H        -2.3495993035        9.5747589631        8.7874095768
  H        -4.9022048323       10.6231447066        6.6901861619
  O         0.1033303187        5.9499512139        8.2659199589
  H         0.2142901978        5.1375025686        8.7919894443
  H        -2.3336090961        6.1869351114        6.6662517127
  O         2.7091350936        1.5012034833        8.2646731648
  H         2.7666739516        0.6848367283        8.7929891693
  H         0.2253740284        1.7428617198        6.6907105866
  C         7.3961569480        4.0342019222        9.2338537264
  C         6.3577824394        4.3913607075       10.1743397118
  H         7.5050135049        2.9352523950        9.1627690018
  H         7.1720806564        4.4216749368        8.2300412622
  H         8.3519821220        4.4665945095        9.5622947102
  N         5.4590243015        4.6944235148       10.8611765105
     168
 i =       27, E =     -8144.3717785739
 Fe         5.0938794100       11.8196869300        0.3885799900
 Fe         7.6575796300        7.3792284900        0.3885799900
 Fe        10.2212798400        2.9387700600        0.3885799900
 Fe        -0.0335205200       11.8196869300        0.3885799900
 Fe         2.5301797000        7.3792284900        0.3885799900
 Fe         5.0938799200        2.9387700600        0.3885799900
 Fe        -5.1609204400       11.8196869300        0.3885799900
 Fe        -2.5972202200        7.3792284900        0.3885799900
 Fe        -0.0335200000        2.9387700600        0.3885799900
  O         8.4519195100        8.9577468800        1.1642700400
  O        11.0156197300        4.5172884400        1.1642700400
  O        13.5793199500        0.0768300000        1.1642700400
  O         3.3245195900        8.9577468800        1.1642700400
  O         5.8882198100        4.5172884400        1.1642700400
  O         8.4519200300        0.0768300000        1.1642700400
  O        -1.8028803300        8.9577468800        1.1642700400
  O         0.7608198900        4.5172884400        1.1642700400
  O         3.3245201100        0.0768300000        1.1642700400
  O         8.4568493000       11.7183869300        1.1650400200
  O        11.0205495200        7.2779284900        1.1650400200
  O        13.5842497300        2.8374700500        1.1650400200
  O         3.3294493700       11.7183869300        1.1650400200
  O         5.8931495900        7.2779284900        1.1650400200
  O         8.4568498100        2.8374700500        1.1650400200
  O        -1.7979505500       11.7183869300        1.1650400200
  O         0.7657496700        7.2779284900        1.1650400200
  O         3.3294498900        2.8374700500        1.1650400200
  O         6.0627194200       10.3425368500        1.1660399400
  O         8.6264196400        5.9020784100        1.1660399400
  O        11.1901198600        1.4616199700        1.1660399400
  O         0.9353195000       10.3425368500        1.1660399400
  O         3.4990197200        5.9020784100        1.1660399400
  O         6.0627199400        1.4616199700        1.1660399400
  O        -4.1920804200       10.3425368500        1.1660399400
  O        -1.6283802000        5.9020784100        1.1660399400
  O         0.9353200200        1.4616199700        1.1660399400
 Fe         7.6576695000       13.2997167500        1.9292099500
 Fe        10.2213697200        8.8592583200        1.9292099500
 Fe        12.7850699400        4.4187998800        1.9292099500
 Fe         2.5302695800       13.2997167500        1.9292099500
 Fe         5.0939698000        8.8592583200        1.9292099500
 Fe         7.6576700200        4.4187998800        1.9292099500
 Fe        -2.5971303400       13.2997167500        1.9292099500
 Fe        -0.0334301200        8.8592583200        1.9292099500
 Fe         2.5302701000        4.4187998800        1.9292099500
 Fe         7.6573893600       10.3392168700        2.7128999200
 Fe        10.2210895800        5.8987584300        2.7128999200
 Fe        12.7847898000        1.4582999900        2.7128999200
 Fe         2.5299894400       10.3392168700        2.7128999200
 Fe         5.0936896600        5.8987584300        2.7128999200
 Fe         7.6573898800        1.4582999900        2.7128999200
 Fe        -2.5974104800       10.3392168700        2.7128999200
 Fe        -0.0337102600        5.8987584300        2.7128999200
 Fe         2.5299899600        1.4582999900        2.7128999200
  O         4.0924724101       13.3145115655        3.5129166691
  O         6.6609550280        8.8753113943        3.5135681878
  O         9.2072065355        4.4269568411        3.5058125738
  O        -1.0355389075       13.3176338187        3.5148153939
  O         1.5380776022        8.8797899369        3.5288576445
  O         4.1068005681        4.4393560209        3.5394239669
  O        -6.1589909237       13.3194532789        3.5296150968
  O        -3.6036696987        8.8718187562        3.5090598686
  O        -1.0370785735        4.4291480819        3.5078236379
  O         6.8159814870       11.8666034318        3.5145323360
  O         9.3826926764        7.4372795878        3.4922921483
  O        11.9360604182        2.9921524697        3.4985549140
  O         1.6880688523       11.8760079890        3.4913139331
  O         4.2523986792        7.4314476939        3.4967769235
  O         6.8173418981        3.0010372993        3.5046586464
  O        -3.4396633827       11.8729120760        3.5002595956
  O        -0.8805732963        7.4199219544        3.5109494678
  O         1.6894522615        2.9826565640        3.5192936975
  O         9.4301837345       10.2220949975        3.4887044805
  O        11.9886646802        5.7808338493        3.4881163430
  O        14.5492843524        1.3432009398        3.5000123742
  O         4.3009209942       10.2261451799        3.4896908893
  O         6.8752181883        5.7660928365        3.4739570303
  O         9.4246583939        1.3496698315        3.4940700652
  O        -0.8339273947       10.2290745573        3.5005817042
  O         1.7301085070        5.7799248859        3.4949443562
  O         4.3014130023        1.3461250670        3.4975301948
 Fe         5.0374085595       11.8335293781        4.4211308097
 Fe         7.6054685608        7.3938277927        4.4085678633
 Fe        10.1549416907        2.9583203979        4.4260365001
 Fe        -0.0892324971       11.8340570213        4.4177581190
 Fe         2.4740960895        7.3904819053        4.4205879182
 Fe         5.0392856896        2.9593798115        4.4384426611
 Fe        -5.2164348367       11.8350343635        4.4234283493
 Fe        -2.6578171735        7.3960859441        4.4184723175
 Fe        -0.0936418861        2.9520123913        4.4239602336
 Fe         7.6112252793       13.1842170974        4.8411785669
 Fe        10.1736062028        8.7465330706        4.8210509894
 Fe        12.7366113242        4.3054057912        4.8092864120
 Fe         2.4885142170       13.1838565420        4.8141112928
 Fe         5.0480348829        8.7453665811        4.8177902650
 Fe         7.6014221951        4.3073881213        4.8283805941
 Fe        -2.6435102882       13.1843106630        4.8237677974
 Fe        -0.0813294757        8.7422472994        4.8199309469
 Fe         2.4802827169        4.3010540660        4.8450019328
  O         5.8547500371       10.3427853611        5.8796715092
  O         8.4270324691        5.9182220433        5.8737088910
  O        10.9785989876        1.4646868444        5.8783892579
  O         0.7299571882       10.3477621735        5.8720041893
  O         3.2719796017        5.9177413961        5.8476714887
  O         5.8617009494        1.4687271616        5.8937479796
  O        -4.4000296942       10.3469570886        5.8836620352
  O        -1.8367604098        5.9095021685        5.8659177856
  O         0.7258278584        1.4706909358        5.8875280044
  O         5.9209298762       13.1747266388        5.6976598890
  O         8.4920026005        8.7284105750        5.6958541568
  O        11.0510360489        4.2986290382        5.6880472553
  O         0.8012820068       13.1665677505        5.6744235036
  O         3.3639864902        8.7328666969        5.6869090814
  O         5.9380311043        4.3149799448        5.7462251136
  O        -4.3230141837       13.1696707002        5.7001727036
  O        -1.7659224664        8.7321215852        5.6903063833
  O         0.7900462027        4.2920738406        5.6959960900
  O         3.4663997529       11.7762404354        5.6752270181
  O         6.0489478755        7.3278144926        5.6502556566
  O         8.5862011215        2.8970930025        5.7098349150
  O        -1.6534213207       11.7743199054        5.6749038413
  O         0.9034827678        7.3346553498        5.6726359297
  O         3.4788093937        2.8966030606        5.6931825653
  O        -6.7799780041       11.7738445407        5.6870649041
  O        -4.2245965972        7.3339740844        5.6786939069
  O        -1.6661771323        2.9012519048        5.6774135504
 Fe         7.7818822087       10.2684595362        6.4371890440
 Fe        10.3461302874        5.8302370838        6.4403227855
 Fe        12.9085491799        1.3951575390        6.4365935349
 Fe         2.6563743882       10.2674182652        6.4362086200
 Fe         5.1889774586        5.8661003068        6.4411980170
 Fe         7.7882973662        1.3678550906        6.4314366247
 Fe        -2.4697918508       10.2715459313        6.4351503630
 Fe         0.0892774449        5.8346898165        6.4375323313
 Fe         2.6551817571        1.3875088067        6.4379783520
  O         7.8386553886       10.3877571675        8.2645548273
  H         7.8531691709        9.5699255400        8.7935725737
  H         5.3489978522       10.6065144197        6.6811817610
  O        10.3744869949        5.8878546632        8.2800092677
  H        10.6900685277        5.0985039642        8.7556791117
  H         7.9159837105        6.2576195949        6.6420609193
  O        12.9405357316        1.5190332775        8.2655089163
  H        12.9991960959        0.6987046436        8.7880895778
  H        10.4788658930        1.7168099609        6.6876756808
  O         2.6990957820       10.3780791353        8.2637391348
  H         2.7960171145        9.5543196978        8.7760305200
  H         0.2200788668       10.6017793893        6.6739117212
  O         4.9473577201        6.3146978649        8.1834612698
  H         4.8844204770        5.7575538476        8.9830051084
  H         2.8117453396        6.2071800461        6.6688296198
  O         7.9094276593        1.2309276772        8.2666221371
  H         7.9810438108        0.3305430134        8.6345402337
  H         5.3431926118        1.7229744679        6.6906646342
  O        -2.3974859222       10.3938035257        8.2615921492
  H        -2.3487258744        9.5752612055        8.7875744657
  H        -4.9016938103       10.6208202761        6.6850945717
  O         0.1031511671        5.9496937954        8.2640009451
  H         0.2141299533        5.1385674920        8.7921719931
  H        -2.3350355191        6.1883699618        6.6665625008
  O         2.7083968906        1.5008240439        8.2629715442
  H         2.7670989691        0.6858530328        8.7933785709
  H         0.2267138690        1.7452671959        6.6897778555
  C         7.4076582662        4.0350840510        9.2463324618
  C         6.3397202605        4.3942384469       10.1524933400
  H         7.5124339526        2.9385908684        9.1662963278
  H         7.1644471982        4.4159134924        8.2417530852
  H         8.3636516000        4.4775217094        9.5581941715
  N         5.4654280279        4.6917064282       10.8701554753
     168
 i =       28, E =     -8144.2732530840
 Fe         5.0938794100       11.8196869300        0.3885799900
 Fe         7.6575796300        7.3792284900        0.3885799900
 Fe        10.2212798400        2.9387700600        0.3885799900
 Fe        -0.0335205200       11.8196869300        0.3885799900
 Fe         2.5301797000        7.3792284900        0.3885799900
 Fe         5.0938799200        2.9387700600        0.3885799900
 Fe        -5.1609204400       11.8196869300        0.3885799900
 Fe        -2.5972202200        7.3792284900        0.3885799900
 Fe        -0.0335200000        2.9387700600        0.3885799900
  O         8.4519195100        8.9577468800        1.1642700400
  O        11.0156197300        4.5172884400        1.1642700400
  O        13.5793199500        0.0768300000        1.1642700400
  O         3.3245195900        8.9577468800        1.1642700400
  O         5.8882198100        4.5172884400        1.1642700400
  O         8.4519200300        0.0768300000        1.1642700400
  O        -1.8028803300        8.9577468800        1.1642700400
  O         0.7608198900        4.5172884400        1.1642700400
  O         3.3245201100        0.0768300000        1.1642700400
  O         8.4568493000       11.7183869300        1.1650400200
  O        11.0205495200        7.2779284900        1.1650400200
  O        13.5842497300        2.8374700500        1.1650400200
  O         3.3294493700       11.7183869300        1.1650400200
  O         5.8931495900        7.2779284900        1.1650400200
  O         8.4568498100        2.8374700500        1.1650400200
  O        -1.7979505500       11.7183869300        1.1650400200
  O         0.7657496700        7.2779284900        1.1650400200
  O         3.3294498900        2.8374700500        1.1650400200
  O         6.0627194200       10.3425368500        1.1660399400
  O         8.6264196400        5.9020784100        1.1660399400
  O        11.1901198600        1.4616199700        1.1660399400
  O         0.9353195000       10.3425368500        1.1660399400
  O         3.4990197200        5.9020784100        1.1660399400
  O         6.0627199400        1.4616199700        1.1660399400
  O        -4.1920804200       10.3425368500        1.1660399400
  O        -1.6283802000        5.9020784100        1.1660399400
  O         0.9353200200        1.4616199700        1.1660399400
 Fe         7.6576695000       13.2997167500        1.9292099500
 Fe        10.2213697200        8.8592583200        1.9292099500
 Fe        12.7850699400        4.4187998800        1.9292099500
 Fe         2.5302695800       13.2997167500        1.9292099500
 Fe         5.0939698000        8.8592583200        1.9292099500
 Fe         7.6576700200        4.4187998800        1.9292099500
 Fe        -2.5971303400       13.2997167500        1.9292099500
 Fe        -0.0334301200        8.8592583200        1.9292099500
 Fe         2.5302701000        4.4187998800        1.9292099500
 Fe         7.6573893600       10.3392168700        2.7128999200
 Fe        10.2210895800        5.8987584300        2.7128999200
 Fe        12.7847898000        1.4582999900        2.7128999200
 Fe         2.5299894400       10.3392168700        2.7128999200
 Fe         5.0936896600        5.8987584300        2.7128999200
 Fe         7.6573898800        1.4582999900        2.7128999200
 Fe        -2.5974104800       10.3392168700        2.7128999200
 Fe        -0.0337102600        5.8987584300        2.7128999200
 Fe         2.5299899600        1.4582999900        2.7128999200
  O         4.1804999350       13.3450908067        3.6256820989
  O         6.6616142828        8.8857495269        3.5224316782
  O         9.3100014473        4.4840447134        3.6744320152
  O        -1.0034159207       13.3135929169        3.5571642187
  O         1.4491154342        8.8544330950        3.4008021323
  O         4.1693696412        4.4874373554        3.6575773250
  O        -6.2268470040       13.2781351177        3.3724441914
  O        -3.6439331935        8.8602467015        3.4275524862
  O        -0.9456339741        4.4671915712        3.6433639651
  O         6.8270023693       11.9526488591        3.3671019499
  O         9.3802632073        7.4912523125        3.4070624739
  O        11.9101189727        2.8849230100        3.6096231048
  O         1.6588756116       11.7717008528        3.6098111691
  O         4.2552777597        7.4336426586        3.4991066999
  O         6.8145413389        2.8827221024        3.6620745733
  O        -3.4542928373       11.8432085328        3.5301157466
  O        -0.8674154697        7.5040325210        3.4036588896
  O         1.6605319639        2.8617197771        3.6472101611
  O         9.4671446158       10.1952051718        3.4011713720
  O        11.9154245628        5.8456137134        3.6177044014
  O        14.6142234371        1.2985270032        3.3663644653
  O         4.3120614919       10.2339534892        3.4791048144
  O         6.7880518202        5.8462126618        3.6414995677
  O         9.3632077151        1.4079984233        3.5939807356
  O        -0.7698836386       10.1762150627        3.3782815083
  O         1.6665623941        5.8410697616        3.6161169230
  O         4.2612003198        1.3517201498        3.5418638273
 Fe         5.0853410497       11.8154420382        4.4176006828
 Fe         7.6327881572        7.4324864647        4.4508103103
 Fe        10.1618098497        2.9516099339        4.5059209815
 Fe        -0.1296608602       11.7770166151        4.4413562833
 Fe         2.4692474770        7.4606056756        4.4148136555
 Fe         5.0292323919        2.9467936298        4.4476136316
 Fe        -5.2621339376       11.8425576841        4.3609361486
 Fe        -2.6214007099        7.4485093941        4.4101823950
 Fe        -0.1246979421        2.8913932842        4.4636625502
 Fe         7.6162292199       13.1895282568        4.7519287976
 Fe        10.1833298321        8.7580770286        4.7550209433
 Fe        12.7387861662        4.2981439429        4.8133726338
 Fe         2.4901195540       13.1731884324        4.8145166543
 Fe         5.0516229133        8.7487556311        4.8214450923
 Fe         7.6006485821        4.3000700593        4.8995881050
 Fe        -2.6559881890       13.1909635328        4.8073447709
 Fe        -0.0772327438        8.7395541312        4.8140698978
 Fe         2.4644737346        4.2916594630        4.8555301570
  O         5.8693299323       10.3438111895        5.8864673608
  O         8.4293551629        5.9115416730        5.8842573788
  O        10.9803584536        1.4548102698        5.8787144046
  O         0.7257972901       10.3355530447        5.8901417430
  O         3.2622906603        5.9196426027        5.8446180365
  O         5.8593963408        1.4668566626        5.8817045579
  O        -4.3905033004       10.3528713206        5.8510253403
  O        -1.8516291835        5.9069397080        5.8700921736
  O         0.7180035821        1.4386960468        5.8874257018
  O         5.9704824374       13.1785220552        5.6890063334
  O         8.5238181679        8.7541056172        5.6766232289
  O        11.0723296562        4.3036280956        5.7138145644
  O         0.7798050020       13.1610800536        5.6500362146
  O         3.3862604540        8.7365725537        5.7113101765
  O         5.9248242192        4.2975376651        5.7677639702
  O        -4.3545051325       13.1751359549        5.6478180858
  O        -1.7712408433        8.7574139103        5.6918842715
  O         0.7822833813        4.2717269486        5.6993993578
  O         3.4826267591       11.7744045464        5.6690534939
  O         6.0513048082        7.3453849177        5.6783999846
  O         8.5864365616        2.8964284911        5.7480504712
  O        -1.6808954635       11.7979579202        5.6796523874
  O         0.9104035090        7.3388638900        5.6929942997
  O         3.4718005713        2.8826856563        5.6778815928
  O        -6.8034825932       11.7864682288        5.6482715550
  O        -4.2223569434        7.3435612229        5.6424337817
  O        -1.6836915789        2.8878037536        5.6845220909
 Fe         7.8028574543       10.2717343968        6.4307053004
 Fe        10.3499654085        5.8427973808        6.4246602194
 Fe        12.8991688379        1.3782671024        6.4200764362
 Fe         2.6567735819       10.2751962429        6.4263840710
 Fe         5.1911643407        5.8608038293        6.4431373397
 Fe         7.7813503254        1.3611395870        6.4218970919
 Fe        -2.4775052023       10.2903641951        6.4314849868
 Fe         0.0831679468        5.8226785354        6.4238359242
 Fe         2.6535172001        1.3839078160        6.4306340538
  O         7.8306608471       10.3827186392        8.2572451131
  H         7.8489610045        9.5724142736        8.7978394906
  H         5.3528295150       10.6119964826        6.6828337866
  O        10.3810575998        5.8707585682        8.2686004514
  H        10.7204951256        5.0978042553        8.7520579033
  H         7.9124609874        6.2646699598        6.6367727947
  O        12.9386355377        1.5212044195        8.2484290510
  H        12.9936182921        0.7095003535        8.7852874840
  H        10.4693813719        1.7206644986        6.6712131564
  O         2.7003251404       10.3811578910        8.2555059528
  H         2.7991186683        9.5574909922        8.7682594247
  H         0.2150641165       10.6141128229        6.6805914886
  O         4.9345416774        6.2980886240        8.1847216940
  H         4.8635689815        5.7580909652        8.9944319430
  H         2.8075460824        6.2049969391        6.6743417527
  O         7.9085870697        1.2321025548        8.2590086186
  H         7.9901255950        0.3354446928        8.6327642502
  H         5.3466854016        1.7186582882        6.6814207103
  O        -2.3912939362       10.3927449111        8.2562188240
  H        -2.3436249374        9.5784042243        8.7887199905
  H        -4.9010035373       10.6088979458        6.6525549056
  O         0.1021316475        5.9480365368        8.2541226206
  H         0.2129876218        5.1443792473        8.7939615912
  H        -2.3439008573        6.1957847845        6.6700784354
  O         2.7037789655        1.4988264313        8.2545760027
  H         2.7695504281        0.6912343364        8.7954624242
  H         0.2350832200        1.7588263968        6.6837685374
  C         7.4604364645        4.0420858895        9.3028135370
  C         6.2631179555        4.4067507950       10.0592950339
  H         7.5565253402        2.9564244414        9.1908766885
  H         7.1312507176        4.3862240292        8.2931453620
  H         8.4135764325        4.5391886742        9.5377148492
  N         5.4939960255        4.6767295886       10.9106193881
     168
 i =       29, E =     -8144.3637879292
 Fe         5.0938794100       11.8196869300        0.3885799900
 Fe         7.6575796300        7.3792284900        0.3885799900
 Fe        10.2212798400        2.9387700600        0.3885799900
 Fe        -0.0335205200       11.8196869300        0.3885799900
 Fe         2.5301797000        7.3792284900        0.3885799900
 Fe         5.0938799200        2.9387700600        0.3885799900
 Fe        -5.1609204400       11.8196869300        0.3885799900
 Fe        -2.5972202200        7.3792284900        0.3885799900
 Fe        -0.0335200000        2.9387700600        0.3885799900
  O         8.4519195100        8.9577468800        1.1642700400
  O        11.0156197300        4.5172884400        1.1642700400
  O        13.5793199500        0.0768300000        1.1642700400
  O         3.3245195900        8.9577468800        1.1642700400
  O         5.8882198100        4.5172884400        1.1642700400
  O         8.4519200300        0.0768300000        1.1642700400
  O        -1.8028803300        8.9577468800        1.1642700400
  O         0.7608198900        4.5172884400        1.1642700400
  O         3.3245201100        0.0768300000        1.1642700400
  O         8.4568493000       11.7183869300        1.1650400200
  O        11.0205495200        7.2779284900        1.1650400200
  O        13.5842497300        2.8374700500        1.1650400200
  O         3.3294493700       11.7183869300        1.1650400200
  O         5.8931495900        7.2779284900        1.1650400200
  O         8.4568498100        2.8374700500        1.1650400200
  O        -1.7979505500       11.7183869300        1.1650400200
  O         0.7657496700        7.2779284900        1.1650400200
  O         3.3294498900        2.8374700500        1.1650400200
  O         6.0627194200       10.3425368500        1.1660399400
  O         8.6264196400        5.9020784100        1.1660399400
  O        11.1901198600        1.4616199700        1.1660399400
  O         0.9353195000       10.3425368500        1.1660399400
  O         3.4990197200        5.9020784100        1.1660399400
  O         6.0627199400        1.4616199700        1.1660399400
  O        -4.1920804200       10.3425368500        1.1660399400
  O        -1.6283802000        5.9020784100        1.1660399400
  O         0.9353200200        1.4616199700        1.1660399400
 Fe         7.6576695000       13.2997167500        1.9292099500
 Fe        10.2213697200        8.8592583200        1.9292099500
 Fe        12.7850699400        4.4187998800        1.9292099500
 Fe         2.5302695800       13.2997167500        1.9292099500
 Fe         5.0939698000        8.8592583200        1.9292099500
 Fe         7.6576700200        4.4187998800        1.9292099500
 Fe        -2.5971303400       13.2997167500        1.9292099500
 Fe        -0.0334301200        8.8592583200        1.9292099500
 Fe         2.5302701000        4.4187998800        1.9292099500
 Fe         7.6573893600       10.3392168700        2.7128999200
 Fe        10.2210895800        5.8987584300        2.7128999200
 Fe        12.7847898000        1.4582999900        2.7128999200
 Fe         2.5299894400       10.3392168700        2.7128999200
 Fe         5.0936896600        5.8987584300        2.7128999200
 Fe         7.6573898800        1.4582999900        2.7128999200
 Fe        -2.5974104800       10.3392168700        2.7128999200
 Fe        -0.0337102600        5.8987584300        2.7128999200
 Fe         2.5299899600        1.4582999900        2.7128999200
  O         4.1090870899       13.3208408703        3.5345335088
  O         6.6593783796        8.8776117807        3.5135820460
  O         9.2321503561        4.4412097528        3.5462268122
  O        -1.0315427059       13.3140068124        3.5177598134
  O         1.5212679284        8.8733616657        3.5015627540
  O         4.1189765327        4.4472608545        3.5613081198
  O        -6.1713183047       13.3101570886        3.4971880468
  O        -3.6101928972        8.8708931644        3.4959675315
  O        -1.0192040876        4.4362976350        3.5332404885
  O         6.8182038041       11.8832438609        3.4850651644
  O         9.3825487673        7.4470201853        3.4789013016
  O        11.9308176824        2.9713602949        3.5189696152
  O         1.6821520462       11.8548334810        3.5138370313
  O         4.2520287360        7.4342461283        3.4938986620
  O         6.8151068046        2.9733280033        3.5395809031
  O        -3.4417944727       11.8698578476        3.5016195516
  O        -0.8782859284        7.4371811541        3.4880328519
  O         1.6840275646        2.9585924685        3.5443454643
  O         9.4369032666       10.2169758319        3.4726686514
  O        11.9768295840        5.7941742926        3.5091582739
  O        14.5620611165        1.3355178552        3.4741111822
  O         4.3049000420       10.2274771359        3.4853360446
  O         6.8543275918        5.7848950557        3.5124143949
  O         9.4139130949        1.3609578600        3.5126425948
  O        -0.8224168310       10.2190677697        3.4761613861
  O         1.7173077925        5.7920328914        3.5187124475
  O         4.2953627458        1.3465613581        3.5013377735
 Fe         5.0462696160       11.8309119756        4.4202665352
 Fe         7.6097394438        7.4024418177        4.4189692432
 Fe        10.1570999335        2.9566399370        4.4442841500
 Fe        -0.0974100569       11.8235049396        4.4216535772
 Fe         2.4729542517        7.4035297200        4.4197761427
 Fe         5.0371082229        2.9558064712        4.4393351296
 Fe        -5.2237578934       11.8360591750        4.4083816875
 Fe        -2.6507983392        7.4050759102        4.4172795663
 Fe        -0.0989234334        2.9418492988        4.4331597675
 Fe         7.6122168677       13.1857049530        4.8215278973
 Fe        10.1761483831        8.7486775634        4.8117926137
 Fe        12.7371643111        4.3047889769        4.8079522423
 Fe         2.4884466484       13.1802057875        4.8130495281
 Fe         5.0483291422        8.7458049401        4.8164025516
 Fe         7.6013088208        4.3048738285        4.8449713256
 Fe        -2.6460407497       13.1863980341        4.8174481064
 Fe        -0.0804153584        8.7424332422        4.8154696059
 Fe         2.4768540166        4.2994962385        4.8483683290
  O         5.8583167658       10.3442912644        5.8793832343
  O         8.4274822515        5.9180925159        5.8773457500
  O        10.9784792405        1.4622908553        5.8784600175
  O         0.7276488198       10.3437879028        5.8759561159
  O         3.2700871086        5.9183529827        5.8475145236
  O         5.8600337071        1.4665725063        5.8912294699
  O        -4.3964237525       10.3490482572        5.8756735262
  O        -1.8392157208        5.9094969321        5.8674661998
  O         0.7244980590        1.4640955450        5.8864281023
  O         5.9320106473       13.1750818300        5.6959031320
  O         8.4964934436        8.7341028191        5.6918148165
  O        11.0584518574        4.2973395781        5.6972152102
  O         0.7963025066       13.1651483553        5.6688922957
  O         3.3680905091        8.7344025256        5.6901206048
  O         5.9352276189        4.3112815274        5.7525722193
  O        -4.3304066729       13.1718595281        5.6858962074
  O        -1.7668184358        8.7379715433        5.6886739901
  O         0.7895282145        4.2875274655        5.7002288952
  O         3.4701950104       11.7747821613        5.6737852429
  O         6.0495520399        7.3343000041        5.6591591720
  O         8.5873230434        2.8972810455        5.7216247148
  O        -1.6597883476       11.7792261255        5.6743185903
  O         0.9032431159        7.3374593961        5.6765085926
  O         3.4771060653        2.8926834458        5.6888235141
  O        -6.7842665748       11.7758998059        5.6751050539
  O        -4.2231180656        7.3357721901        5.6736410462
  O        -1.6698767310        2.8977792375        5.6776683878
 Fe         7.7868379378       10.2707180106        6.4360238960
 Fe        10.3478681233        5.8316781599        6.4373976403
 Fe        12.9064759348        1.3910332373        6.4337884070
 Fe         2.6557728770       10.2690080934        6.4343557672
 Fe         5.1894365463        5.8658150677        6.4412522317
 Fe         7.7856143392        1.3657679770        6.4291529688
 Fe        -2.4712424637       10.2754928103        6.4346711087
 Fe         0.0886560160        5.8328644072        6.4353735799
 Fe         2.6546830412        1.3863432307        6.4365787409
  O         7.8369008067       10.3869984271        8.2631981308
  H         7.8519467360        9.5704955406        8.7942583591
  H         5.3504950366       10.6071521127        6.6805618069
  O        10.3761216365        5.8842979811        8.2777985134
  H        10.6983611557        5.0981484329        8.7537163905
  H         7.9146449606        6.2593122099        6.6425097219
  O        12.9401159398        1.5197603546        8.2623050646
  H        12.9977123869        0.7011761014        8.7876509942
  H        10.4764039866        1.7168109298        6.6845257786
  O         2.6995611180       10.3790902647        8.2620749756
  H         2.7969129199        9.5550495828        8.7739490063
  H         0.2200154694       10.6051022910        6.6764230560
  O         4.9444283470        6.3110839209        8.1836383443
  H         4.8796176063        5.7568652784        8.9847613670
  H         2.8115122648        6.2069147858        6.6705047428
  O         7.9095688488        1.2316921757        8.2646806801
  H         7.9834518178        0.3322792779        8.6342057225
  H         5.3436406832        1.7223034238        6.6884311803
  O        -2.3960576134       10.3937885358        8.2606885019
  H        -2.3472332330        9.5759150214        8.7876708452
  H        -4.9022378638       10.6181248486        6.6757260277
  O         0.1026339022        5.9497446949        8.2623539284
  H         0.2137665749        5.1400386684        8.7926176390
  H        -2.3376383660        6.1895894361        6.6675479867
  O         2.7071005841        1.5000293296        8.2611718243
  H         2.7674776827        0.6869287614        8.7941237174
  H         0.2280041073        1.7466107562        6.6873563899
  C         7.4122870780        4.0386283649        9.2526398005
  C         6.3368450143        4.3942058880       10.1505178768
  H         7.5254592239        2.9432903477        9.1756006789
  H         7.1634981734        4.4096336565        8.2452794285
  H         8.3658406746        4.4931087451        9.5535314626
  N         5.4683572484        4.6887478689       10.8722998097
     168
 i =       30, E =     -8144.2384513159
 Fe         5.0938794100       11.8196869300        0.3885799900
 Fe         7.6575796300        7.3792284900        0.3885799900
 Fe        10.2212798400        2.9387700600        0.3885799900
 Fe        -0.0335205200       11.8196869300        0.3885799900
 Fe         2.5301797000        7.3792284900        0.3885799900
 Fe         5.0938799200        2.9387700600        0.3885799900
 Fe        -5.1609204400       11.8196869300        0.3885799900
 Fe        -2.5972202200        7.3792284900        0.3885799900
 Fe        -0.0335200000        2.9387700600        0.3885799900
  O         8.4519195100        8.9577468800        1.1642700400
  O        11.0156197300        4.5172884400        1.1642700400
  O        13.5793199500        0.0768300000        1.1642700400
  O         3.3245195900        8.9577468800        1.1642700400
  O         5.8882198100        4.5172884400        1.1642700400
  O         8.4519200300        0.0768300000        1.1642700400
  O        -1.8028803300        8.9577468800        1.1642700400
  O         0.7608198900        4.5172884400        1.1642700400
  O         3.3245201100        0.0768300000        1.1642700400
  O         8.4568493000       11.7183869300        1.1650400200
  O        11.0205495200        7.2779284900        1.1650400200
  O        13.5842497300        2.8374700500        1.1650400200
  O         3.3294493700       11.7183869300        1.1650400200
  O         5.8931495900        7.2779284900        1.1650400200
  O         8.4568498100        2.8374700500        1.1650400200
  O        -1.7979505500       11.7183869300        1.1650400200
  O         0.7657496700        7.2779284900        1.1650400200
  O         3.3294498900        2.8374700500        1.1650400200
  O         6.0627194200       10.3425368500        1.1660399400
  O         8.6264196400        5.9020784100        1.1660399400
  O        11.1901198600        1.4616199700        1.1660399400
  O         0.9353195000       10.3425368500        1.1660399400
  O         3.4990197200        5.9020784100        1.1660399400
  O         6.0627199400        1.4616199700        1.1660399400
  O        -4.1920804200       10.3425368500        1.1660399400
  O        -1.6283802000        5.9020784100        1.1660399400
  O         0.9353200200        1.4616199700        1.1660399400
 Fe         7.6576695000       13.2997167500        1.9292099500
 Fe        10.2213697200        8.8592583200        1.9292099500
 Fe        12.7850699400        4.4187998800        1.9292099500
 Fe         2.5302695800       13.2997167500        1.9292099500
 Fe         5.0939698000        8.8592583200        1.9292099500
 Fe         7.6576700200        4.4187998800        1.9292099500
 Fe        -2.5971303400       13.2997167500        1.9292099500
 Fe        -0.0334301200        8.8592583200        1.9292099500
 Fe         2.5302701000        4.4187998800        1.9292099500
 Fe         7.6573893600       10.3392168700        2.7128999200
 Fe        10.2210895800        5.8987584300        2.7128999200
 Fe        12.7847898000        1.4582999900        2.7128999200
 Fe         2.5299894400       10.3392168700        2.7128999200
 Fe         5.0936896600        5.8987584300        2.7128999200
 Fe         7.6573898800        1.4582999900        2.7128999200
 Fe        -2.5974104800       10.3392168700        2.7128999200
 Fe        -0.0337102600        5.8987584300        2.7128999200
 Fe         2.5299899600        1.4582999900        2.7128999200
  O         4.0049165294       13.2759051704        3.3811605480
  O         6.6618866409        8.8533631410        3.4792544149
  O         9.1166788975        4.3690695244        3.3519947301
  O        -1.0580252878       13.3206553496        3.4811589125
  O         1.6364338842        8.9054785791        3.6760598651
  O         4.0274027761        4.4084810305        3.4080869605
  O        -6.0555316763       13.3800607072        3.7471880468
  O        -3.5287862925        8.8939056081        3.6387476773
  O        -1.1461721187        4.3905487460        3.3491681419
  O         6.8014703108       11.7295185990        3.7239686842
  O         9.3724870581        7.3620150483        3.6029850588
  O        11.9598698985        3.1101575946        3.3658657769
  O         1.7104270209       11.9818643484        3.3608494400
  O         4.2396599204        7.4400292116        3.4690416731
  O         6.8239264503        3.1045974551        3.3608460608
  O        -3.4287649719       11.8971399582        3.4718016247
  O        -0.8949494171        7.3314981849        3.6414899210
  O         1.7190285140        3.1075681299        3.3794007496
  O         9.3683958064       10.2588409976        3.6191697740
  O        12.0690846325        5.7092586444        3.3362065225
  O        14.4589006472        1.4133358678        3.6879376947
  O         4.2876442175       10.2151873956        3.4946274972
  O         6.9581151409        5.6955489695        3.3077422693
  O         9.4860197124        1.2948973841        3.3851713238
  O        -0.9082105790       10.2798366904        3.6435462041
  O         1.8133384926        5.7299495407        3.3503702190
  O         4.3412469419        1.3455481817        3.4559450586
 Fe         4.9810503510       11.8521996162        4.4326609891
 Fe         7.5689856193        7.3564706294        4.3735082569
 Fe        10.1603527579        2.9580941455        4.3472168863
 Fe        -0.0488354282       11.8825264461        4.4052548585
 Fe         2.4817424610        7.3162387641        4.4422898091
 Fe         5.0385398481        2.9924407578        4.4030137723
 Fe        -5.1640478680       11.8257589911        4.5105327193
 Fe        -2.6923751468        7.3199772772        4.4428517106
 Fe        -0.0605711170        3.0384416445        4.3809425158
 Fe         7.6043223779       13.1691393714        4.9528516895
 Fe        10.1642422570        8.7314034366        4.8919098473
 Fe        12.7317091516        4.3126190826        4.7986015059
 Fe         2.4902203842       13.1989518480        4.7775483762
 Fe         5.0507759977        8.7443886234        4.7790760689
 Fe         7.5946440642        4.3236841607        4.7435211068
 Fe        -2.6344973590       13.1798498032        4.8270307583
 Fe        -0.0858244686        8.7434636063        4.8668241897
 Fe         2.4975671145        4.3084916094        4.8299011602
  O         5.8326314894       10.3314516258        5.8727851531
  O         8.4293481890        5.9139105227        5.8562958612
  O        10.9731379681        1.4692217009        5.8698611885
  O         0.7397933779       10.3643083411        5.8623995658
  O         3.2926238284        5.9045407828        5.8580651053
  O         5.8631431568        1.4761009098        5.8947696681
  O        -4.4060790068       10.3372060349        5.9152760287
  O        -1.8205581343        5.9058422847        5.8695613923
  O         0.7277347165        1.4972595364        5.8906273206
  O         5.8677487641       13.1694807043        5.7172202703
  O         8.4578733744        8.7125178993        5.7022736854
  O        11.0223348683        4.2943637450        5.6583622392
  O         0.8289577341       13.1800376001        5.6813547099
  O         3.3678398702        8.7384607057        5.6559838333
  O         5.9503720579        4.3239346508        5.7197741711
  O        -4.2794708899       13.1644657072        5.7610600586
  O        -1.7798570871        8.7061937777        5.6985703126
  O         0.8077452929        4.3083467080        5.6991919018
  O         3.4330363853       11.7715691305        5.6604931983
  O         6.0328120540        7.3181546549        5.6104723992
  O         8.5786450150        2.8978513047        5.6482360495
  O        -1.6353704207       11.7644329137        5.6718422397
  O         0.9021360008        7.3297745868        5.6708737128
  O         3.4931310537        2.9056143226        5.7064566304
  O        -6.7556649943       11.7541273176        5.7404399888
  O        -4.2282913060        7.3312217315        5.7197530052
  O        -1.6447992656        2.9206584088        5.6759677496
 Fe         7.7548809850       10.2614506704        6.4472273924
 Fe        10.3418910381        5.8206193303        6.4453027015
 Fe        12.9112193542        1.4173833834        6.4422640994
 Fe         2.6564337503       10.2557274886        6.4444917316
 Fe         5.2013153362        5.8676862962        6.4315727944
 Fe         7.8001310877        1.3762905419        6.4385137856
 Fe        -2.4594661455       10.2632072727        6.4432144353
 Fe         0.0963380895        5.8410808873        6.4424287361
 Fe         2.6561422536        1.3892856798        6.4407154690
  O         7.8457630444       10.3937521123        8.2729584465
  H         7.8565919293        9.5670729671        8.7879789042
  H         5.3475090921       10.6040575148        6.6827485169
  O        10.3685583410        5.8984738736        8.2829053074
  H        10.6597550710        5.0997745770        8.7630065388
  H         7.9183448519        6.2470731249        6.6314755110
  O        12.9437460371        1.5147046390        8.2748826311
  H        13.0038502575        0.6902278840        8.7916329898
  H        10.4868758742        1.7124711031        6.6936335332
  O         2.6986652666       10.3754897092        8.2697647579
  H         2.7930615584        9.5517194668        8.7819904636
  H         0.2261084793       10.5999772554        6.6690122915
  O         4.9610643463        6.3247817208        8.1749092339
  H         4.9071652666        5.7578672345        8.9696523606
  H         2.8140484837        6.2144726327        6.6586858860
  O         7.9118833024        1.2309269646        8.2732866267
  H         7.9728949378        0.3272773838        8.6370776952
  H         5.3443374534        1.7275440198        6.6955013382
  O        -2.4039610868       10.3966990120        8.2704897532
  H        -2.3531683387        9.5712976406        8.7854497086
  H        -4.8989953343       10.6336986782        6.7157915419
  O         0.1045191092        5.9483284199        8.2664324642
  H         0.2143545427        5.1353677837        8.7918081658
  H        -2.3332418345        6.1784355707        6.6626265475
  O         2.7119979123        1.5003689223        8.2683114932
  H         2.7645178610        0.6806188566        8.7929300484
  H         0.2210718229        1.7394187784        6.6993613437
  C         7.3707704986        4.0273784252        9.2052072042
  C         6.3862940379        4.3872686318       10.2084267266
  H         7.4714701553        2.9243670779        9.1350975256
  H         7.1857048949        4.4383071499        8.2049456978
  H         8.3335587880        4.4209556917        9.5728180455
  N         5.4455273656        4.7054124181       10.8440414358
     168
 i =       31, E =     -8144.3487034312
 Fe         5.0938794100       11.8196869300        0.3885799900
 Fe         7.6575796300        7.3792284900        0.3885799900
 Fe        10.2212798400        2.9387700600        0.3885799900
 Fe        -0.0335205200       11.8196869300        0.3885799900
 Fe         2.5301797000        7.3792284900        0.3885799900
 Fe         5.0938799200        2.9387700600        0.3885799900
 Fe        -5.1609204400       11.8196869300        0.3885799900
 Fe        -2.5972202200        7.3792284900        0.3885799900
 Fe        -0.0335200000        2.9387700600        0.3885799900
  O         8.4519195100        8.9577468800        1.1642700400
  O        11.0156197300        4.5172884400        1.1642700400
  O        13.5793199500        0.0768300000        1.1642700400
  O         3.3245195900        8.9577468800        1.1642700400
  O         5.8882198100        4.5172884400        1.1642700400
  O         8.4519200300        0.0768300000        1.1642700400
  O        -1.8028803300        8.9577468800        1.1642700400
  O         0.7608198900        4.5172884400        1.1642700400
  O         3.3245201100        0.0768300000        1.1642700400
  O         8.4568493000       11.7183869300        1.1650400200
  O        11.0205495200        7.2779284900        1.1650400200
  O        13.5842497300        2.8374700500        1.1650400200
  O         3.3294493700       11.7183869300        1.1650400200
  O         5.8931495900        7.2779284900        1.1650400200
  O         8.4568498100        2.8374700500        1.1650400200
  O        -1.7979505500       11.7183869300        1.1650400200
  O         0.7657496700        7.2779284900        1.1650400200
  O         3.3294498900        2.8374700500        1.1650400200
  O         6.0627194200       10.3425368500        1.1660399400
  O         8.6264196400        5.9020784100        1.1660399400
  O        11.1901198600        1.4616199700        1.1660399400
  O         0.9353195000       10.3425368500        1.1660399400
  O         3.4990197200        5.9020784100        1.1660399400
  O         6.0627199400        1.4616199700        1.1660399400
  O        -4.1920804200       10.3425368500        1.1660399400
  O        -1.6283802000        5.9020784100        1.1660399400
  O         0.9353200200        1.4616199700        1.1660399400
 Fe         7.6576695000       13.2997167500        1.9292099500
 Fe        10.2213697200        8.8592583200        1.9292099500
 Fe        12.7850699400        4.4187998800        1.9292099500
 Fe         2.5302695800       13.2997167500        1.9292099500
 Fe         5.0939698000        8.8592583200        1.9292099500
 Fe         7.6576700200        4.4187998800        1.9292099500
 Fe        -2.5971303400       13.2997167500        1.9292099500
 Fe        -0.0334301200        8.8592583200        1.9292099500
 Fe         2.5302701000        4.4187998800        1.9292099500
 Fe         7.6573893600       10.3392168700        2.7128999200
 Fe        10.2210895800        5.8987584300        2.7128999200
 Fe        12.7847898000        1.4582999900        2.7128999200
 Fe         2.5299894400       10.3392168700        2.7128999200
 Fe         5.0936896600        5.8987584300        2.7128999200
 Fe         7.6573898800        1.4582999900        2.7128999200
 Fe        -2.5974104800       10.3392168700        2.7128999200
 Fe        -0.0337102600        5.8987584300        2.7128999200
 Fe         2.5299899600        1.4582999900        2.7128999200
  O         4.0742400978       13.3037672295        3.4775246794
  O         6.6622016891        8.8678657462        3.5048800008
  O         9.1916262986        4.4165324063        3.4694809309
  O        -1.0406764862       13.3169945263        3.5028596098
  O         1.5647255026        8.8910641721        3.5702588144
  O         4.0827172413        4.4286727551        3.4897653499
  O        -6.1153204287       13.3439471526        3.6064767008
  O        -3.5751338185        8.8814671902        3.5541059154
  O        -1.0613678084        4.4180912688        3.4616240753
  O         6.8097640978       11.8119140070        3.5869552006
  O         9.3808136358        7.4088513121        3.5286650945
  O        11.9394392337        3.0227236484        3.4533896050
  O         1.6899463912       11.8997938652        3.4554143124
  O         4.2496211243        7.4311591079        3.4945229918
  O         6.8142355021        3.0212900810        3.4663128195
  O        -3.4379862505       11.8805419396        3.4901443771
  O        -0.8840091658        7.3910384242        3.5512933589
  O         1.6916901242        3.0175752601        3.4691259339
  O         9.4091641446       10.2381241805        3.5301095486
  O        12.0093192383        5.7674349935        3.4425596663
  O        14.5140198251        1.3724771498        3.5645728009
  O         4.2957821739       10.2248122967        3.4947828584
  O         6.8885348306        5.7545999192        3.4368676467
  O         9.4416355143        1.3369240663        3.4595275234
  O        -0.8558226561       10.2452285782        3.5403738427
  O         1.7557843597        5.7703697149        3.4462452462
  O         4.3136095806        1.3485567263        3.4827843366
 Fe         5.0241524824       11.8385315658        4.4285094900
 Fe         7.5978922601        7.3850546328        4.3972313700
 Fe        10.1579732795        2.9583322485        4.4009813101
 Fe        -0.0827052317       11.8448758146        4.4173351790
 Fe         2.4729624740        7.3744708833        4.4239912873
 Fe         5.0347118701        2.9715287320        4.4253384939
 Fe        -5.2005102508       11.8327159139        4.4524759032
 Fe        -2.6641436267        7.3755336615        4.4292456555
 Fe        -0.0855768023        2.9779080461        4.4168237552
 Fe         7.6089942915       13.1779832226        4.8728448814
 Fe        10.1711071191        8.7419419023        4.8401235258
 Fe        12.7353523296        4.3077453973        4.7883245892
 Fe         2.4884308366       13.1887247735        4.7897743040
 Fe         5.0485420760        8.7465375372        4.8095080209
 Fe         7.6004423255        4.3117719367        4.7927936736
 Fe        -2.6409299892       13.1857897167        4.8169229894
 Fe        -0.0830881688        8.7409905993        4.8406781527
 Fe         2.4849697596        4.3026831778        4.8238795408
  O         5.8484490833       10.3388965013        5.8816458335
  O         8.4268810748        5.9132228940        5.8670904084
  O        10.9776014942        1.4651618750        5.8715799032
  O         0.7312294767       10.3499030048        5.8751295032
  O         3.2778890808        5.9116177238        5.8493639895
  O         5.8628305460        1.4706633296        5.8904060348
  O        -4.4000493547       10.3434293927        5.8921845791
  O        -1.8357937828        5.9039601521        5.8682224431
  O         0.7248311207        1.4737658981        5.8938972611
  O         5.9086458531       13.1727414852        5.7088457503
  O         8.4821142224        8.7236246951        5.6964881396
  O        11.0478629204        4.2974039654        5.6745389001
  O         0.8085216965       13.1717762576        5.6678147382
  O         3.3692144563        8.7301164626        5.6855756026
  O         5.9450240064        4.3189320928        5.7315480446
  O        -4.3051645465       13.1672548849        5.7193719956
  O        -1.7696583967        8.7234770311        5.7033162156
  O         0.8007821272        4.2966071055        5.6946927195
  O         3.4535187259       11.7737629045        5.6620605184
  O         6.0458244573        7.3236931247        5.6356191422
  O         8.5829215542        2.8972958357        5.6857402255
  O        -1.6520986412       11.7806111475        5.6794907041
  O         0.9065752019        7.3343410886        5.6815558217
  O         3.4779330833        2.9004169348        5.6910064501
  O        -6.7725089992       11.7715385822        5.7080946424
  O        -4.2247287021        7.3326277931        5.6913034162
  O        -1.6645649131        2.9162363513        5.6806554208
 Fe         7.7758946882       10.2663076151        6.4385109799
 Fe        10.3444857373        5.8246658626        6.4383844709
 Fe        12.9094917142        1.4044453015        6.4349982084
 Fe         2.6575960446       10.2638665748        6.4359716834
 Fe         5.1962182492        5.8643444027        6.4384956669
 Fe         7.7925230126        1.3706805298        6.4291795269
 Fe        -2.4661632586       10.2731374431        6.4366358728
 Fe         0.0900715709        5.8337079107        6.4377872583
 Fe         2.6569812265        1.3868427516        6.4365108885
  O         7.8395308197       10.3884588704        8.2656740852
  H         7.8531133946        9.5692841080        8.7924954169
  H         5.3464288319       10.6042086032        6.6841471297
  O        10.3735616483        5.8873949290        8.2779608680
  H        10.6846507627        5.0985997534        8.7578647168
  H         7.9149965235        6.2528334438        6.6351512952
  O        12.9414647414        1.5185008005        8.2655739495
  H        12.9995899748        0.6979345931        8.7881185532
  H        10.4793258222        1.7136823087        6.6833400787
  O         2.6992568057       10.3774060872        8.2634021021
  H         2.7959446524        9.5541931239        8.7767344507
  H         0.2228158538       10.6082076657        6.6763423942
  O         4.9511376263        6.3157119282        8.1802561188
  H         4.8902451820        5.7569150527        8.9787708647
  H         2.8143220665        6.2095345325        6.6657462601
  O         7.9112255609        1.2317539721        8.2649164491
  H         7.9799855758        0.3318288638        8.6350677618
  H         5.3446375942        1.7245206584        6.6880813302
  O        -2.3985368071       10.3949712465        8.2636929667
  H        -2.3492949815        9.5744560430        8.7866550306
  H        -4.9009878910       10.6237246313        6.6918347836
  O         0.1033472436        5.9492259984        8.2638141541
  H         0.2137233836        5.1386112566        8.7927560509
  H        -2.3371059073        6.1831469212        6.6667135055
  O         2.7082243800        1.4999699452        8.2626242993
  H         2.7665006475        0.6850195467        8.7933817820
  H         0.2255167588        1.7485724917        6.6950296808
  C         7.3953135820        4.0351702480        9.2366308825
  C         6.3533115062        4.3911141278       10.1724451837
  H         7.5069080495        2.9374386800        9.1616664433
  H         7.1748455453        4.4194949528        8.2307331924
  H         8.3530501020        4.4679228872        9.5570101124
  N         5.4631497585        4.6945009497       10.8626535724
     168
 i =       32, E =     -8144.3696355604
 Fe         5.0938794100       11.8196869300        0.3885799900
 Fe         7.6575796300        7.3792284900        0.3885799900
 Fe        10.2212798400        2.9387700600        0.3885799900
 Fe        -0.0335205200       11.8196869300        0.3885799900
 Fe         2.5301797000        7.3792284900        0.3885799900
 Fe         5.0938799200        2.9387700600        0.3885799900
 Fe        -5.1609204400       11.8196869300        0.3885799900
 Fe        -2.5972202200        7.3792284900        0.3885799900
 Fe        -0.0335200000        2.9387700600        0.3885799900
  O         8.4519195100        8.9577468800        1.1642700400
  O        11.0156197300        4.5172884400        1.1642700400
  O        13.5793199500        0.0768300000        1.1642700400
  O         3.3245195900        8.9577468800        1.1642700400
  O         5.8882198100        4.5172884400        1.1642700400
  O         8.4519200300        0.0768300000        1.1642700400
  O        -1.8028803300        8.9577468800        1.1642700400
  O         0.7608198900        4.5172884400        1.1642700400
  O         3.3245201100        0.0768300000        1.1642700400
  O         8.4568493000       11.7183869300        1.1650400200
  O        11.0205495200        7.2779284900        1.1650400200
  O        13.5842497300        2.8374700500        1.1650400200
  O         3.3294493700       11.7183869300        1.1650400200
  O         5.8931495900        7.2779284900        1.1650400200
  O         8.4568498100        2.8374700500        1.1650400200
  O        -1.7979505500       11.7183869300        1.1650400200
  O         0.7657496700        7.2779284900        1.1650400200
  O         3.3294498900        2.8374700500        1.1650400200
  O         6.0627194200       10.3425368500        1.1660399400
  O         8.6264196400        5.9020784100        1.1660399400
  O        11.1901198600        1.4616199700        1.1660399400
  O         0.9353195000       10.3425368500        1.1660399400
  O         3.4990197200        5.9020784100        1.1660399400
  O         6.0627199400        1.4616199700        1.1660399400
  O        -4.1920804200       10.3425368500        1.1660399400
  O        -1.6283802000        5.9020784100        1.1660399400
  O         0.9353200200        1.4616199700        1.1660399400
 Fe         7.6576695000       13.2997167500        1.9292099500
 Fe        10.2213697200        8.8592583200        1.9292099500
 Fe        12.7850699400        4.4187998800        1.9292099500
 Fe         2.5302695800       13.2997167500        1.9292099500
 Fe         5.0939698000        8.8592583200        1.9292099500
 Fe         7.6576700200        4.4187998800        1.9292099500
 Fe        -2.5971303400       13.2997167500        1.9292099500
 Fe        -0.0334301200        8.8592583200        1.9292099500
 Fe         2.5302701000        4.4187998800        1.9292099500
 Fe         7.6573893600       10.3392168700        2.7128999200
 Fe        10.2210895800        5.8987584300        2.7128999200
 Fe        12.7847898000        1.4582999900        2.7128999200
 Fe         2.5299894400       10.3392168700        2.7128999200
 Fe         5.0936896600        5.8987584300        2.7128999200
 Fe         7.6573898800        1.4582999900        2.7128999200
 Fe        -2.5974104800       10.3392168700        2.7128999200
 Fe        -0.0337102600        5.8987584300        2.7128999200
 Fe         2.5299899600        1.4582999900        2.7128999200
  O         4.0952541483       13.3155897253        3.5162600118
  O         6.6638773081        8.8712313956        3.5100583383
  O         9.2233945869        4.4327328555        3.5296626859
  O        -1.0163627503       13.3260736656        3.5464362836
  O         1.5321218072        8.8784130600        3.5254587324
  O         4.1046021551        4.4415722248        3.5362816515
  O        -6.1486658744       13.3189290317        3.5394213319
  O        -3.6055480284        8.8728242271        3.5071246564
  O        -1.0320443954        4.4361243870        3.5272666560
  O         6.8175504992       11.8546970873        3.5264087366
  O         9.3818802356        7.4440210194        3.4888998397
  O        11.9322582058        2.9826561756        3.5148873482
  O         1.6880353025       11.8694214396        3.4981994506
  O         4.2502243169        7.4351543507        3.4878970526
  O         6.8165113227        2.9883103747        3.5216706443
  O        -3.4428789653       11.8500900606        3.5316315896
  O        -0.8748930716        7.4276617838        3.5116040116
  O         1.6874380150        2.9796170844        3.5174849510
  O         9.4324191729       10.2192583647        3.4873218816
  O        11.9829070602        5.7849723440        3.5013510918
  O        14.5430311141        1.3473934086        3.5102938239
  O         4.3020538621       10.2235546489        3.4852746785
  O         6.8650116278        5.7764707222        3.4921764501
  O         9.4245051094        1.3563535341        3.4993889298
  O        -0.8327682561       10.2221018015        3.4992050284
  O         1.7295218127        5.7840587912        3.4937504075
  O         4.2850630442        1.3595388944        3.5250046364
 Fe         5.0371983049       11.8320474459        4.4183949926
 Fe         7.6074491341        7.3954579373        4.4202780078
 Fe        10.1561531029        2.9562168940        4.4465896156
 Fe        -0.0893346135       11.8230349038        4.4236503314
 Fe         2.4744655286        7.3932535779        4.4186141094
 Fe         5.0368340518        2.9679162623        4.4373758915
 Fe        -5.2207350714       11.8309822318        4.4341205768
 Fe        -2.6528528389        7.3998836131        4.4186833511
 Fe        -0.0930446156        2.9514853588        4.4297497392
 Fe         7.6102110740       13.1836734153        4.8431179629
 Fe        10.1775997113        8.7463263560        4.8275976657
 Fe        12.7350258523        4.3060083700        4.8219676170
 Fe         2.4886049866       13.1827447930        4.8110769415
 Fe         5.0483838892        8.7450477157        4.8068359229
 Fe         7.6017266385        4.3086801207        4.8343586083
 Fe        -2.6445321881       13.1864733037        4.8287845717
 Fe        -0.0796467346        8.7414927596        4.8437668575
 Fe         2.4770207489        4.3026156027        4.8358409103
  O         5.8538468027       10.3409304180        5.8795122400
  O         8.4310141889        5.9173403287        5.8705331189
  O        10.9811296709        1.4668263415        5.8714217687
  O         0.7281347457       10.3506703540        5.8794805852
  O         3.2745410871        5.9154983056        5.8446873185
  O         5.8621268229        1.4717597103        5.8875707073
  O        -4.3961797136       10.3493512269        5.8806475312
  O        -1.8355069369        5.9156276857        5.8678497119
  O         0.7241768653        1.4691158763        5.8898043463
  O         5.9211780274       13.1724092191        5.6993836823
  O         8.4912815989        8.7346964330        5.6910792547
  O        11.0476615475        4.2974726445        5.6941991196
  O         0.7969991766       13.1658401586        5.6695270566
  O         3.3716729772        8.7347143027        5.6871446360
  O         5.9347381149        4.3154958636        5.7411354101
  O        -4.3238158406       13.1700102384        5.7022161695
  O        -1.7730245179        8.7348378102        5.6970291829
  O         0.7915198930        4.2893821198        5.6964974763
  O         3.4671521248       11.7688417707        5.6674851326
  O         6.0451622956        7.3329679817        5.6534817142
  O         8.5833827612        2.8954505827        5.7109936603
  O        -1.6540855023       11.7792800999        5.6796810022
  O         0.9087965703        7.3329269593        5.6821331790
  O         3.4736137345        2.8966611151        5.6853807891
  O        -6.7834797051       11.7735679150        5.6892261504
  O        -4.2208103457        7.3312775888        5.6779665485
  O        -1.6651505390        2.8976912742        5.6805836229
 Fe         7.7825223484       10.2689875107        6.4406191680
 Fe        10.3450332937        5.8303113521        6.4395579549
 Fe        12.9061094540        1.3929849375        6.4367078682
 Fe         2.6555779969       10.2667038149        6.4369464641
 Fe         5.1914512819        5.8640211288        6.4403855487
 Fe         7.7857308951        1.3665725809        6.4298817030
 Fe        -2.4715823849       10.2779895127        6.4378961699
 Fe         0.0897380808        5.8306877021        6.4387310965
 Fe         2.6553646491        1.3881086794        6.4380441726
  O         7.8366870738       10.3872096715        8.2663194006
  H         7.8509578054        9.5691082453        8.7944157035
  H         5.3511105363       10.6042658671        6.6840384310
  O        10.3755308044        5.8820885407        8.2780737544
  H        10.7002623317        5.0967798309        8.7539457720
  H         7.9135605881        6.2538301780        6.6345520904
  O        12.9397994483        1.5225562069        8.2643407089
  H        12.9972894818        0.7015535616        8.7854171008
  H        10.4757802540        1.7133191952        6.6779421073
  O         2.7004377594       10.3811141901        8.2636443182
  H         2.7976249875        9.5551627428        8.7722889083
  H         0.2220039750       10.6102408933        6.6816524741
  O         4.9458575308        6.3096786711        8.1816144704
  H         4.8806229665        5.7561228661        8.9829707335
  H         2.8142181450        6.2051106521        6.6661648941
  O         7.9115657202        1.2339620978        8.2642088302
  H         7.9843487165        0.3342820735        8.6329254140
  H         5.3454409128        1.7232663957        6.6854719905
  O        -2.3955913009       10.3961230160        8.2635150191
  H        -2.3467259719        9.5756135135        8.7862538026
  H        -4.9019336837       10.6184149376        6.6802953062
  O         0.1019612345        5.9501558945        8.2641343523
  H         0.2133017756        5.1399539186        8.7930973781
  H        -2.3405781807        6.1832613872        6.6678124358
  O         2.7069167311        1.5012563158        8.2622902486
  H         2.7675251289        0.6869397162        8.7931946810
  H         0.2287342279        1.7483858221        6.6925485101
  C         7.4127249935        4.0385056802        9.2480136536
  C         6.3475797766        4.3969410763       10.1569826847
  H         7.5287888609        2.9426824157        9.1777862923
  H         7.1624691783        4.4084979845        8.2408935973
  H         8.3625196171        4.4978824339        9.5556936547
  N         5.4650382849        4.6865909341       10.8689472190
     168
 i =       33, E =     -8144.3710940801
 Fe         5.0938794100       11.8196869300        0.3885799900
 Fe         7.6575796300        7.3792284900        0.3885799900
 Fe        10.2212798400        2.9387700600        0.3885799900
 Fe        -0.0335205200       11.8196869300        0.3885799900
 Fe         2.5301797000        7.3792284900        0.3885799900
 Fe         5.0938799200        2.9387700600        0.3885799900
 Fe        -5.1609204400       11.8196869300        0.3885799900
 Fe        -2.5972202200        7.3792284900        0.3885799900
 Fe        -0.0335200000        2.9387700600        0.3885799900
  O         8.4519195100        8.9577468800        1.1642700400
  O        11.0156197300        4.5172884400        1.1642700400
  O        13.5793199500        0.0768300000        1.1642700400
  O         3.3245195900        8.9577468800        1.1642700400
  O         5.8882198100        4.5172884400        1.1642700400
  O         8.4519200300        0.0768300000        1.1642700400
  O        -1.8028803300        8.9577468800        1.1642700400
  O         0.7608198900        4.5172884400        1.1642700400
  O         3.3245201100        0.0768300000        1.1642700400
  O         8.4568493000       11.7183869300        1.1650400200
  O        11.0205495200        7.2779284900        1.1650400200
  O        13.5842497300        2.8374700500        1.1650400200
  O         3.3294493700       11.7183869300        1.1650400200
  O         5.8931495900        7.2779284900        1.1650400200
  O         8.4568498100        2.8374700500        1.1650400200
  O        -1.7979505500       11.7183869300        1.1650400200
  O         0.7657496700        7.2779284900        1.1650400200
  O         3.3294498900        2.8374700500        1.1650400200
  O         6.0627194200       10.3425368500        1.1660399400
  O         8.6264196400        5.9020784100        1.1660399400
  O        11.1901198600        1.4616199700        1.1660399400
  O         0.9353195000       10.3425368500        1.1660399400
  O         3.4990197200        5.9020784100        1.1660399400
  O         6.0627199400        1.4616199700        1.1660399400
  O        -4.1920804200       10.3425368500        1.1660399400
  O        -1.6283802000        5.9020784100        1.1660399400
  O         0.9353200200        1.4616199700        1.1660399400
 Fe         7.6576695000       13.2997167500        1.9292099500
 Fe        10.2213697200        8.8592583200        1.9292099500
 Fe        12.7850699400        4.4187998800        1.9292099500
 Fe         2.5302695800       13.2997167500        1.9292099500
 Fe         5.0939698000        8.8592583200        1.9292099500
 Fe         7.6576700200        4.4187998800        1.9292099500
 Fe        -2.5971303400       13.2997167500        1.9292099500
 Fe        -0.0334301200        8.8592583200        1.9292099500
 Fe         2.5302701000        4.4187998800        1.9292099500
 Fe         7.6573893600       10.3392168700        2.7128999200
 Fe        10.2210895800        5.8987584300        2.7128999200
 Fe        12.7847898000        1.4582999900        2.7128999200
 Fe         2.5299894400       10.3392168700        2.7128999200
 Fe         5.0936896600        5.8987584300        2.7128999200
 Fe         7.6573898800        1.4582999900        2.7128999200
 Fe        -2.5974104800       10.3392168700        2.7128999200
 Fe        -0.0337102600        5.8987584300        2.7128999200
 Fe         2.5299899600        1.4582999900        2.7128999200
  O         4.0918647108       13.3111022009        3.5059340196
  O         6.6661314465        8.8763340171        3.5221149274
  O         9.2127902914        4.4293497954        3.5134247806
  O        -1.0260952816       13.3238171842        3.5310746694
  O         1.5253771083        8.8822251614        3.5239082309
  O         4.0947076757        4.4338276119        3.5143538621
  O        -6.1540098166       13.3240209876        3.5402961867
  O        -3.5954391999        8.8782931163        3.5301289858
  O        -1.0364199059        4.4303613574        3.5094391836
  O         6.8160814132       11.8615202243        3.5238889446
  O         9.3863962550        7.4249318553        3.5146366222
  O        11.9332869237        2.9909362537        3.4969535303
  O         1.6854838440       11.8795685050        3.4817675661
  O         4.2537269660        7.4219653715        3.5071235565
  O         6.8173386645        2.9981542278        3.5082951069
  O        -3.4418070368       11.8641542675        3.5165110873
  O        -0.8707806390        7.4255610100        3.5129603981
  O         1.6862726216        2.9968816002        3.4944544958
  O         9.4245717558       10.2287290115        3.5046304512
  O        11.9886418400        5.7807774766        3.4900644511
  O        14.5445127688        1.3416438078        3.5078126846
  O         4.2966704788       10.2311564815        3.4963453260
  O         6.8689203594        5.7677603110        3.4839745233
  O         9.4284564118        1.3498015964        3.4881246054
  O        -0.8266075345       10.2230071368        3.4938342792
  O         1.7364426105        5.7743825609        3.4808456382
  O         4.2921143457        1.3507420041        3.5111692058
 Fe         5.0390265978       11.8351329103        4.4245524368
 Fe         7.6065166537        7.3932898694        4.4141394460
 Fe        10.1558566232        2.9573629391        4.4325479740
 Fe        -0.0911493073       11.8268976008        4.4176907155
 Fe         2.4683752674        7.3948063990        4.4109715490
 Fe         5.0348500543        2.9654095348        4.4268380093
 Fe        -5.2181796648       11.8382044576        4.4331973792
 Fe        -2.6477037914        7.3960195514        4.4196051141
 Fe        -0.0941966956        2.9499126108        4.4207599901
 Fe         7.6111283511       13.1830159059        4.8541180821
 Fe        10.1740855626        8.7444880062        4.8434236946
 Fe        12.7364997911        4.3031933396        4.8041095821
 Fe         2.4879139093       13.1837154938        4.8000375366
 Fe         5.0454561125        8.7474874750        4.8130758348
 Fe         7.6036438751        4.3056958303        4.8293571551
 Fe        -2.6415862888       13.1869164426        4.8290770548
 Fe        -0.0811765714        8.7401769514        4.8491974252
 Fe         2.4795302708        4.3020835898        4.8237980344
  O         5.8542017191       10.3424899635        5.8781815857
  O         8.4263998785        5.9178924921        5.8701494269
  O        10.9806278890        1.4652421283        5.8702597521
  O         0.7296900965       10.3503632363        5.8812862889
  O         3.2719140679        5.9177179373        5.8394362768
  O         5.8631208491        1.4746896238        5.8885594077
  O        -4.3975850299       10.3497608443        5.8850817650
  O        -1.8403118175        5.9070037269        5.8666649969
  O         0.7282139905        1.4733950372        5.8898613462
  O         5.9175084103       13.1749890450        5.7025251068
  O         8.4846500086        8.7261278718        5.7009168210
  O        11.0530765410        4.2982432349        5.6862212635
  O         0.8014069296       13.1663170271        5.6672695515
  O         3.3665454887        8.7278951161        5.6894303116
  O         5.9333454016        4.3184061577        5.7342900651
  O        -4.3205180187       13.1714330067        5.7045814341
  O        -1.7707756858        8.7297903384        5.7058724863
  O         0.7921932866        4.2938448152        5.6846855711
  O         3.4638774164       11.7746525335        5.6661771489
  O         6.0470650491        7.3264187369        5.6455501287
  O         8.5863747602        2.8930848276        5.7063810546
  O        -1.6509795211       11.7822648358        5.6836882658
  O         0.9116177610        7.3272948490        5.6823212508
  O         3.4727510871        2.8996746943        5.6803555067
  O        -6.7773506339       11.7763868650        5.6985860592
  O        -4.2178126025        7.3234115763        5.6786782400
  O        -1.6664035157        2.9050786030        5.6784516597
 Fe         7.7796139211       10.2692234822        6.4358800187
 Fe        10.3427595311        5.8256734922        6.4405053266
 Fe        12.9084550204        1.3986463832        6.4367153646
 Fe         2.6603272121       10.2658972807        6.4334902679
 Fe         5.1898462088        5.8655133495        6.4422612341
 Fe         7.7870258347        1.3660648222        6.4291807811
 Fe        -2.4697873452       10.2777316356        6.4345157576
 Fe         0.0867522934        5.8289439790        6.4400830279
 Fe         2.6582263375        1.3906456675        6.4379705648
  O         7.8367365506       10.3856005492        8.2633289619
  H         7.8506111433        9.5694761340        8.7950155535
  H         5.3481749089       10.6008640207        6.6808785217
  O        10.3756701055        5.8831505441        8.2791360519
  H        10.6991029384        5.0964513647        8.7535966591
  H         7.9136169783        6.2539282083        6.6376561254
  O        12.9394653033        1.5219367664        8.2648891770
  H        12.9973616013        0.7011111979        8.7866301649
  H        10.4770563460        1.7132441946        6.6783939332
  O         2.6998315485       10.3790443903        8.2613832330
  H         2.7978941849        9.5554880281        8.7739790970
  H         0.2219336740       10.6120718598        6.6821048558
  O         4.9465841026        6.3121540379        8.1837019397
  H         4.8824108284        5.7540671806        8.9820587730
  H         2.8168944458        6.2042295208        6.6657015092
  O         7.9120965429        1.2346951846        8.2640957733
  H         7.9842341369        0.3348265884        8.6330064987
  H         5.3439167161        1.7249216186        6.6856543297
  O        -2.3955221649       10.3949009639        8.2616456219
  H        -2.3468365570        9.5757315181        8.7868542849
  H        -4.9036087840       10.6195783822        6.6839723207
  O         0.1018914952        5.9505054259        8.2656155077
  H         0.2134099688        5.1395764389        8.7937466037
  H        -2.3377210677        6.1843254922        6.6687613705
  O         2.7063165458        1.5014349811        8.2626779874
  H         2.7674377606        0.6866676158        8.7930703045
  H         0.2276403711        1.7487251553        6.6909390678
  C         7.4179611469        4.0391108552        9.2514293490
  C         6.3368905613        4.3953316765       10.1443825197
  H         7.5278444785        2.9433779626        9.1767234455
  H         7.1586724558        4.4084493594        8.2451952483
  H         8.3696031497        4.4966675028        9.5533724391
  N         5.4682401719        4.6880475262       10.8732883536
     168
 i =       34, E =     -8144.3722070195
 Fe         5.0938794100       11.8196869300        0.3885799900
 Fe         7.6575796300        7.3792284900        0.3885799900
 Fe        10.2212798400        2.9387700600        0.3885799900
 Fe        -0.0335205200       11.8196869300        0.3885799900
 Fe         2.5301797000        7.3792284900        0.3885799900
 Fe         5.0938799200        2.9387700600        0.3885799900
 Fe        -5.1609204400       11.8196869300        0.3885799900
 Fe        -2.5972202200        7.3792284900        0.3885799900
 Fe        -0.0335200000        2.9387700600        0.3885799900
  O         8.4519195100        8.9577468800        1.1642700400
  O        11.0156197300        4.5172884400        1.1642700400
  O        13.5793199500        0.0768300000        1.1642700400
  O         3.3245195900        8.9577468800        1.1642700400
  O         5.8882198100        4.5172884400        1.1642700400
  O         8.4519200300        0.0768300000        1.1642700400
  O        -1.8028803300        8.9577468800        1.1642700400
  O         0.7608198900        4.5172884400        1.1642700400
  O         3.3245201100        0.0768300000        1.1642700400
  O         8.4568493000       11.7183869300        1.1650400200
  O        11.0205495200        7.2779284900        1.1650400200
  O        13.5842497300        2.8374700500        1.1650400200
  O         3.3294493700       11.7183869300        1.1650400200
  O         5.8931495900        7.2779284900        1.1650400200
  O         8.4568498100        2.8374700500        1.1650400200
  O        -1.7979505500       11.7183869300        1.1650400200
  O         0.7657496700        7.2779284900        1.1650400200
  O         3.3294498900        2.8374700500        1.1650400200
  O         6.0627194200       10.3425368500        1.1660399400
  O         8.6264196400        5.9020784100        1.1660399400
  O        11.1901198600        1.4616199700        1.1660399400
  O         0.9353195000       10.3425368500        1.1660399400
  O         3.4990197200        5.9020784100        1.1660399400
  O         6.0627199400        1.4616199700        1.1660399400
  O        -4.1920804200       10.3425368500        1.1660399400
  O        -1.6283802000        5.9020784100        1.1660399400
  O         0.9353200200        1.4616199700        1.1660399400
 Fe         7.6576695000       13.2997167500        1.9292099500
 Fe        10.2213697200        8.8592583200        1.9292099500
 Fe        12.7850699400        4.4187998800        1.9292099500
 Fe         2.5302695800       13.2997167500        1.9292099500
 Fe         5.0939698000        8.8592583200        1.9292099500
 Fe         7.6576700200        4.4187998800        1.9292099500
 Fe        -2.5971303400       13.2997167500        1.9292099500
 Fe        -0.0334301200        8.8592583200        1.9292099500
 Fe         2.5302701000        4.4187998800        1.9292099500
 Fe         7.6573893600       10.3392168700        2.7128999200
 Fe        10.2210895800        5.8987584300        2.7128999200
 Fe        12.7847898000        1.4582999900        2.7128999200
 Fe         2.5299894400       10.3392168700        2.7128999200
 Fe         5.0936896600        5.8987584300        2.7128999200
 Fe         7.6573898800        1.4582999900        2.7128999200
 Fe        -2.5974104800       10.3392168700        2.7128999200
 Fe        -0.0337102600        5.8987584300        2.7128999200
 Fe         2.5299899600        1.4582999900        2.7128999200
  O         4.1020658827       13.3152083384        3.5217674297
  O         6.6602823917        8.8807608135        3.5197796514
  O         9.2129294270        4.4359912880        3.5214705626
  O        -1.0333198780       13.3186786143        3.5203428138
  O         1.5205054978        8.8778325034        3.5148742743
  O         4.1014730523        4.4354013786        3.5235205093
  O        -6.1646217163       13.3199238792        3.5222604295
  O        -3.5941402704        8.8777522184        3.5293831078
  O        -1.0314281890        4.4323625355        3.5149067261
  O         6.8175006993       11.8743148187        3.5083113241
  O         9.3872269244        7.4243204507        3.5142200533
  O        11.9352424293        2.9852632208        3.5017499279
  O         1.6824823048       11.8690025773        3.4938742423
  O         4.2526308460        7.4232337730        3.5062804108
  O         6.8164482402        2.9927206528        3.5150121459
  O        -3.4400608652       11.8711056022        3.5083285199
  O        -0.8695165510        7.4319520570        3.5053935315
  O         1.6846485337        2.9876065864        3.5041454097
  O         9.4245771351       10.2287855470        3.5023200795
  O        11.9864754791        5.7849262860        3.4940211326
  O        14.5532261976        1.3352766274        3.4932584696
  O         4.3003365063       10.2305767832        3.4927087165
  O         6.8658958758        5.7705041246        3.4913031652
  O         9.4191876890        1.3514286814        3.5012687240
  O        -0.8230493008       10.2196688634        3.4863093033
  O         1.7301045620        5.7803523580        3.4932048752
  O         4.2953791856        1.3448371398        3.5025728742
 Fe         5.0434652685       11.8319619993        4.4271866045
 Fe         7.6054522148        7.3987513119        4.4098721536
 Fe        10.1557079833        2.9595095812        4.4274723196
 Fe        -0.0955517719       11.8263004068        4.4166298537
 Fe         2.4689356411        7.3993761183        4.4163078575
 Fe         5.0351082190        2.9594064050        4.4248028964
 Fe        -5.2195024507       11.8408487583        4.4235382348
 Fe        -2.6454565840        7.3966382775        4.4206899843
 Fe        -0.0969110669        2.9459792854        4.4198989193
 Fe         7.6123949830       13.1839954956        4.8498557080
 Fe        10.1742885861        8.7445802439        4.8416059721
 Fe        12.7365072427        4.3036892759        4.8017237740
 Fe         2.4874341232       13.1809947488        4.8037293480
 Fe         5.0461782720        8.7460620497        4.8150853650
 Fe         7.6024672617        4.3025591262        4.8382103903
 Fe        -2.6424911268       13.1873851763        4.8292836903
 Fe        -0.0803517346        8.7412041174        4.8483871533
 Fe         2.4783274563        4.3021423605        4.8217342676
  O         5.8561497832       10.3443703245        5.8774682590
  O         8.4252126414        5.9191614368        5.8732021434
  O        10.9789783311        1.4651293198        5.8719891289
  O         0.7285106197       10.3477626519        5.8834740888
  O         3.2702392203        5.9161235122        5.8373365009
  O         5.8621629101        1.4741875905        5.8892319742
  O        -4.3980180080       10.3486134158        5.8845029855
  O        -1.8401974886        5.9046900796        5.8679710834
  O         0.7287821817        1.4728235020        5.8874201406
  O         5.9221004236       13.1753148078        5.7032924705
  O         8.4865891989        8.7239302772        5.7034887163
  O        11.0549657015        4.2928761904        5.6899848392
  O         0.8003322530       13.1642319852        5.6690128135
  O         3.3660459410        8.7310241583        5.6889672789
  O         5.9301728210        4.3173030666        5.7379367313
  O        -4.3255241370       13.1737933674        5.6987279981
  O        -1.7697421066        8.7316907974        5.7040562943
  O         0.7923831090        4.2919286133        5.6837227934
  O         3.4665001534       11.7758190347        5.6696548366
  O         6.0514598485        7.3267049383        5.6490435128
  O         8.5912731122        2.8934508915        5.7129510061
  O        -1.6524086312       11.7818112397        5.6831234893
  O         0.9090274126        7.3278817202        5.6825006455
  O         3.4714590404        2.8996833531        5.6763029828
  O        -6.7771983620       11.7768905350        5.6947807908
  O        -4.2178807164        7.3250401588        5.6792112232
  O        -1.6671694696        2.9042625180        5.6765613602
 Fe         7.7807692181       10.2690050863        6.4344247834
 Fe        10.3459254169        5.8247305698        6.4395157982
 Fe        12.9081134310        1.3982996164        6.4356907951
 Fe         2.6605711711       10.2676566830        6.4329109745
 Fe         5.1870906938        5.8672822945        6.4407592574
 Fe         7.7862114104        1.3651106218        6.4283017327
 Fe        -2.4704228166       10.2777955655        6.4345810865
 Fe         0.0876395993        5.8267272957        6.4384849398
 Fe         2.6582775497        1.3928928717        6.4370690348
  O         7.8357983208       10.3851184554        8.2625034875
  H         7.8495596603        9.5696141327        8.7953538291
  H         5.3478600257       10.6002996460        6.6794964697
  O        10.3759127689        5.8815628753        8.2791346784
  H        10.7038918950        5.0957825101        8.7522337056
  H         7.9124411419        6.2552453885        6.6409982979
  O        12.9388134784        1.5223377450        8.2642420195
  H        12.9965045558        0.7021884321        8.7873914734
  H        10.4756287282        1.7133286306        6.6800174630
  O         2.7003003219       10.3792011246        8.2607780450
  H         2.7986105493        9.5558696060        8.7736151803
  H         0.2229411599       10.6147534613        6.6839762950
  O         4.9453228646        6.3102364334        8.1837155028
  H         4.8800332012        5.7530092805        8.9827974848
  H         2.8165110797        6.2031011195        6.6638627584
  O         7.9122142369        1.2352700595        8.2637154598
  H         7.9857433111        0.3357575835        8.6333743166
  H         5.3429902891        1.7270263741        6.6854127255
  O        -2.3946391014       10.3952253306        8.2617249306
  H        -2.3459776715        9.5759803933        8.7868197850
  H        -4.9045189866       10.6204266462        6.6824887284
  O         0.1010735301        5.9493142735        8.2643979219
  H         0.2132553747        5.1401401346        8.7952164598
  H        -2.3380703788        6.1862356482        6.6683810866
  O         2.7056826892        1.5017147134        8.2619610694
  H         2.7676722612        0.6873998256        8.7930974802
  H         0.2284302903        1.7493361819        6.6884410135
  C         7.4178997558        4.0424560815        9.2508150935
  C         6.3405752151        4.3929501964       10.1500465537
  H         7.5371182108        2.9464960844        9.1830074923
  H         7.1600993798        4.4053042299        8.2427101647
  H         8.3676687386        4.5051481056        9.5514904525
  N         5.4678740496        4.6870895949       10.8729706878
     168
 i =       35, E =     -8144.3733501449
 Fe         5.0938794100       11.8196869300        0.3885799900
 Fe         7.6575796300        7.3792284900        0.3885799900
 Fe        10.2212798400        2.9387700600        0.3885799900
 Fe        -0.0335205200       11.8196869300        0.3885799900
 Fe         2.5301797000        7.3792284900        0.3885799900
 Fe         5.0938799200        2.9387700600        0.3885799900
 Fe        -5.1609204400       11.8196869300        0.3885799900
 Fe        -2.5972202200        7.3792284900        0.3885799900
 Fe        -0.0335200000        2.9387700600        0.3885799900
  O         8.4519195100        8.9577468800        1.1642700400
  O        11.0156197300        4.5172884400        1.1642700400
  O        13.5793199500        0.0768300000        1.1642700400
  O         3.3245195900        8.9577468800        1.1642700400
  O         5.8882198100        4.5172884400        1.1642700400
  O         8.4519200300        0.0768300000        1.1642700400
  O        -1.8028803300        8.9577468800        1.1642700400
  O         0.7608198900        4.5172884400        1.1642700400
  O         3.3245201100        0.0768300000        1.1642700400
  O         8.4568493000       11.7183869300        1.1650400200
  O        11.0205495200        7.2779284900        1.1650400200
  O        13.5842497300        2.8374700500        1.1650400200
  O         3.3294493700       11.7183869300        1.1650400200
  O         5.8931495900        7.2779284900        1.1650400200
  O         8.4568498100        2.8374700500        1.1650400200
  O        -1.7979505500       11.7183869300        1.1650400200
  O         0.7657496700        7.2779284900        1.1650400200
  O         3.3294498900        2.8374700500        1.1650400200
  O         6.0627194200       10.3425368500        1.1660399400
  O         8.6264196400        5.9020784100        1.1660399400
  O        11.1901198600        1.4616199700        1.1660399400
  O         0.9353195000       10.3425368500        1.1660399400
  O         3.4990197200        5.9020784100        1.1660399400
  O         6.0627199400        1.4616199700        1.1660399400
  O        -4.1920804200       10.3425368500        1.1660399400
  O        -1.6283802000        5.9020784100        1.1660399400
  O         0.9353200200        1.4616199700        1.1660399400
 Fe         7.6576695000       13.2997167500        1.9292099500
 Fe        10.2213697200        8.8592583200        1.9292099500
 Fe        12.7850699400        4.4187998800        1.9292099500
 Fe         2.5302695800       13.2997167500        1.9292099500
 Fe         5.0939698000        8.8592583200        1.9292099500
 Fe         7.6576700200        4.4187998800        1.9292099500
 Fe        -2.5971303400       13.2997167500        1.9292099500
 Fe        -0.0334301200        8.8592583200        1.9292099500
 Fe         2.5302701000        4.4187998800        1.9292099500
 Fe         7.6573893600       10.3392168700        2.7128999200
 Fe        10.2210895800        5.8987584300        2.7128999200
 Fe        12.7847898000        1.4582999900        2.7128999200
 Fe         2.5299894400       10.3392168700        2.7128999200
 Fe         5.0936896600        5.8987584300        2.7128999200
 Fe         7.6573898800        1.4582999900        2.7128999200
 Fe        -2.5974104800       10.3392168700        2.7128999200
 Fe        -0.0337102600        5.8987584300        2.7128999200
 Fe         2.5299899600        1.4582999900        2.7128999200
  O         4.0984206073       13.3184344260        3.5210979897
  O         6.6595303399        8.8773416066        3.5148746764
  O         9.2106009682        4.4341550302        3.5194633563
  O        -1.0401573350       13.3133279231        3.5075857210
  O         1.5264091868        8.8725892334        3.5152824848
  O         4.1036328711        4.4349613976        3.5247812410
  O        -6.1650657975       13.3180212585        3.5188546115
  O        -3.5973592960        8.8763999470        3.5208076961
  O        -1.0356220973        4.4316270555        3.5098513074
  O         6.8200348356       11.8758290738        3.5055191098
  O         9.3843384366        7.4310557764        3.5043544601
  O        11.9365692266        2.9887146408        3.4968406313
  O         1.6831952332       11.8694723722        3.4945026346
  O         4.2497052257        7.4280128098        3.4993805759
  O         6.8178029874        2.9934562533        3.5138064007
  O        -3.4386557327       11.8788798059        3.4957155194
  O        -0.8729309175        7.4285931925        3.5087547831
  O         1.6852687414        2.9837377663        3.5059772840
  O         9.4267901535       10.2241920487        3.4965901127
  O        11.9899879392        5.7839134153        3.4876898036
  O        14.5550782025        1.3374306190        3.4907229502
  O         4.3020789418       10.2266238283        3.4895216545
  O         6.8689651781        5.7711361583        3.4842716406
  O         9.4196428141        1.3493157645        3.4988936105
  O        -0.8293483199       10.2225937330        3.4940372851
  O         1.7295916040        5.7848280697        3.4932732535
  O         4.3023960355        1.3412336438        3.4893864396
 Fe         5.0427198559       11.8331700500        4.4208876512
 Fe         7.6055094905        7.3966167607        4.4118848094
 Fe        10.1558244213        2.9582285885        4.4202870738
 Fe        -0.0952350744       11.8290723718        4.4160695270
 Fe         2.4711017388        7.3971746071        4.4235946543
 Fe         5.0361160323        2.9568063053        4.4222272528
 Fe        -5.2184522409       11.8381439347        4.4177428309
 Fe        -2.6508206142        7.3967546700        4.4196066835
 Fe        -0.0961127042        2.9491594989        4.4169951332
 Fe         7.6123152036       13.1846397435        4.8462367124
 Fe        10.1770225761        8.7434011499        4.8381812903
 Fe        12.7359532844        4.3055075767        4.8004396342
 Fe         2.4876852751       13.1805834913        4.8054104869
 Fe         5.0469877866        8.7440207021        4.8142739399
 Fe         7.5998582741        4.3048693778        4.8395685970
 Fe        -2.6438330421       13.1874145389        4.8234403929
 Fe        -0.0797727218        8.7424476404        4.8453813165
 Fe         2.4770535372        4.3034160832        4.8174484820
  O         5.8561217744       10.3461049077        5.8769975741
  O         8.4265063890        5.9160250759        5.8761892623
  O        10.9785954024        1.4652102668        5.8711438760
  O         0.7274410699       10.3459857148        5.8825690731
  O         3.2712677851        5.9130181523        5.8373368563
  O         5.8617771812        1.4715622651        5.8882733145
  O        -4.3980249400       10.3476483043        5.8850580107
  O        -1.8371535295        5.9064492839        5.8675146318
  O         0.7272299331        1.4713950252        5.8843941879
  O         5.9233308114       13.1753289171        5.7015697046
  O         8.4907287207        8.7259677887        5.7021766613
  O        11.0525822523        4.2904027074        5.6875024506
  O         0.7994098337       13.1649622887        5.6682963557
  O         3.3654465585        8.7356385529        5.6879144073
  O         5.9289998405        4.3149650584        5.7402223778
  O        -4.3273501327       13.1758343105        5.6930406371
  O        -1.7692668963        8.7325759545        5.7003540943
  O         0.7932759012        4.2901278793        5.6844405061
  O         3.4684075504       11.7743860978        5.6691886863
  O         6.0515661507        7.3283825093        5.6526792980
  O         8.5907800045        2.8945564507        5.7112547046
  O        -1.6555353064       11.7804844495        5.6788895260
  O         0.9053066209        7.3302944779        5.6812714401
  O         3.4702282585        2.8982960029        5.6719602243
  O        -6.7789942944       11.7762143542        5.6904770584
  O        -4.2185865780        7.3266527749        5.6818865006
  O        -1.6667317066        2.9009763472        5.6716688476
 Fe         7.7821071292       10.2686744447        6.4373096725
 Fe        10.3478855530        5.8236677194        6.4378043123
 Fe        12.9062870873        1.3978072769        6.4350727822
 Fe         2.6583076443       10.2700959878        6.4353768933
 Fe         5.1865819654        5.8669129037        6.4383062066
 Fe         7.7872914223        1.3653687673        6.4287851471
 Fe        -2.4702775688       10.2767554321        6.4369459524
 Fe         0.0906215685        5.8253886956        6.4364814632
 Fe         2.6569363039        1.3937242458        6.4362113659
  O         7.8349634456       10.3865014033        8.2648864160
  H         7.8486427835        9.5691073375        8.7944945987
  H         5.3482594924       10.6011773277        6.6801441007
  O        10.3761366922        5.8793066494        8.2779630707
  H        10.7073866186        5.0951970765        8.7516686358
  H         7.9119480318        6.2561801759        6.6410554454
  O        12.9387920645        1.5231082133        8.2639651001
  H        12.9958130638        0.7031570292        8.7875858630
  H        10.4750465532        1.7136560251        6.6786994808
  O         2.7015512564       10.3800884313        8.2626123694
  H         2.7990922468        9.5555359058        8.7734122311
  H         0.2252445177       10.6168037697        6.6839700647
  O         4.9440964313        6.3084700095        8.1820567903
  H         4.8786985347        5.7524921600        8.9822455371
  H         2.8140912842        6.2017710070        6.6606456396
  O         7.9121068916        1.2357388957        8.2641848409
  H         7.9869889721        0.3364305766        8.6339245665
  H         5.3438778812        1.7297613085        6.6839144148
  O        -2.3939023333       10.3964598608        8.2634640690
  H        -2.3452585002        9.5759332773        8.7863714438
  H        -4.9045677152       10.6229375806        6.6824082225
  O         0.1004344609        5.9474936169        8.2626870102
  H         0.2130307983        5.1406028196        8.7968523995
  H        -2.3389916708        6.1858267480        6.6661321418
  O         2.7057592713        1.5024244661        8.2614097012
  H         2.7677310489        0.6881430849        8.7927134164
  H         0.2299966152        1.7509270390        6.6863527357
  C         7.4151402114        4.0433515600        9.2489483784
  C         6.3481838271        4.3945683755       10.1589041392
  H         7.5451972278        2.9478756519        9.1860870977
  H         7.1632138449        4.4025879141        8.2393580822
  H         8.3624648384        4.5126204827        9.5501530073
  N         5.4669573504        4.6848497879       10.8711383822
     168
 i =       36, E =     -8144.3739921042
 Fe         5.0938794100       11.8196869300        0.3885799900
 Fe         7.6575796300        7.3792284900        0.3885799900
 Fe        10.2212798400        2.9387700600        0.3885799900
 Fe        -0.0335205200       11.8196869300        0.3885799900
 Fe         2.5301797000        7.3792284900        0.3885799900
 Fe         5.0938799200        2.9387700600        0.3885799900
 Fe        -5.1609204400       11.8196869300        0.3885799900
 Fe        -2.5972202200        7.3792284900        0.3885799900
 Fe        -0.0335200000        2.9387700600        0.3885799900
  O         8.4519195100        8.9577468800        1.1642700400
  O        11.0156197300        4.5172884400        1.1642700400
  O        13.5793199500        0.0768300000        1.1642700400
  O         3.3245195900        8.9577468800        1.1642700400
  O         5.8882198100        4.5172884400        1.1642700400
  O         8.4519200300        0.0768300000        1.1642700400
  O        -1.8028803300        8.9577468800        1.1642700400
  O         0.7608198900        4.5172884400        1.1642700400
  O         3.3245201100        0.0768300000        1.1642700400
  O         8.4568493000       11.7183869300        1.1650400200
  O        11.0205495200        7.2779284900        1.1650400200
  O        13.5842497300        2.8374700500        1.1650400200
  O         3.3294493700       11.7183869300        1.1650400200
  O         5.8931495900        7.2779284900        1.1650400200
  O         8.4568498100        2.8374700500        1.1650400200
  O        -1.7979505500       11.7183869300        1.1650400200
  O         0.7657496700        7.2779284900        1.1650400200
  O         3.3294498900        2.8374700500        1.1650400200
  O         6.0627194200       10.3425368500        1.1660399400
  O         8.6264196400        5.9020784100        1.1660399400
  O        11.1901198600        1.4616199700        1.1660399400
  O         0.9353195000       10.3425368500        1.1660399400
  O         3.4990197200        5.9020784100        1.1660399400
  O         6.0627199400        1.4616199700        1.1660399400
  O        -4.1920804200       10.3425368500        1.1660399400
  O        -1.6283802000        5.9020784100        1.1660399400
  O         0.9353200200        1.4616199700        1.1660399400
 Fe         7.6576695000       13.2997167500        1.9292099500
 Fe        10.2213697200        8.8592583200        1.9292099500
 Fe        12.7850699400        4.4187998800        1.9292099500
 Fe         2.5302695800       13.2997167500        1.9292099500
 Fe         5.0939698000        8.8592583200        1.9292099500
 Fe         7.6576700200        4.4187998800        1.9292099500
 Fe        -2.5971303400       13.2997167500        1.9292099500
 Fe        -0.0334301200        8.8592583200        1.9292099500
 Fe         2.5302701000        4.4187998800        1.9292099500
 Fe         7.6573893600       10.3392168700        2.7128999200
 Fe        10.2210895800        5.8987584300        2.7128999200
 Fe        12.7847898000        1.4582999900        2.7128999200
 Fe         2.5299894400       10.3392168700        2.7128999200
 Fe         5.0936896600        5.8987584300        2.7128999200
 Fe         7.6573898800        1.4582999900        2.7128999200
 Fe        -2.5974104800       10.3392168700        2.7128999200
 Fe        -0.0337102600        5.8987584300        2.7128999200
 Fe         2.5299899600        1.4582999900        2.7128999200
  O         4.0942964718       13.3183478652        3.5170153939
  O         6.6627020444        8.8752115494        3.5156186935
  O         9.2112746810        4.4302346241        3.5178447237
  O        -1.0390798631       13.3142025989        3.5080515183
  O         1.5264009300        8.8756242451        3.5166417625
  O         4.1019652668        4.4341478017        3.5214897479
  O        -6.1643919718       13.3125802471        3.5133514601
  O        -3.6032043483        8.8740026946        3.5101989036
  O        -1.0367607934        4.4317157191        3.5117282182
  O         6.8216668943       11.8785011034        3.5002232561
  O         9.3834086156        7.4397712527        3.4922343643
  O        11.9353685020        2.9897719601        3.4971035204
  O         1.6844280406       11.8704058564        3.4945659647
  O         4.2499108637        7.4290858088        3.4981754361
  O         6.8189058575        2.9939429016        3.5145910019
  O        -3.4408039446       11.8779322149        3.4922268958
  O        -0.8757536421        7.4296901042        3.5056689059
  O         1.6847089341        2.9847992381        3.5021516727
  O         9.4312911478       10.2198893461        3.4873638085
  O        11.9903741400        5.7835757233        3.4893501528
  O        14.5572952316        1.3378608981        3.4861824969
  O         4.3013996974       10.2261992395        3.4897086500
  O         6.8697855914        5.7709231459        3.4825816600
  O         9.4220761642        1.3498586091        3.4951534491
  O        -0.8310844373       10.2222311792        3.4952332424
  O         1.7313820147        5.7828924164        3.4887436057
  O         4.3039591226        1.3437927126        3.4864978329
 Fe         5.0429805000       11.8346127762        4.4168338486
 Fe         7.6079750964        7.3936763458        4.4141409364
 Fe        10.1553152822        2.9565048319        4.4216429113
 Fe        -0.0950298335       11.8285205851        4.4153899966
 Fe         2.4695094968        7.3965219954        4.4190018323
 Fe         5.0366624950        2.9587191752        4.4221375041
 Fe        -5.2195251003       11.8343486755        4.4162817372
 Fe        -2.6530602000        7.3993783583        4.4179229022
 Fe        -0.0941601814        2.9487139926        4.4170683490
 Fe         7.6123310255       13.1857695865        4.8405396272
 Fe        10.1783073011        8.7436971265        4.8326281583
 Fe        12.7360333562        4.3055897291        4.8036506423
 Fe         2.4874759237       13.1814785654        4.8052234479
 Fe         5.0468682626        8.7438933934        4.8122747487
 Fe         7.5998512232        4.3067755135        4.8421627633
 Fe        -2.6452292008       13.1868624085        4.8155675703
 Fe        -0.0798618663        8.7422229250        4.8423877368
 Fe         2.4767165842        4.3032783438        4.8137219738
  O         5.8561484405       10.3455401216        5.8757430601
  O         8.4277585760        5.9151145686        5.8768691319
  O        10.9793197005        1.4642989419        5.8695054637
  O         0.7277829694       10.3464502373        5.8810129634
  O         3.2718887418        5.9144278640        5.8360044791
  O         5.8610483615        1.4688769880        5.8855507638
  O        -4.3975944177       10.3465662214        5.8840469009
  O        -1.8352965750        5.9087944797        5.8651292852
  O         0.7266834260        1.4699970216        5.8818276682
  O         5.9241791990       13.1766887846        5.6971986371
  O         8.4937179838        8.7291868601        5.6992419875
  O        11.0502607179        4.2923035485        5.6844304415
  O         0.7974261085       13.1651955579        5.6665314375
  O         3.3641307776        8.7339976977        5.6867111683
  O         5.9295528966        4.3139523217        5.7418294529
  O        -4.3274890951       13.1770601316        5.6869775213
  O        -1.7692808093        8.7348957370        5.6963733290
  O         0.7930521237        4.2905182347        5.6840521896
  O         3.4686707423       11.7735615978        5.6673492634
  O         6.0496891608        7.3296321550        5.6529647406
  O         8.5882070952        2.8938938632        5.7099014096
  O        -1.6587887687       11.7802095153        5.6741324233
  O         0.9048525717        7.3313849633        5.6795950341
  O         3.4697534041        2.8953102284        5.6691247821
  O        -6.7825798666       11.7753368632        5.6850057113
  O        -4.2206147856        7.3269895926        5.6801125918
  O        -1.6656746871        2.8958325237        5.6675785081
 Fe         7.7824928231       10.2692213550        6.4383436079
 Fe        10.3475464735        5.8235481688        6.4376929122
 Fe        12.9048687304        1.3963059702        6.4348959342
 Fe         2.6583668939       10.2702407959        6.4359103173
 Fe         5.1868830967        5.8658754744        6.4385258579
 Fe         7.7872083890        1.3650884212        6.4294176942
 Fe        -2.4704680323       10.2769426655        6.4372208397
 Fe         0.0910209231        5.8255587034        6.4362007585
 Fe         2.6561174518        1.3924889868        6.4355253331
  O         7.8337922659       10.3871740205        8.2655569156
  H         7.8475774422        9.5689839326        8.7938945477
  H         5.3497285724       10.6029019638        6.6793959074
  O        10.3770621878        5.8764906283        8.2774404157
  H        10.7120813392        5.0939787025        8.7509968633
  H         7.9125531570        6.2563960841        6.6408747797
  O        12.9385525115        1.5243390863        8.2634661205
  H        12.9950500120        0.7046184298        8.7872985094
  H        10.4747740159        1.7146835193        6.6756884557
  O         2.7026857068       10.3808595911        8.2632409392
  H         2.7996195790        9.5555659844        8.7731335854
  H         0.2262341476       10.6175096750        6.6829739797
  O         4.9417862793        6.3075013394        8.1817151053
  H         4.8768939832        5.7511737284        8.9816169227
  H         2.8115782673        6.1991579883        6.6589998306
  O         7.9123966035        1.2363461565        8.2645165176
  H         7.9885071547        0.3373426526        8.6345947330
  H         5.3451974468        1.7317637446        6.6812955351
  O        -2.3926998751       10.3969926885        8.2634974421
  H        -2.3442054731        9.5763959301        8.7863966229
  H        -4.9040712045       10.6253087096        6.6805451040
  O         0.0998957292        5.9463592396        8.2623001205
  H         0.2128344264        5.1407635184        8.7981330410
  H        -2.3385895345        6.1849203730        6.6637639866
  O         2.7059286017        1.5034359527        8.2604526524
  H         2.7677650113        0.6893258385        8.7919142719
  H         0.2305012199        1.7519356995        6.6835285542
  C         7.4174916223        4.0461483907        9.2491161850
  C         6.3516232827        4.3934844328       10.1617634091
  H         7.5532607268        2.9510206297        9.1914984764
  H         7.1625878108        4.3987602069        8.2377200995
  H         8.3618064776        4.5226948823        9.5485465954
  N         5.4677197476        4.6825212543       10.8707845637
     168
 i =       37, E =     -8144.3743257020
 Fe         5.0938794100       11.8196869300        0.3885799900
 Fe         7.6575796300        7.3792284900        0.3885799900
 Fe        10.2212798400        2.9387700600        0.3885799900
 Fe        -0.0335205200       11.8196869300        0.3885799900
 Fe         2.5301797000        7.3792284900        0.3885799900
 Fe         5.0938799200        2.9387700600        0.3885799900
 Fe        -5.1609204400       11.8196869300        0.3885799900
 Fe        -2.5972202200        7.3792284900        0.3885799900
 Fe        -0.0335200000        2.9387700600        0.3885799900
  O         8.4519195100        8.9577468800        1.1642700400
  O        11.0156197300        4.5172884400        1.1642700400
  O        13.5793199500        0.0768300000        1.1642700400
  O         3.3245195900        8.9577468800        1.1642700400
  O         5.8882198100        4.5172884400        1.1642700400
  O         8.4519200300        0.0768300000        1.1642700400
  O        -1.8028803300        8.9577468800        1.1642700400
  O         0.7608198900        4.5172884400        1.1642700400
  O         3.3245201100        0.0768300000        1.1642700400
  O         8.4568493000       11.7183869300        1.1650400200
  O        11.0205495200        7.2779284900        1.1650400200
  O        13.5842497300        2.8374700500        1.1650400200
  O         3.3294493700       11.7183869300        1.1650400200
  O         5.8931495900        7.2779284900        1.1650400200
  O         8.4568498100        2.8374700500        1.1650400200
  O        -1.7979505500       11.7183869300        1.1650400200
  O         0.7657496700        7.2779284900        1.1650400200
  O         3.3294498900        2.8374700500        1.1650400200
  O         6.0627194200       10.3425368500        1.1660399400
  O         8.6264196400        5.9020784100        1.1660399400
  O        11.1901198600        1.4616199700        1.1660399400
  O         0.9353195000       10.3425368500        1.1660399400
  O         3.4990197200        5.9020784100        1.1660399400
  O         6.0627199400        1.4616199700        1.1660399400
  O        -4.1920804200       10.3425368500        1.1660399400
  O        -1.6283802000        5.9020784100        1.1660399400
  O         0.9353200200        1.4616199700        1.1660399400
 Fe         7.6576695000       13.2997167500        1.9292099500
 Fe        10.2213697200        8.8592583200        1.9292099500
 Fe        12.7850699400        4.4187998800        1.9292099500
 Fe         2.5302695800       13.2997167500        1.9292099500
 Fe         5.0939698000        8.8592583200        1.9292099500
 Fe         7.6576700200        4.4187998800        1.9292099500
 Fe        -2.5971303400       13.2997167500        1.9292099500
 Fe        -0.0334301200        8.8592583200        1.9292099500
 Fe         2.5302701000        4.4187998800        1.9292099500
 Fe         7.6573893600       10.3392168700        2.7128999200
 Fe        10.2210895800        5.8987584300        2.7128999200
 Fe        12.7847898000        1.4582999900        2.7128999200
 Fe         2.5299894400       10.3392168700        2.7128999200
 Fe         5.0936896600        5.8987584300        2.7128999200
 Fe         7.6573898800        1.4582999900        2.7128999200
 Fe        -2.5974104800       10.3392168700        2.7128999200
 Fe        -0.0337102600        5.8987584300        2.7128999200
 Fe         2.5299899600        1.4582999900        2.7128999200
  O         4.0916705053       13.3149055604        3.5107201080
  O         6.6637904076        8.8757765698        3.5155055364
  O         9.2107783840        4.4289090023        3.5148010143
  O        -1.0330445060       13.3166820408        3.5157084704
  O         1.5273479817        8.8759350263        3.5167531590
  O         4.0983081155        4.4333086627        3.5151779544
  O        -6.1640048499       13.3119251367        3.5121813620
  O        -3.6045995411        8.8731685011        3.5085742777
  O        -1.0361959915        4.4322400283        3.5142748451
  O         6.8201950116       11.8775541193        3.4982606160
  O         9.3825888133        7.4426898608        3.4877870579
  O        11.9338816481        2.9890786204        3.4986408613
  O         1.6853808850       11.8725672263        3.4914884107
  O         4.2499732090        7.4305879212        3.4962160383
  O         6.8184295220        2.9961637784        3.5117778720
  O        -3.4434765362       11.8709833233        3.4966449380
  O        -0.8771902571        7.4323488417        3.5011915335
  O         1.6842507649        2.9889878746        3.4946958096
  O         9.4318847892       10.2189701901        3.4853523042
  O        11.9892828212        5.7835349488        3.4918835801
  O        14.5579640927        1.3394633629        3.4849573465
  O         4.3011773093       10.2264254089        3.4896468689
  O         6.8706198364        5.7692984498        3.4813358376
  O         9.4252875504        1.3499022957        3.4904496411
  O        -0.8309924885       10.2217204913        3.4935572099
  O         1.7362190637        5.7807380750        3.4800703966
  O         4.3017752342        1.3503183783        3.4905505600
 Fe         5.0421399980       11.8349507067        4.4173144457
 Fe         7.6076576244        7.3925289394        4.4122938928
 Fe        10.1540442012        2.9564479476        4.4217327418
 Fe        -0.0932579294       11.8261055873        4.4163687302
 Fe         2.4684491554        7.3946542020        4.4165029657
 Fe         5.0374723350        2.9633222680        4.4241004874
 Fe        -5.2218032627       11.8334192399        4.4162317018
 Fe        -2.6528992727        7.3991553280        4.4174375123
 Fe        -0.0914884571        2.9490684192        4.4181665689
 Fe         7.6117858125       13.1859780980        4.8349453699
 Fe        10.1774607911        8.7445073640        4.8287743280
 Fe        12.7363586795        4.3048531371        4.8062736200
 Fe         2.4874501855       13.1821344481        4.8029789027
 Fe         5.0475473030        8.7439521721        4.8086824333
 Fe         7.6008686987        4.3069447196        4.8427367466
 Fe        -2.6471132431       13.1868992308        4.8083033174
 Fe        -0.0804921693        8.7428264183        4.8388027788
 Fe         2.4770066911        4.3030987331        4.8081824137
  O         5.8561106419       10.3439405695        5.8738272056
  O         8.4282393170        5.9160361706        5.8755967696
  O        10.9797289883        1.4636648490        5.8680606910
  O         0.7287427656       10.3477993492        5.8794883554
  O         3.2727096525        5.9139964955        5.8343653420
  O         5.8603036769        1.4674653177        5.8824361892
  O        -4.3974676933       10.3467815159        5.8818857556
  O        -1.8338035076        5.9094227890        5.8634507798
  O         0.7274408472        1.4694211356        5.8791522758
  O         5.9247037460       13.1777506372        5.6924879187
  O         8.4935256222        8.7315202728        5.6951627097
  O        11.0488119889        4.2942231266        5.6829159353
  O         0.7966722022       13.1649904607        5.6655111852
  O         3.3644248414        8.7337325604        5.6830939768
  O         5.9316106183        4.3149186475        5.7427346119
  O        -4.3275295137       13.1738159391        5.6844916376
  O        -1.7704744258        8.7365756677        5.6926628234
  O         0.7945256778        4.2910326236        5.6844942142
  O         3.4672734023       11.7728415544        5.6657697972
  O         6.0479422542        7.3298691414        5.6510882733
  O         8.5864791564        2.8925008236        5.7085237477
  O        -1.6617463618       11.7803369172        5.6694186521
  O         0.9029342359        7.3322101948        5.6773280149
  O         3.4694654943        2.8934223151        5.6674260599
  O        -6.7857847226       11.7734303980        5.6792698281
  O        -4.2225886522        7.3282729056        5.6776930562
  O        -1.6639206737        2.8916295134        5.6650951251
 Fe         7.7819337566       10.2697206064        6.4377660406
 Fe        10.3472255022        5.8242200487        6.4378067336
 Fe        12.9047830060        1.3944036950        6.4343462671
 Fe         2.6587184396       10.2695141119        6.4354406467
 Fe         5.1866169148        5.8654346999        6.4389278587
 Fe         7.7863828270        1.3644420741        6.4293634059
 Fe        -2.4705832544       10.2777992355        6.4366902779
 Fe         0.0911045972        5.8255592507        6.4366072480
 Fe         2.6574027224        1.3898908084        6.4340606008
  O         7.8324229287       10.3875047040        8.2647948599
  H         7.8463835253        9.5693137631        8.7932598059
  H         5.3514980511       10.6051827790        6.6774128340
  O        10.3785104766        5.8731397727        8.2771333609
  H        10.7173839812        5.0921626756        8.7504139176
  H         7.9136232038        6.2563364923        6.6407584428
  O        12.9381297283        1.5255741924        8.2625463722
  H        12.9942101590        0.7065078386        8.7872437579
  H        10.4741029068        1.7159078683        6.6730286976
  O         2.7039374438       10.3814260009        8.2628057682
  H         2.8001982500        9.5559636833        8.7726928002
  H         0.2267127756       10.6176327271        6.6815350475
  O         4.9391375905        6.3064994206        8.1814430976
  H         4.8752362524        5.7492067774        8.9805376682
  H         2.8094924961        6.1966412206        6.6564896597
  O         7.9130213037        1.2370373989        8.2643111214
  H         7.9901489535        0.3386369990        8.6356241883
  H         5.3456100588        1.7330177476        6.6779472288
  O        -2.3911592739       10.3975072178        8.2630293257
  H        -2.3428800385        9.5771689141        8.7865152303
  H        -4.9034696122       10.6270926593        6.6781987276
  O         0.0989786021        5.9454146674        8.2622915720
  H         0.2127049535        5.1407555034        8.7991211347
  H        -2.3376200910        6.1844408361        6.6618631858
  O         2.7060283505        1.5043042765        8.2587104242
  H         2.7677837722        0.6909197904        8.7911706915
  H         0.2298461687        1.7519553606        6.6797085610
  C         7.4212031580        4.0490022987        9.2501145286
  C         6.3539808328        4.3931694877       10.1624495150
  H         7.5629794420        2.9546127386        9.1970697639
  H         7.1611494633        4.3944451055        8.2371516875
  H         8.3622938668        4.5341069006        9.5456245627
  N         5.4690218418        4.6792397306       10.8711331769
     168
 i =       38, E =     -8144.3738973513
 Fe         5.0938794100       11.8196869300        0.3885799900
 Fe         7.6575796300        7.3792284900        0.3885799900
 Fe        10.2212798400        2.9387700600        0.3885799900
 Fe        -0.0335205200       11.8196869300        0.3885799900
 Fe         2.5301797000        7.3792284900        0.3885799900
 Fe         5.0938799200        2.9387700600        0.3885799900
 Fe        -5.1609204400       11.8196869300        0.3885799900
 Fe        -2.5972202200        7.3792284900        0.3885799900
 Fe        -0.0335200000        2.9387700600        0.3885799900
  O         8.4519195100        8.9577468800        1.1642700400
  O        11.0156197300        4.5172884400        1.1642700400
  O        13.5793199500        0.0768300000        1.1642700400
  O         3.3245195900        8.9577468800        1.1642700400
  O         5.8882198100        4.5172884400        1.1642700400
  O         8.4519200300        0.0768300000        1.1642700400
  O        -1.8028803300        8.9577468800        1.1642700400
  O         0.7608198900        4.5172884400        1.1642700400
  O         3.3245201100        0.0768300000        1.1642700400
  O         8.4568493000       11.7183869300        1.1650400200
  O        11.0205495200        7.2779284900        1.1650400200
  O        13.5842497300        2.8374700500        1.1650400200
  O         3.3294493700       11.7183869300        1.1650400200
  O         5.8931495900        7.2779284900        1.1650400200
  O         8.4568498100        2.8374700500        1.1650400200
  O        -1.7979505500       11.7183869300        1.1650400200
  O         0.7657496700        7.2779284900        1.1650400200
  O         3.3294498900        2.8374700500        1.1650400200
  O         6.0627194200       10.3425368500        1.1660399400
  O         8.6264196400        5.9020784100        1.1660399400
  O        11.1901198600        1.4616199700        1.1660399400
  O         0.9353195000       10.3425368500        1.1660399400
  O         3.4990197200        5.9020784100        1.1660399400
  O         6.0627199400        1.4616199700        1.1660399400
  O        -4.1920804200       10.3425368500        1.1660399400
  O        -1.6283802000        5.9020784100        1.1660399400
  O         0.9353200200        1.4616199700        1.1660399400
 Fe         7.6576695000       13.2997167500        1.9292099500
 Fe        10.2213697200        8.8592583200        1.9292099500
 Fe        12.7850699400        4.4187998800        1.9292099500
 Fe         2.5302695800       13.2997167500        1.9292099500
 Fe         5.0939698000        8.8592583200        1.9292099500
 Fe         7.6576700200        4.4187998800        1.9292099500
 Fe        -2.5971303400       13.2997167500        1.9292099500
 Fe        -0.0334301200        8.8592583200        1.9292099500
 Fe         2.5302701000        4.4187998800        1.9292099500
 Fe         7.6573893600       10.3392168700        2.7128999200
 Fe        10.2210895800        5.8987584300        2.7128999200
 Fe        12.7847898000        1.4582999900        2.7128999200
 Fe         2.5299894400       10.3392168700        2.7128999200
 Fe         5.0936896600        5.8987584300        2.7128999200
 Fe         7.6573898800        1.4582999900        2.7128999200
 Fe        -2.5974104800       10.3392168700        2.7128999200
 Fe        -0.0337102600        5.8987584300        2.7128999200
 Fe         2.5299899600        1.4582999900        2.7128999200
  O         4.0912398153       13.3105352086        3.5057146146
  O         6.6619502789        8.8769030653        3.5126549777
  O         9.2090238025        4.4280822361        3.5099309431
  O        -1.0304220475       13.3175480242        3.5165309640
  O         1.5249418742        8.8764558877        3.5137355676
  O         4.0963174694        4.4330238000        3.5102344255
  O        -6.1658320385       13.3115284264        3.5070218070
  O        -3.5984422338        8.8763406478        3.5218768558
  O        -1.0345941778        4.4320159320        3.5140807087
  O         6.8168674364       11.8800295166        3.4907029075
  O         9.3822461441        7.4351770428        3.4983181619
  O        11.9320111150        2.9889502409        3.4962599387
  O         1.6851142691       11.8741196111        3.4873980823
  O         4.2513766304        7.4328558208        3.4930896349
  O         6.8177479092        2.9994248519        3.5066313240
  O        -3.4469895827       11.8686629457        3.4944388850
  O        -0.8768296649        7.4375420584        3.4931084153
  O         1.6823785045        2.9923200317        3.4877097853
  O         9.4267983978       10.2239183413        3.4950566123
  O        11.9886577996        5.7833027741        3.4919673238
  O        14.5607005423        1.3393754219        3.4791515851
  O         4.3025107839       10.2274470970        3.4870242274
  O         6.8712417415        5.7673463974        3.4803194840
  O         9.4274931997        1.3500326654        3.4867527969
  O        -0.8267671381       10.2203353034        3.4860222436
  O         1.7398724902        5.7788907252        3.4738256311
  O         4.3017672242        1.3538522877        3.4891885838
 Fe         5.0421731131       11.8343065996        4.4203043354
 Fe         7.6040642850        7.3928647813        4.4093801562
 Fe        10.1533700359        2.9576347757        4.4207440574
 Fe        -0.0931525749       11.8244177778        4.4154217694
 Fe         2.4674935125        7.3951490173        4.4122644221
 Fe         5.0388225889        2.9654915836        4.4238799197
 Fe        -5.2229470118       11.8370019252        4.4175318121
 Fe        -2.6492056557        7.3955369776        4.4183463396
 Fe        -0.0908746286        2.9484920314        4.4195260353
 Fe         7.6109862553       13.1861376586        4.8262122900
 Fe        10.1753016233        8.7450355185        4.8318592491
 Fe        12.7373413008        4.3032022455        4.8035863643
 Fe         2.4872285054       13.1819512267        4.7988183235
 Fe         5.0478031577        8.7452163240        4.8033156068
 Fe         7.6020129632        4.3059460673        4.8426624206
 Fe        -2.6479500189       13.1873168583        4.7965847173
 Fe        -0.0816890791        8.7434603850        4.8348769671
 Fe         2.4779393281        4.3025694279        4.7991125716
  O         5.8566762440       10.3427675875        5.8706116443
  O         8.4273094627        5.9174030603        5.8741000482
  O        10.9798619769        1.4614549715        5.8675011840
  O         0.7297287488       10.3492728536        5.8783901293
  O         3.2726087811        5.9136449880        5.8303660662
  O         5.8594440025        1.4671613583        5.8782540228
  O        -4.3969426654       10.3482191991        5.8793902691
  O        -1.8334150902        5.9073801262        5.8621195781
  O         0.7294736707        1.4690249028        5.8751215083
  O         5.9261567227       13.1783157718        5.6884606274
  O         8.4899769529        8.7317345847        5.6929551228
  O        11.0505758766        4.2967067888        5.6818730918
  O         0.7961927557       13.1640848793        5.6640211361
  O         3.3647767951        8.7326718955        5.6786171099
  O         5.9333788143        4.3163919148        5.7429923167
  O        -4.3259800653       13.1732245760        5.6804097347
  O        -1.7715140609        8.7371624585        5.6904887525
  O         0.7974151776        4.2917964377        5.6833874982
  O         3.4658268316       11.7730688275        5.6647865896
  O         6.0451774533        7.3295742506        5.6477973250
  O         8.5848459695        2.8911243479        5.7078729376
  O        -1.6649382177       11.7813471343        5.6640388321
  O         0.9013110336        7.3318781192        5.6742591939
  O         3.4694742091        2.8914173664        5.6627598299
  O        -6.7891085074       11.7726557842        5.6731442106
  O        -4.2227477798        7.3281828969        5.6760513280
  O        -1.6628166445        2.8889882983        5.6631264186
 Fe         7.7810828726       10.2706813274        6.4352087249
 Fe        10.3465849561        5.8245562499        6.4382460443
 Fe        12.9057006560        1.3926664339        6.4335437192
 Fe         2.6602595055       10.2681281867        6.4336513247
 Fe         5.1851849710        5.8655727602        6.4396631485
 Fe         7.7850078281        1.3630777331        6.4288474673
 Fe        -2.4704544129       10.2791025174        6.4347295546
 Fe         0.0908230644        5.8247280258        6.4372486470
 Fe         2.6595588966        1.3884125833        6.4324881669
  O         7.8304619915       10.3874657946        8.2624593088
  H         7.8445757296        9.5701663993        8.7925873403
  H         5.3530355447       10.6071285373        6.6735212145
  O        10.3807730457        5.8686536918        8.2770646558
  H        10.7251615514        5.0893448745        8.7490546676
  H         7.9149427636        6.2567943634        6.6414763051
  O        12.9373466313        1.5271314587        8.2613023007
  H        12.9929563970        0.7092124229        8.7876980823
  H        10.4727957712        1.7178490111        6.6704104531
  O         2.7055033737       10.3816921990        8.2612544010
  H         2.8011897115        9.5567735140        8.7722782628
  H         0.2269995188       10.6181236385        6.6802922212
  O         4.9354140865        6.3053883500        8.1816099105
  H         4.8730174000        5.7457731923        8.9789169640
  H         2.8076850785        6.1928583456        6.6528723270
  O         7.9140472317        1.2383404476        8.2638136232
  H         7.9925327261        0.3408030253        8.6370564274
  H         5.3450044165        1.7342649296        6.6732306221
  O        -2.3887553632       10.3979935455        8.2614958696
  H        -2.3409054418        9.5785077793        8.7865988694
  H        -4.9035373089       10.6292662676        6.6747147611
  O         0.0973510627        5.9442847262        8.2624476141
  H         0.2126068850        5.1407099091        8.8004135126
  H        -2.3358689323        6.1847344987        6.6604493575
  O         2.7060972993        1.5054507064        8.2565462842
  H         2.7678682573        0.6931117804        8.7904340914
  H         0.2287097876        1.7514095022        6.6737178871
  C         7.4278265634        4.0535853057        9.2520035099
  C         6.3553361482        4.3918283822       10.1609239977
  H         7.5775839052        2.9602312776        9.2054320050
  H         7.1582564743        4.3882383395        8.2370887919
  H         8.3645488424        4.5506938616        9.5406539184
  N         5.4715649700        4.6746534008       10.8727149315
     168
 i =       39, E =     -8144.3728688261
 Fe         5.0938794100       11.8196869300        0.3885799900
 Fe         7.6575796300        7.3792284900        0.3885799900
 Fe        10.2212798400        2.9387700600        0.3885799900
 Fe        -0.0335205200       11.8196869300        0.3885799900
 Fe         2.5301797000        7.3792284900        0.3885799900
 Fe         5.0938799200        2.9387700600        0.3885799900
 Fe        -5.1609204400       11.8196869300        0.3885799900
 Fe        -2.5972202200        7.3792284900        0.3885799900
 Fe        -0.0335200000        2.9387700600        0.3885799900
  O         8.4519195100        8.9577468800        1.1642700400
  O        11.0156197300        4.5172884400        1.1642700400
  O        13.5793199500        0.0768300000        1.1642700400
  O         3.3245195900        8.9577468800        1.1642700400
  O         5.8882198100        4.5172884400        1.1642700400
  O         8.4519200300        0.0768300000        1.1642700400
  O        -1.8028803300        8.9577468800        1.1642700400
  O         0.7608198900        4.5172884400        1.1642700400
  O         3.3245201100        0.0768300000        1.1642700400
  O         8.4568493000       11.7183869300        1.1650400200
  O        11.0205495200        7.2779284900        1.1650400200
  O        13.5842497300        2.8374700500        1.1650400200
  O         3.3294493700       11.7183869300        1.1650400200
  O         5.8931495900        7.2779284900        1.1650400200
  O         8.4568498100        2.8374700500        1.1650400200
  O        -1.7979505500       11.7183869300        1.1650400200
  O         0.7657496700        7.2779284900        1.1650400200
  O         3.3294498900        2.8374700500        1.1650400200
  O         6.0627194200       10.3425368500        1.1660399400
  O         8.6264196400        5.9020784100        1.1660399400
  O        11.1901198600        1.4616199700        1.1660399400
  O         0.9353195000       10.3425368500        1.1660399400
  O         3.4990197200        5.9020784100        1.1660399400
  O         6.0627199400        1.4616199700        1.1660399400
  O        -4.1920804200       10.3425368500        1.1660399400
  O        -1.6283802000        5.9020784100        1.1660399400
  O         0.9353200200        1.4616199700        1.1660399400
 Fe         7.6576695000       13.2997167500        1.9292099500
 Fe        10.2213697200        8.8592583200        1.9292099500
 Fe        12.7850699400        4.4187998800        1.9292099500
 Fe         2.5302695800       13.2997167500        1.9292099500
 Fe         5.0939698000        8.8592583200        1.9292099500
 Fe         7.6576700200        4.4187998800        1.9292099500
 Fe        -2.5971303400       13.2997167500        1.9292099500
 Fe        -0.0334301200        8.8592583200        1.9292099500
 Fe         2.5302701000        4.4187998800        1.9292099500
 Fe         7.6573893600       10.3392168700        2.7128999200
 Fe        10.2210895800        5.8987584300        2.7128999200
 Fe        12.7847898000        1.4582999900        2.7128999200
 Fe         2.5299894400       10.3392168700        2.7128999200
 Fe         5.0936896600        5.8987584300        2.7128999200
 Fe         7.6573898800        1.4582999900        2.7128999200
 Fe        -2.5974104800       10.3392168700        2.7128999200
 Fe        -0.0337102600        5.8987584300        2.7128999200
 Fe         2.5299899600        1.4582999900        2.7128999200
  O         4.0934811070       13.3090622903        3.5073418832
  O         6.6545818939        8.8763305254        3.5025601499
  O         9.2105661900        4.4300468022        3.5133935487
  O        -1.0327182827       13.3167426059        3.5143797139
  O         1.5261359879        8.8746152790        3.5119939402
  O         4.1043448567        4.4377677228        3.5263016762
  O        -6.1644790605       13.3137504315        3.5107354041
  O        -3.5927766380        8.8785901368        3.5305542525
  O        -1.0350315944        4.4331517897        3.5128263430
  O         6.8142134960       11.8761026715        3.4939389806
  O         9.3813732422        7.4294709924        3.5052727934
  O        11.9324915321        2.9883733373        3.4966524646
  O         1.6860259862       11.8729560321        3.4875132375
  O         4.2513321355        7.4407633851        3.4828095361
  O         6.8169313711        2.9981707674        3.5080859389
  O        -3.4451234110       11.8694064142        3.4949676759
  O        -0.8775363539        7.4386943469        3.4913549532
  O         1.6833279629        2.9832582356        3.5036756348
  O         9.4221772018       10.2266669711        3.5024442765
  O        11.9894505688        5.7831337935        3.4890572610
  O        14.5584974664        1.3413248538        3.4832282174
  O         4.3069364479       10.2247487875        3.4792003614
  O         6.8705028759        5.7689781961        3.4818916505
  O         9.4268445242        1.3508076776        3.4888010088
  O        -0.8257721668       10.2211532493        3.4845325476
  O         1.7339836699        5.7835073737        3.4865437044
  O         4.3033085329        1.3529361339        3.4884153156
 Fe         5.0404310060       11.8318599747        4.4229470829
 Fe         7.5999691748        7.3965791696        4.4053488796
 Fe        10.1551913663        2.9584120530        4.4246562887
 Fe        -0.0922151775       11.8263514258        4.4144837009
 Fe         2.4704746938        7.3965409151        4.4147334520
 Fe         5.0405334869        2.9623629291        4.4292502072
 Fe        -5.2206815655       11.8388331240        4.4181241170
 Fe        -2.6492462989        7.3917713820        4.4200477062
 Fe        -0.0935548307        2.9517717244        4.4220302672
 Fe         7.6097528000       13.1850114022        4.8252712107
 Fe        10.1741500029        8.7446547701        4.8328012699
 Fe        12.7378973070        4.3027676290        4.8053112485
 Fe         2.4872122840       13.1810009225        4.7995351366
 Fe         5.0488035146        8.7458325546        4.8001441630
 Fe         7.6016204889        4.3057537049        4.8436839067
 Fe        -2.6475514158       13.1869750708        4.7996333906
 Fe        -0.0817218951        8.7439027244        4.8311238829
 Fe         2.4781525386        4.3020195835        4.8106701807
  O         5.8567193729       10.3433473564        5.8694729235
  O         8.4268550518        5.9195726500        5.8736506802
  O        10.9786311894        1.4598496512        5.8701240714
  O         0.7291538831       10.3491710778        5.8780087822
  O         3.2735098403        5.9145863032        5.8316001950
  O         5.8596614715        1.4689366216        5.8793539449
  O        -4.3975074136       10.3492630747        5.8778317590
  O        -1.8332442918        5.9073297550        5.8641782972
  O         0.7287225037        1.4695607499        5.8746326871
  O         5.9257458661       13.1756427556        5.6905831188
  O         8.4871752244        8.7308479319        5.6913926832
  O        11.0532131407        4.2966875240        5.6879512323
  O         0.7975443405       13.1624449802        5.6667406316
  O         3.3662507994        8.7349239327        5.6757456461
  O         5.9347717304        4.3159645767        5.7473681835
  O        -4.3272384163       13.1725209806        5.6827436340
  O        -1.7715197624        8.7365570444        5.6889735347
  O         0.7967788779        4.2891372395        5.6908504012
  O         3.4655866145       11.7723171925        5.6660576955
  O         6.0453647078        7.3308090349        5.6472017868
  O         8.5850142895        2.8918208140        5.7109428647
  O        -1.6624588770       11.7788192178        5.6642659825
  O         0.9004981347        7.3348071883        5.6745960676
  O         3.4727794355        2.8910422107        5.6683797540
  O        -6.7878826620       11.7712728695        5.6712230933
  O        -4.2221152623        7.3313494468        5.6786243152
  O        -1.6616482239        2.8897339347        5.6677102431
 Fe         7.7806109936       10.2704986524        6.4342413625
 Fe        10.3471229327        5.8268894149        6.4380957264
 Fe        12.9058923500        1.3915403262        6.4337535522
 Fe         2.6602574044       10.2673256507        6.4339389587
 Fe         5.1851241096        5.8670686206        6.4391032563
 Fe         7.7843987128        1.3618754354        6.4287158985
 Fe        -2.4712734648       10.2783919052        6.4345824238
 Fe         0.0918246591        5.8262683825        6.4371746393
 Fe         2.6588957119        1.3883326966        6.4329858880
  O         7.8304349011       10.3875894837        8.2615235355
  H         7.8444023651        9.5707703703        8.7924351109
  H         5.3532801476       10.6072642866        6.6724524698
  O        10.3814761487        5.8681636046        8.2770571156
  H        10.7267530766        5.0887234026        8.7483051759
  H         7.9147682682        6.2573649384        6.6418251736
  O        12.9371868614        1.5271063322        8.2613292045
  H        12.9927931338        0.7096243377        8.7883915230
  H        10.4720463498        1.7182286036        6.6725167585
  O         2.7055191247       10.3818817777        8.2611067810
  H         2.8014048268        9.5569763208        8.7719177281
  H         0.2265457525       10.6169419862        6.6803551361
  O         4.9344828098        6.3048706286        8.1815079552
  H         4.8724812000        5.7450971487        8.9786603655
  H         2.8073804859        6.1934504243        6.6530088451
  O         7.9141388409        1.2385775201        8.2637693161
  H         7.9928515368        0.3411733374        8.6372945404
  H         5.3431569841        1.7328530414        6.6735889153
  O        -2.3881944142       10.3985579722        8.2612783582
  H        -2.3404648154        9.5789799533        8.7861664949
  H        -4.9040158024       10.6282748232        6.6735116616
  O         0.0965941391        5.9444843963        8.2624088216
  H         0.2127444982        5.1406833073        8.7999482697
  H        -2.3360456282        6.1860600211        6.6617640065
  O         2.7064433466        1.5055073159        8.2566658006
  H         2.7679278758        0.6934241626        8.7908680243
  H         0.2278687029        1.7491637920        6.6739494309
  C         7.4288130677        4.0545890818        9.2526517773
  C         6.3550804197        4.3913039765       10.1607096535
  H         7.5809783645        2.9616330679        9.2066452836
  H         7.1581978574        4.3871048683        8.2374005177
  H         8.3652191646        4.5532970201        9.5388601696
  N         5.4720569946        4.6735501394       10.8733400845
     168
 i =       40, E =     -8144.3721817535
 Fe         5.0938794100       11.8196869300        0.3885799900
 Fe         7.6575796300        7.3792284900        0.3885799900
 Fe        10.2212798400        2.9387700600        0.3885799900
 Fe        -0.0335205200       11.8196869300        0.3885799900
 Fe         2.5301797000        7.3792284900        0.3885799900
 Fe         5.0938799200        2.9387700600        0.3885799900
 Fe        -5.1609204400       11.8196869300        0.3885799900
 Fe        -2.5972202200        7.3792284900        0.3885799900
 Fe        -0.0335200000        2.9387700600        0.3885799900
  O         8.4519195100        8.9577468800        1.1642700400
  O        11.0156197300        4.5172884400        1.1642700400
  O        13.5793199500        0.0768300000        1.1642700400
  O         3.3245195900        8.9577468800        1.1642700400
  O         5.8882198100        4.5172884400        1.1642700400
  O         8.4519200300        0.0768300000        1.1642700400
  O        -1.8028803300        8.9577468800        1.1642700400
  O         0.7608198900        4.5172884400        1.1642700400
  O         3.3245201100        0.0768300000        1.1642700400
  O         8.4568493000       11.7183869300        1.1650400200
  O        11.0205495200        7.2779284900        1.1650400200
  O        13.5842497300        2.8374700500        1.1650400200
  O         3.3294493700       11.7183869300        1.1650400200
  O         5.8931495900        7.2779284900        1.1650400200
  O         8.4568498100        2.8374700500        1.1650400200
  O        -1.7979505500       11.7183869300        1.1650400200
  O         0.7657496700        7.2779284900        1.1650400200
  O         3.3294498900        2.8374700500        1.1650400200
  O         6.0627194200       10.3425368500        1.1660399400
  O         8.6264196400        5.9020784100        1.1660399400
  O        11.1901198600        1.4616199700        1.1660399400
  O         0.9353195000       10.3425368500        1.1660399400
  O         3.4990197200        5.9020784100        1.1660399400
  O         6.0627199400        1.4616199700        1.1660399400
  O        -4.1920804200       10.3425368500        1.1660399400
  O        -1.6283802000        5.9020784100        1.1660399400
  O         0.9353200200        1.4616199700        1.1660399400
 Fe         7.6576695000       13.2997167500        1.9292099500
 Fe        10.2213697200        8.8592583200        1.9292099500
 Fe        12.7850699400        4.4187998800        1.9292099500
 Fe         2.5302695800       13.2997167500        1.9292099500
 Fe         5.0939698000        8.8592583200        1.9292099500
 Fe         7.6576700200        4.4187998800        1.9292099500
 Fe        -2.5971303400       13.2997167500        1.9292099500
 Fe        -0.0334301200        8.8592583200        1.9292099500
 Fe         2.5302701000        4.4187998800        1.9292099500
 Fe         7.6573893600       10.3392168700        2.7128999200
 Fe        10.2210895800        5.8987584300        2.7128999200
 Fe        12.7847898000        1.4582999900        2.7128999200
 Fe         2.5299894400       10.3392168700        2.7128999200
 Fe         5.0936896600        5.8987584300        2.7128999200
 Fe         7.6573898800        1.4582999900        2.7128999200
 Fe        -2.5974104800       10.3392168700        2.7128999200
 Fe        -0.0337102600        5.8987584300        2.7128999200
 Fe         2.5299899600        1.4582999900        2.7128999200
  O         4.1002458169       13.3198423980        3.5256814924
  O         6.6607254307        8.8811778176        3.5241564104
  O         9.2136079096        4.4362986133        3.5250722788
  O        -1.0442074817       13.3122690296        3.5033148738
  O         1.5186393433        8.8677994919        3.4984149644
  O         4.1075298538        4.4369318427        3.5329592332
  O        -6.1653642788       13.3213014000        3.5211722178
  O        -3.5983231290        8.8781507072        3.5203420775
  O        -1.0362380785        4.4344635958        3.5100098557
  O         6.8151883350       11.8740001026        3.5040817476
  O         9.3859309122        7.4283759025        3.5060055042
  O        11.9372222869        2.9879110082        3.4975848843
  O         1.6849515636       11.8685412442        3.4953045964
  O         4.2498619072        7.4248404021        3.5068714260
  O         6.8181841273        2.9919675010        3.5182099685
  O        -3.4368075639       11.8828354635        3.4932740703
  O        -0.8728664136        7.4380971850        3.4935980353
  O         1.6874187639        2.9822642956        3.5113982374
  O         9.4268867504       10.2230297565        3.4947204192
  O        11.9925692674        5.7852966338        3.4853547184
  O        14.5530133660        1.3387141471        3.4926886541
  O         4.2978179741       10.2292413288        3.4988793806
  O         6.8672145880        5.7715649979        3.4880203122
  O         9.4182991201        1.3503199491        3.5039138102
  O        -0.8202395981       10.2197223806        3.4788929550
  O         1.7265466721        5.7854509944        3.4994460274
  O         4.3049650141        1.3381212187        3.4868349553
 Fe         5.0419340943       11.8345936068        4.4263201130
 Fe         7.6070787647        7.3955836690        4.4094270170
 Fe        10.1582511251        2.9594232606        4.4252283855
 Fe        -0.0954248620       11.8295375742        4.4116478581
 Fe         2.4675039511        7.4008432186        4.4222041078
 Fe         5.0373534535        2.9537355437        4.4253885131
 Fe        -5.2184482150       11.8371014321        4.4146016136
 Fe        -2.6502184302        7.3996764359        4.4166590261
 Fe        -0.0963231506        2.9519523416        4.4162460310
 Fe         7.6093885254       13.1834029273        4.8398556428
 Fe        10.1763194529        8.7414443009        4.8406135831
 Fe        12.7370810291        4.3038465412        4.8011511009
 Fe         2.4874509974       13.1793347017        4.8072852284
 Fe         5.0457398318        8.7438839876        4.8231874468
 Fe         7.6005522194        4.3044342499        4.8450410849
 Fe        -2.6429503446       13.1874566446        4.8258457993
 Fe        -0.0801533289        8.7438516367        4.8318025536
 Fe         2.4774442206        4.3031744937        4.8219133900
  O         5.8571039661       10.3510092270        5.8741601308
  O         8.4255893460        5.9179709978        5.8783179795
  O        10.9776894754        1.4645570810        5.8713792763
  O         0.7258272119       10.3460416876        5.8792176523
  O         3.2705495105        5.9147886233        5.8344653313
  O         5.8633167301        1.4773429758        5.8872031053
  O        -4.3994546569       10.3504696482        5.8833228734
  O        -1.8365377887        5.9066933067        5.8667253530
  O         0.7274530877        1.4722160859        5.8795371952
  O         5.9222639316       13.1731198945        5.7042870974
  O         8.4875693050        8.7236526316        5.7031745646
  O        11.0574997602        4.2897561166        5.6936608030
  O         0.7995703972       13.1617907905        5.6689073542
  O         3.3586283671        8.7360053864        5.6857049861
  O         5.9296481811        4.3143563189        5.7455669171
  O        -4.3326140499       13.1750752405        5.6911484760
  O        -1.7643747832        8.7312697074        5.6996579279
  O         0.7925554530        4.2883669635        5.6882874379
  O         3.4691337529       11.7742659771        5.6711644554
  O         6.0552264769        7.3269535649        5.6520316237
  O         8.5909820948        2.8932940300        5.7144576655
  O        -1.6522668108       11.7746530198        5.6756973291
  O         0.9007145498        7.3338807017        5.6780332049
  O         3.4738375312        2.8980998302        5.6738291905
  O        -6.7783918166       11.7772522028        5.6879497873
  O        -4.2151881705        7.3272509168        5.6851082823
  O        -1.6630320377        2.8995716862        5.6727803516
 Fe         7.7818134964       10.2695589340        6.4352332931
 Fe        10.3482532540        5.8244488691        6.4371915290
 Fe        12.9059235148        1.3973490393        6.4359545471
 Fe         2.6576373947       10.2704677147        6.4358894908
 Fe         5.1843467854        5.8693384938        6.4377794879
 Fe         7.7865913210        1.3619313592        6.4287551721
 Fe        -2.4714276438       10.2746410309        6.4355333492
 Fe         0.0926033328        5.8268042634        6.4370900701
 Fe         2.6567153370        1.3947629937        6.4367587649
  O         7.8334313729       10.3876570366        8.2630354377
  H         7.8466419027        9.5706396801        8.7932223078
  H         5.3483129260       10.6017489729        6.6774798152
  O        10.3789589468        5.8745967792        8.2772112086
  H        10.7166586760        5.0919277847        8.7485978079
  H         7.9115720710        6.2573848919        6.6432900841
  O        12.9382472488        1.5245264203        8.2639389402
  H        12.9944318195        0.7058043159        8.7894905323
  H        10.4745609785        1.7143215679        6.6786430284
  O         2.7030642957       10.3805622938        8.2623567984
  H         2.8005030336        9.5560894252        8.7729328997
  H         0.2259624032       10.6152149692        6.6828847229
  O         4.9396388103        6.3067846936        8.1823536181
  H         4.8759668137        5.7482520356        8.9809672354
  H         2.8126141843        6.1986831762        6.6584891316
  O         7.9130160680        1.2375912609        8.2641050446
  H         7.9896638789        0.3390570330        8.6351728479
  H         5.3398607027        1.7283489119        6.6809786301
  O        -2.3908151977       10.3980390062        8.2619075357
  H        -2.3427674381        9.5778678879        8.7852888277
  H        -4.9062679188       10.6244304195        6.6801965090
  O         0.0975687516        5.9470924106        8.2631687781
  H         0.2132137941        5.1404587529        8.7972970064
  H        -2.3377322028        6.1867342376        6.6658865578
  O         2.7064314263        1.5039405565        8.2611040058
  H         2.7680049483        0.6901181044        8.7929384184
  H         0.2290292356        1.7469970201        6.6822413625
  C         7.4246766643        4.0473372394        9.2537959864
  C         6.3456685877        4.3959874876       10.1510367358
  H         7.5638799981        2.9540326705        9.1939950506
  H         7.1589389827        4.3950976644        8.2431738150
  H         8.3676929191        4.5320834561        9.5420963305
  N         5.4709464918        4.6776460860       10.8757015877
     168
 i =       41, E =     -8144.3729939331
 Fe         5.0938794100       11.8196869300        0.3885799900
 Fe         7.6575796300        7.3792284900        0.3885799900
 Fe        10.2212798400        2.9387700600        0.3885799900
 Fe        -0.0335205200       11.8196869300        0.3885799900
 Fe         2.5301797000        7.3792284900        0.3885799900
 Fe         5.0938799200        2.9387700600        0.3885799900
 Fe        -5.1609204400       11.8196869300        0.3885799900
 Fe        -2.5972202200        7.3792284900        0.3885799900
 Fe        -0.0335200000        2.9387700600        0.3885799900
  O         8.4519195100        8.9577468800        1.1642700400
  O        11.0156197300        4.5172884400        1.1642700400
  O        13.5793199500        0.0768300000        1.1642700400
  O         3.3245195900        8.9577468800        1.1642700400
  O         5.8882198100        4.5172884400        1.1642700400
  O         8.4519200300        0.0768300000        1.1642700400
  O        -1.8028803300        8.9577468800        1.1642700400
  O         0.7608198900        4.5172884400        1.1642700400
  O         3.3245201100        0.0768300000        1.1642700400
  O         8.4568493000       11.7183869300        1.1650400200
  O        11.0205495200        7.2779284900        1.1650400200
  O        13.5842497300        2.8374700500        1.1650400200
  O         3.3294493700       11.7183869300        1.1650400200
  O         5.8931495900        7.2779284900        1.1650400200
  O         8.4568498100        2.8374700500        1.1650400200
  O        -1.7979505500       11.7183869300        1.1650400200
  O         0.7657496700        7.2779284900        1.1650400200
  O         3.3294498900        2.8374700500        1.1650400200
  O         6.0627194200       10.3425368500        1.1660399400
  O         8.6264196400        5.9020784100        1.1660399400
  O        11.1901198600        1.4616199700        1.1660399400
  O         0.9353195000       10.3425368500        1.1660399400
  O         3.4990197200        5.9020784100        1.1660399400
  O         6.0627199400        1.4616199700        1.1660399400
  O        -4.1920804200       10.3425368500        1.1660399400
  O        -1.6283802000        5.9020784100        1.1660399400
  O         0.9353200200        1.4616199700        1.1660399400
 Fe         7.6576695000       13.2997167500        1.9292099500
 Fe        10.2213697200        8.8592583200        1.9292099500
 Fe        12.7850699400        4.4187998800        1.9292099500
 Fe         2.5302695800       13.2997167500        1.9292099500
 Fe         5.0939698000        8.8592583200        1.9292099500
 Fe         7.6576700200        4.4187998800        1.9292099500
 Fe        -2.5971303400       13.2997167500        1.9292099500
 Fe        -0.0334301200        8.8592583200        1.9292099500
 Fe         2.5302701000        4.4187998800        1.9292099500
 Fe         7.6573893600       10.3392168700        2.7128999200
 Fe        10.2210895800        5.8987584300        2.7128999200
 Fe        12.7847898000        1.4582999900        2.7128999200
 Fe         2.5299894400       10.3392168700        2.7128999200
 Fe         5.0936896600        5.8987584300        2.7128999200
 Fe         7.6573898800        1.4582999900        2.7128999200
 Fe        -2.5974104800       10.3392168700        2.7128999200
 Fe        -0.0337102600        5.8987584300        2.7128999200
 Fe         2.5299899600        1.4582999900        2.7128999200
  O         4.0951472663       13.3224115492        3.5222935755
  O         6.6643793688        8.8761734471        3.5223847972
  O         9.2112552292        4.4333415561        3.5184138289
  O        -1.0379889001       13.3161108751        3.5127642312
  O         1.5311663308        8.8781664144        3.5229059516
  O         4.1019206950        4.4351626483        3.5227094920
  O        -6.1586718813       13.3184087430        3.5274866691
  O        -3.6022766656        8.8735765884        3.5096032918
  O        -1.0383146946        4.4310704798        3.5090489014
  O         6.8198462298       11.8694381922        3.5127453610
  O         9.3846497005        7.4368935172        3.4947949001
  O        11.9388820424        2.9921160152        3.4969795908
  O         1.6852371608       11.8706440216        3.4957821394
  O         4.2501562815        7.4246224701        3.5065600598
  O         6.8184795327        2.9953352375        3.5128747350
  O        -3.4388783856       11.8765389270        3.4993576654
  O        -0.8766053852        7.4244811855        3.5115847474
  O         1.6875663599        2.9889035523        3.5016685403
  O         9.4308768789       10.2206394909        3.4876704684
  O        11.9918112853        5.7835240855        3.4858442486
  O        14.5496790370        1.3418268090        3.4982675792
  O         4.2962708222       10.2258553366        3.4983603348
  O         6.8712663091        5.7705608332        3.4797111128
  O         9.4196130293        1.3491229334        3.4998759784
  O        -0.8325898958       10.2258924619        3.5001111455
  O         1.7312291645        5.7809727346        3.4885850954
  O         4.3016769432        1.3420650376        3.4939453928
 Fe         5.0402577689       11.8348698187        4.4177444207
 Fe         7.6091644040        7.3922547006        4.4130136620
 Fe        10.1568539547        2.9578579051        4.4193709039
 Fe        -0.0933647250       11.8314178256        4.4179931418
 Fe         2.4691315967        7.3942604075        4.4211066218
 Fe         5.0361268387        2.9591919150        4.4240904366
 Fe        -5.2177357074       11.8329158137        4.4226931434
 Fe        -2.6559187376        7.3996823995        4.4191663499
 Fe        -0.0927017581        2.9516598567        4.4180353113
 Fe         7.6103487178       13.1851176956        4.8430395094
 Fe        10.1778275945        8.7430499564        4.8337949196
 Fe        12.7352654528        4.3072341214        4.8050010853
 Fe         2.4878987138       13.1822611372        4.8083555805
 Fe         5.0459406708        8.7433472083        4.8236348160
 Fe         7.6002643288        4.3068615211        4.8380686809
 Fe        -2.6431367718       13.1857839731        4.8264032070
 Fe        -0.0801010755        8.7420866138        4.8379951971
 Fe         2.4784031957        4.3029080191        4.8199715681
  O         5.8554019654       10.3489202293        5.8775448397
  O         8.4284833497        5.9149842312        5.8774754762
  O        10.9792888796        1.4677381593        5.8699469680
  O         0.7269891276       10.3465517319        5.8784031887
  O         3.2714393257        5.9143501557        5.8376675233
  O         5.8626209646        1.4734914928        5.8877893147
  O        -4.3989987249       10.3467578307        5.8858405859
  O        -1.8354154967        5.9091052156        5.8654564791
  O         0.7260223798        1.4706550128        5.8821541685
  O         5.9201689297       13.1726537057        5.7016662586
  O         8.4926920432        8.7261289996        5.7022291335
  O        11.0501282218        4.2893999229        5.6870971169
  O         0.8000713799       13.1647999599        5.6696215221
  O         3.3594981163        8.7340009902        5.6893520485
  O         5.9314547896        4.3138920916        5.7424683218
  O        -4.3281285805       13.1772574815        5.6938800127
  O        -1.7667071988        8.7327165768        5.6978269925
  O         0.7929644991        4.2913922847        5.6860686503
  O         3.4693255030       11.7741827753        5.6690296350
  O         6.0528703144        7.3274042313        5.6537996232
  O         8.5904278055        2.8945557574        5.7086045082
  O        -1.6535409055       11.7762089189        5.6780757426
  O         0.9039037295        7.3326511332        5.6790746788
  O         3.4733011780        2.8981036916        5.6758011170
  O        -6.7812184694       11.7764453462        5.6896537334
  O        -4.2197974288        7.3282090141        5.6843284860
  O        -1.6652142735        2.9001094536        5.6705513634
 Fe         7.7824429547       10.2685287546        6.4384689050
 Fe        10.3487325145        5.8234019569        6.4378802913
 Fe        12.9067407723        1.3973164300        6.4354139648
 Fe         2.6566319094       10.2712949395        6.4364032053
 Fe         5.1867447458        5.8663545112        6.4380655564
 Fe         7.7882881006        1.3651818286        6.4292181266
 Fe        -2.4707036102       10.2746441499        6.4368895919
 Fe         0.0911920865        5.8280128987        6.4361001454
 Fe         2.6542926577        1.3943823905        6.4364795025
  O         7.8339693298       10.3885150431        8.2655172607
  H         7.8472314450        9.5699510591        8.7930230027
  H         5.3482775967       10.6034234260        6.6812108706
  O        10.3778141846        5.8757162535        8.2775679438
  H        10.7139318664        5.0925642847        8.7493522353
  H         7.9118331812        6.2561868581        6.6403657788
  O        12.9384367385        1.5242890121        8.2640209565
  H        12.9949006371        0.7051046485        8.7888347831
  H        10.4752047334        1.7137093022        6.6779366860
  O         2.7028383166       10.3804709272        8.2633260019
  H         2.7999745437        9.5555413644        8.7735445627
  H         0.2252122226       10.6144681826        6.6811653506
  O         4.9406089395        6.3075360709        8.1815866657
  H         4.8768916732        5.7497825352        8.9808544324
  H         2.8121204192        6.1999713386        6.6605484476
  O         7.9126229511        1.2367478883        8.2643686901
  H         7.9888872422        0.3381012307        8.6353621635
  H         5.3423966938        1.7295452528        6.6826653189
  O        -2.3918171561       10.3979765450        8.2626382189
  H        -2.3433049551        9.5774890120        8.7854010870
  H        -4.9051155692       10.6254736854        6.6821740112
  O         0.0987123126        5.9471095660        8.2623726758
  H         0.2130897218        5.1405609953        8.7967665149
  H        -2.3381353424        6.1850471096        6.6645898381
  O         2.7068630328        1.5035879246        8.2611129545
  H         2.7678383649        0.6896364645        8.7928935865
  H         0.2294758960        1.7488797087        6.6844794000
  C         7.4165115768        4.0478405117        9.2462061311
  C         6.3575903349        4.3919539265       10.1675965755
  H         7.5582742978        2.9526461432        9.1931523934
  H         7.1646410217        4.3979883485        8.2345099579
  H         8.3595452704        4.5262087921        9.5458390806
  N         5.4675285790        4.6798173246       10.8693445400
     168
 i =       42, E =     -8144.3744102352
 Fe         5.0938794100       11.8196869300        0.3885799900
 Fe         7.6575796300        7.3792284900        0.3885799900
 Fe        10.2212798400        2.9387700600        0.3885799900
 Fe        -0.0335205200       11.8196869300        0.3885799900
 Fe         2.5301797000        7.3792284900        0.3885799900
 Fe         5.0938799200        2.9387700600        0.3885799900
 Fe        -5.1609204400       11.8196869300        0.3885799900
 Fe        -2.5972202200        7.3792284900        0.3885799900
 Fe        -0.0335200000        2.9387700600        0.3885799900
  O         8.4519195100        8.9577468800        1.1642700400
  O        11.0156197300        4.5172884400        1.1642700400
  O        13.5793199500        0.0768300000        1.1642700400
  O         3.3245195900        8.9577468800        1.1642700400
  O         5.8882198100        4.5172884400        1.1642700400
  O         8.4519200300        0.0768300000        1.1642700400
  O        -1.8028803300        8.9577468800        1.1642700400
  O         0.7608198900        4.5172884400        1.1642700400
  O         3.3245201100        0.0768300000        1.1642700400
  O         8.4568493000       11.7183869300        1.1650400200
  O        11.0205495200        7.2779284900        1.1650400200
  O        13.5842497300        2.8374700500        1.1650400200
  O         3.3294493700       11.7183869300        1.1650400200
  O         5.8931495900        7.2779284900        1.1650400200
  O         8.4568498100        2.8374700500        1.1650400200
  O        -1.7979505500       11.7183869300        1.1650400200
  O         0.7657496700        7.2779284900        1.1650400200
  O         3.3294498900        2.8374700500        1.1650400200
  O         6.0627194200       10.3425368500        1.1660399400
  O         8.6264196400        5.9020784100        1.1660399400
  O        11.1901198600        1.4616199700        1.1660399400
  O         0.9353195000       10.3425368500        1.1660399400
  O         3.4990197200        5.9020784100        1.1660399400
  O         6.0627199400        1.4616199700        1.1660399400
  O        -4.1920804200       10.3425368500        1.1660399400
  O        -1.6283802000        5.9020784100        1.1660399400
  O         0.9353200200        1.4616199700        1.1660399400
 Fe         7.6576695000       13.2997167500        1.9292099500
 Fe        10.2213697200        8.8592583200        1.9292099500
 Fe        12.7850699400        4.4187998800        1.9292099500
 Fe         2.5302695800       13.2997167500        1.9292099500
 Fe         5.0939698000        8.8592583200        1.9292099500
 Fe         7.6576700200        4.4187998800        1.9292099500
 Fe        -2.5971303400       13.2997167500        1.9292099500
 Fe        -0.0334301200        8.8592583200        1.9292099500
 Fe         2.5302701000        4.4187998800        1.9292099500
 Fe         7.6573893600       10.3392168700        2.7128999200
 Fe        10.2210895800        5.8987584300        2.7128999200
 Fe        12.7847898000        1.4582999900        2.7128999200
 Fe         2.5299894400       10.3392168700        2.7128999200
 Fe         5.0936896600        5.8987584300        2.7128999200
 Fe         7.6573898800        1.4582999900        2.7128999200
 Fe        -2.5974104800       10.3392168700        2.7128999200
 Fe        -0.0337102600        5.8987584300        2.7128999200
 Fe         2.5299899600        1.4582999900        2.7128999200
  O         4.0926959030       13.3146956185        3.5115773321
  O         6.6624572648        8.8770763069        3.5164716606
  O         9.2113857792        4.4295367236        3.5147821341
  O        -1.0335840163       13.3158908757        3.5138767244
  O         1.5297213005        8.8780465166        3.5212327221
  O         4.1004376113        4.4344705513        3.5185189519
  O        -6.1654266416       13.3139727666        3.5121546668
  O        -3.6027788817        8.8732799692        3.5109470929
  O        -1.0361872145        4.4316701871        3.5118256738
  O         6.8183215859       11.8769041740        3.4987818140
  O         9.3821508170        7.4408697756        3.4890979947
  O        11.9343071241        2.9909173269        3.4963025177
  O         1.6854866405       11.8729653486        3.4909703998
  O         4.2516693613        7.4301260877        3.4992286375
  O         6.8183517707        2.9974516240        3.5100877253
  O        -3.4427458349       11.8714348624        3.4961105515
  O        -0.8780004682        7.4304153177        3.5033413570
  O         1.6847920197        2.9883575520        3.4978647575
  O         9.4312133913       10.2206173724        3.4859415021
  O        11.9890537825        5.7828486587        3.4903775215
  O        14.5568540769        1.3396772697        3.4864906253
  O         4.3005032040       10.2260201803        3.4914039509
  O         6.8717132299        5.7695215055        3.4809693992
  O         9.4245121381        1.3503443973        3.4913634316
  O        -0.8322644296       10.2235729869        3.4960940675
  O         1.7349398290        5.7809917173        3.4822882051
  O         4.3024460593        1.3491144349        3.4897083824
 Fe         5.0407456349       11.8338985873        4.4199504679
 Fe         7.6062407128        7.3936596419        4.4112583872
 Fe        10.1552703881        2.9566722621        4.4217525596
 Fe        -0.0925528984       11.8281013525        4.4172358099
 Fe         2.4697684889        7.3942912764        4.4169411424
 Fe         5.0382109404        2.9621076460        4.4247504296
 Fe        -5.2208612234       11.8355787553        4.4160637040
 Fe        -2.6541426518        7.3971956563        4.4183293548
 Fe        -0.0923115680        2.9502965486        4.4202006122
 Fe         7.6114821841       13.1857693193        4.8323305118
 Fe        10.1760102509        8.7452818568        4.8262131505
 Fe        12.7372033984        4.3051173482        4.8048640801
 Fe         2.4873628475       13.1826961690        4.8029952146
 Fe         5.0480276952        8.7435368903        4.8160056930
 Fe         7.6013355270        4.3061593819        4.8426628706
 Fe        -2.6468490771       13.1865167268        4.8085366163
 Fe        -0.0814546288        8.7432554857        4.8359107618
 Fe         2.4781767257        4.3028116971        4.8106659382
  O         5.8560009515       10.3441607408        5.8749190935
  O         8.4286819162        5.9168596387        5.8752726638
  O        10.9797252776        1.4635236421        5.8689049259
  O         0.7290374188       10.3490632063        5.8775954046
  O         3.2721158870        5.9139103521        5.8343764902
  O         5.8601165579        1.4676804607        5.8823003858
  O        -4.3979500653       10.3473624738        5.8805431604
  O        -1.8341081347        5.9087452279        5.8628450113
  O         0.7278345804        1.4701031806        5.8774600032
  O         5.9242823986       13.1764548049        5.6926308285
  O         8.4937881215        8.7306468092        5.6957569085
  O        11.0507424568        4.2950970687        5.6832950301
  O         0.7976134001       13.1647004046        5.6675603572
  O         3.3626576619        8.7336061591        5.6846127077
  O         5.9329546069        4.3144595853        5.7442991562
  O        -4.3272041769       13.1743710449        5.6856728640
  O        -1.7719352742        8.7362386361        5.6904044228
  O         0.7950391553        4.2915379421        5.6862289828
  O         3.4664582147       11.7745865231        5.6679912936
  O         6.0491608187        7.3285031514        5.6540604750
  O         8.5873426788        2.8925886340        5.7090280648
  O        -1.6606253558       11.7794973538        5.6691362621
  O         0.9020088071        7.3324779045        5.6752601038
  O         3.4717086958        2.8934666582        5.6691867325
  O        -6.7852114436       11.7719046009        5.6764435060
  O        -4.2240504958        7.3301518318        5.6777407040
  O        -1.6640463572        2.8924968520        5.6660908252
 Fe         7.7818268446       10.2696528588        6.4365008381
 Fe        10.3479442897        5.8247477956        6.4383434948
 Fe        12.9057926192        1.3938887070        6.4341776336
 Fe         2.6580640157       10.2700487681        6.4349860984
 Fe         5.1854646525        5.8646422036        6.4395989505
 Fe         7.7860970310        1.3645858900        6.4297864381
 Fe        -2.4702238850       10.2775446054        6.4360401534
 Fe         0.0904148073        5.8269223182        6.4365746963
 Fe         2.6569917884        1.3902405920        6.4338607156
  O         7.8312316271       10.3884071193        8.2635277259
  H         7.8447857044        9.5705298381        8.7925500893
  H         5.3515678927       10.6083053763        6.6773266548
  O        10.3807525959        5.8694313439        8.2774163384
  H        10.7251580536        5.0890094972        8.7477625398
  H         7.9139512692        6.2567797377        6.6407742377
  O        12.9374772333        1.5267956246        8.2621545205
  H        12.9930967611        0.7088152205        8.7885746915
  H        10.4737697541        1.7171479344        6.6732660928
  O         2.7050259762       10.3815866350        8.2622860153
  H         2.8011682778        9.5563475918        8.7725726467
  H         0.2252187701       10.6156183582        6.6794530716
  O         4.9352533559        6.3055447856        8.1816812151
  H         4.8730253378        5.7458211180        8.9791285169
  H         2.8085027678        6.1954472821        6.6564337404
  O         7.9138297091        1.2384934513        8.2645909413
  H         7.9923932832        0.3406184774        8.6369430714
  H         5.3443104617        1.7334058271        6.6769604987
  O        -2.3890260453       10.3987032855        8.2621400300
  H        -2.3406164786        9.5787330644        8.7861796922
  H        -4.9042081254       10.6281267816        6.6765662824
  O         0.0970976097        5.9454509129        8.2622122234
  H         0.2127146191        5.1408455896        8.7987368108
  H        -2.3364073011        6.1851534590        6.6616042115
  O         2.7064982064        1.5053548994        8.2580964560
  H         2.7679475725        0.6926103925        8.7915196458
  H         0.2281391244        1.7499411054        6.6774178408
  C         7.4261306850        4.0536273590        9.2499285736
  C         6.3590150523        4.3910607879       10.1650039529
  H         7.5782297217        2.9600707405        9.2046110660
  H         7.1598161320        4.3885326512        8.2348983335
  H         8.3628479552        4.5505027081        9.5403436563
  N         5.4712045574        4.6733929903       10.8715851733
     168
 i =       43, E =     -8144.3730921007
 Fe         5.0938794100       11.8196869300        0.3885799900
 Fe         7.6575796300        7.3792284900        0.3885799900
 Fe        10.2212798400        2.9387700600        0.3885799900
 Fe        -0.0335205200       11.8196869300        0.3885799900
 Fe         2.5301797000        7.3792284900        0.3885799900
 Fe         5.0938799200        2.9387700600        0.3885799900
 Fe        -5.1609204400       11.8196869300        0.3885799900
 Fe        -2.5972202200        7.3792284900        0.3885799900
 Fe        -0.0335200000        2.9387700600        0.3885799900
  O         8.4519195100        8.9577468800        1.1642700400
  O        11.0156197300        4.5172884400        1.1642700400
  O        13.5793199500        0.0768300000        1.1642700400
  O         3.3245195900        8.9577468800        1.1642700400
  O         5.8882198100        4.5172884400        1.1642700400
  O         8.4519200300        0.0768300000        1.1642700400
  O        -1.8028803300        8.9577468800        1.1642700400
  O         0.7608198900        4.5172884400        1.1642700400
  O         3.3245201100        0.0768300000        1.1642700400
  O         8.4568493000       11.7183869300        1.1650400200
  O        11.0205495200        7.2779284900        1.1650400200
  O        13.5842497300        2.8374700500        1.1650400200
  O         3.3294493700       11.7183869300        1.1650400200
  O         5.8931495900        7.2779284900        1.1650400200
  O         8.4568498100        2.8374700500        1.1650400200
  O        -1.7979505500       11.7183869300        1.1650400200
  O         0.7657496700        7.2779284900        1.1650400200
  O         3.3294498900        2.8374700500        1.1650400200
  O         6.0627194200       10.3425368500        1.1660399400
  O         8.6264196400        5.9020784100        1.1660399400
  O        11.1901198600        1.4616199700        1.1660399400
  O         0.9353195000       10.3425368500        1.1660399400
  O         3.4990197200        5.9020784100        1.1660399400
  O         6.0627199400        1.4616199700        1.1660399400
  O        -4.1920804200       10.3425368500        1.1660399400
  O        -1.6283802000        5.9020784100        1.1660399400
  O         0.9353200200        1.4616199700        1.1660399400
 Fe         7.6576695000       13.2997167500        1.9292099500
 Fe        10.2213697200        8.8592583200        1.9292099500
 Fe        12.7850699400        4.4187998800        1.9292099500
 Fe         2.5302695800       13.2997167500        1.9292099500
 Fe         5.0939698000        8.8592583200        1.9292099500
 Fe         7.6576700200        4.4187998800        1.9292099500
 Fe        -2.5971303400       13.2997167500        1.9292099500
 Fe        -0.0334301200        8.8592583200        1.9292099500
 Fe         2.5302701000        4.4187998800        1.9292099500
 Fe         7.6573893600       10.3392168700        2.7128999200
 Fe        10.2210895800        5.8987584300        2.7128999200
 Fe        12.7847898000        1.4582999900        2.7128999200
 Fe         2.5299894400       10.3392168700        2.7128999200
 Fe         5.0936896600        5.8987584300        2.7128999200
 Fe         7.6573898800        1.4582999900        2.7128999200
 Fe        -2.5974104800       10.3392168700        2.7128999200
 Fe        -0.0337102600        5.8987584300        2.7128999200
 Fe         2.5299899600        1.4582999900        2.7128999200
  O         4.0899737201       13.3091176766        3.5028301652
  O         6.6591623643        8.8772094806        3.5084891295
  O         9.2096897323        4.4292124397        3.5104501225
  O        -1.0303439374       13.3170416964        3.5144762790
  O         1.5265658885        8.8769118827        3.5151046234
  O         4.0992694312        4.4352615946        3.5155680481
  O        -6.1675887456       13.3099285602        3.5012216007
  O        -3.5972546959        8.8761322474        3.5215964092
  O        -1.0350275951        4.4334202343        3.5141267522
  O         6.8144616054       11.8811531709        3.4844725822
  O         9.3797000496        7.4353085251        3.4956642163
  O        11.9315297311        2.9889736464        3.4955723954
  O         1.6855143655       11.8754985504        3.4848775112
  O         4.2517455328        7.4370899878        3.4880352160
  O         6.8180030473        3.0003713971        3.5058718639
  O        -3.4483181793       11.8683402673        3.4914448480
  O        -0.8786705296        7.4383623661        3.4905591265
  O         1.6831490373        2.9889112766        3.4925793129
  O         9.4261191352       10.2250052227        3.4937913860
  O        11.9885333359        5.7835152440        3.4909579381
  O        14.5618878246        1.3394537721        3.4755116923
  O         4.3044224625       10.2260228295        3.4829971998
  O         6.8716042527        5.7682646089        3.4813959098
  O         9.4286691086        1.3504175710        3.4851231244
  O        -0.8271061470       10.2210065608        3.4853090754
  O         1.7393722942        5.7815794139        3.4761816522
  O         4.3029998079        1.3547074342        3.4863958515
 Fe         5.0404848053       11.8334372975        4.4195790308
 Fe         7.6013185269        7.3943853867        4.4077608083
 Fe        10.1538872857        2.9581785056        4.4209585033
 Fe        -0.0922450726       11.8253886917        4.4150929119
 Fe         2.4694462713        7.3957120017        4.4138454607
 Fe         5.0407253789        2.9649652760        4.4250287448
 Fe        -5.2228428366       11.8379441706        4.4159164243
 Fe        -2.6504218294        7.3936811246        4.4185102835
 Fe        -0.0913038269        2.9502169288        4.4196418886
 Fe         7.6096374807       13.1860658273        4.8152343046
 Fe        10.1740193167        8.7464587985        4.8223530107
 Fe        12.7376769407        4.3028251260        4.8041428869
 Fe         2.4873238041       13.1816156310        4.7975823254
 Fe         5.0486911934        8.7452630180        4.8032147746
 Fe         7.6026341610        4.3057351991        4.8454055655
 Fe        -2.6489442707       13.1871591114        4.7894498283
 Fe        -0.0830177498        8.7438555383        4.8294570659
 Fe         2.4782340360        4.3020146127        4.7997110316
  O         5.8565335776       10.3425258888        5.8696214016
  O         8.4282070928        5.9191098646        5.8733086436
  O        10.9793299323        1.4605756753        5.8677564980
  O         0.7295208486       10.3503219465        5.8764428587
  O         3.2726288584        5.9124908104        5.8293167818
  O         5.8587897887        1.4666023503        5.8756414927
  O        -4.3973707305       10.3488840312        5.8746073127
  O        -1.8325184720        5.9073772008        5.8613563633
  O         0.7297064402        1.4681947691        5.8705591941
  O         5.9272471503       13.1771284565        5.6851216981
  O         8.4908717256        8.7337946378        5.6880481141
  O        11.0517975647        4.2977052479        5.6836660806
  O         0.7961956599       13.1637290831        5.6646086849
  O         3.3659052131        8.7339420410        5.6778668973
  O         5.9355490518        4.3151821781        5.7470750081
  O        -4.3268497136       13.1725640354        5.6766812354
  O        -1.7742400539        8.7380849048        5.6861102820
  O         0.7980806982        4.2901434804        5.6866271204
  O         3.4660256144       11.7733494361        5.6656633993
  O         6.0441808781        7.3307785338        5.6498229881
  O         8.5846380837        2.8907490631        5.7091002204
  O        -1.6663154981       11.7810386510        5.6599951693
  O         0.8988258621        7.3332865255        5.6720469081
  O         3.4718595203        2.8895173332        5.6624077204
  O        -6.7915044800       11.7700615424        5.6635158506
  O        -4.2258928850        7.3322598224        5.6735981454
  O        -1.6607686592        2.8860051490        5.6619809825
 Fe         7.7816346961       10.2709879444        6.4337776334
 Fe        10.3476128086        5.8265196143        6.4375204225
 Fe        12.9060475556        1.3902707631        6.4328919250
 Fe         2.6595732294       10.2684134576        6.4332509883
 Fe         5.1841290529        5.8648960081        6.4392318109
 Fe         7.7840047746        1.3624059319        6.4294041848
 Fe        -2.4713252826       10.2799539161        6.4335201980
 Fe         0.0914413430        5.8250695317        6.4369943588
 Fe         2.6601273422        1.3872520712        6.4313900730
  O         7.8278542819       10.3890927019        8.2609134052
  H         7.8415297519        9.5719701257        8.7914300125
  H         5.3547968835       10.6122749787        6.6720952732
  O        10.3851330523        5.8609438977        8.2763467200
  H        10.7399605873        5.0840111831        8.7448753953
  H         7.9158113446        6.2578600801        6.6410988682
  O        12.9362861508        1.5297287265        8.2602678256
  H        12.9906931169        0.7136397422        8.7895522329
  H        10.4716824264        1.7203008555        6.6693001880
  O         2.7077495839       10.3826244534        8.2607270552
  H         2.8030299914        9.5574881702        8.7714576859
  H         0.2258208295       10.6172201453        6.6782363011
  O         4.9284171505        6.3017775248        8.1811450064
  H         4.8682638028        5.7400493012        8.9770823697
  H         2.8050213107        6.1898679820        6.6507026738
  O         7.9154338663        1.2412414340        8.2642869016
  H         7.9968982429        0.3445829340        8.6390916641
  H         5.3435031849        1.7355740701        6.6693432334
  O        -2.3845312216       10.3998456589        8.2601139471
  H        -2.3369020104        9.5810643373        8.7864017437
  H        -4.9039996816       10.6310633441        6.6693761402
  O         0.0939846431        5.9437652465        8.2619803092
  H         0.2124109316        5.1411172230        8.8006100751
  H        -2.3347611238        6.1856116123        6.6593387754
  O         2.7063693407        1.5074414778        8.2548053106
  H         2.7682295430        0.6964283599        8.7905743304
  H         0.2269159202        1.7490616141        6.6684103261
  C         7.4379584636        4.0610863472        9.2544069467
  C         6.3608083943        4.3908645637       10.1611176997
  H         7.6072457890        2.9701900557        9.2189352864
  H         7.1551463054        4.3766701300        8.2360878686
  H         8.3667206823        4.5818235211        9.5301453721
  N         5.4762107797        4.6635482756       10.8755740590
     168
 i =       44, E =     -8144.3745608554
 Fe         5.0938794100       11.8196869300        0.3885799900
 Fe         7.6575796300        7.3792284900        0.3885799900
 Fe        10.2212798400        2.9387700600        0.3885799900
 Fe        -0.0335205200       11.8196869300        0.3885799900
 Fe         2.5301797000        7.3792284900        0.3885799900
 Fe         5.0938799200        2.9387700600        0.3885799900
 Fe        -5.1609204400       11.8196869300        0.3885799900
 Fe        -2.5972202200        7.3792284900        0.3885799900
 Fe        -0.0335200000        2.9387700600        0.3885799900
  O         8.4519195100        8.9577468800        1.1642700400
  O        11.0156197300        4.5172884400        1.1642700400
  O        13.5793199500        0.0768300000        1.1642700400
  O         3.3245195900        8.9577468800        1.1642700400
  O         5.8882198100        4.5172884400        1.1642700400
  O         8.4519200300        0.0768300000        1.1642700400
  O        -1.8028803300        8.9577468800        1.1642700400
  O         0.7608198900        4.5172884400        1.1642700400
  O         3.3245201100        0.0768300000        1.1642700400
  O         8.4568493000       11.7183869300        1.1650400200
  O        11.0205495200        7.2779284900        1.1650400200
  O        13.5842497300        2.8374700500        1.1650400200
  O         3.3294493700       11.7183869300        1.1650400200
  O         5.8931495900        7.2779284900        1.1650400200
  O         8.4568498100        2.8374700500        1.1650400200
  O        -1.7979505500       11.7183869300        1.1650400200
  O         0.7657496700        7.2779284900        1.1650400200
  O         3.3294498900        2.8374700500        1.1650400200
  O         6.0627194200       10.3425368500        1.1660399400
  O         8.6264196400        5.9020784100        1.1660399400
  O        11.1901198600        1.4616199700        1.1660399400
  O         0.9353195000       10.3425368500        1.1660399400
  O         3.4990197200        5.9020784100        1.1660399400
  O         6.0627199400        1.4616199700        1.1660399400
  O        -4.1920804200       10.3425368500        1.1660399400
  O        -1.6283802000        5.9020784100        1.1660399400
  O         0.9353200200        1.4616199700        1.1660399400
 Fe         7.6576695000       13.2997167500        1.9292099500
 Fe        10.2213697200        8.8592583200        1.9292099500
 Fe        12.7850699400        4.4187998800        1.9292099500
 Fe         2.5302695800       13.2997167500        1.9292099500
 Fe         5.0939698000        8.8592583200        1.9292099500
 Fe         7.6576700200        4.4187998800        1.9292099500
 Fe        -2.5971303400       13.2997167500        1.9292099500
 Fe        -0.0334301200        8.8592583200        1.9292099500
 Fe         2.5302701000        4.4187998800        1.9292099500
 Fe         7.6573893600       10.3392168700        2.7128999200
 Fe        10.2210895800        5.8987584300        2.7128999200
 Fe        12.7847898000        1.4582999900        2.7128999200
 Fe         2.5299894400       10.3392168700        2.7128999200
 Fe         5.0936896600        5.8987584300        2.7128999200
 Fe         7.6573898800        1.4582999900        2.7128999200
 Fe        -2.5974104800       10.3392168700        2.7128999200
 Fe        -0.0337102600        5.8987584300        2.7128999200
 Fe         2.5299899600        1.4582999900        2.7128999200
  O         4.0924085632       13.3105150941        3.5075779591
  O         6.6604996309        8.8771091416        3.5109256192
  O         9.2101099262        4.4296727566        3.5107743794
  O        -1.0320823968       13.3163722295        3.5140419191
  O         1.5265143965        8.8753228541        3.5128602359
  O         4.0984670161        4.4354435523        3.5150875404
  O        -6.1593720434       13.3154958202        3.5174107265
  O        -3.5946442944        8.8770495988        3.5245361129
  O        -1.0362459073        4.4340943371        3.5120956786
  O         6.8129605190       11.8695814561        3.5005629959
  O         9.3800004914        7.4322717242        3.4992773673
  O        11.9325484969        2.9905017189        3.4945316433
  O         1.6861050279       11.8733001075        3.4881774644
  O         4.2507337126        7.4349129908        3.4910744839
  O         6.8173058070        3.0000707285        3.5049708663
  O        -3.4455155819       11.8695856937        3.4943885453
  O        -0.8780209844        7.4384216111        3.4911006045
  O         1.6843463865        2.9907734857        3.4920723124
  O         9.4245192385       10.2258182781        3.4968016437
  O        11.9902540344        5.7835243935        3.4875187795
  O        14.5544030546        1.3446381705        3.4897943382
  O         4.3023083343       10.2267161331        3.4868901856
  O         6.8715952805        5.7687910769        3.4801054264
  O         9.4262807569        1.3512432478        3.4900250724
  O        -0.8266378802       10.2206522824        3.4846537122
  O         1.7397754652        5.7820184443        3.4757081837
  O         4.3032471237        1.3529534409        3.4883063334
 Fe         5.0386537494       11.8334162907        4.4241576100
 Fe         7.6016825730        7.3937516890        4.4078814533
 Fe        10.1552217997        2.9591832126        4.4230904928
 Fe        -0.0923480317       11.8258477713        4.4147961493
 Fe         2.4688876639        7.3954198541        4.4162063406
 Fe         5.0398666889        2.9651961909        4.4250408197
 Fe        -5.2199457765       11.8361822480        4.4202798045
 Fe        -2.6505709442        7.3928994323        4.4191792776
 Fe        -0.0907110380        2.9544509652        4.4206717694
 Fe         7.6091900716       13.1843427664        4.8229556154
 Fe        10.1740874312        8.7454307258        4.8244253200
 Fe        12.7377295565        4.3031873359        4.8047825432
 Fe         2.4871896944       13.1814787215        4.8002461262
 Fe         5.0485909956        8.7448595681        4.8063735672
 Fe         7.6020794439        4.3060993586        4.8411940504
 Fe        -2.6478196805       13.1875121234        4.7976087840
 Fe        -0.0822546888        8.7440959618        4.8283441224
 Fe         2.4787299482        4.3024682136        4.8029990887
  O         5.8555939464       10.3425758134        5.8716265608
  O         8.4282491700        5.9185460372        5.8733303383
  O        10.9786419639        1.4614516569        5.8688969669
  O         0.7286088809       10.3496298264        5.8766732843
  O         3.2729035436        5.9121993842        5.8312268244
  O         5.8596439834        1.4693212059        5.8775527745
  O        -4.3977750810       10.3487004567        5.8763551146
  O        -1.8325661610        5.9076297650        5.8630147727
  O         0.7289180883        1.4688102675        5.8731663459
  O         5.9256908956       13.1755340583        5.6910227613
  O         8.4900676503        8.7323040557        5.6896691901
  O        11.0525863267        4.2968042951        5.6863572509
  O         0.7963382799       13.1632843650        5.6658480594
  O         3.3656725709        8.7345705270        5.6787674272
  O         5.9359348892        4.3151269199        5.7463588786
  O        -4.3265047533       13.1723501861        5.6824911415
  O        -1.7720833517        8.7368383370        5.6880611809
  O         0.7990923806        4.2901461140        5.6890200560
  O         3.4651397542       11.7726078729        5.6671559722
  O         6.0455893945        7.3304210528        5.6499548886
  O         8.5846561343        2.8921673959        5.7091012346
  O        -1.6634506706       11.7791624427        5.6626016816
  O         0.8984191740        7.3342405794        5.6731756701
  O         3.4728547355        2.8914570708        5.6654268738
  O        -6.7881267035       11.7703196234        5.6699307005
  O        -4.2243645657        7.3332195107        5.6768049018
  O        -1.6601777864        2.8898039555        5.6665836766
 Fe         7.7811483591       10.2703615778        6.4342981718
 Fe        10.3477708509        5.8270769909        6.4373467518
 Fe        12.9058077632        1.3918494490        6.4332693460
 Fe         2.6584157368       10.2679617541        6.4339416926
 Fe         5.1850644512        5.8651903679        6.4387194811
 Fe         7.7845770356        1.3627891698        6.4292878115
 Fe        -2.4712184858       10.2787856870        6.4341850886
 Fe         0.0920647421        5.8258846746        6.4370102078
 Fe         2.6594825298        1.3884984259        6.4324513780
  O         7.8289523791       10.3893207743        8.2613701600
  H         7.8423902276        9.5720029716        8.7914848683
  H         5.3537930532       10.6115473176        6.6741646204
  O        10.3844176635        5.8628180323        8.2763806298
  H        10.7358999124        5.0848271952        8.7454705385
  H         7.9151433687        6.2573062117        6.6404146327
  O        12.9367674581        1.5288196584        8.2608184758
  H        12.9913263196        0.7124869109        8.7897651890
  H        10.4721807252        1.7193786000        6.6715511589
  O         2.7070168728       10.3823954201        8.2610742403
  H         2.8026082595        9.5572867645        8.7716232195
  H         0.2254774566       10.6164928108        6.6787821737
  O         4.9302874966        6.3022773040        8.1810255720
  H         4.8699791118        5.7411096891        8.9774373675
  H         2.8062599699        6.1916460271        6.6523387080
  O         7.9153357305        1.2407956936        8.2642814130
  H         7.9956274915        0.3438953963        8.6387267880
  H         5.3427050502        1.7338636149        6.6714557694
  O        -2.3854836229       10.3998948156        8.2605969213
  H        -2.3376828734        9.5806936661        8.7860717071
  H        -4.9040988428       10.6300035259        6.6715519039
  O         0.0942316722        5.9443587158        8.2620973500
  H         0.2125329226        5.1408831277        8.7996387394
  H        -2.3354715626        6.1855664097        6.6607839816
  O         2.7065952396        1.5069317212        8.2559937493
  H         2.7681797508        0.6954670611        8.7911399284
  H         0.2267721452        1.7483923989        6.6717585436
  C         7.4347487350        4.0593627110        9.2528526215
  C         6.3604699524        4.3905535525       10.1620410030
  H         7.6004200273        2.9681527581        9.2143095101
  H         7.1571052919        4.3799282684        8.2356336480
  H         8.3657958303        4.5731986350        9.5311131189
  N         5.4754661552        4.6653017540       10.8747070682
     168
 i =       45, E =     -8144.3743720940
 Fe         5.0938794100       11.8196869300        0.3885799900
 Fe         7.6575796300        7.3792284900        0.3885799900
 Fe        10.2212798400        2.9387700600        0.3885799900
 Fe        -0.0335205200       11.8196869300        0.3885799900
 Fe         2.5301797000        7.3792284900        0.3885799900
 Fe         5.0938799200        2.9387700600        0.3885799900
 Fe        -5.1609204400       11.8196869300        0.3885799900
 Fe        -2.5972202200        7.3792284900        0.3885799900
 Fe        -0.0335200000        2.9387700600        0.3885799900
  O         8.4519195100        8.9577468800        1.1642700400
  O        11.0156197300        4.5172884400        1.1642700400
  O        13.5793199500        0.0768300000        1.1642700400
  O         3.3245195900        8.9577468800        1.1642700400
  O         5.8882198100        4.5172884400        1.1642700400
  O         8.4519200300        0.0768300000        1.1642700400
  O        -1.8028803300        8.9577468800        1.1642700400
  O         0.7608198900        4.5172884400        1.1642700400
  O         3.3245201100        0.0768300000        1.1642700400
  O         8.4568493000       11.7183869300        1.1650400200
  O        11.0205495200        7.2779284900        1.1650400200
  O        13.5842497300        2.8374700500        1.1650400200
  O         3.3294493700       11.7183869300        1.1650400200
  O         5.8931495900        7.2779284900        1.1650400200
  O         8.4568498100        2.8374700500        1.1650400200
  O        -1.7979505500       11.7183869300        1.1650400200
  O         0.7657496700        7.2779284900        1.1650400200
  O         3.3294498900        2.8374700500        1.1650400200
  O         6.0627194200       10.3425368500        1.1660399400
  O         8.6264196400        5.9020784100        1.1660399400
  O        11.1901198600        1.4616199700        1.1660399400
  O         0.9353195000       10.3425368500        1.1660399400
  O         3.4990197200        5.9020784100        1.1660399400
  O         6.0627199400        1.4616199700        1.1660399400
  O        -4.1920804200       10.3425368500        1.1660399400
  O        -1.6283802000        5.9020784100        1.1660399400
  O         0.9353200200        1.4616199700        1.1660399400
 Fe         7.6576695000       13.2997167500        1.9292099500
 Fe        10.2213697200        8.8592583200        1.9292099500
 Fe        12.7850699400        4.4187998800        1.9292099500
 Fe         2.5302695800       13.2997167500        1.9292099500
 Fe         5.0939698000        8.8592583200        1.9292099500
 Fe         7.6576700200        4.4187998800        1.9292099500
 Fe        -2.5971303400       13.2997167500        1.9292099500
 Fe        -0.0334301200        8.8592583200        1.9292099500
 Fe         2.5302701000        4.4187998800        1.9292099500
 Fe         7.6573893600       10.3392168700        2.7128999200
 Fe        10.2210895800        5.8987584300        2.7128999200
 Fe        12.7847898000        1.4582999900        2.7128999200
 Fe         2.5299894400       10.3392168700        2.7128999200
 Fe         5.0936896600        5.8987584300        2.7128999200
 Fe         7.6573898800        1.4582999900        2.7128999200
 Fe        -2.5974104800       10.3392168700        2.7128999200
 Fe        -0.0337102600        5.8987584300        2.7128999200
 Fe         2.5299899600        1.4582999900        2.7128999200
  O         4.0943678185       13.3199353538        3.5189920084
  O         6.6613647187        8.8768735827        3.5172053716
  O         9.2118431363        4.4345536214        3.5204731892
  O        -1.0392021275       13.3140786650        3.5083516838
  O         1.5272040971        8.8746873606        3.5137696007
  O         4.1028161396        4.4357181163        3.5228878848
  O        -6.1663094296       13.3158530651        3.5123108539
  O        -3.6025978509        8.8743731208        3.5094969388
  O        -1.0358183758        4.4319569865        3.5114504722
  O         6.8180067787       11.8769305750        3.4981339470
  O         9.3818833680        7.4365360033        3.4922804628
  O        11.9370462759        2.9893159911        3.4981744240
  O         1.6845714037       11.8715668507        3.4928166335
  O         4.2506809240        7.4290595719        3.4994848249
  O         6.8185485755        2.9956946383        3.5135510175
  O        -3.4401429789       11.8782165346        3.4928725648
  O        -0.8767121911        7.4307287376        3.5011666110
  O         1.6858281002        2.9876250661        3.5005293537
  O         9.4309751589       10.2214101582        3.4852504041
  O        11.9899643935        5.7844114266        3.4886169518
  O        14.5560120583        1.3386197333        3.4860118709
  O         4.2994805327       10.2261135355        3.4918434057
  O         6.8698856148        5.7711188151        3.4839493243
  O         9.4210236496        1.3489744780        3.4966680526
  O        -0.8279444373       10.2244146069        3.4905343665
  O         1.7315262484        5.7818291301        3.4888250485
  O         4.3037834337        1.3423324010        3.4879148779
 Fe         5.0407088205       11.8342579055        4.4168946325
 Fe         7.6064890726        7.3942474702        4.4117886275
 Fe        10.1560706972        2.9573570543        4.4188060433
 Fe        -0.0935903526       11.8301732681        4.4169156178
 Fe         2.4693876842        7.3964557944        4.4187270280
 Fe         5.0374919855        2.9584633966        4.4230748256
 Fe        -5.2199627539       11.8360132019        4.4146568963
 Fe        -2.6543039993        7.3992385685        4.4170056408
 Fe        -0.0932602892        2.9498592623        4.4179779018
 Fe         7.6102568580       13.1855427465        4.8294460200
 Fe        10.1761641427        8.7440088587        4.8241670182
 Fe        12.7357716918        4.3057347374        4.8037270795
 Fe         2.4874928027       13.1815582401        4.8055945800
 Fe         5.0462006495        8.7445002125        4.8154654151
 Fe         7.6008751803        4.3058787393        4.8445751765
 Fe        -2.6451745783       13.1865411023        4.8163885800
 Fe        -0.0811209013        8.7428114819        4.8304969561
 Fe         2.4784023575        4.3025341340        4.8125434536
  O         5.8561725608       10.3485270594        5.8735102684
  O         8.4286140881        5.9173773803        5.8768946482
  O        10.9792700206        1.4657500724        5.8698872834
  O         0.7271080874       10.3462650251        5.8775317485
  O         3.2709375945        5.9140708235        5.8328707133
  O         5.8619995799        1.4729945984        5.8834800771
  O        -4.3990170074       10.3483944969        5.8797700298
  O        -1.8354114296        5.9083335583        5.8637999268
  O         0.7277461679        1.4695555827        5.8759589270
  O         5.9234257424       13.1738985415        5.6948732086
  O         8.4928492428        8.7280933138        5.6972930879
  O        11.0514850461        4.2899715447        5.6878006966
  O         0.7989999225       13.1640495970        5.6686740638
  O         3.3607708458        8.7348512195        5.6844634409
  O         5.9312671084        4.3138402249        5.7454665999
  O        -4.3312004800       13.1756503431        5.6865845415
  O        -1.7686417354        8.7341398932        5.6926258995
  O         0.7945827419        4.2909165364        5.6851111791
  O         3.4695781890       11.7742251901        5.6682714609
  O         6.0497632692        7.3291412334        5.6525947257
  O         8.5901906472        2.8932708802        5.7105962557
  O        -1.6569723010       11.7763500209        5.6718452286
  O         0.9013140634        7.3330020815        5.6752470582
  O         3.4731797534        2.8955213050        5.6699187911
  O        -6.7836200837       11.7741491765        5.6783003062
  O        -4.2221456404        7.3301208808        5.6793881110
  O        -1.6639297582        2.8956688920        5.6672511000
 Fe         7.7827279104       10.2692636520        6.4359141310
 Fe        10.3494870421        5.8246128056        6.4376198158
 Fe        12.9073582266        1.3945001999        6.4345138242
 Fe         2.6576609683       10.2707908166        6.4350496472
 Fe         5.1846776087        5.8668107774        6.4384701098
 Fe         7.7866871942        1.3638724039        6.4292798964
 Fe        -2.4712960756       10.2756193513        6.4354089854
 Fe         0.0913666019        5.8269806306        6.4358825466
 Fe         2.6559919040        1.3931794169        6.4344542992
  O         7.8309090909       10.3893183888        8.2632404680
  H         7.8437894648        9.5716228215        8.7923307821
  H         5.3504234032       10.6066333198        6.6769319624
  O        10.3823398612        5.8679246270        8.2772766105
  H        10.7299494314        5.0871988450        8.7449082764
  H         7.9128272083        6.2575019309        6.6409265946
  O        12.9369712805        1.5272285938        8.2625205124
  H        12.9923538771        0.7099494345        8.7902677543
  H        10.4734789800        1.7164778790        6.6754400900
  O         2.7051414810       10.3813261359        8.2620544345
  H         2.8020647359        9.5565396241        8.7726015611
  H         0.2249214811       10.6152958894        6.6797438082
  O         4.9336009876        6.3037882193        8.1819738657
  H         4.8715405919        5.7433747844        8.9792302743
  H         2.8099861587        6.1951131762        6.6564372499
  O         7.9142579899        1.2399707674        8.2643785117
  H         7.9936946690        0.3423402559        8.6371957521
  H         5.3411531656        1.7318289002        6.6768682328
  O        -2.3873657229       10.3997135329        8.2613051418
  H        -2.3391682505        9.5799344259        8.7853594246
  H        -4.9057860481       10.6270402597        6.6756454806
  O         0.0954543146        5.9459496743        8.2619015557
  H         0.2127655775        5.1410477783        8.7980707444
  H        -2.3363496214        6.1862079502        6.6633375230
  O         2.7067693710        1.5056914372        8.2584850584
  H         2.7682632671        0.6933611577        8.7925843414
  H         0.2284730157        1.7475677725        6.6767270296
  C         7.4296114429        4.0556701728        9.2506927813
  C         6.3598318967        4.3918153804       10.1630361389
  H         7.5896209277        2.9633554574        9.2079798801
  H         7.1593656381        4.3851252182        8.2357106794
  H         8.3638688249        4.5602752942        9.5351585903
  N         5.4732417520        4.6687163274       10.8739520311
     168
 i =       46, E =     -8144.3749715265
 Fe         5.0938794100       11.8196869300        0.3885799900
 Fe         7.6575796300        7.3792284900        0.3885799900
 Fe        10.2212798400        2.9387700600        0.3885799900
 Fe        -0.0335205200       11.8196869300        0.3885799900
 Fe         2.5301797000        7.3792284900        0.3885799900
 Fe         5.0938799200        2.9387700600        0.3885799900
 Fe        -5.1609204400       11.8196869300        0.3885799900
 Fe        -2.5972202200        7.3792284900        0.3885799900
 Fe        -0.0335200000        2.9387700600        0.3885799900
  O         8.4519195100        8.9577468800        1.1642700400
  O        11.0156197300        4.5172884400        1.1642700400
  O        13.5793199500        0.0768300000        1.1642700400
  O         3.3245195900        8.9577468800        1.1642700400
  O         5.8882198100        4.5172884400        1.1642700400
  O         8.4519200300        0.0768300000        1.1642700400
  O        -1.8028803300        8.9577468800        1.1642700400
  O         0.7608198900        4.5172884400        1.1642700400
  O         3.3245201100        0.0768300000        1.1642700400
  O         8.4568493000       11.7183869300        1.1650400200
  O        11.0205495200        7.2779284900        1.1650400200
  O        13.5842497300        2.8374700500        1.1650400200
  O         3.3294493700       11.7183869300        1.1650400200
  O         5.8931495900        7.2779284900        1.1650400200
  O         8.4568498100        2.8374700500        1.1650400200
  O        -1.7979505500       11.7183869300        1.1650400200
  O         0.7657496700        7.2779284900        1.1650400200
  O         3.3294498900        2.8374700500        1.1650400200
  O         6.0627194200       10.3425368500        1.1660399400
  O         8.6264196400        5.9020784100        1.1660399400
  O        11.1901198600        1.4616199700        1.1660399400
  O         0.9353195000       10.3425368500        1.1660399400
  O         3.4990197200        5.9020784100        1.1660399400
  O         6.0627199400        1.4616199700        1.1660399400
  O        -4.1920804200       10.3425368500        1.1660399400
  O        -1.6283802000        5.9020784100        1.1660399400
  O         0.9353200200        1.4616199700        1.1660399400
 Fe         7.6576695000       13.2997167500        1.9292099500
 Fe        10.2213697200        8.8592583200        1.9292099500
 Fe        12.7850699400        4.4187998800        1.9292099500
 Fe         2.5302695800       13.2997167500        1.9292099500
 Fe         5.0939698000        8.8592583200        1.9292099500
 Fe         7.6576700200        4.4187998800        1.9292099500
 Fe        -2.5971303400       13.2997167500        1.9292099500
 Fe        -0.0334301200        8.8592583200        1.9292099500
 Fe         2.5302701000        4.4187998800        1.9292099500
 Fe         7.6573893600       10.3392168700        2.7128999200
 Fe        10.2210895800        5.8987584300        2.7128999200
 Fe        12.7847898000        1.4582999900        2.7128999200
 Fe         2.5299894400       10.3392168700        2.7128999200
 Fe         5.0936896600        5.8987584300        2.7128999200
 Fe         7.6573898800        1.4582999900        2.7128999200
 Fe        -2.5974104800       10.3392168700        2.7128999200
 Fe        -0.0337102600        5.8987584300        2.7128999200
 Fe         2.5299899600        1.4582999900        2.7128999200
  O         4.0933231943       13.3155407272        3.5136586296
  O         6.6608980373        8.8763055808        3.5134138133
  O         9.2118224809        4.4315906480        3.5168695058
  O        -1.0355074164       13.3157570616        3.5121166067
  O         1.5260649165        8.8741983961        3.5105329495
  O         4.1010110131        4.4354867457        3.5193406694
  O        -6.1628924420       13.3152302533        3.5135916193
  O        -3.5986766070        8.8759809245        3.5166663852
  O        -1.0356592411        4.4334077186        3.5124983466
  O         6.8149339524       11.8734136452        3.4982092707
  O         9.3803768154        7.4339401207        3.4958091453
  O        11.9346750697        2.9893517345        3.4973556408
  O         1.6858484021       11.8725425633        3.4908584303
  O         4.2504440693        7.4324292074        3.4942083748
  O         6.8182944329        2.9977973355        3.5102236022
  O        -3.4427617587       11.8738497461        3.4940497001
  O        -0.8777613769        7.4353941286        3.4939076189
  O         1.6852362624        2.9893581951        3.4962759033
  O         9.4277347395       10.2237422136        3.4908473798
  O        11.9898740666        5.7842475236        3.4890456810
  O        14.5551707922        1.3416760057        3.4874173466
  O         4.3009691826       10.2266277241        3.4887593478
  O         6.8701762114        5.7702188423        3.4826918287
  O         9.4236088514        1.3502251309        3.4933725724
  O        -0.8261561567       10.2224402491        3.4853857698
  O         1.7352358142        5.7817669151        3.4826927076
  O         4.3031590309        1.3474183581        3.4888134946
 Fe         5.0396278400       11.8340111556        4.4203835595
 Fe         7.6039280568        7.3936360697        4.4107536237
 Fe        10.1559195077        2.9575891637        4.4222261441
 Fe        -0.0927711686       11.8278460718        4.4156771459
 Fe         2.4687271315        7.3963101917        4.4169025214
 Fe         5.0389906363        2.9615555211        4.4245500687
 Fe        -5.2200144929       11.8362063592        4.4179460802
 Fe        -2.6524693677        7.3966338625        4.4182499747
 Fe        -0.0918930984        2.9522164350        4.4192794312
 Fe         7.6095180357       13.1850558668        4.8231480399
 Fe        10.1751211037        8.7444414311        4.8228768799
 Fe        12.7368779178        4.3041709620        4.8049015149
 Fe         2.4872960812       13.1818778409        4.8032896127
 Fe         5.0469609237        8.7450124863        4.8092228664
 Fe         7.6014905113        4.3064507473        4.8439622962
 Fe        -2.6463478867       13.1868699687        4.8075072560
 Fe        -0.0816143275        8.7435396560        4.8256050900
 Fe         2.4785283793        4.3026625765        4.8074532676
  O         5.8559695512       10.3459673542        5.8716563867
  O         8.4285377359        5.9180791196        5.8756131307
  O        10.9790568744        1.4635022566        5.8694249939
  O         0.7276812365       10.3474149536        5.8762446768
  O         3.2717509438        5.9136024091        5.8311826813
  O         5.8610437725        1.4713025550        5.8803645501
  O        -4.3982616002       10.3488709099        5.8774084792
  O        -1.8340768755        5.9082529087        5.8632289166
  O         0.7283069727        1.4688758244        5.8732205335
  O         5.9249089592       13.1751310265        5.6921587940
  O         8.4911701221        8.7305113608        5.6929267461
  O        11.0523317939        4.2932509968        5.6875240897
  O         0.7975802781       13.1634440818        5.6673253593
  O         3.3625579909        8.7349987398        5.6804081999
  O         5.9333713820        4.3146070998        5.7465411619
  O        -4.3294267818       13.1746925114        5.6842336188
  O        -1.7692172625        8.7355679988        5.6895586935
  O         0.7968500773        4.2906123565        5.6870033038
  O         3.4673398757       11.7730980573        5.6672101947
  O         6.0468579024        7.3303070508        5.6510084302
  O         8.5871275704        2.8927853901        5.7100593668
  O        -1.6597729612       11.7768814974        5.6667519713
  O         0.8992035385        7.3340944256        5.6730952929
  O         3.4730465155        2.8935341385        5.6672912190
  O        -6.7864775249       11.7725623306        5.6731289598
  O        -4.2232255159        7.3315955828        5.6780398603
  O        -1.6616237558        2.8923203349        5.6668503906
 Fe         7.7819746956       10.2700824279        6.4350303181
 Fe        10.3486498660        5.8259719964        6.4374069494
 Fe        12.9064764647        1.3930122981        6.4339406151
 Fe         2.6578702330       10.2692930727        6.4346634932
 Fe         5.1845377934        5.8664463034        6.4386476117
 Fe         7.7856403671        1.3631405122        6.4294493184
 Fe        -2.4712362014       10.2766282234        6.4346535283
 Fe         0.0919467342        5.8267864806        6.4361687348
 Fe         2.6571418155        1.3913451498        6.4335048091
  O         7.8294475557       10.3898782924        8.2621335065
  H         7.8422986025        9.5723702464        8.7916620833
  H         5.3522125131       10.6092791270        6.6747249029
  O        10.3846694207        5.8638166530        8.2767310968
  H        10.7366594187        5.0846272949        8.7435513244
  H         7.9139260923        6.2577387739        6.6407742976
  O        12.9366217050        1.5285819577        8.2615215275
  H        12.9912632426        0.7122813993        8.7906457800
  H        10.4729174196        1.7182376118        6.6733396620
  O         2.7064771332       10.3819833606        8.2615574121
  H         2.8028920298        9.5570305475        8.7720153262
  H         0.2250229558       10.6152639236        6.6785336444
  O         4.9303765769        6.3021488686        8.1816913642
  H         4.8696025882        5.7404986072        8.9779587369
  H         2.8080673820        6.1925529658        6.6540105479
  O         7.9151867092        1.2413015702        8.2644301842
  H         7.9957584391        0.3442335322        8.6383482161
  H         5.3414205916        1.7331122956        6.6734877177
  O        -2.3853869877       10.4004043277        8.2606009449
  H        -2.3373248881        9.5810347940        8.7854918408
  H        -4.9055561164       10.6285491423        6.6725113589
  O         0.0939237878        5.9451228365        8.2617662800
  H         0.2125745027        5.1411049407        8.7987312317
  H        -2.3355729876        6.1861498177        6.6622039205
  O         2.7068965283        1.5068487401        8.2570740332
  H         2.7683489259        0.6952056046        8.7920646955
  H         0.2275660577        1.7470721498        6.6730368682
  C         7.4348759805        4.0596824325        9.2518882939
  C         6.3620254303        4.3904538237       10.1628115252
  H         7.6026841678        2.9685227293        9.2145091470
  H         7.1575916941        4.3795960334        8.2350026810
  H         8.3652692120        4.5748614909        9.5302332654
  N         5.4758753470        4.6639640445       10.8750817011
     168
 i =       47, E =     -8144.3748034294
 Fe         5.0938794100       11.8196869300        0.3885799900
 Fe         7.6575796300        7.3792284900        0.3885799900
 Fe        10.2212798400        2.9387700600        0.3885799900
 Fe        -0.0335205200       11.8196869300        0.3885799900
 Fe         2.5301797000        7.3792284900        0.3885799900
 Fe         5.0938799200        2.9387700600        0.3885799900
 Fe        -5.1609204400       11.8196869300        0.3885799900
 Fe        -2.5972202200        7.3792284900        0.3885799900
 Fe        -0.0335200000        2.9387700600        0.3885799900
  O         8.4519195100        8.9577468800        1.1642700400
  O        11.0156197300        4.5172884400        1.1642700400
  O        13.5793199500        0.0768300000        1.1642700400
  O         3.3245195900        8.9577468800        1.1642700400
  O         5.8882198100        4.5172884400        1.1642700400
  O         8.4519200300        0.0768300000        1.1642700400
  O        -1.8028803300        8.9577468800        1.1642700400
  O         0.7608198900        4.5172884400        1.1642700400
  O         3.3245201100        0.0768300000        1.1642700400
  O         8.4568493000       11.7183869300        1.1650400200
  O        11.0205495200        7.2779284900        1.1650400200
  O        13.5842497300        2.8374700500        1.1650400200
  O         3.3294493700       11.7183869300        1.1650400200
  O         5.8931495900        7.2779284900        1.1650400200
  O         8.4568498100        2.8374700500        1.1650400200
  O        -1.7979505500       11.7183869300        1.1650400200
  O         0.7657496700        7.2779284900        1.1650400200
  O         3.3294498900        2.8374700500        1.1650400200
  O         6.0627194200       10.3425368500        1.1660399400
  O         8.6264196400        5.9020784100        1.1660399400
  O        11.1901198600        1.4616199700        1.1660399400
  O         0.9353195000       10.3425368500        1.1660399400
  O         3.4990197200        5.9020784100        1.1660399400
  O         6.0627199400        1.4616199700        1.1660399400
  O        -4.1920804200       10.3425368500        1.1660399400
  O        -1.6283802000        5.9020784100        1.1660399400
  O         0.9353200200        1.4616199700        1.1660399400
 Fe         7.6576695000       13.2997167500        1.9292099500
 Fe        10.2213697200        8.8592583200        1.9292099500
 Fe        12.7850699400        4.4187998800        1.9292099500
 Fe         2.5302695800       13.2997167500        1.9292099500
 Fe         5.0939698000        8.8592583200        1.9292099500
 Fe         7.6576700200        4.4187998800        1.9292099500
 Fe        -2.5971303400       13.2997167500        1.9292099500
 Fe        -0.0334301200        8.8592583200        1.9292099500
 Fe         2.5302701000        4.4187998800        1.9292099500
 Fe         7.6573893600       10.3392168700        2.7128999200
 Fe        10.2210895800        5.8987584300        2.7128999200
 Fe        12.7847898000        1.4582999900        2.7128999200
 Fe         2.5299894400       10.3392168700        2.7128999200
 Fe         5.0936896600        5.8987584300        2.7128999200
 Fe         7.6573898800        1.4582999900        2.7128999200
 Fe        -2.5974104800       10.3392168700        2.7128999200
 Fe        -0.0337102600        5.8987584300        2.7128999200
 Fe         2.5299899600        1.4582999900        2.7128999200
  O         4.0910801625       13.3119867334        3.5075770689
  O         6.6599868524        8.8764215085        3.5093668722
  O         9.2098489684        4.4299690288        3.5117321457
  O        -1.0338502415       13.3153414314        3.5103896695
  O         1.5278030796        8.8751822929        3.5118916625
  O         4.0982463514        4.4346315553        3.5131367858
  O        -6.1597300009       13.3143083885        3.5140782152
  O        -3.5974885555        8.8742142461        3.5152139102
  O        -1.0367849133        4.4336620653        3.5111938582
  O         6.8122870836       11.8701766014        3.4980281668
  O         9.3786449970        7.4356261326        3.4913529834
  O        11.9340027562        2.9907586124        3.4953174658
  O         1.6864177884       11.8745538186        3.4875285856
  O         4.2493121777        7.4354795905        3.4885666415
  O         6.8177335245        3.0004552194        3.5055660042
  O        -3.4449776554       11.8721135154        3.4905367521
  O        -0.8799946760        7.4370194234        3.4896155494
  O         1.6847151636        2.9926885369        3.4889625995
  O         9.4280673224       10.2239414490        3.4885725283
  O        11.9904881830        5.7836380461        3.4872099082
  O        14.5546281100        1.3448505029        3.4881347686
  O         4.3026496531       10.2266471301        3.4851180861
  O         6.8717400045        5.7689234811        3.4797578917
  O         9.4259306398        1.3496790865        3.4895149051
  O        -0.8268411564       10.2227363447        3.4843267882
  O         1.7397918906        5.7815406307        3.4745484452
  O         4.3045728087        1.3507613355        3.4852560043
 Fe         5.0380338825       11.8341593815        4.4219293577
 Fe         7.6023824737        7.3936156999        4.4077092067
 Fe        10.1553925833        2.9582333119        4.4201001964
 Fe        -0.0918101907       11.8275623473        4.4152334825
 Fe         2.4683924202        7.3949154922        4.4169268132
 Fe         5.0397297501        2.9641175835        4.4239958799
 Fe        -5.2196791868       11.8349053120        4.4189523228
 Fe        -2.6530253451        7.3941790411        4.4187971011
 Fe        -0.0899068713        2.9548984520        4.4192794181
 Fe         7.6088997198       13.1849739770        4.8148924298
 Fe        10.1740356202        8.7455212647        4.8140941126
 Fe        12.7371460759        4.3040666119        4.8051407210
 Fe         2.4872297412       13.1820386310        4.8009817243
 Fe         5.0478175766        8.7450353292        4.8016314588
 Fe         7.6018107834        4.3064375430        4.8428996945
 Fe        -2.6476243966       13.1870644859        4.7955531441
 Fe        -0.0826334190        8.7442195867        4.8186702703
 Fe         2.4787538776        4.3027556617        4.7996344862
  O         5.8557006133       10.3441024797        5.8691671082
  O         8.4288061784        5.9189538116        5.8744111837
  O        10.9787564735        1.4626817436        5.8684470407
  O         0.7281838818       10.3478448361        5.8739648855
  O         3.2722794066        5.9121646539        5.8289338438
  O         5.8596882170        1.4691108203        5.8768355629
  O        -4.3979722911       10.3481091799        5.8745009773
  O        -1.8325742211        5.9082813498        5.8622817573
  O         0.7289483571        1.4679556281        5.8695421553
  O         5.9262910550       13.1762593136        5.6884878522
  O         8.4915475552        8.7330563174        5.6876348781
  O        11.0518699939        4.2945392939        5.6866331299
  O         0.7968307879       13.1635603267        5.6664474214
  O         3.3642758575        8.7358988668        5.6755737579
  O         5.9349209666        4.3152131817        5.7471470555
  O        -4.3276599179       13.1736682728        5.6805267672
  O        -1.7704097897        8.7368446670        5.6848203388
  O         0.7994305001        4.2910663495        5.6872328330
  O         3.4657017585       11.7720048348        5.6659174767
  O         6.0449449675        7.3311967843        5.6488341783
  O         8.5859039675        2.8920600772        5.7085692688
  O        -1.6633072615       11.7774666164        5.6608813780
  O         0.8962337422        7.3352683237        5.6698150952
  O         3.4726332659        2.8919534359        5.6638240121
  O        -6.7891578275       11.7707909282        5.6666375297
  O        -4.2264419086        7.3345860354        5.6753643784
  O        -1.6599703594        2.8896510460        5.6646914616
 Fe         7.7815194072       10.2705737974        6.4339940841
 Fe        10.3492393453        5.8271362566        6.4368886955
 Fe        12.9063386225        1.3917765100        6.4332182901
 Fe         2.6578277791       10.2681061038        6.4339814117
 Fe         5.1840972064        5.8664649074        6.4381523807
 Fe         7.7845924659        1.3629492823        6.4295851444
 Fe        -2.4709626789       10.2772576851        6.4339197561
 Fe         0.0926314587        5.8267589410        6.4357325590
 Fe         2.6581845247        1.3895996693        6.4318862925
  O         7.8276745187       10.3908661066        8.2610292567
  H         7.8402045798        9.5734892113        8.7909194293
  H         5.3536257366       10.6117116207        6.6720231521
  O        10.3876633951        5.8587214878        8.2762118314
  H        10.7460360601        5.0810901058        8.7409945673
  H         7.9147674401        6.2579845381        6.6406361124
  O        12.9359184945        1.5303248608        8.2605915988
  H        12.9897771496        0.7152714731        8.7916061111
  H        10.4723969965        1.7198774392        6.6714918561
  O         2.7080839044       10.3824498350        8.2607819848
  H         2.8041192455        9.5575983507        8.7715610829
  H         0.2250807480       10.6147116963        6.6763029571
  O         4.9263203983        6.2996370864        8.1812795214
  H         4.8668374807        5.7364740236        8.9764840889
  H         2.8062671130        6.1897157296        6.6509092769
  O         7.9164713759        1.2432991731        8.2645303311
  H         7.9985974878        0.3469167399        8.6398444508
  H         5.3415584070        1.7347335922        6.6697536235
  O        -2.3827871336       10.4015067155        8.2598148134
  H        -2.3346345122        9.5825947937        8.7855504056
  H        -4.9053164329       10.6300780804        6.6689175051
  O         0.0918880213        5.9441828814        8.2610321279
  H         0.2122867146        5.1413932177        8.7992892815
  H        -2.3346196894        6.1861427634        6.6606777490
  O         2.7070859596        1.5083004394        8.2552218071
  H         2.7685497254        0.6976748573        8.7917123796
  H         0.2266538628        1.7461772577        6.6684006419
  C         7.4405433112        4.0653787340        9.2518134713
  C         6.3678882345        4.3884420569       10.1658041399
  H         7.6217714488        2.9756890668        9.2234323364
  H         7.1565686567        4.3721193530        8.2323193091
  H         8.3652415434        4.5950316646        9.5234335780
  N         5.4789637883        4.6571408284       10.8759818956
     168
 i =       48, E =     -8144.3752152998
 Fe         5.0938794100       11.8196869300        0.3885799900
 Fe         7.6575796300        7.3792284900        0.3885799900
 Fe        10.2212798400        2.9387700600        0.3885799900
 Fe        -0.0335205200       11.8196869300        0.3885799900
 Fe         2.5301797000        7.3792284900        0.3885799900
 Fe         5.0938799200        2.9387700600        0.3885799900
 Fe        -5.1609204400       11.8196869300        0.3885799900
 Fe        -2.5972202200        7.3792284900        0.3885799900
 Fe        -0.0335200000        2.9387700600        0.3885799900
  O         8.4519195100        8.9577468800        1.1642700400
  O        11.0156197300        4.5172884400        1.1642700400
  O        13.5793199500        0.0768300000        1.1642700400
  O         3.3245195900        8.9577468800        1.1642700400
  O         5.8882198100        4.5172884400        1.1642700400
  O         8.4519200300        0.0768300000        1.1642700400
  O        -1.8028803300        8.9577468800        1.1642700400
  O         0.7608198900        4.5172884400        1.1642700400
  O         3.3245201100        0.0768300000        1.1642700400
  O         8.4568493000       11.7183869300        1.1650400200
  O        11.0205495200        7.2779284900        1.1650400200
  O        13.5842497300        2.8374700500        1.1650400200
  O         3.3294493700       11.7183869300        1.1650400200
  O         5.8931495900        7.2779284900        1.1650400200
  O         8.4568498100        2.8374700500        1.1650400200
  O        -1.7979505500       11.7183869300        1.1650400200
  O         0.7657496700        7.2779284900        1.1650400200
  O         3.3294498900        2.8374700500        1.1650400200
  O         6.0627194200       10.3425368500        1.1660399400
  O         8.6264196400        5.9020784100        1.1660399400
  O        11.1901198600        1.4616199700        1.1660399400
  O         0.9353195000       10.3425368500        1.1660399400
  O         3.4990197200        5.9020784100        1.1660399400
  O         6.0627199400        1.4616199700        1.1660399400
  O        -4.1920804200       10.3425368500        1.1660399400
  O        -1.6283802000        5.9020784100        1.1660399400
  O         0.9353200200        1.4616199700        1.1660399400
 Fe         7.6576695000       13.2997167500        1.9292099500
 Fe        10.2213697200        8.8592583200        1.9292099500
 Fe        12.7850699400        4.4187998800        1.9292099500
 Fe         2.5302695800       13.2997167500        1.9292099500
 Fe         5.0939698000        8.8592583200        1.9292099500
 Fe         7.6576700200        4.4187998800        1.9292099500
 Fe        -2.5971303400       13.2997167500        1.9292099500
 Fe        -0.0334301200        8.8592583200        1.9292099500
 Fe         2.5302701000        4.4187998800        1.9292099500
 Fe         7.6573893600       10.3392168700        2.7128999200
 Fe        10.2210895800        5.8987584300        2.7128999200
 Fe        12.7847898000        1.4582999900        2.7128999200
 Fe         2.5299894400       10.3392168700        2.7128999200
 Fe         5.0936896600        5.8987584300        2.7128999200
 Fe         7.6573898800        1.4582999900        2.7128999200
 Fe        -2.5974104800       10.3392168700        2.7128999200
 Fe        -0.0337102600        5.8987584300        2.7128999200
 Fe         2.5299899600        1.4582999900        2.7128999200
  O         4.0923506729       13.3145693344        3.5115197456
  O         6.6601741160        8.8764486674        3.5121454716
  O         9.2113941494        4.4309427483        3.5156263530
  O        -1.0349684002       13.3159145852        3.5117093731
  O         1.5266829394        8.8750420760        3.5108966112
  O         4.1005127206        4.4350515534        3.5179777329
  O        -6.1624039206       13.3146879702        3.5125767978
  O        -3.5987671004        8.8745642742        3.5138529281
  O        -1.0360283037        4.4336438881        3.5121817644
  O         6.8136609896       11.8729607372        3.4968919179
  O         9.3795655614        7.4351480495        3.4924790886
  O        11.9346787028        2.9896882030        3.4971757123
  O         1.6863271843       11.8736537469        3.4894793580
  O         4.2500795646        7.4334456525        3.4924122049
  O         6.8183461388        2.9986075286        3.5094832080
  O        -3.4430191393       11.8732911326        3.4933218491
  O        -0.8791712003        7.4351792015        3.4921128105
  O         1.6854114657        2.9904834821        3.4945344955
  O         9.4287230421       10.2234220498        3.4880647058
  O        11.9898817170        5.7839404901        3.4889310206
  O        14.5551791276        1.3424645588        3.4869307016
  O         4.3015708287       10.2266268730        3.4874957331
  O         6.8705308903        5.7697514290        3.4821318172
  O         9.4243935412        1.3500016153        3.4921318069
  O        -0.8264448748       10.2231737141        3.4848917027
  O         1.7361792790        5.7814981993        3.4806708445
  O         4.3033702207        1.3481219724        3.4880767582
 Fe         5.0389809327       11.8342398865        4.4206650811
 Fe         7.6035392950        7.3937451810        4.4096994609
 Fe        10.1560096230        2.9576898609        4.4218585937
 Fe        -0.0920978419       11.8283102918        4.4154305457
 Fe         2.4684614424        7.3959412444        4.4167794108
 Fe         5.0393130136        2.9618662371        4.4249053912
 Fe        -5.2197754698       11.8357548644        4.4180361464
 Fe        -2.6533133119        7.3961881064        4.4185741140
 Fe        -0.0914242878        2.9531235864        4.4190309261
 Fe         7.6091072081       13.1852296136        4.8177261378
 Fe        10.1746139304        8.7448773617        4.8167004718
 Fe        12.7370945201        4.3041217537        4.8052810467
 Fe         2.4872587263       13.1821588589        4.8026999659
 Fe         5.0469631045        8.7451183080        4.8067244378
 Fe         7.6017497296        4.3065012925        4.8443724365
 Fe        -2.6464286480       13.1867457009        4.8044702317
 Fe        -0.0822860043        8.7437860489        4.8193648661
 Fe         2.4784834380        4.3028780813        4.8057265068
  O         5.8560952863       10.3461057569        5.8701620798
  O         8.4285749716        5.9187398956        5.8755292247
  O        10.9790456428        1.4633635716        5.8690319678
  O         0.7277469537       10.3471141895        5.8742575055
  O         3.2716859779        5.9137290470        5.8299488430
  O         5.8607121052        1.4705904723        5.8795391318
  O        -4.3982272317       10.3485695556        5.8756725164
  O        -1.8338056724        5.9085604996        5.8627910734
  O         0.7286246309        1.4685729865        5.8709762182
  O         5.9253894540       13.1756997689        5.6903904686
  O         8.4915202726        8.7314104842        5.6905699301
  O        11.0526618668        4.2939092570        5.6874434032
  O         0.7976851406       13.1635000376        5.6674871484
  O         3.3622323403        8.7354157788        5.6783304379
  O         5.9336163166        4.3150581517        5.7469433350
  O        -4.3292154463       13.1747907875        5.6829512262
  O        -1.7690599585        8.7358228322        5.6870040929
  O         0.7971219716        4.2909414574        5.6869403164
  O         3.4668687176       11.7728223462        5.6666504112
  O         6.0464665314        7.3304821942        5.6502976980
  O         8.5870605366        2.8924133327        5.7096705915
  O        -1.6601669559       11.7763852303        5.6648469820
  O         0.8976789296        7.3348472963        5.6706799479
  O         3.4729300519        2.8933560000        5.6664906242
  O        -6.7873848333       11.7722351106        5.6700482254
  O        -4.2248801219        7.3328308194        5.6764372466
  O        -1.6610178258        2.8915803694        5.6661609916
 Fe         7.7819406090       10.2703637717        6.4343898530
 Fe        10.3489760921        5.8266906751        6.4372069313
 Fe        12.9066177515        1.3926046815        6.4338640986
 Fe         2.6576102205       10.2689454792        6.4344631726
 Fe         5.1840428104        5.8669080793        6.4385308879
 Fe         7.7852829550        1.3631206780        6.4297372149
 Fe        -2.4710762015       10.2761923600        6.4341949284
 Fe         0.0922738237        5.8274626904        6.4358377416
 Fe         2.6570123330        1.3911146103        6.4331058598
  O         7.8285656916       10.3906902010        8.2614599387
  H         7.8409207550        9.5733778904        8.7913198492
  H         5.3524137962       10.6098979951        6.6731118396
  O        10.3869934639        5.8610196881        8.2765856070
  H        10.7431074290        5.0821798609        8.7409338019
  H         7.9140911471        6.2580569825        6.6410062082
  O        12.9361043510        1.5296231126        8.2612612980
  H        12.9902941947        0.7141385416        8.7916306327
  H        10.4731481780        1.7189006160        6.6728998337
  O         2.7072415679       10.3820625233        8.2612064686
  H         2.8038139495        9.5572819220        8.7719095347
  H         0.2246242448       10.6137354498        6.6767300966
  O         4.9277502900        6.3005363001        8.1818446448
  H         4.8676884036        5.7374563635        8.9771533432
  H         2.8076573440        6.1911961427        6.6530298337
  O         7.9160528948        1.2429287290        8.2646455029
  H         7.9976501033        0.3461845622        8.6391252232
  H         5.3410431825        1.7337129028        6.6722370415
  O        -2.3836970980       10.4011976413        8.2599478609
  H        -2.3353434780        9.5822293667        8.7854409263
  H        -4.9059531317       10.6284729890        6.6704685972
  O         0.0924341798        5.9450906776        8.2613649450
  H         0.2123898738        5.1413724503        8.7984550176
  H        -2.3349456447        6.1863460387        6.6619933855
  O         2.7071247398        1.5078719385        8.2564713831
  H         2.7685643757        0.6967249606        8.7921921206
  H         0.2270154459        1.7455697662        6.6706662390
  C         7.4392988250        4.0634622224        9.2518070164
  C         6.3658850029        4.3893370649       10.1639039406
  H         7.6162455657        2.9735258622        9.2200969372
  H         7.1566428283        4.3744636840        8.2335082000
  H         8.3656177321        4.5889189898        9.5251562142
  N         5.4784112947        4.6587721174       10.8761282456
     168
 i =       49, E =     -8144.3753021160
 Fe         5.0938794100       11.8196869300        0.3885799900
 Fe         7.6575796300        7.3792284900        0.3885799900
 Fe        10.2212798400        2.9387700600        0.3885799900
 Fe        -0.0335205200       11.8196869300        0.3885799900
 Fe         2.5301797000        7.3792284900        0.3885799900
 Fe         5.0938799200        2.9387700600        0.3885799900
 Fe        -5.1609204400       11.8196869300        0.3885799900
 Fe        -2.5972202200        7.3792284900        0.3885799900
 Fe        -0.0335200000        2.9387700600        0.3885799900
  O         8.4519195100        8.9577468800        1.1642700400
  O        11.0156197300        4.5172884400        1.1642700400
  O        13.5793199500        0.0768300000        1.1642700400
  O         3.3245195900        8.9577468800        1.1642700400
  O         5.8882198100        4.5172884400        1.1642700400
  O         8.4519200300        0.0768300000        1.1642700400
  O        -1.8028803300        8.9577468800        1.1642700400
  O         0.7608198900        4.5172884400        1.1642700400
  O         3.3245201100        0.0768300000        1.1642700400
  O         8.4568493000       11.7183869300        1.1650400200
  O        11.0205495200        7.2779284900        1.1650400200
  O        13.5842497300        2.8374700500        1.1650400200
  O         3.3294493700       11.7183869300        1.1650400200
  O         5.8931495900        7.2779284900        1.1650400200
  O         8.4568498100        2.8374700500        1.1650400200
  O        -1.7979505500       11.7183869300        1.1650400200
  O         0.7657496700        7.2779284900        1.1650400200
  O         3.3294498900        2.8374700500        1.1650400200
  O         6.0627194200       10.3425368500        1.1660399400
  O         8.6264196400        5.9020784100        1.1660399400
  O        11.1901198600        1.4616199700        1.1660399400
  O         0.9353195000       10.3425368500        1.1660399400
  O         3.4990197200        5.9020784100        1.1660399400
  O         6.0627199400        1.4616199700        1.1660399400
  O        -4.1920804200       10.3425368500        1.1660399400
  O        -1.6283802000        5.9020784100        1.1660399400
  O         0.9353200200        1.4616199700        1.1660399400
 Fe         7.6576695000       13.2997167500        1.9292099500
 Fe        10.2213697200        8.8592583200        1.9292099500
 Fe        12.7850699400        4.4187998800        1.9292099500
 Fe         2.5302695800       13.2997167500        1.9292099500
 Fe         5.0939698000        8.8592583200        1.9292099500
 Fe         7.6576700200        4.4187998800        1.9292099500
 Fe        -2.5971303400       13.2997167500        1.9292099500
 Fe        -0.0334301200        8.8592583200        1.9292099500
 Fe         2.5302701000        4.4187998800        1.9292099500
 Fe         7.6573893600       10.3392168700        2.7128999200
 Fe        10.2210895800        5.8987584300        2.7128999200
 Fe        12.7847898000        1.4582999900        2.7128999200
 Fe         2.5299894400       10.3392168700        2.7128999200
 Fe         5.0936896600        5.8987584300        2.7128999200
 Fe         7.6573898800        1.4582999900        2.7128999200
 Fe        -2.5974104800       10.3392168700        2.7128999200
 Fe        -0.0337102600        5.8987584300        2.7128999200
 Fe         2.5299899600        1.4582999900        2.7128999200
  O         4.0921442180       13.3149113247        3.5115271249
  O         6.6598794318        8.8762563404        3.5117011543
  O         9.2112968805        4.4311360180        3.5155487246
  O        -1.0349302073       13.3160735628        3.5118471445
  O         1.5271235561        8.8753146818        3.5108905554
  O         4.1003094563        4.4350269310        3.5175484876
  O        -6.1626141414       13.3149686851        3.5119690304
  O        -3.5989331943        8.8745902076        3.5130704757
  O        -1.0359240790        4.4334682434        3.5120917369
  O         6.8131544408       11.8730446410        3.4959457992
  O         9.3789268566        7.4349315335        3.4917115147
  O        11.9348052227        2.9897591716        3.4971951181
  O         1.6862857275       11.8740820074        3.4890628220
  O         4.2502207525        7.4336249335        3.4920548205
  O         6.8184124598        2.9988069615        3.5093911725
  O        -3.4427473456       11.8734141735        3.4933673761
  O        -0.8796994283        7.4341096667        3.4921690637
  O         1.6853931504        2.9910852779        3.4939376915
  O         9.4289590330       10.2236474873        3.4872684342
  O        11.9896100828        5.7836693545        3.4890704783
  O        14.5552653652        1.3426492047        3.4864068090
  O         4.3016712396       10.2265130769        3.4870180937
  O         6.8706141708        5.7697810564        3.4820681398
  O         9.4243651559        1.3498963478        3.4920737599
  O        -0.8267287931       10.2240127613        3.4850034670
  O         1.7362972535        5.7812318465        3.4803199306
  O         4.3032557207        1.3478267890        3.4882123356
 Fe         5.0387058656       11.8342749533        4.4204148298
 Fe         7.6032122011        7.3938265068        4.4101276767
 Fe        10.1560319074        2.9577386094        4.4216159440
 Fe        -0.0918252301       11.8287641931        4.4158358128
 Fe         2.4686163322        7.3959395563        4.4168133549
 Fe         5.0392471875        2.9618282673        4.4246864666
 Fe        -5.2195813460       11.8361587695        4.4180172185
 Fe        -2.6539416520        7.3961867981        4.4185152124
 Fe        -0.0914004638        2.9532100266        4.4193472657
 Fe         7.6088967480       13.1853756599        4.8144225084
 Fe        10.1742009074        8.7450793091        4.8132464892
 Fe        12.7370224341        4.3041716206        4.8052664871
 Fe         2.4872439783       13.1823738057        4.8026148701
 Fe         5.0467263760        8.7453988815        4.8059735052
 Fe         7.6018227532        4.3064992085        4.8442601870
 Fe        -2.6462378193       13.1867261202        4.8047255568
 Fe        -0.0826613060        8.7438647539        4.8153510458
 Fe         2.4786011253        4.3028830998        4.8053994766
  O         5.8562036744       10.3464026056        5.8695454489
  O         8.4286292985        5.9188559516        5.8756002924
  O        10.9792996872        1.4635508020        5.8689837278
  O         0.7277211096       10.3466748763        5.8730956862
  O         3.2715046872        5.9140337510        5.8294077027
  O         5.8607866848        1.4708045309        5.8795521013
  O        -4.3982017115       10.3485441568        5.8746257031
  O        -1.8341166606        5.9087757751        5.8626115551
  O         0.7288709558        1.4682419938        5.8699492334
  O         5.9256132951       13.1755591845        5.6896747469
  O         8.4917446487        8.7316556600        5.6897629681
  O        11.0527573876        4.2939777885        5.6874797711
  O         0.7979780336       13.1637380073        5.6677225769
  O         3.3620941171        8.7354840342        5.6782490096
  O         5.9335348591        4.3153062196        5.7467305161
  O        -4.3292804094       13.1749966796        5.6828933917
  O        -1.7689398598        8.7355721850        5.6857938410
  O         0.7971360026        4.2914958518        5.6865137457
  O         3.4668928860       11.7729055839        5.6664484257
  O         6.0460813879        7.3305675842        5.6502434728
  O         8.5872549513        2.8925140192        5.7095097600
  O        -1.6598820973       11.7760944955        5.6647198930
  O         0.8971933018        7.3349626885        5.6691539658
  O         3.4730083243        2.8935748693        5.6663854247
  O        -6.7875241660       11.7724101989        5.6688273122
  O        -4.2256316153        7.3332060310        5.6753788413
  O        -1.6611693819        2.8918634847        5.6661739980
 Fe         7.7820818561       10.2705447151        6.4339481709
 Fe        10.3491775371        5.8270558594        6.4371812167
 Fe        12.9071575000        1.3923480370        6.4338025397
 Fe         2.6572833124       10.2689401522        6.4342087671
 Fe         5.1838401217        5.8671172277        6.4385916988
 Fe         7.7853105174        1.3633579620        6.4298449825
 Fe        -2.4708927704       10.2756924783        6.4338545083
 Fe         0.0922070322        5.8280881707        6.4356589116
 Fe         2.6567956874        1.3912910944        6.4329720274
  O         7.8282124765       10.3911731495        8.2610061486
  H         7.8401590097        9.5740936348        8.7912200506
  H         5.3522529360       10.6098835327        6.6723920883
  O        10.3885167200        5.8597260283        8.2766155906
  H        10.7468056267        5.0807350866        8.7390731476
  H         7.9140614050        6.2582179351        6.6410043516
  O        12.9357317088        1.5301596844        8.2611382160
  H        12.9897576040        0.7151721559        8.7922806294
  H        10.4734057313        1.7190539721        6.6729216380
  O         2.7075578207       10.3819287122        8.2609113741
  H         2.8043704467        9.5573914902        8.7719598241
  H         0.2240571744       10.6123624002        6.6755214516
  O         4.9263644084        6.2995893560        8.1820909424
  H         4.8666597517        5.7355096790        8.9767188256
  H         2.8077856586        6.1906994083        6.6529398726
  O         7.9166524971        1.2440241733        8.2647322230
  H         7.9987087188        0.3474365116        8.6395120719
  H         5.3406702191        1.7337098168        6.6720478854
  O        -2.3828245757       10.4015775993        8.2594928909
  H        -2.3341041301        9.5829512292        8.7854638226
  H        -4.9062699090       10.6277653503        6.6694515632
  O         0.0915915503        5.9453802656        8.2611804535
  H         0.2122526048        5.1415689933        8.7979877012
  H        -2.3345740627        6.1864025672        6.6623175690
  O         2.7072306480        1.5084344249        8.2562350156
  H         2.7687354388        0.6975869349        8.7924054840
  H         0.2266535998        1.7443910088        6.6695343847
  C         7.4420397864        4.0656922693        9.2516195897
  C         6.3681032466        4.3886346939       10.1642251908
  H         7.6243602421        2.9765802551        9.2230582983
  H         7.1560702665        4.3715805256        8.2326802306
  H         8.3659295155        4.5971238038        9.5218356721
  N         5.4801445880        4.6557606510       10.8767874047
     168
 i =       50, E =     -8144.3753755963
 Fe         5.0938794100       11.8196869300        0.3885799900
 Fe         7.6575796300        7.3792284900        0.3885799900
 Fe        10.2212798400        2.9387700600        0.3885799900
 Fe        -0.0335205200       11.8196869300        0.3885799900
 Fe         2.5301797000        7.3792284900        0.3885799900
 Fe         5.0938799200        2.9387700600        0.3885799900
 Fe        -5.1609204400       11.8196869300        0.3885799900
 Fe        -2.5972202200        7.3792284900        0.3885799900
 Fe        -0.0335200000        2.9387700600        0.3885799900
  O         8.4519195100        8.9577468800        1.1642700400
  O        11.0156197300        4.5172884400        1.1642700400
  O        13.5793199500        0.0768300000        1.1642700400
  O         3.3245195900        8.9577468800        1.1642700400
  O         5.8882198100        4.5172884400        1.1642700400
  O         8.4519200300        0.0768300000        1.1642700400
  O        -1.8028803300        8.9577468800        1.1642700400
  O         0.7608198900        4.5172884400        1.1642700400
  O         3.3245201100        0.0768300000        1.1642700400
  O         8.4568493000       11.7183869300        1.1650400200
  O        11.0205495200        7.2779284900        1.1650400200
  O        13.5842497300        2.8374700500        1.1650400200
  O         3.3294493700       11.7183869300        1.1650400200
  O         5.8931495900        7.2779284900        1.1650400200
  O         8.4568498100        2.8374700500        1.1650400200
  O        -1.7979505500       11.7183869300        1.1650400200
  O         0.7657496700        7.2779284900        1.1650400200
  O         3.3294498900        2.8374700500        1.1650400200
  O         6.0627194200       10.3425368500        1.1660399400
  O         8.6264196400        5.9020784100        1.1660399400
  O        11.1901198600        1.4616199700        1.1660399400
  O         0.9353195000       10.3425368500        1.1660399400
  O         3.4990197200        5.9020784100        1.1660399400
  O         6.0627199400        1.4616199700        1.1660399400
  O        -4.1920804200       10.3425368500        1.1660399400
  O        -1.6283802000        5.9020784100        1.1660399400
  O         0.9353200200        1.4616199700        1.1660399400
 Fe         7.6576695000       13.2997167500        1.9292099500
 Fe        10.2213697200        8.8592583200        1.9292099500
 Fe        12.7850699400        4.4187998800        1.9292099500
 Fe         2.5302695800       13.2997167500        1.9292099500
 Fe         5.0939698000        8.8592583200        1.9292099500
 Fe         7.6576700200        4.4187998800        1.9292099500
 Fe        -2.5971303400       13.2997167500        1.9292099500
 Fe        -0.0334301200        8.8592583200        1.9292099500
 Fe         2.5302701000        4.4187998800        1.9292099500
 Fe         7.6573893600       10.3392168700        2.7128999200
 Fe        10.2210895800        5.8987584300        2.7128999200
 Fe        12.7847898000        1.4582999900        2.7128999200
 Fe         2.5299894400       10.3392168700        2.7128999200
 Fe         5.0936896600        5.8987584300        2.7128999200
 Fe         7.6573898800        1.4582999900        2.7128999200
 Fe        -2.5974104800       10.3392168700        2.7128999200
 Fe        -0.0337102600        5.8987584300        2.7128999200
 Fe         2.5299899600        1.4582999900        2.7128999200
  O         4.0921196526       13.3156314430        3.5113582517
  O         6.6579475837        8.8761942470        3.5098052318
  O         9.2109363635        4.4315085763        3.5144714730
  O        -1.0349843789       13.3165587073        3.5112980319
  O         1.5292074022        8.8766959004        3.5114716251
  O         4.1002123678        4.4348935037        3.5165802972
  O        -6.1629620619       13.3165168024        3.5100701435
  O        -3.5979560003        8.8750289560        3.5132562713
  O        -1.0363037531        4.4330871502        3.5107525200
  O         6.8104680947       11.8733527958        3.4920740915
  O         9.3771108899        7.4320457620        3.4923911982
  O        11.9354030169        2.9905936068        3.4961276657
  O         1.6861060290       11.8755018664        3.4877892278
  O         4.2509704690        7.4343239969        3.4909243335
  O         6.8183852904        2.9995717282        3.5085018428
  O        -3.4419188046       11.8745615726        3.4924964128
  O        -0.8821641069        7.4296773174        3.4922899609
  O         1.6855010396        2.9927088238        3.4924344046
  O         9.4283788889       10.2254978025        3.4871548124
  O        11.9892587067        5.7826764651        3.4882834745
  O        14.5550913293        1.3434527088        3.4851696426
  O         4.3021391311       10.2261461451        3.4853929130
  O         6.8704776441        5.7695561427        3.4818867266
  O         9.4239708609        1.3497341968        3.4921117492
  O        -0.8278406763       10.2270412680        3.4855841563
  O         1.7365121339        5.7807330933        3.4789540983
  O         4.3031512222        1.3467246038        3.4879033285
 Fe         5.0375397548       11.8343278656        4.4209374449
 Fe         7.6010932605        7.3945773270        4.4108141177
 Fe        10.1563641955        2.9580567248        4.4207124723
 Fe        -0.0911136474       11.8309226773        4.4171871070
 Fe         2.4695686226        7.3957462766        4.4174477624
 Fe         5.0390745559        2.9612273508        4.4241070789
 Fe        -5.2182558198       11.8384189909        4.4189385490
 Fe        -2.6559598905        7.3952512252        4.4201848398
 Fe        -0.0918347130        2.9545061733        4.4200474596
 Fe         7.6082392569       13.1858461186        4.8002500670
 Fe        10.1720006355        8.7460698089        4.8020879220
 Fe        12.7367268536        4.3041587307        4.8044291912
 Fe         2.4872656811       13.1834687440        4.8019235247
 Fe         5.0459288454        8.7463858092        4.8037873666
 Fe         7.6021348698        4.3064884007        4.8426280116
 Fe        -2.6451589736       13.1867660510        4.8049100491
 Fe        -0.0840614645        8.7440132371        4.7981694268
 Fe         2.4787089251        4.3031402029        4.8038478326
  O         5.8566224210       10.3472323873        5.8671615993
  O         8.4282923772        5.9195465929        5.8758549469
  O        10.9802016124        1.4643110436        5.8686201708
  O         0.7278981678       10.3452844281        5.8678357757
  O         3.2706940301        5.9149496278        5.8273400625
  O         5.8610208150        1.4713167731        5.8798241145
  O        -4.3975065910       10.3492193732        5.8704246330
  O        -1.8356481332        5.9089734600        5.8623457075
  O         0.7298404355        1.4675585626        5.8655624737
  O         5.9268079582       13.1753446537        5.6869034101
  O         8.4908874812        8.7318028158        5.6873979526
  O        11.0533074191        4.2940679243        5.6873391206
  O         0.7990819304       13.1650414047        5.6685374497
  O         3.3618142474        8.7356635156        5.6781957721
  O         5.9333090576        4.3166631797        5.7451285575
  O        -4.3284316013       13.1757299447        5.6833299131
  O        -1.7680022422        8.7348463569        5.6810421933
  O         0.7970268538        4.2934116349        5.6849662482
  O         3.4662480073       11.7731864253        5.6657402065
  O         6.0452404096        7.3305539461        5.6504269617
  O         8.5880020829        2.8933272296        5.7084640485
  O        -1.6588198556       11.7756239829        5.6644741395
  O         0.8959059196        7.3351040909        5.6626672011
  O         3.4728168680        2.8947326396        5.6655867990
  O        -6.7876076093       11.7736383997        5.6643490725
  O        -4.2282904047        7.3340772397        5.6717095303
  O        -1.6617366686        2.8932755709        5.6665758132
 Fe         7.7826800002       10.2718360367        6.4321060527
 Fe        10.3497091491        5.8281694641        6.4369236446
 Fe        12.9090045546        1.3913677018        6.4335676942
 Fe         2.6557530451       10.2685222588        6.4334464277
 Fe         5.1830082533        5.8678520588        6.4387981774
 Fe         7.7854861472        1.3649277378        6.4302856261
 Fe        -2.4698844552       10.2737209639        6.4323743459
 Fe         0.0919123293        5.8309335163        6.4344670842
 Fe         2.6559819822        1.3919405376        6.4324196721
  O         7.8268770651       10.3935604689        8.2590598752
  H         7.8367436606        9.5774860821        8.7908033453
  H         5.3514854037       10.6096681278        6.6694632881
  O        10.3958928560        5.8540960657        8.2766816818
  H        10.7635819181        5.0741203317        8.7303611806
  H         7.9137343007        6.2585634315        6.6414043456
  O        12.9340942692        1.5325631240        8.2606169962
  H        12.9873472198        0.7198151693        8.7952513277
  H        10.4750469831        1.7196097156        6.6732386621
  O         2.7088235873       10.3814470196        8.2598432023
  H         2.8069448608        9.5577983822        8.7720454002
  H         0.2210509727       10.6053836493        6.6700077025
  O         4.9203419187        6.2948342719        8.1833222981
  H         4.8622097941        5.7262452656        8.9748629259
  H         2.8085800803        6.1888114558        6.6527481550
  O         7.9197738990        1.2493673206        8.2650969781
  H         8.0035154102        0.3534342729        8.6412284543
  H         5.3393207663        1.7336041091        6.6715890112
  O        -2.3791080614       10.4030355430        8.2574700482
  H        -2.3282837525        9.5861261361        8.7858038835
  H        -4.9076883163       10.6239474510        6.6653612140
  O         0.0877958581        5.9469306336        8.2600158250
  H         0.2114878313        5.1426507562        8.7955439242
  H        -2.3332013500        6.1863480250        6.6640188373
  O         2.7076519508        1.5111455364        8.2552706956
  H         2.7695680969        0.7015794846        8.7933874232
  H         0.2248980246        1.7385931483        6.6651136965
  C         7.4547861491        4.0760364206        9.2505909789
  C         6.3781204829        4.3855996185       10.1651372639
  H         7.6618652667        2.9908967650        9.2360265133
  H         7.1534393413        4.3585159209        8.2288628510
  H         8.3675317402        4.6348023221        9.5058425694
  N         5.4884672990        4.6424699484       10.8796888505
     168
 i =       51, E =     -8144.3754809545
 Fe         5.0938794100       11.8196869300        0.3885799900
 Fe         7.6575796300        7.3792284900        0.3885799900
 Fe        10.2212798400        2.9387700600        0.3885799900
 Fe        -0.0335205200       11.8196869300        0.3885799900
 Fe         2.5301797000        7.3792284900        0.3885799900
 Fe         5.0938799200        2.9387700600        0.3885799900
 Fe        -5.1609204400       11.8196869300        0.3885799900
 Fe        -2.5972202200        7.3792284900        0.3885799900
 Fe        -0.0335200000        2.9387700600        0.3885799900
  O         8.4519195100        8.9577468800        1.1642700400
  O        11.0156197300        4.5172884400        1.1642700400
  O        13.5793199500        0.0768300000        1.1642700400
  O         3.3245195900        8.9577468800        1.1642700400
  O         5.8882198100        4.5172884400        1.1642700400
  O         8.4519200300        0.0768300000        1.1642700400
  O        -1.8028803300        8.9577468800        1.1642700400
  O         0.7608198900        4.5172884400        1.1642700400
  O         3.3245201100        0.0768300000        1.1642700400
  O         8.4568493000       11.7183869300        1.1650400200
  O        11.0205495200        7.2779284900        1.1650400200
  O        13.5842497300        2.8374700500        1.1650400200
  O         3.3294493700       11.7183869300        1.1650400200
  O         5.8931495900        7.2779284900        1.1650400200
  O         8.4568498100        2.8374700500        1.1650400200
  O        -1.7979505500       11.7183869300        1.1650400200
  O         0.7657496700        7.2779284900        1.1650400200
  O         3.3294498900        2.8374700500        1.1650400200
  O         6.0627194200       10.3425368500        1.1660399400
  O         8.6264196400        5.9020784100        1.1660399400
  O        11.1901198600        1.4616199700        1.1660399400
  O         0.9353195000       10.3425368500        1.1660399400
  O         3.4990197200        5.9020784100        1.1660399400
  O         6.0627199400        1.4616199700        1.1660399400
  O        -4.1920804200       10.3425368500        1.1660399400
  O        -1.6283802000        5.9020784100        1.1660399400
  O         0.9353200200        1.4616199700        1.1660399400
 Fe         7.6576695000       13.2997167500        1.9292099500
 Fe        10.2213697200        8.8592583200        1.9292099500
 Fe        12.7850699400        4.4187998800        1.9292099500
 Fe         2.5302695800       13.2997167500        1.9292099500
 Fe         5.0939698000        8.8592583200        1.9292099500
 Fe         7.6576700200        4.4187998800        1.9292099500
 Fe        -2.5971303400       13.2997167500        1.9292099500
 Fe        -0.0334301200        8.8592583200        1.9292099500
 Fe         2.5302701000        4.4187998800        1.9292099500
 Fe         7.6573893600       10.3392168700        2.7128999200
 Fe        10.2210895800        5.8987584300        2.7128999200
 Fe        12.7847898000        1.4582999900        2.7128999200
 Fe         2.5299894400       10.3392168700        2.7128999200
 Fe         5.0936896600        5.8987584300        2.7128999200
 Fe         7.6573898800        1.4582999900        2.7128999200
 Fe        -2.5974104800       10.3392168700        2.7128999200
 Fe        -0.0337102600        5.8987584300        2.7128999200
 Fe         2.5299899600        1.4582999900        2.7128999200
  O         4.0918828724       13.3157511493        3.5111671393
  O         6.6589655751        8.8761097420        3.5108846060
  O         9.2111071276        4.4314093684        3.5147200166
  O        -1.0346970691       13.3165347935        3.5117108724
  O         1.5281914418        8.8765010094        3.5125332338
  O         4.1001817420        4.4350339548        3.5166770182
  O        -6.1631658440       13.3162570723        3.5116323876
  O        -3.5988568826        8.8749355533        3.5131131034
  O        -1.0366524537        4.4330425475        3.5106475655
  O         6.8121584708       11.8736175712        3.4943780970
  O         9.3779760654        7.4332524703        3.4926406953
  O        11.9354477717        2.9906775855        3.4960769157
  O         1.6861246358       11.8752612340        3.4879900355
  O         4.2507706204        7.4336070262        3.4919322951
  O         6.8182892411        2.9991012368        3.5087371681
  O        -3.4420307907       11.8742036237        3.4930115216
  O        -0.8807834462        7.4309616112        3.4939395223
  O         1.6854371375        2.9921019006        3.4928070244
  O         9.4286181745       10.2244267626        3.4874380443
  O        11.9896176011        5.7827289237        3.4877916856
  O        14.5550310330        1.3429253183        3.4865246927
  O         4.3015329467       10.2261664134        3.4864779372
  O         6.8705416351        5.7698561196        3.4815812076
  O         9.4242084097        1.3497658736        3.4918137883
  O        -0.8276830725       10.2256240388        3.4867705231
  O         1.7365453111        5.7811121415        3.4788909968
  O         4.3029188893        1.3471017871        3.4884946548
 Fe         5.0377325434       11.8345896256        4.4203520749
 Fe         7.6018613110        7.3942293159        4.4112575934
 Fe        10.1563472547        2.9578762288        4.4208796237
 Fe        -0.0912002484       11.8305503778        4.4170536727
 Fe         2.4695910964        7.3955105815        4.4177411605
 Fe         5.0387896821        2.9616220514        4.4241091925
 Fe        -5.2183392975       11.8376229411        4.4189889702
 Fe        -2.6557563116        7.3955509744        4.4197678645
 Fe        -0.0918357989        2.9545393663        4.4198117401
 Fe         7.6084311647       13.1857638842        4.8071375900
 Fe        10.1726918364        8.7456951236        4.8072309168
 Fe        12.7365515809        4.3043063952        4.8046485157
 Fe         2.4872647792       13.1833082679        4.8019532580
 Fe         5.0461122506        8.7460796003        4.8050054370
 Fe         7.6018823077        4.3067161473        4.8419571246
 Fe        -2.6451965146       13.1867198048        4.8054542343
 Fe        -0.0836722708        8.7438022556        4.8065545480
 Fe         2.4785461751        4.3030524987        4.8042847664
  O         5.8562129179       10.3469203026        5.8681310903
  O         8.4283260280        5.9189741059        5.8759021396
  O        10.9799610610        1.4643608248        5.8685161182
  O         0.7283086112       10.3466206507        5.8692879657
  O         3.2709468364        5.9143595137        5.8284481616
  O         5.8609104807        1.4711608538        5.8801888749
  O        -4.3974331729       10.3493046794        5.8720028645
  O        -1.8355300879        5.9090717606        5.8626874204
  O         0.7296800169        1.4685257303        5.8672837472
  O         5.9253521770       13.1751281325        5.6884095644
  O         8.4905053123        8.7317693402        5.6886796021
  O        11.0527350163        4.2935980117        5.6872586800
  O         0.7989659925       13.1651632805        5.6684578470
  O         3.3621934460        8.7355056618        5.6790025979
  O         5.9333346056        4.3162241736        5.7449659384
  O        -4.3281893379       13.1755025997        5.6837881850
  O        -1.7694085907        8.7346794299        5.6833974911
  O         0.7969944622        4.2929181573        5.6852361680
  O         3.4663923605       11.7731840731        5.6658922713
  O         6.0456080257        7.3306248829        5.6509431985
  O         8.5878546417        2.8935282415        5.7082317805
  O        -1.6587584006       11.7762073872        5.6651863349
  O         0.8976617492        7.3339326077        5.6650009065
  O         3.4726594052        2.8948437326        5.6661771564
  O        -6.7865053290       11.7730864855        5.6667125461
  O        -4.2268787785        7.3332960462        5.6735065459
  O        -1.6617826133        2.8934435267        5.6667924234
 Fe         7.7823309907       10.2717157103        6.4330759458
 Fe        10.3493757604        5.8275594412        6.4369526069
 Fe        12.9083264481        1.3920207495        6.4336932974
 Fe         2.6560558741       10.2686489083        6.4338057488
 Fe         5.1835848111        5.8673887299        6.4386701063
 Fe         7.7856312201        1.3651344614        6.4302347578
 Fe        -2.4700541442       10.2745518438        6.4330866758
 Fe         0.0917758336        5.8301123442        6.4347196259
 Fe         2.6561475102        1.3918282019        6.4326777685
  O         7.8275164298       10.3933348165        8.2599038920
  H         7.8375634093        9.5768468068        8.7909558172
  H         5.3514980799       10.6094363984        6.6707401550
  O        10.3946470551        5.8557053952        8.2767258224
  H        10.7597032736        5.0755503620        8.7319873332
  H         7.9135194092        6.2581764369        6.6411624736
  O        12.9344475219        1.5319701965        8.2608587442
  H        12.9879258758        0.7186820043        8.7946360073
  H        10.4750820013        1.7191654106        6.6733946200
  O         2.7083334941       10.3815017791        8.2602552129
  H         2.8064024903        9.5575914340        8.7720359913
  H         0.2211930876       10.6062748006        6.6713308719
  O         4.9219632823        6.2954724740        8.1831183445
  H         4.8634058868        5.7279790698        8.9754042240
  H         2.8086740887        6.1897490386        6.6532614335
  O         7.9194627513        1.2485851964        8.2650862661
  H         8.0023971568        0.3523875997        8.6407278498
  H         5.3398810354        1.7333672125        6.6724274357
  O        -2.3802179733       10.4025918880        8.2582247966
  H        -2.3293869734        9.5852861207        8.7859019460
  H        -4.9072767331       10.6242567650        6.6670502915
  O         0.0887205564        5.9470409697        8.2602152961
  H         0.2115218421        5.1425653131        8.7956135258
  H        -2.3338426730        6.1859579377        6.6640334075
  O         2.7075296012        1.5106317029        8.2556839760
  H         2.7694542497        0.7007152813        8.7932628717
  H         0.2252268625        1.7396231069        6.6670446533
  C         7.4516654469        4.0740101716        9.2502089855
  C         6.3766591985        4.3862883855       10.1655655084
  H         7.6539850181        2.9882707653        9.2324989832
  H         7.1545685172        4.3615472083        8.2292275070
  H         8.3666877801        4.6263769638        9.5086550599
  N         5.4867877031        4.6458591860       10.8785347941
     168
 i =       52, E =     -8144.3755389287
 Fe         5.0938794100       11.8196869300        0.3885799900
 Fe         7.6575796300        7.3792284900        0.3885799900
 Fe        10.2212798400        2.9387700600        0.3885799900
 Fe        -0.0335205200       11.8196869300        0.3885799900
 Fe         2.5301797000        7.3792284900        0.3885799900
 Fe         5.0938799200        2.9387700600        0.3885799900
 Fe        -5.1609204400       11.8196869300        0.3885799900
 Fe        -2.5972202200        7.3792284900        0.3885799900
 Fe        -0.0335200000        2.9387700600        0.3885799900
  O         8.4519195100        8.9577468800        1.1642700400
  O        11.0156197300        4.5172884400        1.1642700400
  O        13.5793199500        0.0768300000        1.1642700400
  O         3.3245195900        8.9577468800        1.1642700400
  O         5.8882198100        4.5172884400        1.1642700400
  O         8.4519200300        0.0768300000        1.1642700400
  O        -1.8028803300        8.9577468800        1.1642700400
  O         0.7608198900        4.5172884400        1.1642700400
  O         3.3245201100        0.0768300000        1.1642700400
  O         8.4568493000       11.7183869300        1.1650400200
  O        11.0205495200        7.2779284900        1.1650400200
  O        13.5842497300        2.8374700500        1.1650400200
  O         3.3294493700       11.7183869300        1.1650400200
  O         5.8931495900        7.2779284900        1.1650400200
  O         8.4568498100        2.8374700500        1.1650400200
  O        -1.7979505500       11.7183869300        1.1650400200
  O         0.7657496700        7.2779284900        1.1650400200
  O         3.3294498900        2.8374700500        1.1650400200
  O         6.0627194200       10.3425368500        1.1660399400
  O         8.6264196400        5.9020784100        1.1660399400
  O        11.1901198600        1.4616199700        1.1660399400
  O         0.9353195000       10.3425368500        1.1660399400
  O         3.4990197200        5.9020784100        1.1660399400
  O         6.0627199400        1.4616199700        1.1660399400
  O        -4.1920804200       10.3425368500        1.1660399400
  O        -1.6283802000        5.9020784100        1.1660399400
  O         0.9353200200        1.4616199700        1.1660399400
 Fe         7.6576695000       13.2997167500        1.9292099500
 Fe        10.2213697200        8.8592583200        1.9292099500
 Fe        12.7850699400        4.4187998800        1.9292099500
 Fe         2.5302695800       13.2997167500        1.9292099500
 Fe         5.0939698000        8.8592583200        1.9292099500
 Fe         7.6576700200        4.4187998800        1.9292099500
 Fe        -2.5971303400       13.2997167500        1.9292099500
 Fe        -0.0334301200        8.8592583200        1.9292099500
 Fe         2.5302701000        4.4187998800        1.9292099500
 Fe         7.6573893600       10.3392168700        2.7128999200
 Fe        10.2210895800        5.8987584300        2.7128999200
 Fe        12.7847898000        1.4582999900        2.7128999200
 Fe         2.5299894400       10.3392168700        2.7128999200
 Fe         5.0936896600        5.8987584300        2.7128999200
 Fe         7.6573898800        1.4582999900        2.7128999200
 Fe        -2.5974104800       10.3392168700        2.7128999200
 Fe        -0.0337102600        5.8987584300        2.7128999200
 Fe         2.5299899600        1.4582999900        2.7128999200
  O         4.0918944196       13.3160234161        3.5112695541
  O         6.6591561319        8.8761110177        3.5110104441
  O         9.2112717080        4.4316564499        3.5150824961
  O        -1.0342544762       13.3166338685        3.5120927918
  O         1.5277804474        8.8756457003        3.5110919420
  O         4.1002902470        4.4352371587        3.5168444575
  O        -6.1627838564       13.3161206511        3.5118640328
  O        -3.5986684079        8.8750781073        3.5133945947
  O        -1.0367035003        4.4333863893        3.5109665415
  O         6.8124116676       11.8736879704        3.4945908761
  O         9.3780118169        7.4328925877        3.4935735605
  O        11.9355947370        2.9905535893        3.4962871278
  O         1.6861941315       11.8750318595        3.4883454776
  O         4.2505936840        7.4334301778        3.4921091737
  O         6.8182322451        2.9987244827        3.5090874238
  O        -3.4421720999       11.8740550630        3.4932455216
  O        -0.8807374416        7.4316031221        3.4933294751
  O         1.6854284423        2.9917608779        3.4929985044
  O         9.4281981045       10.2241887332        3.4880419261
  O        11.9897220800        5.7828888496        3.4876949321
  O        14.5548419760        1.3429889339        3.4869597426
  O         4.3012642080       10.2262308627        3.4867603249
  O         6.8702384104        5.7702412847        3.4819342267
  O         9.4240725812        1.3500449547        3.4921522826
  O        -0.8273073485       10.2249341592        3.4863032338
  O         1.7364902579        5.7812720698        3.4786530369
  O         4.3025622916        1.3473957930        3.4889955893
 Fe         5.0375745809       11.8349971157        4.4203632557
 Fe         7.6017342893        7.3944063311        4.4119355637
 Fe        10.1564124547        2.9580265537        4.4211939864
 Fe        -0.0910605588       11.8304656743        4.4171324026
 Fe         2.4695652981        7.3953175760        4.4180869223
 Fe         5.0386426434        2.9618678134        4.4240888115
 Fe        -5.2182079079       11.8373245923        4.4196474398
 Fe        -2.6557740249        7.3957759005        4.4203286568
 Fe        -0.0919074506        2.9549851929        4.4198191415
 Fe         7.6084174840       13.1858759495        4.8068066592
 Fe        10.1727893378        8.7455979319        4.8078922768
 Fe        12.7365185035        4.3042934753        4.8048107959
 Fe         2.4871743179       13.1833916397        4.8019838374
 Fe         5.0460601211        8.7461389393        4.8049264924
 Fe         7.6017687964        4.3069753136        4.8414806822
 Fe        -2.6449864994       13.1868483882        4.8052392452
 Fe        -0.0833997361        8.7436870447        4.8059664143
 Fe         2.4783431931        4.3030832100        4.8039952225
  O         5.8560185215       10.3469622952        5.8680787980
  O         8.4283008050        5.9188952764        5.8762288463
  O        10.9799809453        1.4645811657        5.8682630861
  O         0.7283353264       10.3464417655        5.8688555002
  O         3.2709890322        5.9142333839        5.8283875806
  O         5.8608257845        1.4712498544        5.8803599714
  O        -4.3972238110       10.3492140289        5.8719678997
  O        -1.8356606870        5.9092776309        5.8629456573
  O         0.7296505720        1.4684499680        5.8670890474
  O         5.9252204316       13.1752694316        5.6885168969
  O         8.4902173931        8.7320120544        5.6889944774
  O        11.0526456873        4.2935613050        5.6871206975
  O         0.7987961482       13.1656850296        5.6683946910
  O         3.3623286080        8.7356534711        5.6789639980
  O         5.9332313267        4.3162065821        5.7446346510
  O        -4.3279228811       13.1754702761        5.6836863917
  O        -1.7690177473        8.7350032605        5.6837352146
  O         0.7968206419        4.2928640840        5.6849322878
  O         3.4664028617       11.7731151370        5.6657688973
  O         6.0455019112        7.3308023301        5.6515172401
  O         8.5878901801        2.8939319019        5.7078832980
  O        -1.6586643212       11.7764076511        5.6649789102
  O         0.8981992300        7.3334351041        5.6646192586
  O         3.4724356309        2.8950612485        5.6660073491
  O        -6.7862132389       11.7733846801        5.6669179852
  O        -4.2264681078        7.3330154168        5.6739185508
  O        -1.6616972381        2.8935797396        5.6670159391
 Fe         7.7823178447       10.2722102196        6.4331839747
 Fe        10.3492686897        5.8275110068        6.4368087567
 Fe        12.9081139010        1.3921448887        6.4336665336
 Fe         2.6557613245       10.2686851526        6.4337968841
 Fe         5.1836594086        5.8671486874        6.4386138628
 Fe         7.7856709993        1.3658107415        6.4302862646
 Fe        -2.4700959349       10.2747570563        6.4331346667
 Fe         0.0918718931        5.8302266396        6.4344091340
 Fe         2.6560821287        1.3918832026        6.4325653756
  O         7.8274840110       10.3942832482        8.2598815784
  H         7.8367302579        9.5777980491        8.7909218557
  H         5.3512814585       10.6093288580        6.6707723395
  O        10.3969301924        5.8544211508        8.2767259441
  H        10.7638903597        5.0738590172        8.7297986107
  H         7.9130191020        6.2578512499        6.6412138222
  O        12.9340635749        1.5326077370        8.2607923324
  H        12.9873052449        0.7197882495        8.7952921554
  H        10.4755821808        1.7189916379        6.6735264109
  O         2.7084477176       10.3814220660        8.2602125998
  H         2.8071120387        9.5575698607        8.7719581724
  H         0.2204069336       10.6047587484        6.6707385920
  O         4.9207809536        6.2935418942        8.1834824916
  H         4.8624284365        5.7252621439        8.9752088920
  H         2.8088832138        6.1895427938        6.6533417599
  O         7.9208478076        1.2504568159        8.2651546982
  H         8.0036251353        0.3543279975        8.6410077310
  H         5.3398919078        1.7331182741        6.6727742152
  O        -2.3795180312       10.4027897827        8.2581387560
  H        -2.3277336410        9.5858246834        8.7862084505
  H        -4.9073184434       10.6234565135        6.6670076800
  O         0.0878396713        5.9477372357        8.2598213451
  H         0.2111217624        5.1430661442        8.7948304549
  H        -2.3340432714        6.1854386265        6.6645195160
  O         2.7075221286        1.5113866600        8.2555069679
  H         2.7697690960        0.7017983123        8.7935356842
  H         0.2250405225        1.7384788099        6.6670633850
  C         7.4548670404        4.0768974590        9.2495268087
  C         6.3796830059        4.3860603086       10.1658237333
  H         7.6640185120        2.9924002722        9.2353664978
  H         7.1540456314        4.3583000222        8.2279171510
  H         8.3668166290        4.6364208667        9.5038873298
  N         5.4890203910        4.6432246978       10.8786855431
     168
 i =       53, E =     -8144.3757372690
 Fe         5.0938794100       11.8196869300        0.3885799900
 Fe         7.6575796300        7.3792284900        0.3885799900
 Fe        10.2212798400        2.9387700600        0.3885799900
 Fe        -0.0335205200       11.8196869300        0.3885799900
 Fe         2.5301797000        7.3792284900        0.3885799900
 Fe         5.0938799200        2.9387700600        0.3885799900
 Fe        -5.1609204400       11.8196869300        0.3885799900
 Fe        -2.5972202200        7.3792284900        0.3885799900
 Fe        -0.0335200000        2.9387700600        0.3885799900
  O         8.4519195100        8.9577468800        1.1642700400
  O        11.0156197300        4.5172884400        1.1642700400
  O        13.5793199500        0.0768300000        1.1642700400
  O         3.3245195900        8.9577468800        1.1642700400
  O         5.8882198100        4.5172884400        1.1642700400
  O         8.4519200300        0.0768300000        1.1642700400
  O        -1.8028803300        8.9577468800        1.1642700400
  O         0.7608198900        4.5172884400        1.1642700400
  O         3.3245201100        0.0768300000        1.1642700400
  O         8.4568493000       11.7183869300        1.1650400200
  O        11.0205495200        7.2779284900        1.1650400200
  O        13.5842497300        2.8374700500        1.1650400200
  O         3.3294493700       11.7183869300        1.1650400200
  O         5.8931495900        7.2779284900        1.1650400200
  O         8.4568498100        2.8374700500        1.1650400200
  O        -1.7979505500       11.7183869300        1.1650400200
  O         0.7657496700        7.2779284900        1.1650400200
  O         3.3294498900        2.8374700500        1.1650400200
  O         6.0627194200       10.3425368500        1.1660399400
  O         8.6264196400        5.9020784100        1.1660399400
  O        11.1901198600        1.4616199700        1.1660399400
  O         0.9353195000       10.3425368500        1.1660399400
  O         3.4990197200        5.9020784100        1.1660399400
  O         6.0627199400        1.4616199700        1.1660399400
  O        -4.1920804200       10.3425368500        1.1660399400
  O        -1.6283802000        5.9020784100        1.1660399400
  O         0.9353200200        1.4616199700        1.1660399400
 Fe         7.6576695000       13.2997167500        1.9292099500
 Fe        10.2213697200        8.8592583200        1.9292099500
 Fe        12.7850699400        4.4187998800        1.9292099500
 Fe         2.5302695800       13.2997167500        1.9292099500
 Fe         5.0939698000        8.8592583200        1.9292099500
 Fe         7.6576700200        4.4187998800        1.9292099500
 Fe        -2.5971303400       13.2997167500        1.9292099500
 Fe        -0.0334301200        8.8592583200        1.9292099500
 Fe         2.5302701000        4.4187998800        1.9292099500
 Fe         7.6573893600       10.3392168700        2.7128999200
 Fe        10.2210895800        5.8987584300        2.7128999200
 Fe        12.7847898000        1.4582999900        2.7128999200
 Fe         2.5299894400       10.3392168700        2.7128999200
 Fe         5.0936896600        5.8987584300        2.7128999200
 Fe         7.6573898800        1.4582999900        2.7128999200
 Fe        -2.5974104800       10.3392168700        2.7128999200
 Fe        -0.0337102600        5.8987584300        2.7128999200
 Fe         2.5299899600        1.4582999900        2.7128999200
  O         4.0922506932       13.3167509180        3.5113737126
  O         6.6589757467        8.8772364640        3.5117704916
  O         9.2115272434        4.4321975893        3.5155064671
  O        -1.0335958760       13.3173386420        3.5124085780
  O         1.5277277850        8.8742243040        3.5095948191
  O         4.1009497489        4.4354880709        3.5173046704
  O        -6.1615100722       13.3157347758        3.5121581478
  O        -3.5985031318        8.8752558319        3.5130153436
  O        -1.0379614038        4.4339514186        3.5101778987
  O         6.8130600810       11.8742269923        3.4954033302
  O         9.3781391863        7.4317657139        3.4958348548
  O        11.9366862967        2.9914956678        3.4953836676
  O         1.6866184216       11.8748118292        3.4894373346
  O         4.2505256297        7.4324829847        3.4937301773
  O         6.8174296448        2.9972978404        3.5097714125
  O        -3.4421027667       11.8743645167        3.4932881927
  O        -0.8810869947        7.4314570593        3.4941199886
  O         1.6854275209        2.9903338131        3.4940558802
  O         9.4268759798       10.2231320720        3.4892086233
  O        11.9905198537        5.7826168855        3.4856723245
  O        14.5539199155        1.3433117337        3.4889973803
  O         4.3004355894       10.2265558492        3.4880221335
  O         6.8691213851        5.7715947298        3.4830336024
  O         9.4236759640        1.3510319274        3.4928928377
  O        -0.8278556642       10.2231079626        3.4878998378
  O         1.7360357073        5.7812820873        3.4772274274
  O         4.3019965214        1.3483992533        3.4897190355
 Fe         5.0365452548       11.8367749517        4.4219395781
 Fe         7.6009149548        7.3962578852        4.4132839342
 Fe        10.1568635853        2.9585066189        4.4218639868
 Fe        -0.0903196003       11.8319761044        4.4172971992
 Fe         2.4701833113        7.3933066756        4.4196668360
 Fe         5.0376186263        2.9625481418        4.4245026890
 Fe        -5.2169619744       11.8365481232        4.4222214709
 Fe        -2.6574130019        7.3963483631        4.4229538960
 Fe        -0.0926247787        2.9576337190        4.4199419565
 Fe         7.6087517788       13.1865356225        4.8034254724
 Fe        10.1722916755        8.7456661226        4.8065589864
 Fe        12.7361695205        4.3047874320        4.8045748207
 Fe         2.4865602309       13.1845429825        4.8020468516
 Fe         5.0458371911        8.7462643184        4.8060910991
 Fe         7.6011734016        4.3081539004        4.8376982232
 Fe        -2.6439540473       13.1875197870        4.8048605481
 Fe        -0.0828355023        8.7430141104        4.8021941523
 Fe         2.4772939159        4.3032448119        4.8031706280
  O         5.8553019372       10.3470321154        5.8680304363
  O         8.4280493834        5.9190833868        5.8777219245
  O        10.9806070056        1.4659126372        5.8670176563
  O         0.7287889604       10.3454713576        5.8658605546
  O         3.2710846353        5.9137854519        5.8280604642
  O         5.8605125180        1.4713071631        5.8819159023
  O        -4.3962996492       10.3477488475        5.8712221271
  O        -1.8369251634        5.9103642230        5.8640868635
  O         0.7295659264        1.4679148483        5.8659922823
  O         5.9249845818       13.1765391032        5.6884985106
  O         8.4893621155        8.7328292097        5.6902405608
  O        11.0518653695        4.2935671159        5.6854371596
  O         0.7982699819       13.1687865998        5.6688027386
  O         3.3626428544        8.7359350823        5.6794521130
  O         5.9328138171        4.3165698751        5.7423499443
  O        -4.3262868141       13.1751485207        5.6840334847
  O        -1.7681343236        8.7360556593        5.6844261370
  O         0.7953020622        4.2932912912        5.6829974009
  O         3.4655276977       11.7734030854        5.6653283590
  O         6.0462212207        7.3308106362        5.6547386083
  O         8.5884284575        2.8964122406        5.7054052340
  O        -1.6576723062       11.7775907845        5.6644548618
  O         0.9014925175        7.3305860623        5.6615574269
  O         3.4708527457        2.8964696785        5.6656034741
  O        -6.7841169538       11.7746893202        5.6672884359
  O        -4.2260501049        7.3323362470        5.6742708857
  O        -1.6621474039        2.8951032546        5.6678975082
 Fe         7.7823120234       10.2746432729        6.4331967674
 Fe        10.3491267085        5.8275015066        6.4362913584
 Fe        12.9076436283        1.3929513689        6.4336742659
 Fe         2.6543892657       10.2687676397        6.4338946247
 Fe         5.1838167270        5.8658507728        6.4386487325
 Fe         7.7860998234        1.3702252078        6.4306370639
 Fe        -2.4698341686       10.2753627598        6.4333966259
 Fe         0.0917938473        5.8316942200        6.4326983043
 Fe         2.6555719926        1.3921148817        6.4320424801
  O         7.8272911314       10.3999721840        8.2593035263
  H         7.8315344906        9.5839229774        8.7910096278
  H         5.3496621986       10.6086218972        6.6705406784
  O        10.4112896871        5.8465902351        8.2771344131
  H        10.7900937769        5.0631810286        8.7161190616
  H         7.9100941877        6.2557814995        6.6417889175
  O        12.9315224174        1.5366932869        8.2605515412
  H        12.9834379318        0.7266606453        8.7993254524
  H        10.4786479596        1.7180409827        6.6743935877
  O         2.7091211159       10.3808844411        8.2600605239
  H         2.8115227358        9.5573515432        8.7715353339
  H         0.2155467098       10.5948813470        6.6669281256
  O         4.9135631283        6.2817125398        8.1861270025
  H         4.8564011808        5.7079224550        8.9739396323
  H         2.8104901021        6.1884328509        6.6541450742
  O         7.9298455515        1.2624007023        8.2655708971
  H         8.0113414018        0.3666458453        8.6427572158
  H         5.3399381770        1.7316335909        6.6751234410
  O        -2.3752085587       10.4041873847        8.2576614886
  H        -2.3173012799        9.5892223218        8.7880314480
  H        -4.9075165156       10.6180063701        6.6666675963
  O         0.0824823384        5.9521142209        8.2576000955
  H         0.2085506076        5.1461816513        8.7901237709
  H        -2.3348640936        6.1822880807        6.6675124048
  O         2.7075732331        1.5161480415        8.2545298517
  H         2.7717387724        0.7085567649        8.7953062198
  H         0.2237880152        1.7313396753        6.6672631619
  C         7.4752484623        4.0956867432        9.2448315460
  C         6.3987270227        4.3837702130       10.1674900741
  H         7.7267536026        3.0189339752        9.2535096706
  H         7.1505770164        4.3379314458        8.2191396960
  H         8.3678583065        4.6993563043        9.4739948601
  N         5.5031614401        4.6270593767       10.8793555887
     168
 i =       54, E =     -8144.3758670243
 Fe         5.0938794100       11.8196869300        0.3885799900
 Fe         7.6575796300        7.3792284900        0.3885799900
 Fe        10.2212798400        2.9387700600        0.3885799900
 Fe        -0.0335205200       11.8196869300        0.3885799900
 Fe         2.5301797000        7.3792284900        0.3885799900
 Fe         5.0938799200        2.9387700600        0.3885799900
 Fe        -5.1609204400       11.8196869300        0.3885799900
 Fe        -2.5972202200        7.3792284900        0.3885799900
 Fe        -0.0335200000        2.9387700600        0.3885799900
  O         8.4519195100        8.9577468800        1.1642700400
  O        11.0156197300        4.5172884400        1.1642700400
  O        13.5793199500        0.0768300000        1.1642700400
  O         3.3245195900        8.9577468800        1.1642700400
  O         5.8882198100        4.5172884400        1.1642700400
  O         8.4519200300        0.0768300000        1.1642700400
  O        -1.8028803300        8.9577468800        1.1642700400
  O         0.7608198900        4.5172884400        1.1642700400
  O         3.3245201100        0.0768300000        1.1642700400
  O         8.4568493000       11.7183869300        1.1650400200
  O        11.0205495200        7.2779284900        1.1650400200
  O        13.5842497300        2.8374700500        1.1650400200
  O         3.3294493700       11.7183869300        1.1650400200
  O         5.8931495900        7.2779284900        1.1650400200
  O         8.4568498100        2.8374700500        1.1650400200
  O        -1.7979505500       11.7183869300        1.1650400200
  O         0.7657496700        7.2779284900        1.1650400200
  O         3.3294498900        2.8374700500        1.1650400200
  O         6.0627194200       10.3425368500        1.1660399400
  O         8.6264196400        5.9020784100        1.1660399400
  O        11.1901198600        1.4616199700        1.1660399400
  O         0.9353195000       10.3425368500        1.1660399400
  O         3.4990197200        5.9020784100        1.1660399400
  O         6.0627199400        1.4616199700        1.1660399400
  O        -4.1920804200       10.3425368500        1.1660399400
  O        -1.6283802000        5.9020784100        1.1660399400
  O         0.9353200200        1.4616199700        1.1660399400
 Fe         7.6576695000       13.2997167500        1.9292099500
 Fe        10.2213697200        8.8592583200        1.9292099500
 Fe        12.7850699400        4.4187998800        1.9292099500
 Fe         2.5302695800       13.2997167500        1.9292099500
 Fe         5.0939698000        8.8592583200        1.9292099500
 Fe         7.6576700200        4.4187998800        1.9292099500
 Fe        -2.5971303400       13.2997167500        1.9292099500
 Fe        -0.0334301200        8.8592583200        1.9292099500
 Fe         2.5302701000        4.4187998800        1.9292099500
 Fe         7.6573893600       10.3392168700        2.7128999200
 Fe        10.2210895800        5.8987584300        2.7128999200
 Fe        12.7847898000        1.4582999900        2.7128999200
 Fe         2.5299894400       10.3392168700        2.7128999200
 Fe         5.0936896600        5.8987584300        2.7128999200
 Fe         7.6573898800        1.4582999900        2.7128999200
 Fe        -2.5974104800       10.3392168700        2.7128999200
 Fe        -0.0337102600        5.8987584300        2.7128999200
 Fe         2.5299899600        1.4582999900        2.7128999200
  O         4.0924297079       13.3173269476        3.5116609087
  O         6.6591827186        8.8774743502        3.5121433408
  O         9.2113231086        4.4325579743        3.5151776220
  O        -1.0331904647       13.3173914978        3.5128962533
  O         1.5276850627        8.8743303741        3.5098085097
  O         4.1008239164        4.4357402821        3.5173680709
  O        -6.1612314035       13.3159737781        3.5122853894
  O        -3.5982188968        8.8757291858        3.5132780219
  O        -1.0378583659        4.4340005709        3.5104377246
  O         6.8136099159       11.8739772197        3.4962223338
  O         9.3775133001        7.4312295927        3.4962440603
  O        11.9372542277        2.9916959414        3.4952555488
  O         1.6859280597       11.8743767807        3.4901655152
  O         4.2509539297        7.4320201985        3.4944076522
  O         6.8167857696        2.9963867308        3.5101189589
  O        -3.4417851700       11.8740905702        3.4940960009
  O        -0.8807718553        7.4311707694        3.4950156223
  O         1.6848574849        2.9894514235        3.4947339679
  O         9.4261507065       10.2227582673        3.4897245861
  O        11.9902452189        5.7826398707        3.4855037520
  O        14.5538004387        1.3436081305        3.4892237701
  O         4.3000535496       10.2264518824        3.4880296376
  O         6.8684927892        5.7728070482        3.4842245041
  O         9.4235644287        1.3514420796        3.4930615734
  O        -0.8281155382       10.2226331802        3.4882502544
  O         1.7359058142        5.7804314945        3.4769233573
  O         4.3015793699        1.3489940482        3.4906758701
 Fe         5.0355932104       11.8375398965        4.4218095788
 Fe         7.6006022362        7.3977068545        4.4144313811
 Fe        10.1566965709        2.9589515906        4.4216213567
 Fe        -0.0902244128       11.8325956071        4.4182588237
 Fe         2.4707163512        7.3922202690        4.4194157158
 Fe         5.0368164190        2.9633605217        4.4245185017
 Fe        -5.2167360719       11.8366163212        4.4226818448
 Fe        -2.6580000436        7.3967590087        4.4233186816
 Fe        -0.0930283006        2.9583171204        4.4209603210
 Fe         7.6086215609       13.1868602039        4.8024925698
 Fe        10.1719308807        8.7458019858        4.8050243121
 Fe        12.7358091559        4.3052948598        4.8042347108
 Fe         2.4859913397       13.1850471110        4.8019523960
 Fe         5.0454842548        8.7464822526        4.8067047913
 Fe         7.6010593972        4.3089600627        4.8349272181
 Fe        -2.6436693853       13.1881068925        4.8053019004
 Fe        -0.0828992117        8.7429443740        4.8017939227
 Fe         2.4769715578        4.3027378060        4.8031724905
  O         5.8546325678       10.3470198632        5.8686503226
  O         8.4283342410        5.9189843257        5.8786641821
  O        10.9812231411        1.4666830100        5.8667277660
  O         0.7287475019       10.3438330741        5.8653270197
  O         3.2714155598        5.9135341322        5.8276854020
  O         5.8604732096        1.4717146886        5.8830256955
  O        -4.3959738455       10.3459691775        5.8716345332
  O        -1.8378175564        5.9109147675        5.8642573440
  O         0.7292912157        1.4664431252        5.8664082101
  O         5.9246436887       13.1760006407        5.6888949903
  O         8.4902013160        8.7335436513        5.6913895341
  O        11.0507682865        4.2940894531        5.6837779778
  O         0.7979228433       13.1707131264        5.6691360764
  O         3.3628797733        8.7359290288        5.6800889586
  O         5.9329600394        4.3164486912        5.7410039531
  O        -4.3257781768       13.1746528186        5.6845554536
  O        -1.7678648398        8.7360515899        5.6851142776
  O         0.7943266654        4.2939707955        5.6819654534
  O         3.4653923633       11.7741590158        5.6654843811
  O         6.0460022425        7.3309201324        5.6568469995
  O         8.5886272920        2.8978684550        5.7033780517
  O        -1.6576924372       11.7779809713        5.6641253618
  O         0.9032181696        7.3291821310        5.6598945704
  O         3.4702936020        2.8966678889        5.6656276477
  O        -6.7831668619       11.7753156216        5.6675748357
  O        -4.2261247145        7.3324129401        5.6736721572
  O        -1.6629103225        2.8961701912        5.6683702690
 Fe         7.7822256119       10.2758647504        6.4329724943
 Fe        10.3491715051        5.8277457551        6.4365079803
 Fe        12.9081969781        1.3931224163        6.4334831269
 Fe         2.6540744813       10.2692472673        6.4336330655
 Fe         5.1839116157        5.8643337103        6.4391333962
 Fe         7.7864577602        1.3731210870        6.4307657489
 Fe        -2.4693155790       10.2754725270        6.4336245282
 Fe         0.0910406819        5.8325040834        6.4320244969
 Fe         2.6554867749        1.3921161269        6.4318512659
  O         7.8271667710       10.4042649901        8.2589194770
  H         7.8276063868        9.5888484859        8.7916749193
  H         5.3487170519       10.6083749634        6.6711197284
  O        10.4226224825        5.8403869482        8.2779680560
  H        10.8097843082        5.0550747929        8.7066853621
  H         7.9078644312        6.2539106330        6.6418222355
  O        12.9293286844        1.5401864420        8.2603041999
  H        12.9803786206        0.7319605365        8.8018430548
  H        10.4797418064        1.7172589241        6.6749481619
  O         2.7097345432       10.3803711849        8.2598783969
  H         2.8148491571        9.5570462573        8.7711727861
  H         0.2130810079       10.5892783475        6.6659641500
  O         4.9087504944        6.2722236602        8.1883956976
  H         4.8521027707        5.6939851583        8.9730281396
  H         2.8115781581        6.1875025984        6.6544716252
  O         7.9384999678        1.2725070589        8.2657623225
  H         8.0174445760        0.3769477022        8.6440841465
  H         5.3399999043        1.7303471686        6.6768152732
  O        -2.3720275934       10.4053608589        8.2576829377
  H        -2.3091635393        9.5915099346        8.7892362652
  H        -4.9073546917       10.6146575800        6.6675857390
  O         0.0789097517        5.9552420899        8.2563866138
  H         0.2061515289        5.1487737095        8.7877972640
  H        -2.3352954557        6.1796398614        6.6691360866
  O         2.7076788639        1.5198010965        8.2538473943
  H         2.7733458455        0.7138017699        8.7967475571
  H         0.2233966580        1.7273426743        6.6684042862
  C         7.4912366933        4.1111114540        9.2404329801
  C         6.4142190634        4.3834905326       10.1677677846
  H         7.7746010018        3.0418229246        9.2663287100
  H         7.1491949342        4.3226626914        8.2126978806
  H         8.3677802448        4.7463919161        9.4503572342
  N         5.5147158029        4.6146508928       10.8791261538
     168
 i =       55, E =     -8144.3760762072
 Fe         5.0938794100       11.8196869300        0.3885799900
 Fe         7.6575796300        7.3792284900        0.3885799900
 Fe        10.2212798400        2.9387700600        0.3885799900
 Fe        -0.0335205200       11.8196869300        0.3885799900
 Fe         2.5301797000        7.3792284900        0.3885799900
 Fe         5.0938799200        2.9387700600        0.3885799900
 Fe        -5.1609204400       11.8196869300        0.3885799900
 Fe        -2.5972202200        7.3792284900        0.3885799900
 Fe        -0.0335200000        2.9387700600        0.3885799900
  O         8.4519195100        8.9577468800        1.1642700400
  O        11.0156197300        4.5172884400        1.1642700400
  O        13.5793199500        0.0768300000        1.1642700400
  O         3.3245195900        8.9577468800        1.1642700400
  O         5.8882198100        4.5172884400        1.1642700400
  O         8.4519200300        0.0768300000        1.1642700400
  O        -1.8028803300        8.9577468800        1.1642700400
  O         0.7608198900        4.5172884400        1.1642700400
  O         3.3245201100        0.0768300000        1.1642700400
  O         8.4568493000       11.7183869300        1.1650400200
  O        11.0205495200        7.2779284900        1.1650400200
  O        13.5842497300        2.8374700500        1.1650400200
  O         3.3294493700       11.7183869300        1.1650400200
  O         5.8931495900        7.2779284900        1.1650400200
  O         8.4568498100        2.8374700500        1.1650400200
  O        -1.7979505500       11.7183869300        1.1650400200
  O         0.7657496700        7.2779284900        1.1650400200
  O         3.3294498900        2.8374700500        1.1650400200
  O         6.0627194200       10.3425368500        1.1660399400
  O         8.6264196400        5.9020784100        1.1660399400
  O        11.1901198600        1.4616199700        1.1660399400
  O         0.9353195000       10.3425368500        1.1660399400
  O         3.4990197200        5.9020784100        1.1660399400
  O         6.0627199400        1.4616199700        1.1660399400
  O        -4.1920804200       10.3425368500        1.1660399400
  O        -1.6283802000        5.9020784100        1.1660399400
  O         0.9353200200        1.4616199700        1.1660399400
 Fe         7.6576695000       13.2997167500        1.9292099500
 Fe        10.2213697200        8.8592583200        1.9292099500
 Fe        12.7850699400        4.4187998800        1.9292099500
 Fe         2.5302695800       13.2997167500        1.9292099500
 Fe         5.0939698000        8.8592583200        1.9292099500
 Fe         7.6576700200        4.4187998800        1.9292099500
 Fe        -2.5971303400       13.2997167500        1.9292099500
 Fe        -0.0334301200        8.8592583200        1.9292099500
 Fe         2.5302701000        4.4187998800        1.9292099500
 Fe         7.6573893600       10.3392168700        2.7128999200
 Fe        10.2210895800        5.8987584300        2.7128999200
 Fe        12.7847898000        1.4582999900        2.7128999200
 Fe         2.5299894400       10.3392168700        2.7128999200
 Fe         5.0936896600        5.8987584300        2.7128999200
 Fe         7.6573898800        1.4582999900        2.7128999200
 Fe        -2.5974104800       10.3392168700        2.7128999200
 Fe        -0.0337102600        5.8987584300        2.7128999200
 Fe         2.5299899600        1.4582999900        2.7128999200
  O         4.0928349192       13.3169015950        3.5118241272
  O         6.6592467581        8.8780179682        3.5128424408
  O         9.2110440040        4.4329134776        3.5138711141
  O        -1.0336387825       13.3175460895        3.5128849181
  O         1.5284717403        8.8746990883        3.5103508269
  O         4.1007211989        4.4355370659        3.5178974125
  O        -6.1607461976       13.3161973982        3.5122810484
  O        -3.5979257422        8.8758889004        3.5136733335
  O        -1.0376018490        4.4343008338        3.5106545314
  O         6.8139386916       11.8731305267        3.4974797066
  O         9.3763418862        7.4313595436        3.4957147839
  O        11.9377565931        2.9919081351        3.4947146495
  O         1.6847179552       11.8736426740        3.4917024824
  O         4.2516494199        7.4319435805        3.4947106068
  O         6.8151453438        2.9947919834        3.5101640103
  O        -3.4417508669       11.8735507587        3.4949152577
  O        -0.8805091868        7.4310472839        3.4953917226
  O         1.6839176107        2.9874670567        3.4968909841
  O         9.4259196414       10.2225361695        3.4899075132
  O        11.9899242353        5.7833061095        3.4854357522
  O        14.5535802796        1.3433929359        3.4891797295
  O         4.3001783103       10.2263614828        3.4873683358
  O         6.8670226707        5.7749709995        3.4870074662
  O         9.4240551505        1.3517039357        3.4923727285
  O        -0.8286067547       10.2220582479        3.4874948660
  O         1.7360886968        5.7787261423        3.4771048623
  O         4.3016375208        1.3497160958        3.4915407484
 Fe         5.0340656755       11.8384143780        4.4225619717
 Fe         7.6000368129        7.4006084801        4.4148266922
 Fe        10.1561208093        2.9596647339        4.4211735118
 Fe        -0.0908942465       11.8335817320        4.4185822554
 Fe         2.4714135676        7.3905050151        4.4187736432
 Fe         5.0358578767        2.9642661769        4.4252929124
 Fe        -5.2168166390       11.8372751125        4.4228847707
 Fe        -2.6581755870        7.3974285235        4.4233617418
 Fe        -0.0939803731        2.9589377762        4.4218411318
 Fe         7.6087299722       13.1869814896        4.8032055445
 Fe        10.1711696620        8.7464254187        4.8037625259
 Fe        12.7354430722        4.3058811940        4.8030627670
 Fe         2.4844312394       13.1859316365        4.8022252983
 Fe         5.0449535306        8.7464133199        4.8081977562
 Fe         7.6010688526        4.3105804086        4.8290328819
 Fe        -2.6436406195       13.1887417903        4.8057570758
 Fe        -0.0829403239        8.7432852420        4.8028697296
 Fe         2.4763964991        4.3017538118        4.8038680284
  O         5.8535418037       10.3464896379        5.8705350168
  O         8.4289929293        5.9186836666        5.8802429478
  O        10.9817559295        1.4676030710        5.8665606562
  O         0.7276110683       10.3402466836        5.8664909244
  O         3.2724947907        5.9127886013        5.8264884888
  O         5.8608380265        1.4717214890        5.8855094716
  O        -4.3956399682       10.3425446879        5.8736455802
  O        -1.8392313105        5.9106328627        5.8641367513
  O         0.7281004007        1.4635596436        5.8684451937
  O         5.9246788766       13.1760589675        5.6894274558
  O         8.4918615979        8.7344852667        5.6934736354
  O        11.0488080779        4.2960681217        5.6799856698
  O         0.7964583337       13.1729684278        5.6699552426
  O         3.3632489398        8.7360917996        5.6808082132
  O         5.9340761242        4.3157858390        5.7391367024
  O        -4.3251379198       13.1739963355        5.6858684166
  O        -1.7665180354        8.7357966568        5.6868238637
  O         0.7925847532        4.2942993236        5.6815673731
  O         3.4645025952       11.7756383876        5.6662072385
  O         6.0457446060        7.3309428775        5.6609300737
  O         8.5881518937        2.9005761250        5.6989435729
  O        -1.6580522191       11.7775869211        5.6630662242
  O         0.9046637942        7.3281469834        5.6582256954
  O         3.4694456012        2.8961252483        5.6654562481
  O        -6.7823761254       11.7754643443        5.6678215928
  O        -4.2268574069        7.3328759008        5.6718117947
  O        -1.6640016570        2.8970295404        5.6686653424
 Fe         7.7818031050       10.2774008990        6.4326529972
 Fe        10.3492200492        5.8283086869        6.4370749740
 Fe        12.9084578323        1.3936379710        6.4335348488
 Fe         2.6541184926       10.2700645607        6.4334679145
 Fe         5.1837119241        5.8607524787        6.4400922545
 Fe         7.7875698869        1.3782152331        6.4308442296
 Fe        -2.4686092622       10.2753745196        6.4341655794
 Fe         0.0892927901        5.8333496185        6.4310926053
 Fe         2.6555537029        1.3920436714        6.4317260067
  O         7.8266642507       10.4136637892        8.2584564204
  H         7.8191135731        9.6000535422        8.7940524105
  H         5.3475675942       10.6084611215        6.6727971546
  O        10.4480719525        5.8260441681        8.2794388966
  H        10.8519952673        5.0377372451        8.6878502287
  H         7.9033112057        6.2496409828        6.6416400178
  O        12.9245375302        1.5484696785        8.2600241297
  H        12.9733910148        0.7435548147        8.8065613138
  H        10.4806300642        1.7155908322        6.6759380310
  O         2.7116031418       10.3794681139        8.2598998735
  H         2.8219653978        9.5560900310        8.7700462349
  H         0.2103948502       10.5805051835        6.6676572189
  O         4.8999699018        6.2514571716        8.1929450217
  H         4.8434474060        5.6627517093        8.9701522736
  H         2.8134538465        6.1852695173        6.6541912987
  O         7.9600750430        1.2953779676        8.2658157684
  H         8.0314881347        0.4005977334        8.6476765986
  H         5.3400186548        1.7279527745        6.6797221495
  O        -2.3647774084       10.4080869117        8.2582338117
  H        -2.2911761159        9.5960431045        8.7914065515
  H        -4.9068083869       10.6087339113        6.6707663494
  O         0.0719778565        5.9612530122        8.2542999304
  H         0.2001454595        5.1548143247        8.7854235319
  H        -2.3361531802        6.1741274696        6.6712429794
  O         2.7082878828        1.5277739144        8.2525359218
  H         2.7769484744        0.7253815691        8.8002470995
  H         0.2234508743        1.7208001196        6.6724509906
  C         7.5284616592        4.1467317637        9.2296306695
  C         6.4483568631        4.3835988785       10.1640442441
  H         7.8782791120        3.0970380556        9.2920260921
  H         7.1492428145        4.2902842802        8.2000329116
  H         8.3675849089        4.8473198669        9.3966070661
  N         5.5441749842        4.5845420951       10.8794562147
     168
 i =       56, E =     -8144.3762556834
 Fe         5.0938794100       11.8196869300        0.3885799900
 Fe         7.6575796300        7.3792284900        0.3885799900
 Fe        10.2212798400        2.9387700600        0.3885799900
 Fe        -0.0335205200       11.8196869300        0.3885799900
 Fe         2.5301797000        7.3792284900        0.3885799900
 Fe         5.0938799200        2.9387700600        0.3885799900
 Fe        -5.1609204400       11.8196869300        0.3885799900
 Fe        -2.5972202200        7.3792284900        0.3885799900
 Fe        -0.0335200000        2.9387700600        0.3885799900
  O         8.4519195100        8.9577468800        1.1642700400
  O        11.0156197300        4.5172884400        1.1642700400
  O        13.5793199500        0.0768300000        1.1642700400
  O         3.3245195900        8.9577468800        1.1642700400
  O         5.8882198100        4.5172884400        1.1642700400
  O         8.4519200300        0.0768300000        1.1642700400
  O        -1.8028803300        8.9577468800        1.1642700400
  O         0.7608198900        4.5172884400        1.1642700400
  O         3.3245201100        0.0768300000        1.1642700400
  O         8.4568493000       11.7183869300        1.1650400200
  O        11.0205495200        7.2779284900        1.1650400200
  O        13.5842497300        2.8374700500        1.1650400200
  O         3.3294493700       11.7183869300        1.1650400200
  O         5.8931495900        7.2779284900        1.1650400200
  O         8.4568498100        2.8374700500        1.1650400200
  O        -1.7979505500       11.7183869300        1.1650400200
  O         0.7657496700        7.2779284900        1.1650400200
  O         3.3294498900        2.8374700500        1.1650400200
  O         6.0627194200       10.3425368500        1.1660399400
  O         8.6264196400        5.9020784100        1.1660399400
  O        11.1901198600        1.4616199700        1.1660399400
  O         0.9353195000       10.3425368500        1.1660399400
  O         3.4990197200        5.9020784100        1.1660399400
  O         6.0627199400        1.4616199700        1.1660399400
  O        -4.1920804200       10.3425368500        1.1660399400
  O        -1.6283802000        5.9020784100        1.1660399400
  O         0.9353200200        1.4616199700        1.1660399400
 Fe         7.6576695000       13.2997167500        1.9292099500
 Fe        10.2213697200        8.8592583200        1.9292099500
 Fe        12.7850699400        4.4187998800        1.9292099500
 Fe         2.5302695800       13.2997167500        1.9292099500
 Fe         5.0939698000        8.8592583200        1.9292099500
 Fe         7.6576700200        4.4187998800        1.9292099500
 Fe        -2.5971303400       13.2997167500        1.9292099500
 Fe        -0.0334301200        8.8592583200        1.9292099500
 Fe         2.5302701000        4.4187998800        1.9292099500
 Fe         7.6573893600       10.3392168700        2.7128999200
 Fe        10.2210895800        5.8987584300        2.7128999200
 Fe        12.7847898000        1.4582999900        2.7128999200
 Fe         2.5299894400       10.3392168700        2.7128999200
 Fe         5.0936896600        5.8987584300        2.7128999200
 Fe         7.6573898800        1.4582999900        2.7128999200
 Fe        -2.5974104800       10.3392168700        2.7128999200
 Fe        -0.0337102600        5.8987584300        2.7128999200
 Fe         2.5299899600        1.4582999900        2.7128999200
  O         4.0927140017       13.3163410846        3.5119930329
  O         6.6594374820        8.8772365965        3.5127741506
  O         9.2110632177        4.4326849513        3.5129600014
  O        -1.0341861241       13.3169534122        3.5124906644
  O         1.5289829728        8.8756504086        3.5111899456
  O         4.1004142114        4.4350364494        3.5177356259
  O        -6.1610537471       13.3161266913        3.5120710521
  O        -3.5980747662        8.8756333920        3.5137368205
  O        -1.0364686517        4.4341030203        3.5115066811
  O         6.8135552649       11.8723830944        3.4971935294
  O         9.3757340468        7.4325006244        3.4938809571
  O        11.9370280224        2.9912220253        3.4951491990
  O         1.6838738446       11.8733588218        3.4919202587
  O         4.2520504552        7.4326093274        3.4938391709
  O         6.8148461742        2.9948972591        3.5094046743
  O        -3.4420871333       11.8732929552        3.4949786534
  O        -0.8804571987        7.4308331551        3.4950728872
  O         1.6832976264        2.9874489590        3.4969948561
  O         9.4270324173       10.2229912162        3.4890494056
  O        11.9892671037        5.7839668186        3.4868460975
  O        14.5540492848        1.3430157356        3.4877407119
  O         4.3009376314       10.2260398274        3.4864175433
  O         6.8668633651        5.7751942466        3.4875945820
  O         9.4244662688        1.3512066816        3.4918013039
  O        -0.8285513836       10.2230902427        3.4863910931
  O         1.7365156564        5.7782173388        3.4781168580
  O         4.3019151943        1.3489510201        3.4912389977
 Fe         5.0342414146       11.8377163571        4.4217682463
 Fe         7.6004200437        7.4005552768        4.4143695761
 Fe        10.1556665112        2.9596560659        4.4209747899
 Fe        -0.0918244947       11.8328710786        4.4188307277
 Fe         2.4711812110        7.3913929145        4.4174627430
 Fe         5.0362410327        2.9636860611        4.4250983490
 Fe        -5.2177311023       11.8377982189        4.4215073156
 Fe        -2.6571564787        7.3974739859        4.4218308569
 Fe        -0.0939308342        2.9571408213        4.4220740307
 Fe         7.6084007219       13.1865322163        4.8058389851
 Fe        10.1714754272        8.7466386673        4.8050478083
 Fe        12.7356729847        4.3057536069        4.8025130188
 Fe         2.4841529505       13.1854582983        4.8024178245
 Fe         5.0449076275        8.7461011300        4.8085677439
 Fe         7.6013362967        4.3107195737        4.8276534185
 Fe        -2.6443911935       13.1886000371        4.8059791331
 Fe        -0.0829433101        8.7437264401        4.8060600714
 Fe         2.4767175000        4.3013673714        4.8042626463
  O         5.8535452752       10.3461973879        5.8716104366
  O         8.4293316462        5.9178864806        5.8799647213
  O        10.9810726819        1.4670323654        5.8672073001
  O         0.7266331620       10.3392830058        5.8695809620
  O         3.2729073071        5.9127980705        5.8260588448
  O         5.8613738612        1.4709859684        5.8859867942
  O        -4.3959469947       10.3420455214        5.8756445632
  O        -1.8390294715        5.9093413367        5.8634049921
  O         0.7275046126        1.4623634023        5.8705589990
  O         5.9249635639       13.1756045746        5.6899622296
  O         8.4930107138        8.7345800915        5.6935822014
  O        11.0489125534        4.2968620662        5.6791221287
  O         0.7960417530       13.1720150123        5.6698326024
  O         3.3631902451        8.7358300011        5.6810483067
  O         5.9349569917        4.3148364358        5.7392524618
  O        -4.3258623964       13.1740708674        5.6862313764
  O        -1.7660320823        8.7349749454        5.6873907914
  O         0.7931097219        4.2939682404        5.6828269128
  O         3.4645662669       11.7758678569        5.6667675513
  O         6.0451308660        7.3307969489        5.6610563954
  O         8.5871321701        2.9004147551        5.6975724504
  O        -1.6592802807       11.7766865951        5.6627796733
  O         0.9030392652        7.3295087285        5.6598211649
  O         3.4700605678        2.8950661578        5.6652596724
  O        -6.7838217583       11.7748741563        5.6677240429
  O        -4.2273640300        7.3333685971        5.6709964750
  O        -1.6643192833        2.8961532115        5.6678718601
 Fe         7.7815889764       10.2765996516        6.4327688103
 Fe        10.3492386244        5.8282051733        6.4364762787
 Fe        12.9081909223        1.3935983471        6.4334186984
 Fe         2.6549027011       10.2702307463        6.4333814998
 Fe         5.1837391156        5.8593832073        6.4402508405
 Fe         7.7880889623        1.3779284787        6.4302675165
 Fe        -2.4684145580       10.2749033501        6.4342462040
 Fe         0.0886585641        5.8325071144        6.4318153879
 Fe         2.6560265481        1.3919874795        6.4320191952
  O         7.8263764680       10.4150858893        8.2588802373
  H         7.8179075975        9.6024276942        8.7958456312
  H         5.3482696086       10.6089790878        6.6740168221
  O        10.4542179648        5.8228562825        8.2779566811
  H        10.8573093196        5.0356122917        8.6867719857
  H         7.9028394433        6.2486615223        6.6408432950
  O        12.9236414417        1.5502790099        8.2598609623
  H        12.9718882693        0.7454218029        8.8064743807
  H        10.4788793408        1.7152441243        6.6759603067
  O         2.7125439434       10.3792791264        8.2600579085
  H         2.8228668680        9.5555729149        8.7696709903
  H         0.2127494223       10.5831600367        6.6718793843
  O         4.9006290413        6.2476877569        8.1932611424
  H         4.8431890143        5.6566725849        8.9686725615
  H         2.8132463076        6.1848285601        6.6535589653
  O         7.9656162270        1.2990585856        8.2646269230
  H         8.0347326511        0.4054253729        8.6493714290
  H         5.3401224220        1.7279309402        6.6796223982
  O        -2.3635193919       10.4085018913        8.2587669692
  H        -2.2880052792        9.5961830927        8.7912475228
  H        -4.9064075939       10.6094479638        6.6729790416
  O         0.0722010815        5.9613670850        8.2549210458
  H         0.1981896528        5.1561541908        8.7882768454
  H        -2.3362451576        6.1733462983        6.6700932942
  O         2.7087615644        1.5289626094        8.2526471697
  H         2.7776917824        0.7273378759        8.8013413988
  H         0.2244974949        1.7226649896        6.6747088411
  C         7.5351154064        4.1552565618        9.2257982928
  C         6.4551511744        4.3854208419       10.1611482177
  H         7.8937222839        3.1134671881        9.2915706023
  H         7.1559513145        4.2874983046        8.1994623670
  H         8.3655463069        4.8582797487        9.3856298034
  N         5.5515029113        4.5792625533       10.8785365009
     168
 i =       57, E =     -8144.3764075730
 Fe         5.0938794100       11.8196869300        0.3885799900
 Fe         7.6575796300        7.3792284900        0.3885799900
 Fe        10.2212798400        2.9387700600        0.3885799900
 Fe        -0.0335205200       11.8196869300        0.3885799900
 Fe         2.5301797000        7.3792284900        0.3885799900
 Fe         5.0938799200        2.9387700600        0.3885799900
 Fe        -5.1609204400       11.8196869300        0.3885799900
 Fe        -2.5972202200        7.3792284900        0.3885799900
 Fe        -0.0335200000        2.9387700600        0.3885799900
  O         8.4519195100        8.9577468800        1.1642700400
  O        11.0156197300        4.5172884400        1.1642700400
  O        13.5793199500        0.0768300000        1.1642700400
  O         3.3245195900        8.9577468800        1.1642700400
  O         5.8882198100        4.5172884400        1.1642700400
  O         8.4519200300        0.0768300000        1.1642700400
  O        -1.8028803300        8.9577468800        1.1642700400
  O         0.7608198900        4.5172884400        1.1642700400
  O         3.3245201100        0.0768300000        1.1642700400
  O         8.4568493000       11.7183869300        1.1650400200
  O        11.0205495200        7.2779284900        1.1650400200
  O        13.5842497300        2.8374700500        1.1650400200
  O         3.3294493700       11.7183869300        1.1650400200
  O         5.8931495900        7.2779284900        1.1650400200
  O         8.4568498100        2.8374700500        1.1650400200
  O        -1.7979505500       11.7183869300        1.1650400200
  O         0.7657496700        7.2779284900        1.1650400200
  O         3.3294498900        2.8374700500        1.1650400200
  O         6.0627194200       10.3425368500        1.1660399400
  O         8.6264196400        5.9020784100        1.1660399400
  O        11.1901198600        1.4616199700        1.1660399400
  O         0.9353195000       10.3425368500        1.1660399400
  O         3.4990197200        5.9020784100        1.1660399400
  O         6.0627199400        1.4616199700        1.1660399400
  O        -4.1920804200       10.3425368500        1.1660399400
  O        -1.6283802000        5.9020784100        1.1660399400
  O         0.9353200200        1.4616199700        1.1660399400
 Fe         7.6576695000       13.2997167500        1.9292099500
 Fe        10.2213697200        8.8592583200        1.9292099500
 Fe        12.7850699400        4.4187998800        1.9292099500
 Fe         2.5302695800       13.2997167500        1.9292099500
 Fe         5.0939698000        8.8592583200        1.9292099500
 Fe         7.6576700200        4.4187998800        1.9292099500
 Fe        -2.5971303400       13.2997167500        1.9292099500
 Fe        -0.0334301200        8.8592583200        1.9292099500
 Fe         2.5302701000        4.4187998800        1.9292099500
 Fe         7.6573893600       10.3392168700        2.7128999200
 Fe        10.2210895800        5.8987584300        2.7128999200
 Fe        12.7847898000        1.4582999900        2.7128999200
 Fe         2.5299894400       10.3392168700        2.7128999200
 Fe         5.0936896600        5.8987584300        2.7128999200
 Fe         7.6573898800        1.4582999900        2.7128999200
 Fe        -2.5974104800       10.3392168700        2.7128999200
 Fe        -0.0337102600        5.8987584300        2.7128999200
 Fe         2.5299899600        1.4582999900        2.7128999200
  O         4.0920439014       13.3152947629        3.5115473940
  O         6.6590663826        8.8761690839        3.5123901218
  O         9.2116043821        4.4328844879        3.5118997997
  O        -1.0352490767       13.3166504633        3.5114922773
  O         1.5298477047        8.8763793267        3.5115494857
  O         4.1005065118        4.4341395466        3.5175026726
  O        -6.1613981503       13.3161392762        3.5123305426
  O        -3.5985110556        8.8750249413        3.5136235603
  O        -1.0357740438        4.4337365088        3.5114703901
  O         6.8124628877       11.8717428988        3.4962016783
  O         9.3750097264        7.4337312429        3.4923805758
  O        11.9362024228        2.9909446775        3.4947457432
  O         1.6836224340       11.8736476916        3.4916027157
  O         4.2523762581        7.4340448039        3.4920945117
  O         6.8138808132        2.9952105299        3.5072468672
  O        -3.4427739369       11.8734787833        3.4940905468
  O        -0.8811823802        7.4305963164        3.4936413314
  O         1.6828660472        2.9876767275        3.4968375148
  O         9.4287399295       10.2236146190        3.4880917856
  O        11.9893746395        5.7845807134        3.4869422113
  O        14.5542544813        1.3423477864        3.4868220684
  O         4.3018917724       10.2253998472        3.4855976907
  O         6.8664800722        5.7755923109        3.4877792782
  O         9.4253320944        1.3500373190        3.4903516962
  O        -0.8282129550       10.2242524595        3.4850236714
  O         1.7374104169        5.7784374380        3.4786656895
  O         4.3025364615        1.3473985654        3.4903054553
 Fe         5.0343859913       11.8368922573        4.4210708930
 Fe         7.6002590092        7.4003275460        4.4136181906
 Fe        10.1555424101        2.9593374444        4.4207910433
 Fe        -0.0928194840       11.8325801271        4.4183073957
 Fe         2.4708782693        7.3927601129        4.4167551676
 Fe         5.0370628568        2.9621657259        4.4252484043
 Fe        -5.2182610119       11.8385924672        4.4200809052
 Fe        -2.6563906602        7.3970381916        4.4205316818
 Fe        -0.0938117289        2.9555705759        4.4216914035
 Fe         7.6076072290       13.1858898337        4.8078819917
 Fe        10.1716629688        8.7469231893        4.8072228626
 Fe        12.7360905352        4.3053213429        4.8018458163
 Fe         2.4835916359       13.1849735580        4.8028185730
 Fe         5.0449321930        8.7454994688        4.8087651861
 Fe         7.6014479555        4.3111806479        4.8236017999
 Fe        -2.6451029485       13.1879041482        4.8058520461
 Fe        -0.0828224461        8.7441332716        4.8073104005
 Fe         2.4769115222        4.3014453496        4.8040649189
  O         5.8536185973       10.3460346939        5.8720905747
  O         8.4297980296        5.9165114157        5.8798196544
  O        10.9793600351        1.4662763490        5.8678388715
  O         0.7254448127       10.3391140868        5.8727446163
  O         3.2734266095        5.9129123229        5.8247651386
  O         5.8622956859        1.4690711469        5.8870845142
  O        -4.3959341322       10.3426124609        5.8776539709
  O        -1.8388584612        5.9072150473        5.8627573953
  O         0.7270583735        1.4618385177        5.8722328230
  O         5.9248463522       13.1757197649        5.6902139233
  O         8.4924443512        8.7348019945        5.6928436757
  O        11.0495060052        4.2972443965        5.6781076803
  O         0.7953243565       13.1707148393        5.6700463104
  O         3.3630127334        8.7356347643        5.6807739593
  O         5.9365117740        4.3133947699        5.7388493704
  O        -4.3265679352       13.1743231757        5.6868290894
  O        -1.7653515449        8.7338705035        5.6870655815
  O         0.7943198948        4.2931078191        5.6851370014
  O         3.4640679512       11.7753564219        5.6669409736
  O         6.0442948419        7.3304953857        5.6616706904
  O         8.5854678029        2.9008976860        5.6943194792
  O        -1.6603068397       11.7748475830        5.6618088058
  O         0.9005548004        7.3311097824        5.6606987915
  O         3.4707991063        2.8940836728        5.6644747218
  O        -6.7855261110       11.7737539605        5.6660665234
  O        -4.2281734077        7.3335834445        5.6702945868
  O        -1.6642573604        2.8944891782        5.6664505231
 Fe         7.7810739273       10.2761751236        6.4330379477
 Fe        10.3497196477        5.8276450387        6.4356775272
 Fe        12.9069569241        1.3937454442        6.4335125502
 Fe         2.6553374471       10.2697289200        6.4336228312
 Fe         5.1838690035        5.8571599271        6.4398878696
 Fe         7.7891259807        1.3783134708        6.4297525696
 Fe        -2.4682349895       10.2739460192        6.4343119910
 Fe         0.0884705519        5.8317599143        6.4323696444
 Fe         2.6564190095        1.3920598051        6.4322495379
  O         7.8251329684       10.4193134682        8.2592941279
  H         7.8139460685        9.6088613501        8.7993506829
  H         5.3495064350       10.6097022739        6.6748919300
  O        10.4691003215        5.8147772977        8.2752675415
  H        10.8769759420        5.0278452765        8.6796375089
  H         7.9015290924        6.2469700637        6.6394385324
  O        12.9212959413        1.5548642001        8.2595049123
  H        12.9676147324        0.7512271429        8.8080139254
  H        10.4768182764        1.7145284646        6.6764877420
  O         2.7153168432       10.3788685787        8.2603142961
  H         2.8257893052        9.5545806055        8.7688513831
  H         0.2155187266       10.5846621213        6.6774327222
  O         4.8994738884        6.2373700623        8.1941867024
  H         4.8409356773        5.6399185952        8.9646044006
  H         2.8130445058        6.1833656666        6.6523148007
  O         7.9784937434        1.3087565043        8.2624136146
  H         8.0440167078        0.4179544472        8.6539326799
  H         5.3399223019        1.7280554217        6.6793088372
  O        -2.3590915374       10.4098424628        8.2590741722
  H        -2.2788145144        9.5977683588        8.7911640283
  H        -4.9063032476       10.6090785404        6.6753223145
  O         0.0706616688        5.9624468467        8.2554088816
  H         0.1937945048        5.1594481554        8.7927138936
  H        -2.3365277059        6.1717670199        6.6689470655
  O         2.7100749046        1.5326980847        8.2525072072
  H         2.7795992823        0.7332045484        8.8041599919
  H         0.2254589052        1.7231847029        6.6770328298
  C         7.5556612585        4.1749555351        9.2178026292
  C         6.4729143325        4.3880019133       10.1541343139
  H         7.9470691628        3.1480938084        9.2998869978
  H         7.1633761194        4.2733377779        8.1939191820
  H         8.3639071807        4.9102431010        9.3541184964
  N         5.5706570355        4.5632248656       10.8779287059
     168
 i =       58, E =     -8144.3764907615
 Fe         5.0938794100       11.8196869300        0.3885799900
 Fe         7.6575796300        7.3792284900        0.3885799900
 Fe        10.2212798400        2.9387700600        0.3885799900
 Fe        -0.0335205200       11.8196869300        0.3885799900
 Fe         2.5301797000        7.3792284900        0.3885799900
 Fe         5.0938799200        2.9387700600        0.3885799900
 Fe        -5.1609204400       11.8196869300        0.3885799900
 Fe        -2.5972202200        7.3792284900        0.3885799900
 Fe        -0.0335200000        2.9387700600        0.3885799900
  O         8.4519195100        8.9577468800        1.1642700400
  O        11.0156197300        4.5172884400        1.1642700400
  O        13.5793199500        0.0768300000        1.1642700400
  O         3.3245195900        8.9577468800        1.1642700400
  O         5.8882198100        4.5172884400        1.1642700400
  O         8.4519200300        0.0768300000        1.1642700400
  O        -1.8028803300        8.9577468800        1.1642700400
  O         0.7608198900        4.5172884400        1.1642700400
  O         3.3245201100        0.0768300000        1.1642700400
  O         8.4568493000       11.7183869300        1.1650400200
  O        11.0205495200        7.2779284900        1.1650400200
  O        13.5842497300        2.8374700500        1.1650400200
  O         3.3294493700       11.7183869300        1.1650400200
  O         5.8931495900        7.2779284900        1.1650400200
  O         8.4568498100        2.8374700500        1.1650400200
  O        -1.7979505500       11.7183869300        1.1650400200
  O         0.7657496700        7.2779284900        1.1650400200
  O         3.3294498900        2.8374700500        1.1650400200
  O         6.0627194200       10.3425368500        1.1660399400
  O         8.6264196400        5.9020784100        1.1660399400
  O        11.1901198600        1.4616199700        1.1660399400
  O         0.9353195000       10.3425368500        1.1660399400
  O         3.4990197200        5.9020784100        1.1660399400
  O         6.0627199400        1.4616199700        1.1660399400
  O        -4.1920804200       10.3425368500        1.1660399400
  O        -1.6283802000        5.9020784100        1.1660399400
  O         0.9353200200        1.4616199700        1.1660399400
 Fe         7.6576695000       13.2997167500        1.9292099500
 Fe        10.2213697200        8.8592583200        1.9292099500
 Fe        12.7850699400        4.4187998800        1.9292099500
 Fe         2.5302695800       13.2997167500        1.9292099500
 Fe         5.0939698000        8.8592583200        1.9292099500
 Fe         7.6576700200        4.4187998800        1.9292099500
 Fe        -2.5971303400       13.2997167500        1.9292099500
 Fe        -0.0334301200        8.8592583200        1.9292099500
 Fe         2.5302701000        4.4187998800        1.9292099500
 Fe         7.6573893600       10.3392168700        2.7128999200
 Fe        10.2210895800        5.8987584300        2.7128999200
 Fe        12.7847898000        1.4582999900        2.7128999200
 Fe         2.5299894400       10.3392168700        2.7128999200
 Fe         5.0936896600        5.8987584300        2.7128999200
 Fe         7.6573898800        1.4582999900        2.7128999200
 Fe        -2.5974104800       10.3392168700        2.7128999200
 Fe        -0.0337102600        5.8987584300        2.7128999200
 Fe         2.5299899600        1.4582999900        2.7128999200
  O         4.0917032892       13.3146791956        3.5114524322
  O         6.6585037157        8.8753223924        3.5121344469
  O         9.2129451221        4.4330957514        3.5113356568
  O        -1.0359087156       13.3165331303        3.5109717355
  O         1.5298463753        8.8763847878        3.5114659749
  O         4.1004630033        4.4335321978        3.5165983117
  O        -6.1617227070       13.3157185947        3.5122798066
  O        -3.5989233740        8.8743150726        3.5129248101
  O        -1.0348286241        4.4333687341        3.5120468458
  O         6.8112472279       11.8718831363        3.4946759079
  O         9.3748923267        7.4343821136        3.4917624920
  O        11.9355451315        2.9903720134        3.4948649275
  O         1.6837657630       11.8737247256        3.4911849967
  O         4.2525573520        7.4349624904        3.4909939109
  O         6.8124595574        2.9953203273        3.5044170371
  O        -3.4438572378       11.8738954594        3.4931405077
  O        -0.8816571092        7.4304924154        3.4926811307
  O         1.6827770579        2.9884736194        3.4958090078
  O         9.4303377086       10.2242655522        3.4870419289
  O        11.9895290714        5.7850535413        3.4872584312
  O        14.5546076468        1.3413423072        3.4860904402
  O         4.3026919194       10.2249441478        3.4854893250
  O         6.8661066569        5.7763684895        3.4876587630
  O         9.4254391749        1.3486751959        3.4894631113
  O        -0.8275387172       10.2248302046        3.4846770174
  O         1.7380477297        5.7792842634        3.4789270733
  O         4.3026667071        1.3452207737        3.4895578140
 Fe         5.0350223420       11.8359370108        4.4205256401
 Fe         7.6005035890        7.4002368405        4.4133241568
 Fe        10.1559058831        2.9582623627        4.4208526023
 Fe        -0.0935081175       11.8320514325        4.4181529449
 Fe         2.4704767609        7.3945746504        4.4167406709
 Fe         5.0376025568        2.9602234470        4.4245816600
 Fe        -5.2187724825       11.8388473993        4.4194970256
 Fe        -2.6557980113        7.3966247078        4.4198920510
 Fe        -0.0932119560        2.9535061781        4.4210254974
 Fe         7.6069765160       13.1853100370        4.8093045704
 Fe        10.1722069286        8.7468155429        4.8095865977
 Fe        12.7367939177        4.3046725154        4.8018890332
 Fe         2.4832818384       13.1843150592        4.8029880186
 Fe         5.0452028252        8.7445502631        4.8088885146
 Fe         7.6014777683        4.3114228350        4.8176396721
 Fe        -2.6456942763       13.1870499719        4.8059586181
 Fe        -0.0825005010        8.7440873161        4.8089983850
 Fe         2.4771400425        4.3020165750        4.8032240636
  O         5.8539251476       10.3457977711        5.8721990568
  O         8.4305055206        5.9148044666        5.8796189695
  O        10.9769182088        1.4655755281        5.8685431032
  O         0.7250942791       10.3400279432        5.8759134544
  O         3.2737326880        5.9132687898        5.8234183590
  O         5.8633108936        1.4664681731        5.8884498586
  O        -4.3959478987       10.3431264682        5.8797756948
  O        -1.8385468100        5.9051197499        5.8623968525
  O         0.7270404309        1.4619183318        5.8735171792
  O         5.9247998207       13.1765852493        5.6904156569
  O         8.4914710085        8.7344344699        5.6929353775
  O        11.0504750642        4.2964616755        5.6772850661
  O         0.7947874900       13.1698153523        5.6699330132
  O         3.3627959583        8.7352728353        5.6806130989
  O         5.9380133620        4.3113758338        5.7371518820
  O        -4.3271837680       13.1748657677        5.6874342674
  O        -1.7656046130        8.7332529181        5.6862869840
  O         0.7961104975        4.2923536492        5.6868565039
  O         3.4634974409       11.7744063031        5.6665049598
  O         6.0436772596        7.3295559511        5.6622714984
  O         8.5838361947        2.9013176483        5.6900893566
  O        -1.6612509499       11.7733488416        5.6607519572
  O         0.8984996948        7.3317701566        5.6616344441
  O         3.4717268891        2.8935610186        5.6631985265
  O        -6.7872943053       11.7731392061        5.6649081150
  O        -4.2291626261        7.3332307822        5.6707544597
  O        -1.6638527502        2.8924116337        5.6645784996
 Fe         7.7807011889       10.2758031712        6.4334169898
 Fe        10.3508089856        5.8261142061        6.4358828584
 Fe        12.9050837948        1.3941814420        6.4335282126
 Fe         2.6556862742       10.2690486108        6.4337859509
 Fe         5.1845571318        5.8542627763        6.4389865688
 Fe         7.7904459473        1.3788009364        6.4300151699
 Fe        -2.4681485161       10.2734341261        6.4343555005
 Fe         0.0889157820        5.8306826667        6.4330225046
 Fe         2.6566634925        1.3924499591        6.4324755549
  O         7.8232383509       10.4241530496        8.2596695345
  H         7.8092665596        9.6169184187        8.8043003502
  H         5.3507185136       10.6104341894        6.6752691154
  O        10.4857737947        5.8063897463        8.2731371171
  H        10.9003018836        5.0184065751        8.6705248390
  H         7.8999489873        6.2451931053        6.6375038112
  O        12.9184733456        1.5599690264        8.2589387642
  H        12.9621526805        0.7580952058        8.8102208272
  H        10.4744388178        1.7132636706        6.6775390253
  O         2.7193667508       10.3780460174        8.2604430852
  H         2.8290409367        9.5531832699        8.7681518369
  H         0.2183888394       10.5867754579        6.6826598827
  O         4.8990600504        6.2246070291        8.1950810094
  H         4.8391207229        5.6192928775        8.9591352640
  H         2.8130015170        6.1818739570        6.6513415339
  O         7.9958435632        1.3212590579        8.2601892115
  H         8.0562813422        0.4336783782        8.6597997006
  H         5.3398269832        1.7286459311        6.6790027273
  O        -2.3534885955       10.4109371841        8.2589569919
  H        -2.2676691098        9.5994415605        8.7910055052
  H        -4.9062268229       10.6093825030        6.6774030343
  O         0.0689689447        5.9637275563        8.2562227640
  H         0.1882543756        5.1634456798        8.7984946718
  H        -2.3370579156        6.1703298301        6.6678824380
  O         2.7119621436        1.5370884438        8.2525466770
  H         2.7819726407        0.7402264205        8.8079295417
  H         0.2263861082        1.7243032937        6.6786309049
  C         7.5814305253        4.2027148307        9.2046350597
  C         6.4967655184        4.3891450297       10.1460572095
  H         8.0157183311        3.1928554699        9.3114430908
  H         7.1718298934        4.2553794030        8.1811526183
  H         8.3619900697        4.9716335556        9.3165674872
  N         5.5976927169        4.5447267315       10.8774040949
     168
 i =       59, E =     -8144.3765498427
 Fe         5.0938794100       11.8196869300        0.3885799900
 Fe         7.6575796300        7.3792284900        0.3885799900
 Fe        10.2212798400        2.9387700600        0.3885799900
 Fe        -0.0335205200       11.8196869300        0.3885799900
 Fe         2.5301797000        7.3792284900        0.3885799900
 Fe         5.0938799200        2.9387700600        0.3885799900
 Fe        -5.1609204400       11.8196869300        0.3885799900
 Fe        -2.5972202200        7.3792284900        0.3885799900
 Fe        -0.0335200000        2.9387700600        0.3885799900
  O         8.4519195100        8.9577468800        1.1642700400
  O        11.0156197300        4.5172884400        1.1642700400
  O        13.5793199500        0.0768300000        1.1642700400
  O         3.3245195900        8.9577468800        1.1642700400
  O         5.8882198100        4.5172884400        1.1642700400
  O         8.4519200300        0.0768300000        1.1642700400
  O        -1.8028803300        8.9577468800        1.1642700400
  O         0.7608198900        4.5172884400        1.1642700400
  O         3.3245201100        0.0768300000        1.1642700400
  O         8.4568493000       11.7183869300        1.1650400200
  O        11.0205495200        7.2779284900        1.1650400200
  O        13.5842497300        2.8374700500        1.1650400200
  O         3.3294493700       11.7183869300        1.1650400200
  O         5.8931495900        7.2779284900        1.1650400200
  O         8.4568498100        2.8374700500        1.1650400200
  O        -1.7979505500       11.7183869300        1.1650400200
  O         0.7657496700        7.2779284900        1.1650400200
  O         3.3294498900        2.8374700500        1.1650400200
  O         6.0627194200       10.3425368500        1.1660399400
  O         8.6264196400        5.9020784100        1.1660399400
  O        11.1901198600        1.4616199700        1.1660399400
  O         0.9353195000       10.3425368500        1.1660399400
  O         3.4990197200        5.9020784100        1.1660399400
  O         6.0627199400        1.4616199700        1.1660399400
  O        -4.1920804200       10.3425368500        1.1660399400
  O        -1.6283802000        5.9020784100        1.1660399400
  O         0.9353200200        1.4616199700        1.1660399400
 Fe         7.6576695000       13.2997167500        1.9292099500
 Fe        10.2213697200        8.8592583200        1.9292099500
 Fe        12.7850699400        4.4187998800        1.9292099500
 Fe         2.5302695800       13.2997167500        1.9292099500
 Fe         5.0939698000        8.8592583200        1.9292099500
 Fe         7.6576700200        4.4187998800        1.9292099500
 Fe        -2.5971303400       13.2997167500        1.9292099500
 Fe        -0.0334301200        8.8592583200        1.9292099500
 Fe         2.5302701000        4.4187998800        1.9292099500
 Fe         7.6573893600       10.3392168700        2.7128999200
 Fe        10.2210895800        5.8987584300        2.7128999200
 Fe        12.7847898000        1.4582999900        2.7128999200
 Fe         2.5299894400       10.3392168700        2.7128999200
 Fe         5.0936896600        5.8987584300        2.7128999200
 Fe         7.6573898800        1.4582999900        2.7128999200
 Fe        -2.5974104800       10.3392168700        2.7128999200
 Fe        -0.0337102600        5.8987584300        2.7128999200
 Fe         2.5299899600        1.4582999900        2.7128999200
  O         4.0917769911       13.3148085572        3.5116514045
  O         6.6584063384        8.8754219507        3.5122784809
  O         9.2140729167        4.4331577790        3.5121310077
  O        -1.0359043714       13.3166387147        3.5109838441
  O         1.5290836053        8.8759954327        3.5114672476
  O         4.1004355863        4.4336122653        3.5159265439
  O        -6.1621920841       13.3155513158        3.5121746203
  O        -3.5992020656        8.8742932176        3.5126033528
  O        -1.0346001642        4.4329218600        3.5120885191
  O         6.8110228372       11.8726131534        3.4941660535
  O         9.3758451503        7.4342121444        3.4924045615
  O        11.9354049951        2.9900432788        3.4951350692
  O         1.6845552646       11.8737145675        3.4905426747
  O         4.2523192229        7.4347627647        3.4913071211
  O         6.8119243902        2.9953076247        3.5035508062
  O        -3.4441055761       11.8740622144        3.4929367193
  O        -0.8815117462        7.4307253285        3.4925378155
  O         1.6834118321        2.9895294457        3.4947340902
  O         9.4302724666       10.2241219636        3.4871699883
  O        11.9898060198        5.7847558699        3.4871960124
  O        14.5550667454        1.3410194770        3.4860223583
  O         4.3026135707       10.2249737953        3.4862450763
  O         6.8663703929        5.7763856338        3.4869955974
  O         9.4250596267        1.3481857427        3.4895058709
  O        -0.8269740557       10.2246001603        3.4853264345
  O         1.7377268813        5.7800840714        3.4788962707
  O         4.3025554497        1.3445780023        3.4891889713
 Fe         5.0359645805       11.8351909895        4.4204023435
 Fe         7.6012663634        7.3996827159        4.4133605661
 Fe        10.1566123504        2.9571632743        4.4212979441
 Fe        -0.0932729882       11.8315573052        4.4178783360
 Fe         2.4699944535        7.3954591712        4.4171547720
 Fe         5.0376904776        2.9593484208        4.4243222228
 Fe        -5.2188985874       11.8383757260        4.4192073317
 Fe        -2.6555800821        7.3962802293        4.4197946571
 Fe        -0.0924466086        2.9525282939        4.4205132325
 Fe         7.6069935279       13.1852661843        4.8096970838
 Fe        10.1728857627        8.7461885191        4.8109986644
 Fe        12.7373146993        4.3042882205        4.8025207768
 Fe         2.4836397254       13.1836917782        4.8030200693
 Fe         5.0457258880        8.7440237552        4.8085143415
 Fe         7.6016287858        4.3107223924        4.8162340448
 Fe        -2.6458071294       13.1866752821        4.8060856076
 Fe        -0.0825017686        8.7436136942        4.8094668604
 Fe         2.4774039750        4.3028385604        4.8029745238
  O         5.8544797300       10.3458368382        5.8714682500
  O         8.4306297322        5.9144274076        5.8788607175
  O        10.9759145594        1.4650963487        5.8691379254
  O         0.7259120610       10.3417015624        5.8765347926
  O         3.2736157256        5.9138272179        5.8234864932
  O         5.8636910282        1.4652610948        5.8885502490
  O        -4.3962416776       10.3441345532        5.8798647091
  O        -1.8379978326        5.9048458025        5.8626092371
  O         0.7278560524        1.4632977440        5.8730545323
  O         5.9247285703       13.1770144424        5.6905126026
  O         8.4905221807        8.7339074600        5.6928488273
  O        11.0516624407        4.2947895140        5.6785200901
  O         0.7949146679       13.1690730008        5.6696659954
  O         3.3624553948        8.7349104331        5.6801289341
  O         5.9382844379        4.3106605094        5.7361770833
  O        -4.3275750424       13.1749220236        5.6873388815
  O        -1.7668461057        8.7334686793        5.6853850925
  O         0.7972628827        4.2921478374        5.6871341969
  O         3.4637764254       11.7735162075        5.6659223314
  O         6.0438925577        7.3286447017        5.6612549794
  O         8.5837405935        2.9005428992        5.6897330828
  O        -1.6612414534       11.7733775936        5.6607388874
  O         0.8978905576        7.3317834588        5.6626415369
  O         3.4722408436        2.8937481694        5.6628023483
  O        -6.7876598664       11.7730901095        5.6649612452
  O        -4.2290708179        7.3327005432        5.6721674942
  O        -1.6632034352        2.8915416837        5.6638084730
 Fe         7.7807535746       10.2753499572        6.4337718050
 Fe        10.3513616390        5.8249839100        6.4361895729
 Fe        12.9045570688        1.3943033436        6.4335982693
 Fe         2.6559571480       10.2685765467        6.4339394105
 Fe         5.1853546841        5.8537642942        6.4382054200
 Fe         7.7908500240        1.3776087740        6.4310064983
 Fe        -2.4683551910       10.2736853854        6.4342915829
 Fe         0.0899178445        5.8299540969        6.4336783642
 Fe         2.6567372528        1.3925700796        6.4326757905
  O         7.8223402406       10.4233255124        8.2599052311
  H         7.8098487324        9.6173299735        8.8062651772
  H         5.3512486574       10.6105774082        6.6745053332
  O        10.4854748966        5.8078857993        8.2725415560
  H        10.8969087340        5.0194352674        8.6722180278
  H         7.9005734553        6.2456930116        6.6366562201
  O        12.9185222628        1.5594803570        8.2588611826
  H        12.9616221079        0.7574652516        8.8099347986
  H        10.4730785668        1.7127069356        6.6780032272
  O         2.7210622154       10.3777497983        8.2605448996
  H         2.8281637947        9.5526258670        8.7683844402
  H         0.2200389671       10.5906472679        6.6832302009
  O         4.9023027515        6.2246309136        8.1941929540
  H         4.8418208771        5.6189821581        8.9574698332
  H         2.8128050144        6.1821550623        6.6514408227
  O         7.9988598170        1.3213676937        8.2602644107
  H         8.0583820335        0.4344904260        8.6613739375
  H         5.3398328017        1.7298122338        6.6781527069
  O        -2.3529747672       10.4101868494        8.2585234716
  H        -2.2680998987        9.5984948395        8.7902455575
  H        -4.9063097453       10.6118883608        6.6770261164
  O         0.0703226031        5.9626736954        8.2573692727
  H         0.1874056280        5.1634716995        8.8017666725
  H        -2.3370987451        6.1716047659        6.6672529003
  O         2.7127823435        1.5366173492        8.2531256174
  H         2.7820257746        0.7398094105        8.8086579444
  H         0.2265572627        1.7271722005        6.6772638514
  C         7.5826068016        4.2024049639        9.2010202949
  C         6.4999360445        4.3927612633       10.1421182682
  H         8.0155044145        3.1960813537        9.3059369223
  H         7.1782510219        4.2575264310        8.1793898066
  H         8.3605218954        4.9716098003        9.3145449729
  N         5.6030451492        4.5447123756       10.8769751703
     168
 i =       60, E =     -8144.3766133683
 Fe         5.0938794100       11.8196869300        0.3885799900
 Fe         7.6575796300        7.3792284900        0.3885799900
 Fe        10.2212798400        2.9387700600        0.3885799900
 Fe        -0.0335205200       11.8196869300        0.3885799900
 Fe         2.5301797000        7.3792284900        0.3885799900
 Fe         5.0938799200        2.9387700600        0.3885799900
 Fe        -5.1609204400       11.8196869300        0.3885799900
 Fe        -2.5972202200        7.3792284900        0.3885799900
 Fe        -0.0335200000        2.9387700600        0.3885799900
  O         8.4519195100        8.9577468800        1.1642700400
  O        11.0156197300        4.5172884400        1.1642700400
  O        13.5793199500        0.0768300000        1.1642700400
  O         3.3245195900        8.9577468800        1.1642700400
  O         5.8882198100        4.5172884400        1.1642700400
  O         8.4519200300        0.0768300000        1.1642700400
  O        -1.8028803300        8.9577468800        1.1642700400
  O         0.7608198900        4.5172884400        1.1642700400
  O         3.3245201100        0.0768300000        1.1642700400
  O         8.4568493000       11.7183869300        1.1650400200
  O        11.0205495200        7.2779284900        1.1650400200
  O        13.5842497300        2.8374700500        1.1650400200
  O         3.3294493700       11.7183869300        1.1650400200
  O         5.8931495900        7.2779284900        1.1650400200
  O         8.4568498100        2.8374700500        1.1650400200
  O        -1.7979505500       11.7183869300        1.1650400200
  O         0.7657496700        7.2779284900        1.1650400200
  O         3.3294498900        2.8374700500        1.1650400200
  O         6.0627194200       10.3425368500        1.1660399400
  O         8.6264196400        5.9020784100        1.1660399400
  O        11.1901198600        1.4616199700        1.1660399400
  O         0.9353195000       10.3425368500        1.1660399400
  O         3.4990197200        5.9020784100        1.1660399400
  O         6.0627199400        1.4616199700        1.1660399400
  O        -4.1920804200       10.3425368500        1.1660399400
  O        -1.6283802000        5.9020784100        1.1660399400
  O         0.9353200200        1.4616199700        1.1660399400
 Fe         7.6576695000       13.2997167500        1.9292099500
 Fe        10.2213697200        8.8592583200        1.9292099500
 Fe        12.7850699400        4.4187998800        1.9292099500
 Fe         2.5302695800       13.2997167500        1.9292099500
 Fe         5.0939698000        8.8592583200        1.9292099500
 Fe         7.6576700200        4.4187998800        1.9292099500
 Fe        -2.5971303400       13.2997167500        1.9292099500
 Fe        -0.0334301200        8.8592583200        1.9292099500
 Fe         2.5302701000        4.4187998800        1.9292099500
 Fe         7.6573893600       10.3392168700        2.7128999200
 Fe        10.2210895800        5.8987584300        2.7128999200
 Fe        12.7847898000        1.4582999900        2.7128999200
 Fe         2.5299894400       10.3392168700        2.7128999200
 Fe         5.0936896600        5.8987584300        2.7128999200
 Fe         7.6573898800        1.4582999900        2.7128999200
 Fe        -2.5974104800       10.3392168700        2.7128999200
 Fe        -0.0337102600        5.8987584300        2.7128999200
 Fe         2.5299899600        1.4582999900        2.7128999200
  O         4.0920254185       13.3154851118        3.5120688594
  O         6.6587874736        8.8758702182        3.5130413053
  O         9.2156772096        4.4330944249        3.5131010089
  O        -1.0355227704       13.3165870749        3.5110573587
  O         1.5281150961        8.8753654462        3.5114700375
  O         4.1003541854        4.4340798914        3.5154181951
  O        -6.1626164066       13.3155276440        3.5121191678
  O        -3.5995582592        8.8747155820        3.5125496294
  O        -1.0344516023        4.4327004945        3.5121554255
  O         6.8113883216       11.8732807263        3.4946201098
  O         9.3769677361        7.4339480134        3.4933984446
  O        11.9356262245        2.9894259411        3.4955109542
  O         1.6852138823       11.8733349230        3.4901785705
  O         4.2521079467        7.4340894266        3.4922834009
  O         6.8110156380        2.9942430783        3.5036538459
  O        -3.4439789548       11.8737587184        3.4935838214
  O        -0.8810196787        7.4309487645        3.4929539314
  O         1.6841778870        2.9901601500        3.4941160889
  O         9.4292037491       10.2232799601        3.4880466264
  O        11.9899934780        5.7844208925        3.4871723519
  O        14.5557844051        1.3410313692        3.4861185317
  O         4.3022069628       10.2250661840        3.4871110344
  O         6.8662694477        5.7772017782        3.4871452713
  O         9.4247294851        1.3481162713        3.4895929368
  O        -0.8264387618       10.2240552967        3.4861172599
  O         1.7369372994        5.7804891809        3.4787535113
  O         4.3021264646        1.3447349611        3.4894958484
 Fe         5.0365731547       11.8347313507        4.4202971629
 Fe         7.6024391152        7.3996397067        4.4143278900
 Fe        10.1577167375        2.9558636696        4.4220891742
 Fe        -0.0927482800       11.8312822581        4.4180743656
 Fe         2.4696201130        7.3955683467        4.4176810727
 Fe         5.0371691765        2.9590480523        4.4244293559
 Fe        -5.2188810719       11.8375377713        4.4191148486
 Fe        -2.6555229915        7.3961799491        4.4199606370
 Fe        -0.0917089180        2.9521445645        4.4202350809
 Fe         7.6071430468       13.1854923759        4.8097419547
 Fe        10.1736275927        8.7454621230        4.8118713077
 Fe        12.7378945725        4.3039789321        4.8029571667
 Fe         2.4839274395       13.1830516533        4.8030714160
 Fe         5.0461908255        8.7434534663        4.8083770096
 Fe         7.6020337151        4.3102496297        4.8130715977
 Fe        -2.6455529411       13.1867575232        4.8064591412
 Fe        -0.0827346690        8.7430793553        4.8091503110
 Fe         2.4774839352        4.3035486013        4.8031154983
  O         5.8548954775       10.3459753840        5.8707601020
  O         8.4307639317        5.9141064149        5.8780966675
  O        10.9753616018        1.4647202977        5.8699072920
  O         0.7269680863       10.3425917353        5.8765621104
  O         3.2738946804        5.9141802894        5.8236904755
  O         5.8640980666        1.4643109300        5.8894671271
  O        -4.3965063669       10.3445220837        5.8798600559
  O        -1.8379502420        5.9051384259        5.8630056395
  O         0.7289029109        1.4645440945        5.8722282438
  O         5.9245575605       13.1770505081        5.6911201069
  O         8.4899472831        8.7337948834        5.6931193651
  O        11.0529329205        4.2928918239        5.6796214856
  O         0.7950810504       13.1688880234        5.6696251090
  O         3.3619653382        8.7345098298        5.6798191263
  O         5.9387963558        4.3097423238        5.7339829979
  O        -4.3277334663       13.1745698388        5.6873855878
  O        -1.7682399535        8.7337574164        5.6847420980
  O         0.7978869248        4.2922917386        5.6869685618
  O         3.4645190097       11.7729511837        5.6655171984
  O         6.0442816165        7.3274828614        5.6611475859
  O         8.5840306412        2.9004854532        5.6885780854
  O        -1.6610901277       11.7738978669        5.6608065869
  O         0.8980308820        7.3312925930        5.6633907401
  O         3.4726253160        2.8941355796        5.6626669758
  O        -6.7872270954       11.7733471428        5.6655848952
  O        -4.2286561148        7.3323449518        5.6734718374
  O        -1.6624916376        2.8913157707        5.6635432642
 Fe         7.7809352581       10.2753469016        6.4342470138
 Fe        10.3516644496        5.8240072460        6.4354545165
 Fe        12.9046060801        1.3944712151        6.4336469656
 Fe         2.6561356216       10.2685138824        6.4340352485
 Fe         5.1867224509        5.8522285378        6.4375808760
 Fe         7.7917309207        1.3775625482        6.4315580779
 Fe        -2.4682897244       10.2740540736        6.4342941982
 Fe         0.0904892249        5.8295269086        6.4342048641
 Fe         2.6568357692        1.3926536797        6.4328624567
  O         7.8209863112       10.4241449139        8.2600657118
  H         7.8090549331        9.6199412720        8.8090129576
  H         5.3511505530       10.6105602859        6.6735603750
  O        10.4904253442        5.8074031706        8.2717352098
  H        10.8989378024        5.0178021719        8.6711059717
  H         7.9004470172        6.2455320203        6.6355760778
  O        12.9175530904        1.5601012937        8.2587974080
  H        12.9595850275        0.7586275123        8.8106889347
  H        10.4720026290        1.7112470398        6.6789147397
  O         2.7237726747       10.3770391845        8.2606640710
  H         2.8283268754        9.5516477657        8.7686516183
  H         0.2206952637       10.5934341335        6.6822930399
  O         4.9052785597        6.2208900531        8.1941868725
  H         4.8442156408        5.6125999441        8.9550919246
  H         2.8135247760        6.1823589648        6.6519323442
  O         8.0071243367        1.3259642548        8.2604626516
  H         8.0643849677        0.4401574609        8.6643227873
  H         5.3396850130        1.7308179002        6.6780137156
  O        -2.3508442899       10.4094486287        8.2578994270
  H        -2.2653810448        9.5979080379        8.7897245187
  H        -4.9064676090       10.6141022575        6.6764841654
  O         0.0705189343        5.9628571148        8.2582263326
  H         0.1852995749        5.1646080808        8.8044622217
  H        -2.3370666442        6.1723938731        6.6675548111
  O         2.7139447429        1.5375348695        8.2535115030
  H         2.7828157614        0.7413812976        8.8100139937
  H         0.2264776811        1.7294964371        6.6753352185
  C         7.5914965362        4.2108580981        9.1935723153
  C         6.5101055266        4.3941194992       10.1375874003
  H         8.0377408147        3.2114119526        9.3047266716
  H         7.1856541136        4.2533806233        8.1716777873
  H         8.3603802102        4.9911075168        9.3002261240
  N         5.6157883522        4.5408405073       10.8762756348
     168
 i =       61, E =     -8144.3766795870
 Fe         5.0938794100       11.8196869300        0.3885799900
 Fe         7.6575796300        7.3792284900        0.3885799900
 Fe        10.2212798400        2.9387700600        0.3885799900
 Fe        -0.0335205200       11.8196869300        0.3885799900
 Fe         2.5301797000        7.3792284900        0.3885799900
 Fe         5.0938799200        2.9387700600        0.3885799900
 Fe        -5.1609204400       11.8196869300        0.3885799900
 Fe        -2.5972202200        7.3792284900        0.3885799900
 Fe        -0.0335200000        2.9387700600        0.3885799900
  O         8.4519195100        8.9577468800        1.1642700400
  O        11.0156197300        4.5172884400        1.1642700400
  O        13.5793199500        0.0768300000        1.1642700400
  O         3.3245195900        8.9577468800        1.1642700400
  O         5.8882198100        4.5172884400        1.1642700400
  O         8.4519200300        0.0768300000        1.1642700400
  O        -1.8028803300        8.9577468800        1.1642700400
  O         0.7608198900        4.5172884400        1.1642700400
  O         3.3245201100        0.0768300000        1.1642700400
  O         8.4568493000       11.7183869300        1.1650400200
  O        11.0205495200        7.2779284900        1.1650400200
  O        13.5842497300        2.8374700500        1.1650400200
  O         3.3294493700       11.7183869300        1.1650400200
  O         5.8931495900        7.2779284900        1.1650400200
  O         8.4568498100        2.8374700500        1.1650400200
  O        -1.7979505500       11.7183869300        1.1650400200
  O         0.7657496700        7.2779284900        1.1650400200
  O         3.3294498900        2.8374700500        1.1650400200
  O         6.0627194200       10.3425368500        1.1660399400
  O         8.6264196400        5.9020784100        1.1660399400
  O        11.1901198600        1.4616199700        1.1660399400
  O         0.9353195000       10.3425368500        1.1660399400
  O         3.4990197200        5.9020784100        1.1660399400
  O         6.0627199400        1.4616199700        1.1660399400
  O        -4.1920804200       10.3425368500        1.1660399400
  O        -1.6283802000        5.9020784100        1.1660399400
  O         0.9353200200        1.4616199700        1.1660399400
 Fe         7.6576695000       13.2997167500        1.9292099500
 Fe        10.2213697200        8.8592583200        1.9292099500
 Fe        12.7850699400        4.4187998800        1.9292099500
 Fe         2.5302695800       13.2997167500        1.9292099500
 Fe         5.0939698000        8.8592583200        1.9292099500
 Fe         7.6576700200        4.4187998800        1.9292099500
 Fe        -2.5971303400       13.2997167500        1.9292099500
 Fe        -0.0334301200        8.8592583200        1.9292099500
 Fe         2.5302701000        4.4187998800        1.9292099500
 Fe         7.6573893600       10.3392168700        2.7128999200
 Fe        10.2210895800        5.8987584300        2.7128999200
 Fe        12.7847898000        1.4582999900        2.7128999200
 Fe         2.5299894400       10.3392168700        2.7128999200
 Fe         5.0936896600        5.8987584300        2.7128999200
 Fe         7.6573898800        1.4582999900        2.7128999200
 Fe        -2.5974104800       10.3392168700        2.7128999200
 Fe        -0.0337102600        5.8987584300        2.7128999200
 Fe         2.5299899600        1.4582999900        2.7128999200
  O         4.0926780010       13.3159065014        3.5122712191
  O         6.6590417195        8.8767990657        3.5137911295
  O         9.2176827299        4.4330556168        3.5142871405
  O        -1.0355998780       13.3163261733        3.5102731083
  O         1.5273700614        8.8746159420        3.5117311555
  O         4.1002372576        4.4351372672        3.5152307640
  O        -6.1625802363       13.3153415085        3.5120481211
  O        -3.5996633477        8.8751143975        3.5128777015
  O        -1.0347719354        4.4326800026        3.5117630970
  O         6.8117958407       11.8736613457        3.4957965910
  O         9.3784976301        7.4334388784        3.4947622878
  O        11.9364627657        2.9888526737        3.4955277143
  O         1.6860922667       11.8728138330        3.4897501404
  O         4.2518795542        7.4333287337        3.4934014942
  O         6.8099422821        2.9927295734        3.5038105897
  O        -3.4438454216       11.8735812154        3.4936337136
  O        -0.8805057130        7.4312798864        3.4937868863
  O         1.6853664150        2.9905533497        3.4939241318
  O         9.4274579598       10.2227220270        3.4892254257
  O        11.9904541755        5.7838439558        3.4868991871
  O        14.5566055556        1.3415185671        3.4866169629
  O         4.3018287070       10.2253569632        3.4877506737
  O         6.8666995009        5.7780801693        3.4868343521
  O         9.4244611609        1.3477166789        3.4894076922
  O        -0.8261281469       10.2234855714        3.4871211603
  O         1.7356442808        5.7810623042        3.4790487863
  O         4.3021622938        1.3451158258        3.4892649548
 Fe         5.0373499852       11.8339798466        4.4209645781
 Fe         7.6038868987        7.3997629578        4.4149748719
 Fe        10.1595594693        2.9537111695        4.4223878197
 Fe        -0.0920526536       11.8312771990        4.4179685079
 Fe         2.4694080473        7.3954458011        4.4186306982
 Fe         5.0363635788        2.9590224674        4.4245978811
 Fe        -5.2184403126       11.8363458821        4.4195682403
 Fe        -2.6553673161        7.3956694590        4.4207341866
 Fe        -0.0907484303        2.9522941273        4.4196978574
 Fe         7.6077853900       13.1857016180        4.8092781364
 Fe        10.1743279150        8.7450221750        4.8120481611
 Fe        12.7388608166        4.3035301910        4.8035587670
 Fe         2.4845937937       13.1820496414        4.8031401201
 Fe         5.0468435113        8.7425845623        4.8081724124
 Fe         7.6028740135        4.3095226722        4.8083715173
 Fe        -2.6449764588       13.1869149487        4.8064593575
 Fe        -0.0828841343        8.7428017384        4.8078901989
 Fe         2.4776180297        4.3041122983        4.8039892440
  O         5.8554165268       10.3458800060        5.8696725967
  O         8.4318259093        5.9142013605        5.8766832153
  O        10.9746574304        1.4638238083        5.8711269758
  O         0.7284069108       10.3439063713        5.8760440876
  O         3.2748729049        5.9141899560        5.8243055172
  O         5.8648256212        1.4634147568        5.8909749146
  O        -4.3967949497       10.3449873507        5.8795049881
  O        -1.8378425797        5.9059999846        5.8635603788
  O         0.7303852806        1.4663548883        5.8705568117
  O         5.9249563601       13.1774125235        5.6916981768
  O         8.4894790364        8.7333682706        5.6933077780
  O        11.0544294366        4.2903591892        5.6809390784
  O         0.7953895199       13.1684904322        5.6695253927
  O         3.3614609614        8.7340459456        5.6794897064
  O         5.9397600124        4.3081176540        5.7306990583
  O        -4.3276024392       13.1743099221        5.6871202319
  O        -1.7697312999        8.7344302676        5.6833843797
  O         0.7983540533        4.2924913190        5.6870818091
  O         3.4657164640       11.7722892451        5.6652839029
  O         6.0451556186        7.3259260119        5.6611227518
  O         8.5849068679        2.9004130188        5.6869149326
  O        -1.6606615905       11.7746956497        5.6609209443
  O         0.8980707200        7.3310095271        5.6645011779
  O         3.4736820034        2.8943310632        5.6630094911
  O        -6.7863592412       11.7735901748        5.6666532213
  O        -4.2288651717        7.3321858303        5.6744526193
  O        -1.6610620596        2.8909532243        5.6636926639
 Fe         7.7812341640       10.2751409363        6.4346112521
 Fe        10.3527140409        5.8227007823        6.4352685333
 Fe        12.9047610464        1.3944248090        6.4339462950
 Fe         2.6564221105       10.2685077582        6.4341799794
 Fe         5.1892978446        5.8496648897        6.4368417373
 Fe         7.7933379078        1.3776791912        6.4319219900
 Fe        -2.4679909492       10.2744361472        6.4341500475
 Fe         0.0909097103        5.8292146849        6.4350644776
 Fe         2.6570223093        1.3925709595        6.4331060575
  O         7.8185496087       10.4253961350        8.2600761772
  H         7.8079819832        9.6240365475        8.8131880694
  H         5.3508534156       10.6106814837        6.6718764850
  O        10.4971393190        5.8082256093        8.2714739701
  H        10.9004023209        5.0154271062        8.6698376201
  H         7.9003874604        6.2451549471        6.6336768611
  O        12.9159513297        1.5608551836        8.2589689317
  H        12.9562801897        0.7599513536        8.8117316733
  H        10.4707339135        1.7084561103        6.6805704098
  O         2.7285449163       10.3758868128        8.2608506890
  H         2.8283803684        9.5499607567        8.7690143108
  H         0.2213942737       10.5985222049        6.6799269399
  O         4.9112184293        6.2151633268        8.1945156145
  H         4.8493881754        5.6024839202        8.9516965260
  H         2.8151608370        6.1829311509        6.6526991027
  O         8.0206258322        1.3334694114        8.2606976626
  H         8.0751459305        0.4496230877        8.6693739128
  H         5.3394096281        1.7323964401        6.6779339221
  O        -2.3472405957       10.4079692692        8.2568886211
  H        -2.2614439274        9.5963713692        8.7885715714
  H        -4.9068687117       10.6184624564        6.6748362895
  O         0.0708889103        5.9632740390        8.2594392690
  H         0.1818931894        5.1663352270        8.8082999531
  H        -2.3367674686        6.1738676718        6.6681260187
  O         2.7159235930        1.5388649391        8.2538488733
  H         2.7841036532        0.7436666611        8.8117879424
  H         0.2263464237        1.7341126940        6.6716772098
  C         7.6067681159        4.2259932477        9.1793879481
  C         6.5279492729        4.3964222053       10.1292060167
  H         8.0750240318        3.2371476550        9.3018677256
  H         7.1973053780        4.2479035053        8.1570927643
  H         8.3611878272        5.0196519269        9.2772413439
  N         5.6374963344        4.5345849396       10.8744792821
     168
 i =       62, E =     -8144.3767179608
 Fe         5.0938794100       11.8196869300        0.3885799900
 Fe         7.6575796300        7.3792284900        0.3885799900
 Fe        10.2212798400        2.9387700600        0.3885799900
 Fe        -0.0335205200       11.8196869300        0.3885799900
 Fe         2.5301797000        7.3792284900        0.3885799900
 Fe         5.0938799200        2.9387700600        0.3885799900
 Fe        -5.1609204400       11.8196869300        0.3885799900
 Fe        -2.5972202200        7.3792284900        0.3885799900
 Fe        -0.0335200000        2.9387700600        0.3885799900
  O         8.4519195100        8.9577468800        1.1642700400
  O        11.0156197300        4.5172884400        1.1642700400
  O        13.5793199500        0.0768300000        1.1642700400
  O         3.3245195900        8.9577468800        1.1642700400
  O         5.8882198100        4.5172884400        1.1642700400
  O         8.4519200300        0.0768300000        1.1642700400
  O        -1.8028803300        8.9577468800        1.1642700400
  O         0.7608198900        4.5172884400        1.1642700400
  O         3.3245201100        0.0768300000        1.1642700400
  O         8.4568493000       11.7183869300        1.1650400200
  O        11.0205495200        7.2779284900        1.1650400200
  O        13.5842497300        2.8374700500        1.1650400200
  O         3.3294493700       11.7183869300        1.1650400200
  O         5.8931495900        7.2779284900        1.1650400200
  O         8.4568498100        2.8374700500        1.1650400200
  O        -1.7979505500       11.7183869300        1.1650400200
  O         0.7657496700        7.2779284900        1.1650400200
  O         3.3294498900        2.8374700500        1.1650400200
  O         6.0627194200       10.3425368500        1.1660399400
  O         8.6264196400        5.9020784100        1.1660399400
  O        11.1901198600        1.4616199700        1.1660399400
  O         0.9353195000       10.3425368500        1.1660399400
  O         3.4990197200        5.9020784100        1.1660399400
  O         6.0627199400        1.4616199700        1.1660399400
  O        -4.1920804200       10.3425368500        1.1660399400
  O        -1.6283802000        5.9020784100        1.1660399400
  O         0.9353200200        1.4616199700        1.1660399400
 Fe         7.6576695000       13.2997167500        1.9292099500
 Fe        10.2213697200        8.8592583200        1.9292099500
 Fe        12.7850699400        4.4187998800        1.9292099500
 Fe         2.5302695800       13.2997167500        1.9292099500
 Fe         5.0939698000        8.8592583200        1.9292099500
 Fe         7.6576700200        4.4187998800        1.9292099500
 Fe        -2.5971303400       13.2997167500        1.9292099500
 Fe        -0.0334301200        8.8592583200        1.9292099500
 Fe         2.5302701000        4.4187998800        1.9292099500
 Fe         7.6573893600       10.3392168700        2.7128999200
 Fe        10.2210895800        5.8987584300        2.7128999200
 Fe        12.7847898000        1.4582999900        2.7128999200
 Fe         2.5299894400       10.3392168700        2.7128999200
 Fe         5.0936896600        5.8987584300        2.7128999200
 Fe         7.6573898800        1.4582999900        2.7128999200
 Fe        -2.5974104800       10.3392168700        2.7128999200
 Fe        -0.0337102600        5.8987584300        2.7128999200
 Fe         2.5299899600        1.4582999900        2.7128999200
  O         4.0928901905       13.3163380510        3.5123939066
  O         6.6594935443        8.8770153571        3.5141633490
  O         9.2188052913        4.4329305430        3.5150925833
  O        -1.0356727794       13.3164053278        3.5103553001
  O         1.5275808284        8.8743952979        3.5122569224
  O         4.0999512024        4.4357195366        3.5150946806
  O        -6.1621877421       13.3152429344        3.5120911450
  O        -3.5996486386        8.8751545662        3.5128982439
  O        -1.0351741317        4.4330044293        3.5117605773
  O         6.8123667502       11.8734898376        3.4966962272
  O         9.3787865478        7.4334448213        3.4947291482
  O        11.9372822685        2.9884456411        3.4957658821
  O         1.6865030567       11.8724862734        3.4898958325
  O         4.2518577109        7.4329525863        3.4938166016
  O         6.8099173821        2.9918531587        3.5042529052
  O        -3.4435233721       11.8731856422        3.4939630433
  O        -0.8804083882        7.4312766975        3.4945150889
  O         1.6861574089        2.9906534184        3.4941007607
  O         9.4264878036       10.2227676271        3.4896565779
  O        11.9906319574        5.7833965692        3.4869275700
  O        14.5569729935        1.3421043696        3.4868134635
  O         4.3014652354       10.2253601951        3.4877954973
  O         6.8672637569        5.7783433013        3.4867298604
  O         9.4247583818        1.3475199872        3.4890481344
  O        -0.8263658649       10.2235351160        3.4876168870
  O         1.7350106852        5.7811567902        3.4791514127
  O         4.3021355477        1.3456703502        3.4897250054
 Fe         5.0377078716       11.8336478321        4.4208902340
 Fe         7.6048152923        7.3997514819        4.4156695281
 Fe        10.1609458004        2.9521039609        4.4227237917
 Fe        -0.0915336372       11.8315780392        4.4179820776
 Fe         2.4696216115        7.3948634145        4.4191654160
 Fe         5.0359877379        2.9595524318        4.4248288710
 Fe        -5.2178752578       11.8357730562        4.4200529666
 Fe        -2.6552689380        7.3952176919        4.4212618288
 Fe        -0.0901408085        2.9526413360        4.4192702364
 Fe         7.6082526271       13.1858840757        4.8083794967
 Fe        10.1746341818        8.7451408739        4.8108861016
 Fe        12.7394506079        4.3035167491        4.8041435994
 Fe         2.4851313241       13.1813868041        4.8034324408
 Fe         5.0471241494        8.7419516487        4.8080362562
 Fe         7.6038634206        4.3092554357        4.8056259286
 Fe        -2.6443752229       13.1871663454        4.8068673182
 Fe        -0.0828242950        8.7430320975        4.8064820638
 Fe         2.4776280593        4.3042463261        4.8048246387
  O         5.8554852807       10.3456883285        5.8689453788
  O         8.4333892891        5.9145135145        5.8756076949
  O        10.9745118711        1.4627222326        5.8719403585
  O         0.7291771354       10.3447601912        5.8751850039
  O         3.2762658696        5.9136399148        5.8250099587
  O         5.8658715378        1.4630633700        5.8925389117
  O        -4.3967995037       10.3454313868        5.8789691669
  O        -1.8377725993        5.9071013687        5.8640057841
  O         0.7313782422        1.4673322329        5.8691223644
  O         5.9255512130       13.1774201777        5.6919023469
  O         8.4898311879        8.7334128365        5.6932533973
  O        11.0550589425        4.2894922093        5.6814058606
  O         0.7955391600       13.1684240080        5.6694456432
  O         3.3613930957        8.7338049186        5.6794847824
  O         5.9404862980        4.3066907230        5.7282518725
  O        -4.3273790331       13.1743793327        5.6867912286
  O        -1.7701556240        8.7348383788        5.6822077848
  O         0.7982002749        4.2925676451        5.6873610801
  O         3.4668988105       11.7719030535        5.6653190392
  O         6.0457123419        7.3252537548        5.6615761445
  O         8.5856844608        2.9003233988        5.6853936618
  O        -1.6601184553       11.7750534895        5.6611010782
  O         0.8982618140        7.3312664628        5.6651081281
  O         3.4745477648        2.8943651358        5.6635139974
  O        -6.7856558361       11.7736996653        5.6671822356
  O        -4.2292673838        7.3324352592        5.6740312496
  O        -1.6599717010        2.8908049676        5.6641276756
 Fe         7.7814578333       10.2750910236        6.4349404562
 Fe        10.3537051864        5.8223505879        6.4352113318
 Fe        12.9051053784        1.3940501030        6.4341618722
 Fe         2.6566131091       10.2685448254        6.4344149367
 Fe         5.1916978974        5.8474159887        6.4365140561
 Fe         7.7949045669        1.3783621083        6.4318639261
 Fe        -2.4675305775       10.2743437206        6.4339695825
 Fe         0.0909243351        5.8294944970        6.4354530651
 Fe         2.6572713226        1.3924618485        6.4332229201
  O         7.8162006476       10.4273504665        8.2601867202
  H         7.8065944357        9.6281990109        8.8164361388
  H         5.3505966420       10.6108022650        6.6708557695
  O        10.5043470938        5.8091969292        8.2714797568
  H        10.9024817135        5.0127358139        8.6681947373
  H         7.9003873808        6.2445789519        6.6318988909
  O        12.9140913429        1.5617879882        8.2591595848
  H        12.9528894799        0.7614028072        8.8127849703
  H        10.4703741233        1.7054591039        6.6819901018
  O         2.7331536212       10.3749713130        8.2610901548
  H         2.8288282985        9.5483531663        8.7689895691
  H         0.2213816034       10.6026622021        6.6774549188
  O         4.9168176886        6.2091153994        8.1955288132
  H         4.8547115467        5.5917771997        8.9490637218
  H         2.8171431169        6.1834239884        6.6533623859
  O         8.0337207454        1.3415636184        8.2601882696
  H         8.0867889331        0.4600071285        8.6740629702
  H         5.3394067938        1.7334788569        6.6782294116
  O        -2.3433426783       10.4066438783        8.2561579568
  H        -2.2571238861        9.5947183989        8.7873230837
  H        -4.9072970682       10.6222217393        6.6730054937
  O         0.0706798337        5.9642649297        8.2599378456
  H         0.1784628508        5.1682236643        8.8107233380
  H        -2.3364511407        6.1748228844        6.6688349445
  O         2.7177845699        1.5404070658        8.2537324201
  H         2.7855057150        0.7462240054        8.8131700911
  H         0.2263473480        1.7383831671        6.6685015719
  C         7.6243457044        4.2399347315        9.1652026857
  C         6.5482318215        4.3976814527       10.1205534300
  H         8.1144194769        3.2627197757        9.2979372203
  H         7.2091330961        4.2421275636        8.1442982855
  H         8.3627679402        5.0541679362        9.2512593985
  N         5.6606767057        4.5255694202       10.8714853686
     168
 i =       63, E =     -8144.3767645481
 Fe         5.0938794100       11.8196869300        0.3885799900
 Fe         7.6575796300        7.3792284900        0.3885799900
 Fe        10.2212798400        2.9387700600        0.3885799900
 Fe        -0.0335205200       11.8196869300        0.3885799900
 Fe         2.5301797000        7.3792284900        0.3885799900
 Fe         5.0938799200        2.9387700600        0.3885799900
 Fe        -5.1609204400       11.8196869300        0.3885799900
 Fe        -2.5972202200        7.3792284900        0.3885799900
 Fe        -0.0335200000        2.9387700600        0.3885799900
  O         8.4519195100        8.9577468800        1.1642700400
  O        11.0156197300        4.5172884400        1.1642700400
  O        13.5793199500        0.0768300000        1.1642700400
  O         3.3245195900        8.9577468800        1.1642700400
  O         5.8882198100        4.5172884400        1.1642700400
  O         8.4519200300        0.0768300000        1.1642700400
  O        -1.8028803300        8.9577468800        1.1642700400
  O         0.7608198900        4.5172884400        1.1642700400
  O         3.3245201100        0.0768300000        1.1642700400
  O         8.4568493000       11.7183869300        1.1650400200
  O        11.0205495200        7.2779284900        1.1650400200
  O        13.5842497300        2.8374700500        1.1650400200
  O         3.3294493700       11.7183869300        1.1650400200
  O         5.8931495900        7.2779284900        1.1650400200
  O         8.4568498100        2.8374700500        1.1650400200
  O        -1.7979505500       11.7183869300        1.1650400200
  O         0.7657496700        7.2779284900        1.1650400200
  O         3.3294498900        2.8374700500        1.1650400200
  O         6.0627194200       10.3425368500        1.1660399400
  O         8.6264196400        5.9020784100        1.1660399400
  O        11.1901198600        1.4616199700        1.1660399400
  O         0.9353195000       10.3425368500        1.1660399400
  O         3.4990197200        5.9020784100        1.1660399400
  O         6.0627199400        1.4616199700        1.1660399400
  O        -4.1920804200       10.3425368500        1.1660399400
  O        -1.6283802000        5.9020784100        1.1660399400
  O         0.9353200200        1.4616199700        1.1660399400
 Fe         7.6576695000       13.2997167500        1.9292099500
 Fe        10.2213697200        8.8592583200        1.9292099500
 Fe        12.7850699400        4.4187998800        1.9292099500
 Fe         2.5302695800       13.2997167500        1.9292099500
 Fe         5.0939698000        8.8592583200        1.9292099500
 Fe         7.6576700200        4.4187998800        1.9292099500
 Fe        -2.5971303400       13.2997167500        1.9292099500
 Fe        -0.0334301200        8.8592583200        1.9292099500
 Fe         2.5302701000        4.4187998800        1.9292099500
 Fe         7.6573893600       10.3392168700        2.7128999200
 Fe        10.2210895800        5.8987584300        2.7128999200
 Fe        12.7847898000        1.4582999900        2.7128999200
 Fe         2.5299894400       10.3392168700        2.7128999200
 Fe         5.0936896600        5.8987584300        2.7128999200
 Fe         7.6573898800        1.4582999900        2.7128999200
 Fe        -2.5974104800       10.3392168700        2.7128999200
 Fe        -0.0337102600        5.8987584300        2.7128999200
 Fe         2.5299899600        1.4582999900        2.7128999200
  O         4.0931253675       13.3164758798        3.5124187790
  O         6.6598574628        8.8770821823        3.5140344451
  O         9.2184894677        4.4327416654        3.5157911386
  O        -1.0358003395       13.3165004757        3.5105993151
  O         1.5282945706        8.8744174427        3.5125889188
  O         4.0998080337        4.4360951991        3.5154856729
  O        -6.1616750948       13.3155465633        3.5122964391
  O        -3.5993970264        8.8752687812        3.5132420244
  O        -1.0359331857        4.4334647115        3.5114683677
  O         6.8131253963       11.8730116692        3.4974926004
  O         9.3783673719        7.4335487191        3.4939986136
  O        11.9381419617        2.9884457000        3.4959622649
  O         1.6866172628       11.8724713639        3.4902845229
  O         4.2518935699        7.4327520390        3.4938983092
  O         6.8116179300        2.9920116747        3.5055753830
  O        -3.4426584952       11.8729389418        3.4940742122
  O        -0.8803859069        7.4314085797        3.4949623202
  O         1.6866273714        2.9904937794        3.4947039064
  O         9.4258327320       10.2232996181        3.4898336076
  O        11.9907127173        5.7827904845        3.4867731452
  O        14.5568551709        1.3430327739        3.4870332436
  O         4.3010604976       10.2254102839        3.4873679108
  O         6.8682909471        5.7772041189        3.4863997477
  O         9.4253364777        1.3477655544        3.4889912606
  O        -0.8269163943       10.2239209565        3.4874489552
  O         1.7347360496        5.7809887654        3.4793322906
  O         4.3024319431        1.3467530158        3.4901158539
 Fe         5.0378476542       11.8336428502        4.4209728236
 Fe         7.6051238120        7.3993330557        4.4156123529
 Fe        10.1617838269        2.9513517253        4.4227505944
 Fe        -0.0909430999       11.8321856063        4.4178328928
 Fe         2.4701766631        7.3937642723        4.4194133517
 Fe         5.0361841379        2.9608223708        4.4251710526
 Fe        -5.2169998120       11.8358159166        4.4202497920
 Fe        -2.6551952468        7.3947503510        4.4214547339
 Fe        -0.0899594304        2.9537637139        4.4191471361
 Fe         7.6088183310       13.1860968574        4.8070398787
 Fe        10.1744104109        8.7457049051        4.8085316311
 Fe        12.7395350248        4.3039406922        4.8045667020
 Fe         2.4858786665       13.1811231909        4.8037089149
 Fe         5.0471862421        8.7419085564        4.8077644739
 Fe         7.6050036438        4.3088280279        4.8083923377
 Fe        -2.6436936221       13.1876666277        4.8071332623
 Fe        -0.0826534036        8.7437206137        4.8048416787
 Fe         2.4777072020        4.3039214403        4.8058086684
  O         5.8553954777       10.3454979584        5.8681766359
  O         8.4348879288        5.9156806638        5.8748069834
  O        10.9755205555        1.4615141229        5.8722208650
  O         0.7296846209       10.3457280356        5.8730132691
  O         3.2777173658        5.9127277013        5.8264086631
  O         5.8667736417        1.4639397202        5.8931783355
  O        -4.3965621764       10.3465939759        5.8771143729
  O        -1.8375887656        5.9089074272        5.8645203562
  O         0.7321582158        1.4682572156        5.8671707926
  O         5.9264247194       13.1769457406        5.6916573622
  O         8.4906337713        8.7336400994        5.6925757821
  O        11.0549990994        4.2899540981        5.6820924324
  O         0.7959823343       13.1683361347        5.6693784425
  O         3.3617954149        8.7338294233        5.6794529769
  O         5.9403148286        4.3062772916        5.7279775248
  O        -4.3270107442       13.1743981324        5.6860879732
  O        -1.7698742781        8.7351744218        5.6812866515
  O         0.7974347003        4.2927559032        5.6874603064
  O         3.4680424114       11.7718534918        5.6656739784
  O         6.0464399545        7.3255761102        5.6612281134
  O         8.5872425359        2.8995654266        5.6866346004
  O        -1.6592001330       11.7755318442        5.6617124828
  O         0.8989915518        7.3320331413        5.6653703658
  O         3.4751893672        2.8944084471        5.6645829425
  O        -6.7845032363       11.7736615820        5.6674178281
  O        -4.2291053253        7.3331730975        5.6725774590
  O        -1.6592158901        2.8913524546        5.6653638822
 Fe         7.7817578206       10.2749942441        6.4349675093
 Fe        10.3545092397        5.8233561384        6.4351548044
 Fe        12.9061676646        1.3931931209        6.4343375893
 Fe         2.6567762420       10.2685327572        6.4346173626
 Fe         5.1935387279        5.8473216201        6.4367821118
 Fe         7.7957161846        1.3783012367        6.4313780912
 Fe        -2.4671656538       10.2740821191        6.4336486240
 Fe         0.0908135821        5.8304621382        6.4354510645
 Fe         2.6575680106        1.3921342850        6.4330813007
  O         7.8145946597       10.4265495437        8.2601714414
  H         7.8080609723        9.6276634653        8.8166955913
  H         5.3502936534       10.6106745931        6.6699283187
  O        10.5017186515        5.8162991458        8.2721898384
  H        10.8889666661        5.0163888974        8.6730502816
  H         7.9019244091        6.2454877876        6.6311794977
  O        12.9137535361        1.5595769341        8.2596220535
  H        12.9524999416        0.7583942314        8.8121387542
  H        10.4714480535        1.7029093965        6.6827582431
  O         2.7360332219       10.3747598839        8.2612199286
  H         2.8272339125        9.5474907770        8.7689389902
  H         0.2203143411       10.6071730088        6.6731010932
  O         4.9242440619        6.2110783170        8.1962457221
  H         4.8629462805        5.5932093662        8.9495121912
  H         2.8190067687        6.1846884279        6.6542518528
  O         8.0380049931        1.3419602319        8.2595186968
  H         8.0930132348        0.4617931095        8.6758030143
  H         5.3397860042        1.7344167251        6.6783978125
  O        -2.3422520490       10.4045063623        8.2556623584
  H        -2.2595496043        9.5913261887        8.7855069644
  H        -4.9078292371       10.6265568498        6.6696643198
  O         0.0717963881        5.9643007844        8.2599321849
  H         0.1778841392        5.1678294321        8.8103530846
  H        -2.3357603919        6.1768699828        6.6695919054
  O         2.7188566466        1.5391340540        8.2533619830
  H         2.7855656580        0.7444815845        8.8122376769
  H         0.2261681531        1.7433772226        6.6645527191
  C         7.6291327946        4.2417407072        9.1563343174
  C         6.5549449511        4.3954306675       10.1148161909
  H         8.1169807639        3.2661890411        9.2857256425
  H         7.2159381941        4.2473811825        8.1359517629
  H         8.3676156237        5.0502665090        9.2459819473
  N         5.6704627753        4.5273968555       10.8668228686
     168
 i =       64, E =     -8144.3768257673
 Fe         5.0938794100       11.8196869300        0.3885799900
 Fe         7.6575796300        7.3792284900        0.3885799900
 Fe        10.2212798400        2.9387700600        0.3885799900
 Fe        -0.0335205200       11.8196869300        0.3885799900
 Fe         2.5301797000        7.3792284900        0.3885799900
 Fe         5.0938799200        2.9387700600        0.3885799900
 Fe        -5.1609204400       11.8196869300        0.3885799900
 Fe        -2.5972202200        7.3792284900        0.3885799900
 Fe        -0.0335200000        2.9387700600        0.3885799900
  O         8.4519195100        8.9577468800        1.1642700400
  O        11.0156197300        4.5172884400        1.1642700400
  O        13.5793199500        0.0768300000        1.1642700400
  O         3.3245195900        8.9577468800        1.1642700400
  O         5.8882198100        4.5172884400        1.1642700400
  O         8.4519200300        0.0768300000        1.1642700400
  O        -1.8028803300        8.9577468800        1.1642700400
  O         0.7608198900        4.5172884400        1.1642700400
  O         3.3245201100        0.0768300000        1.1642700400
  O         8.4568493000       11.7183869300        1.1650400200
  O        11.0205495200        7.2779284900        1.1650400200
  O        13.5842497300        2.8374700500        1.1650400200
  O         3.3294493700       11.7183869300        1.1650400200
  O         5.8931495900        7.2779284900        1.1650400200
  O         8.4568498100        2.8374700500        1.1650400200
  O        -1.7979505500       11.7183869300        1.1650400200
  O         0.7657496700        7.2779284900        1.1650400200
  O         3.3294498900        2.8374700500        1.1650400200
  O         6.0627194200       10.3425368500        1.1660399400
  O         8.6264196400        5.9020784100        1.1660399400
  O        11.1901198600        1.4616199700        1.1660399400
  O         0.9353195000       10.3425368500        1.1660399400
  O         3.4990197200        5.9020784100        1.1660399400
  O         6.0627199400        1.4616199700        1.1660399400
  O        -4.1920804200       10.3425368500        1.1660399400
  O        -1.6283802000        5.9020784100        1.1660399400
  O         0.9353200200        1.4616199700        1.1660399400
 Fe         7.6576695000       13.2997167500        1.9292099500
 Fe        10.2213697200        8.8592583200        1.9292099500
 Fe        12.7850699400        4.4187998800        1.9292099500
 Fe         2.5302695800       13.2997167500        1.9292099500
 Fe         5.0939698000        8.8592583200        1.9292099500
 Fe         7.6576700200        4.4187998800        1.9292099500
 Fe        -2.5971303400       13.2997167500        1.9292099500
 Fe        -0.0334301200        8.8592583200        1.9292099500
 Fe         2.5302701000        4.4187998800        1.9292099500
 Fe         7.6573893600       10.3392168700        2.7128999200
 Fe        10.2210895800        5.8987584300        2.7128999200
 Fe        12.7847898000        1.4582999900        2.7128999200
 Fe         2.5299894400       10.3392168700        2.7128999200
 Fe         5.0936896600        5.8987584300        2.7128999200
 Fe         7.6573898800        1.4582999900        2.7128999200
 Fe        -2.5974104800       10.3392168700        2.7128999200
 Fe        -0.0337102600        5.8987584300        2.7128999200
 Fe         2.5299899600        1.4582999900        2.7128999200
  O         4.0935118779       13.3156568182        3.5124663054
  O         6.6595864434        8.8767570690        3.5133903320
  O         9.2180971086        4.4325958476        3.5152102439
  O        -1.0360904639       13.3165201080        3.5107596995
  O         1.5290376600        8.8749916136        3.5126461035
  O         4.0998674898        4.4357445154        3.5158879338
  O        -6.1614170841       13.3159511018        3.5124000998
  O        -3.5990896773        8.8752598071        3.5137243885
  O        -1.0360430048        4.4335352771        3.5113397548
  O         6.8133192208       11.8725235293        3.4972379092
  O         9.3771392520        7.4339638314        3.4926913816
  O        11.9383905379        2.9886856019        3.4961427389
  O         1.6860940162       11.8726972446        3.4908074009
  O         4.2523781367        7.4330646946        3.4934614494
  O         6.8131054947        2.9923749332        3.5056150132
  O        -3.4420626578       11.8731592216        3.4935927691
  O        -0.8803745462        7.4316398039        3.4946177956
  O         1.6861391351        2.9903566737        3.4952202656
  O         9.4265666622       10.2244327384        3.4893105515
  O        11.9906534023        5.7825815239        3.4866258763
  O        14.5563731598        1.3433025076        3.4867734954
  O         4.3012391253       10.2253585271        3.4864597962
  O         6.8684891924        5.7763065037        3.4865666898
  O         9.4259489638        1.3479268376        3.4890619709
  O        -0.8271965530       10.2244585157        3.4863291991
  O         1.7353436878        5.7804824567        3.4798041198
  O         4.3029907316        1.3471233496        3.4901555860
 Fe         5.0378101372       11.8336623692        4.4213811459
 Fe         7.6046223152        7.3993973537        4.4145953924
 Fe        10.1616682730        2.9514826288        4.4225963691
 Fe        -0.0908661630       11.8328132722        4.4176670241
 Fe         2.4707339127        7.3931369048        4.4186584606
 Fe         5.0370322773        2.9617466972        4.4253067369
 Fe        -5.2163584448       11.8369293048        4.4197915420
 Fe        -2.6548410298        7.3944657847        4.4208542383
 Fe        -0.0901972014        2.9542997406        4.4196390688
 Fe         7.6090628071       13.1860878120        4.8068795338
 Fe        10.1738010093        8.7466713013        4.8069872528
 Fe        12.7392388318        4.3045203629        4.8044542459
 Fe         2.4860573512       13.1813439351        4.8039089550
 Fe         5.0470685092        8.7422030382        4.8079514272
 Fe         7.6061330246        4.3087252841        4.8102430619
 Fe        -2.6434230961       13.1880551023        4.8072769673
 Fe        -0.0822179847        8.7445686807        4.8055093050
 Fe         2.4780469472        4.3032816552        4.8063251488
  O         5.8552323931       10.3451035471        5.8681269247
  O         8.4357684286        5.9157710641        5.8749180423
  O        10.9764541342        1.4606335610        5.8720572986
  O         0.7294850341       10.3463823299        5.8720495057
  O         3.2790986168        5.9121891993        5.8273255957
  O         5.8680488573        1.4642982568        5.8940513040
  O        -4.3959012547       10.3478593129        5.8757988377
  O        -1.8375127261        5.9096986093        5.8648186183
  O         0.7322771511        1.4683769794        5.8665297586
  O         5.9273139602       13.1764467535        5.6913880446
  O         8.4914212547        8.7340063031        5.6920850834
  O        11.0543508584        4.2916833438        5.6818113563
  O         0.7960245046       13.1685131292        5.6695293804
  O         3.3626285281        8.7337099302        5.6795105963
  O         5.9411868939        4.3061604028        5.7289613753
  O        -4.3266212897       13.1744506895        5.6859883998
  O        -1.7689689963        8.7349891258        5.6812141829
  O         0.7970212856        4.2929668856        5.6879022220
  O         3.4680745202       11.7721095859        5.6661282241
  O         6.0467762599        7.3263384772        5.6610876329
  O         8.5877200003        2.8995747571        5.6874538459
  O        -1.6587529046       11.7753034781        5.6618322544
  O         0.8998787148        7.3329068655        5.6653749784
  O         3.4756533384        2.8941636142        5.6651806692
  O        -6.7838516588       11.7732321052        5.6667857376
  O        -4.2286572297        7.3341323393        5.6705208416
  O        -1.6593616735        2.8917566949        5.6662511816
 Fe         7.7817847603       10.2750891059        6.4346826330
 Fe        10.3553263363        5.8250256256        6.4351015210
 Fe        12.9068386611        1.3924517083        6.4343259985
 Fe         2.6571646147       10.2682029960        6.4344965017
 Fe         5.1944908097        5.8474133634        6.4371961423
 Fe         7.7966188406        1.3788514025        6.4316416641
 Fe        -2.4669022261       10.2736550871        6.4334229517
 Fe         0.0905397386        5.8315200815        6.4352337792
 Fe         2.6579902997        1.3919652986        6.4327218873
  O         7.8132178338       10.4274186651        8.2600019476
  H         7.8081044299        9.6284473564        8.8163742866
  H         5.3504375280       10.6105841775        6.6699730702
  O        10.5030665417        5.8214987108        8.2724867706
  H        10.8812996085        5.0183018911        8.6755804446
  H         7.9032665383        6.2464001385        6.6311311219
  O        12.9126307761        1.5585622240        8.2597932687
  H        12.9513028569        0.7569778675        8.8118252585
  H        10.4729559080        1.7003984058        6.6834337326
  O         2.7386367107       10.3747441178        8.2610102915
  H         2.8270359141        9.5468594199        8.7682020579
  H         0.2189903205       10.6099285126        6.6708342792
  O         4.9297732546        6.2103177033        8.1977602039
  H         4.8701787752        5.5909566021        8.9500961887
  H         2.8204006533        6.1851686725        6.6548386063
  O         8.0453386879        1.3452911930        8.2584075569
  H         8.1012998253        0.4666300327        8.6772728360
  H         5.3406398587        1.7347627392        6.6790169004
  O        -2.3402577916       10.4029464120        8.2556514785
  H        -2.2594079462        9.5884453087        8.7838565215
  H        -4.9080807941       10.6291452190        6.6672313078
  O         0.0718217429        5.9654693424        8.2593772092
  H         0.1765071293        5.1682723745        8.8089876124
  H        -2.3352717193        6.1776614897        6.6701478854
  O         2.7198919938        1.5388749761        8.2525495317
  H         2.7860910502        0.7442874382        8.8115503897
  H         0.2262869027        1.7469333141        6.6626976370
  C         7.6384975527        4.2470941636        9.1463391069
  C         6.5672928357        4.3980020834       10.1075145038
  H         8.1371837779        3.2754620138        9.2760305965
  H         7.2221815555        4.2482650828        8.1277074652
  H         8.3713820816        5.0610691114        9.2326910923
  N         5.6815792552        4.5214388779       10.8616277029
     168
 i =       65, E =     -8144.3769039348
 Fe         5.0938794100       11.8196869300        0.3885799900
 Fe         7.6575796300        7.3792284900        0.3885799900
 Fe        10.2212798400        2.9387700600        0.3885799900
 Fe        -0.0335205200       11.8196869300        0.3885799900
 Fe         2.5301797000        7.3792284900        0.3885799900
 Fe         5.0938799200        2.9387700600        0.3885799900
 Fe        -5.1609204400       11.8196869300        0.3885799900
 Fe        -2.5972202200        7.3792284900        0.3885799900
 Fe        -0.0335200000        2.9387700600        0.3885799900
  O         8.4519195100        8.9577468800        1.1642700400
  O        11.0156197300        4.5172884400        1.1642700400
  O        13.5793199500        0.0768300000        1.1642700400
  O         3.3245195900        8.9577468800        1.1642700400
  O         5.8882198100        4.5172884400        1.1642700400
  O         8.4519200300        0.0768300000        1.1642700400
  O        -1.8028803300        8.9577468800        1.1642700400
  O         0.7608198900        4.5172884400        1.1642700400
  O         3.3245201100        0.0768300000        1.1642700400
  O         8.4568493000       11.7183869300        1.1650400200
  O        11.0205495200        7.2779284900        1.1650400200
  O        13.5842497300        2.8374700500        1.1650400200
  O         3.3294493700       11.7183869300        1.1650400200
  O         5.8931495900        7.2779284900        1.1650400200
  O         8.4568498100        2.8374700500        1.1650400200
  O        -1.7979505500       11.7183869300        1.1650400200
  O         0.7657496700        7.2779284900        1.1650400200
  O         3.3294498900        2.8374700500        1.1650400200
  O         6.0627194200       10.3425368500        1.1660399400
  O         8.6264196400        5.9020784100        1.1660399400
  O        11.1901198600        1.4616199700        1.1660399400
  O         0.9353195000       10.3425368500        1.1660399400
  O         3.4990197200        5.9020784100        1.1660399400
  O         6.0627199400        1.4616199700        1.1660399400
  O        -4.1920804200       10.3425368500        1.1660399400
  O        -1.6283802000        5.9020784100        1.1660399400
  O         0.9353200200        1.4616199700        1.1660399400
 Fe         7.6576695000       13.2997167500        1.9292099500
 Fe        10.2213697200        8.8592583200        1.9292099500
 Fe        12.7850699400        4.4187998800        1.9292099500
 Fe         2.5302695800       13.2997167500        1.9292099500
 Fe         5.0939698000        8.8592583200        1.9292099500
 Fe         7.6576700200        4.4187998800        1.9292099500
 Fe        -2.5971303400       13.2997167500        1.9292099500
 Fe        -0.0334301200        8.8592583200        1.9292099500
 Fe         2.5302701000        4.4187998800        1.9292099500
 Fe         7.6573893600       10.3392168700        2.7128999200
 Fe        10.2210895800        5.8987584300        2.7128999200
 Fe        12.7847898000        1.4582999900        2.7128999200
 Fe         2.5299894400       10.3392168700        2.7128999200
 Fe         5.0936896600        5.8987584300        2.7128999200
 Fe         7.6573898800        1.4582999900        2.7128999200
 Fe        -2.5974104800       10.3392168700        2.7128999200
 Fe        -0.0337102600        5.8987584300        2.7128999200
 Fe         2.5299899600        1.4582999900        2.7128999200
  O         4.0938838938       13.3143970510        3.5126204412
  O         6.6589199039        8.8758425301        3.5120459491
  O         9.2183639002        4.4324581590        3.5139356490
  O        -1.0362328091       13.3166605517        3.5110257045
  O         1.5301805468        8.8756661738        3.5123570559
  O         4.1001581689        4.4347462902        3.5163636336
  O        -6.1612066064       13.3163638979        3.5124188644
  O        -3.5986737635        8.8749347419        3.5138977530
  O        -1.0360226561        4.4337158184        3.5114407472
  O         6.8134064348       11.8722112603        3.4959597719
  O         9.3752644156        7.4346638756        3.4911810250
  O        11.9384773758        2.9890955565        3.4966670973
  O         1.6852390856       11.8734636863        3.4908482902
  O         4.2528621131        7.4337008323        3.4923282769
  O         6.8149651702        2.9927951315        3.5045724803
  O        -3.4414223690       11.8741262596        3.4925315149
  O        -0.8802899886        7.4318222859        3.4936063356
  O         1.6855300518        2.9909148933        3.4953135808
  O         9.4285998786       10.2261428025        3.4880254991
  O        11.9909420790        5.7826318840        3.4863373427
  O        14.5553585572        1.3429308445        3.4863077178
  O         4.3018051454       10.2249197011        3.4852006295
  O         6.8681568642        5.7756456659        3.4867135726
  O         9.4267676637        1.3478794258        3.4893388981
  O        -0.8272772987       10.2251714007        3.4843523261
  O         1.7369539151        5.7801776984        3.4806014484
  O         4.3036784255        1.3468824786        3.4903435293
 Fe         5.0378757452       11.8336703758        4.4212554787
 Fe         7.6036246792        7.3995246275        4.4130825730
 Fe        10.1613321772        2.9517464570        4.4220877510
 Fe        -0.0907690421       11.8335714806        4.4170696658
 Fe         2.4715166142        7.3927725484        4.4177671030
 Fe         5.0389316621        2.9624755661        4.4251537051
 Fe        -5.2155234864       11.8388788833        4.4187812300
 Fe        -2.6539735982        7.3944254749        4.4199068154
 Fe        -0.0904516953        2.9547002970        4.4196585475
 Fe         7.6092581817       13.1860331762        4.8076449293
 Fe        10.1732135734        8.7483125928        4.8061659041
 Fe        12.7386429950        4.3051258138        4.8044814741
 Fe         2.4861565099       13.1815912966        4.8039704944
 Fe         5.0469963300        8.7425519658        4.8083354916
 Fe         7.6078860216        4.3089185074        4.8112785019
 Fe        -2.6428685499       13.1884335080        4.8076742725
 Fe        -0.0812936007        8.7458047987        4.8076686425
 Fe         2.4788306543        4.3027202774        4.8067393512
  O         5.8552271059       10.3447693854        5.8680775192
  O         8.4370678736        5.9148994452        5.8755870098
  O        10.9774520465        1.4594471573        5.8716134857
  O         0.7289225031       10.3477970500        5.8714093474
  O         3.2815354484        5.9117828381        5.8288691178
  O         5.8706994835        1.4638339313        5.8961392828
  O        -4.3945078657       10.3505323356        5.8739885960
  O        -1.8370990970        5.9100516516        5.8651894854
  O         0.7323601174        1.4693005719        5.8659574750
  O         5.9285083710       13.1756549738        5.6910106448
  O         8.4924211534        8.7344057960        5.6917627254
  O        11.0533486407        4.2938895783        5.6814035103
  O         0.7961606974       13.1685320356        5.6697425159
  O         3.3641206822        8.7337054833        5.6797211967
  O         5.9436263143        4.3057272805        5.7309086168
  O        -4.3259307314       13.1748718285        5.6861160077
  O        -1.7671753385        8.7348270634        5.6814291275
  O         0.7970528176        4.2931173223        5.6887255740
  O         3.4677663695       11.7721926197        5.6663719456
  O         6.0471827076        7.3274633046        5.6606476955
  O         8.5877939725        2.9003869448        5.6878594673
  O        -1.6580655283       11.7744273913        5.6617553370
  O         0.9008860555        7.3344419574        5.6654697831
  O         3.4764458694        2.8939402456        5.6654166258
  O        -6.7833399608       11.7725392162        5.6654804849
  O        -4.2275972902        7.3353619472        5.6677724380
  O        -1.6594707577        2.8918546531        5.6670831495
 Fe         7.7818226359       10.2751894600        6.4342816818
 Fe        10.3573162769        5.8274373586        6.4352702938
 Fe        12.9074323285        1.3915375883        6.4342641435
 Fe         2.6577392919       10.2676472300        6.4342146137
 Fe         5.1960694256        5.8475144755        6.4374285072
 Fe         7.7988386129        1.3796286237        6.4327461189
 Fe        -2.4668116552       10.2731557829        6.4330620610
 Fe         0.0906758338        5.8328722049        6.4348773667
 Fe         2.6587770768        1.3921240204        6.4322935763
  O         7.8105765073       10.4295091504        8.2597332169
  H         7.8076942109        9.6304775978        8.8160663122
  H         5.3512576237       10.6102202116        6.6705227972
  O        10.5072075024        5.8320335649        8.2724770694
  H        10.8676392031        5.0224136426        8.6800848191
  H         7.9058411355        6.2486758004        6.6312213339
  O        12.9101244771        1.5567980621        8.2599232629
  H        12.9485681559        0.7545336006        8.8111167717
  H        10.4753761679        1.6955160341        6.6849820371
  O         2.7439241943       10.3747327125        8.2604811113
  H         2.8271690360        9.5456614085        8.7666162478
  H         0.2173765382       10.6155259748        6.6683906864
  O         4.9403571409        6.2077119508        8.2002072520
  H         4.8850410037        5.5855287318        8.9506343421
  H         2.8221518068        6.1856552024        6.6556634545
  O         8.0627042899        1.3529382904        8.2563040476
  H         8.1191740901        0.4771534262        8.6805984418
  H         5.3424695554        1.7356813462        6.6802218847
  O        -2.3361192103       10.3997474897        8.2556200876
  H        -2.2581969077        9.5826797465        8.7804582171
  H        -4.9082952888       10.6339894856        6.6633287569
  O         0.0720012303        5.9679251605        8.2584882913
  H         0.1732089384        5.1695086562        8.8070778842
  H        -2.3344755572        6.1788686606        6.6705312134
  O         2.7221094399        1.5385882753        8.2514542040
  H         2.7873085295        0.7441271202        8.8106577681
  H         0.2268529028        1.7534791704        6.6604473386
  C         7.6618976660        4.2605323975        9.1263578162
  C         6.5925012992        4.3960529985       10.0925799415
  H         8.1784710843        3.2988225162        9.2561600346
  H         7.2354828775        4.2474778263        8.1108974741
  H         8.3810160806        5.0909606849        9.2018908419
  N         5.7085479628        4.5120784658       10.8488598090
     168
 i =       66, E =     -8144.3769368090
 Fe         5.0938794100       11.8196869300        0.3885799900
 Fe         7.6575796300        7.3792284900        0.3885799900
 Fe        10.2212798400        2.9387700600        0.3885799900
 Fe        -0.0335205200       11.8196869300        0.3885799900
 Fe         2.5301797000        7.3792284900        0.3885799900
 Fe         5.0938799200        2.9387700600        0.3885799900
 Fe        -5.1609204400       11.8196869300        0.3885799900
 Fe        -2.5972202200        7.3792284900        0.3885799900
 Fe        -0.0335200000        2.9387700600        0.3885799900
  O         8.4519195100        8.9577468800        1.1642700400
  O        11.0156197300        4.5172884400        1.1642700400
  O        13.5793199500        0.0768300000        1.1642700400
  O         3.3245195900        8.9577468800        1.1642700400
  O         5.8882198100        4.5172884400        1.1642700400
  O         8.4519200300        0.0768300000        1.1642700400
  O        -1.8028803300        8.9577468800        1.1642700400
  O         0.7608198900        4.5172884400        1.1642700400
  O         3.3245201100        0.0768300000        1.1642700400
  O         8.4568493000       11.7183869300        1.1650400200
  O        11.0205495200        7.2779284900        1.1650400200
  O        13.5842497300        2.8374700500        1.1650400200
  O         3.3294493700       11.7183869300        1.1650400200
  O         5.8931495900        7.2779284900        1.1650400200
  O         8.4568498100        2.8374700500        1.1650400200
  O        -1.7979505500       11.7183869300        1.1650400200
  O         0.7657496700        7.2779284900        1.1650400200
  O         3.3294498900        2.8374700500        1.1650400200
  O         6.0627194200       10.3425368500        1.1660399400
  O         8.6264196400        5.9020784100        1.1660399400
  O        11.1901198600        1.4616199700        1.1660399400
  O         0.9353195000       10.3425368500        1.1660399400
  O         3.4990197200        5.9020784100        1.1660399400
  O         6.0627199400        1.4616199700        1.1660399400
  O        -4.1920804200       10.3425368500        1.1660399400
  O        -1.6283802000        5.9020784100        1.1660399400
  O         0.9353200200        1.4616199700        1.1660399400
 Fe         7.6576695000       13.2997167500        1.9292099500
 Fe        10.2213697200        8.8592583200        1.9292099500
 Fe        12.7850699400        4.4187998800        1.9292099500
 Fe         2.5302695800       13.2997167500        1.9292099500
 Fe         5.0939698000        8.8592583200        1.9292099500
 Fe         7.6576700200        4.4187998800        1.9292099500
 Fe        -2.5971303400       13.2997167500        1.9292099500
 Fe        -0.0334301200        8.8592583200        1.9292099500
 Fe         2.5302701000        4.4187998800        1.9292099500
 Fe         7.6573893600       10.3392168700        2.7128999200
 Fe        10.2210895800        5.8987584300        2.7128999200
 Fe        12.7847898000        1.4582999900        2.7128999200
 Fe         2.5299894400       10.3392168700        2.7128999200
 Fe         5.0936896600        5.8987584300        2.7128999200
 Fe         7.6573898800        1.4582999900        2.7128999200
 Fe        -2.5974104800       10.3392168700        2.7128999200
 Fe        -0.0337102600        5.8987584300        2.7128999200
 Fe         2.5299899600        1.4582999900        2.7128999200
  O         4.0940270816       13.3142441171        3.5127714270
  O         6.6589445210        8.8753808633        3.5116779209
  O         9.2193919687        4.4323558858        3.5137083112
  O        -1.0356164066       13.3170066489        3.5114353893
  O         1.5304926585        8.8758560868        3.5122428502
  O         4.1006917151        4.4342515255        3.5165841516
  O        -6.1611787390       13.3165423207        3.5123453005
  O        -3.5985979695        8.8748707359        3.5134322361
  O        -1.0358757133        4.4339426069        3.5116155733
  O         6.8137081670       11.8725852680        3.4951472814
  O         9.3750661266        7.4348315898        3.4914189465
  O        11.9385036547        2.9890855017        3.4972326396
  O         1.6852185144       11.8740731569        3.4901409057
  O         4.2527907404        7.4335975685        3.4919833740
  O         6.8156503409        2.9928802155        3.5038166114
  O        -3.4409949107       11.8749841250        3.4923079727
  O        -0.8798940710        7.4315612681        3.4932769582
  O         1.6857176052        2.9919778122        3.4945165377
  O         9.4294460639       10.2262952635        3.4876119356
  O        11.9913755255        5.7826515145        3.4862890046
  O        14.5549986478        1.3425471706        3.4861823904
  O         4.3020951426       10.2246398834        3.4850098765
  O         6.8677841881        5.7759246454        3.4865760047
  O         9.4271190469        1.3480680835        3.4896507220
  O        -0.8270451119       10.2251808726        3.4837048437
  O         1.7378925838        5.7805438810        3.4808294204
  O         4.3036218064        1.3466697532        3.4909976355
 Fe         5.0382313669       11.8337565789        4.4206537671
 Fe         7.6036323357        7.3995069960        4.4130279787
 Fe        10.1618192434        2.9514636109        4.4222485439
 Fe        -0.0903000685       11.8338267616        4.4165170139
 Fe         2.4718788959        7.3927846542        4.4176554328
 Fe         5.0401320029        2.9623174462        4.4249314069
 Fe        -5.2150249583       11.8395467438        4.4181868736
 Fe        -2.6533500267        7.3948549056        4.4195806327
 Fe        -0.0902186697        2.9550552829        4.4190268576
 Fe         7.6095039990       13.1862120076        4.8082994121
 Fe        10.1734984544        8.7490385454        4.8067651507
 Fe        12.7385768721        4.3049926406        4.8047588808
 Fe         2.4863819255       13.1815110053        4.8037306163
 Fe         5.0471170892        8.7425112963        4.8085331046
 Fe         7.6089321016        4.3095776525        4.8105738741
 Fe        -2.6420212552       13.1887620640        4.8082662454
 Fe        -0.0807478197        8.7461996527        4.8085755628
 Fe         2.4794709789        4.3030470000        4.8066904826
  O         5.8556060206       10.3448542700        5.8676650443
  O         8.4382769914        5.9145636181        5.8758209172
  O        10.9778004512        1.4585645278        5.8716363426
  O         0.7290908438       10.3491278921        5.8710596222
  O         3.2836544811        5.9119145375        5.8304992906
  O         5.8731002167        1.4625195267        5.8987217484
  O        -4.3934375718       10.3525413505        5.8727869736
  O        -1.8368129580        5.9101374112        5.8654090157
  O         0.7329256766        1.4711919892        5.8652166196
  O         5.9291602756       13.1754912390        5.6909332318
  O         8.4929428293        8.7346100210        5.6922509749
  O        11.0535192898        4.2940353932        5.6817011361
  O         0.7966719146       13.1681645809        5.6698262760
  O         3.3647212933        8.7337289582        5.6799853177
  O         5.9452423740        4.3047540101        5.7310607024
  O        -4.3252218917       13.1751223397        5.6864063271
  O        -1.7663035480        8.7350339688        5.6813467082
  O         0.7977446035        4.2933888556        5.6889575500
  O         3.4677813968       11.7717961805        5.6658260588
  O         6.0477463456        7.3276286464        5.6600665003
  O         8.5879518110        2.9014998668        5.6867704809
  O        -1.6573515113       11.7741621054        5.6618195086
  O         0.9016157562        7.3352044020        5.6656782022
  O         3.4770812071        2.8944246803        5.6652682698
  O        -6.7828511782       11.7726362900        5.6652764811
  O        -4.2262574444        7.3358739911        5.6670055981
  O        -1.6589940050        2.8917639208        5.6674830355
 Fe         7.7819966263       10.2753619659        6.4343633391
 Fe        10.3592209434        5.8285516726        6.4347688680
 Fe        12.9076426335        1.3913633310        6.4342595845
 Fe         2.6580638114       10.2675794021        6.4342614225
 Fe         5.1983195112        5.8470432656        6.4374010361
 Fe         7.8016070567        1.3800525671        6.4333392193
 Fe        -2.4667387734       10.2731839077        6.4327940981
 Fe         0.0912051702        5.8334596842        6.4345848918
 Fe         2.6594165132        1.3925635938        6.4322652129
  O         7.8080059041       10.4310700861        8.2596104205
  H         7.8074298436        9.6324581618        8.8166146691
  H         5.3519982457       10.6095285688        6.6706918509
  O        10.5115687033        5.8435559527        8.2716402938
  H        10.8526963340        5.0279610451        8.6852278770
  H         7.9080049068        6.2509629856        6.6310533778
  O        12.9077317674        1.5546410865        8.2599850585
  H        12.9457826520        0.7517170470        8.8102849468
  H        10.4768539318        1.6907544987        6.6868958506
  O         2.7495313442       10.3745794310        8.2602560006
  H         2.8272501259        9.5443528461        8.7655026360
  H         0.2165947785       10.6214710148        6.6659993255
  O         4.9512676442        6.2052957647        8.2018109980
  H         4.9011231923        5.5805845366        8.9504657520
  H         2.8234040138        6.1861543445        6.6566639297
  O         8.0811833840        1.3600578642        8.2545596160
  H         8.1378981429        0.4871693978        8.6847865093
  H         5.3440229241        1.7371228817        6.6813298987
  O        -2.3323912728       10.3960142604        8.2551895029
  H        -2.2571206953        9.5766613522        8.7769966100
  H        -4.9083585738       10.6394144033        6.6600217676
  O         0.0728729194        5.9700044693        8.2580743479
  H         0.1697212673        5.1707792203        8.8063980308
  H        -2.3335944036        6.1802983727        6.6707724971
  O         2.7244335795        1.5381767999        8.2512506021
  H         2.7885278388        0.7434677722        8.8101709650
  H         0.2273993083        1.7598377899        6.6581245392
  C         7.6849027404        4.2745397318        9.1032486103
  C         6.6194886407        4.3968672277       10.0753313219
  H         8.2205611486        3.3223524644        9.2361609544
  H         7.2510513922        4.2488447027        8.0914160380
  H         8.3895188434        5.1177340570        9.1714114407
  N         5.7398582040        4.5019983846       10.8390849040
     168
 i =       67, E =     -8144.3769872352
 Fe         5.0938794100       11.8196869300        0.3885799900
 Fe         7.6575796300        7.3792284900        0.3885799900
 Fe        10.2212798400        2.9387700600        0.3885799900
 Fe        -0.0335205200       11.8196869300        0.3885799900
 Fe         2.5301797000        7.3792284900        0.3885799900
 Fe         5.0938799200        2.9387700600        0.3885799900
 Fe        -5.1609204400       11.8196869300        0.3885799900
 Fe        -2.5972202200        7.3792284900        0.3885799900
 Fe        -0.0335200000        2.9387700600        0.3885799900
  O         8.4519195100        8.9577468800        1.1642700400
  O        11.0156197300        4.5172884400        1.1642700400
  O        13.5793199500        0.0768300000        1.1642700400
  O         3.3245195900        8.9577468800        1.1642700400
  O         5.8882198100        4.5172884400        1.1642700400
  O         8.4519200300        0.0768300000        1.1642700400
  O        -1.8028803300        8.9577468800        1.1642700400
  O         0.7608198900        4.5172884400        1.1642700400
  O         3.3245201100        0.0768300000        1.1642700400
  O         8.4568493000       11.7183869300        1.1650400200
  O        11.0205495200        7.2779284900        1.1650400200
  O        13.5842497300        2.8374700500        1.1650400200
  O         3.3294493700       11.7183869300        1.1650400200
  O         5.8931495900        7.2779284900        1.1650400200
  O         8.4568498100        2.8374700500        1.1650400200
  O        -1.7979505500       11.7183869300        1.1650400200
  O         0.7657496700        7.2779284900        1.1650400200
  O         3.3294498900        2.8374700500        1.1650400200
  O         6.0627194200       10.3425368500        1.1660399400
  O         8.6264196400        5.9020784100        1.1660399400
  O        11.1901198600        1.4616199700        1.1660399400
  O         0.9353195000       10.3425368500        1.1660399400
  O         3.4990197200        5.9020784100        1.1660399400
  O         6.0627199400        1.4616199700        1.1660399400
  O        -4.1920804200       10.3425368500        1.1660399400
  O        -1.6283802000        5.9020784100        1.1660399400
  O         0.9353200200        1.4616199700        1.1660399400
 Fe         7.6576695000       13.2997167500        1.9292099500
 Fe        10.2213697200        8.8592583200        1.9292099500
 Fe        12.7850699400        4.4187998800        1.9292099500
 Fe         2.5302695800       13.2997167500        1.9292099500
 Fe         5.0939698000        8.8592583200        1.9292099500
 Fe         7.6576700200        4.4187998800        1.9292099500
 Fe        -2.5971303400       13.2997167500        1.9292099500
 Fe        -0.0334301200        8.8592583200        1.9292099500
 Fe         2.5302701000        4.4187998800        1.9292099500
 Fe         7.6573893600       10.3392168700        2.7128999200
 Fe        10.2210895800        5.8987584300        2.7128999200
 Fe        12.7847898000        1.4582999900        2.7128999200
 Fe         2.5299894400       10.3392168700        2.7128999200
 Fe         5.0936896600        5.8987584300        2.7128999200
 Fe         7.6573898800        1.4582999900        2.7128999200
 Fe        -2.5974104800       10.3392168700        2.7128999200
 Fe        -0.0337102600        5.8987584300        2.7128999200
 Fe         2.5299899600        1.4582999900        2.7128999200
  O         4.0938109631       13.3148233152        3.5126924103
  O         6.6591688306        8.8756893705        3.5121293858
  O         9.2191118875        4.4327015324        3.5137217854
  O        -1.0347629824       13.3172329873        3.5115994008
  O         1.5298251497        8.8757257969        3.5119367638
  O         4.1012386253        4.4342140840        3.5166616110
  O        -6.1614002832       13.3164117331        3.5121805619
  O        -3.5986155567        8.8750544511        3.5128171743
  O        -1.0354008609        4.4337662261        3.5117224953
  O         6.8136127935       11.8732760920        3.4948740302
  O         9.3761406670        7.4342779045        3.4929990478
  O        11.9379750328        2.9892847789        3.4971428698
  O         1.6853936426       11.8743721570        3.4893294936
  O         4.2524118705        7.4332158208        3.4923049238
  O         6.8146270152        2.9931341686        3.5036706949
  O        -3.4413179005       11.8755898726        3.4925480138
  O        -0.8795207999        7.4310650213        3.4934409113
  O         1.6857082150        2.9923257675        3.4936725992
  O         9.4293383320       10.2250754340        3.4878996529
  O        11.9913861988        5.7830101994        3.4864038069
  O        14.5550983454        1.3421395022        3.4863037942
  O         4.3022920565       10.2247677294        3.4856506574
  O         6.8671321201        5.7768273646        3.4865595331
  O         9.4265126136        1.3485906010        3.4901669582
  O        -0.8267022244       10.2244578636        3.4843241638
  O         1.7380943946        5.7808711676        3.4804064773
  O         4.3031239618        1.3463761758        3.4912204063
 Fe         5.0380243157       11.8343371570        4.4203934288
 Fe         7.6035686171        7.3998291486        4.4136452721
 Fe        10.1612606821        2.9526826043        4.4223315397
 Fe        -0.0903455972       11.8333313255        4.4165205423
 Fe         2.4716571797        7.3933664019        4.4178135538
 Fe         5.0399853400        2.9613952120        4.4245523552
 Fe        -5.2155195653       11.8391690546        4.4183977657
 Fe        -2.6536074030        7.3957919848        4.4197676866
 Fe        -0.0903806833        2.9550917628        4.4189176037
 Fe         7.6092778772       13.1864405749        4.8089143096
 Fe        10.1738106721        8.7485563577        4.8084364746
 Fe        12.7383690607        4.3045687021        4.8044925258
 Fe         2.4860713449       13.1819672965        4.8030725386
 Fe         5.0469410557        8.7428869887        4.8086659053
 Fe         7.6076392043        4.3105709644        4.8108846985
 Fe        -2.6420127070       13.1886939490        4.8082069557
 Fe        -0.0809237581        8.7455192030        4.8088042802
 Fe         2.4795178600        4.3035092644        4.8056459011
  O         5.8558412121       10.3453531822        5.8681093664
  O         8.4371940944        5.9148732561        5.8765649028
  O        10.9777000702        1.4597830790        5.8712204567
  O         0.7290234646       10.3482617836        5.8717241021
  O         3.2827261820        5.9127296631        5.8304384731
  O         5.8726340634        1.4621432195        5.8985433876
  O        -4.3933314318       10.3515093952        5.8734981176
  O        -1.8369503475        5.9092039472        5.8648599363
  O         0.7325227352        1.4712894334        5.8662319445
  O         5.9283954920       13.1759937372        5.6909728074
  O         8.4927722822        8.7346052264        5.6933847050
  O        11.0536548986        4.2933428886        5.6817704868
  O         0.7970207443       13.1681070643        5.6697244186
  O         3.3642335671        8.7340868442        5.6802904952
  O         5.9444052591        4.3054531336        5.7316414264
  O        -4.3249909231       13.1750807215        5.6869924935
  O        -1.7662832135        8.7350328489        5.6821711090
  O         0.7983030881        4.2936455739        5.6879660865
  O         3.4669799292       11.7719054430        5.6650664635
  O         6.0476338787        7.3276228361        5.6596971196
  O         8.5873892261        2.9024755288        5.6863210592
  O        -1.6575761620       11.7743816540        5.6617910847
  O         0.9017162157        7.3342357840        5.6648437774
  O         3.4763177879        2.8950313170        5.6645065299
  O        -6.7831791378       11.7734880922        5.6659073543
  O        -4.2254745774        7.3354387525        5.6685015570
  O        -1.6594969268        2.8920538010        5.6670180941
 Fe         7.7819630293       10.2757276423        6.4343519504
 Fe        10.3588054917        5.8283849868        6.4342395308
 Fe        12.9072140016        1.3923381049        6.4340872529
 Fe         2.6576725950       10.2682066172        6.4342475148
 Fe         5.1972109068        5.8484139667        6.4374210119
 Fe         7.8016094708        1.3796800358        6.4328253758
 Fe        -2.4669594602       10.2736896464        6.4330596154
 Fe         0.0914165185        5.8328724597        6.4340515457
 Fe         2.6591961584        1.3930575702        6.4324445185
  O         7.8096039044       10.4296277706        8.2594664996
  H         7.8084629577        9.6292777798        8.8140675621
  H         5.3521476582       10.6088118286        6.6714977011
  O        10.5068189129        5.8473052847        8.2710090923
  H        10.8455824733        5.0336557301        8.6886134660
  H         7.9081908830        6.2520718201        6.6325695301
  O        12.9086189003        1.5528272561        8.2597946183
  H        12.9479302847        0.7492340214        8.8089834262
  H        10.4771571553        1.6920701303        6.6865703071
  O         2.7471798382       10.3752887571        8.2601759526
  H         2.8272524449        9.5454917983        8.7655631998
  H         0.2165322903       10.6185675099        6.6671393961
  O         4.9493932908        6.2096932832        8.2007716780
  H         4.9025318785        5.5889856025        8.9527374649
  H         2.8216514259        6.1857671358        6.6565651668
  O         8.0762560434        1.3550447354        8.2546580396
  H         8.1346667887        0.4808917322        8.6821459284
  H         5.3443633481        1.7366615043        6.6816782585
  O        -2.3352901102       10.3955729456        8.2555529151
  H        -2.2605142008        9.5760117554        8.7770741475
  H        -4.9077618555       10.6376514752        6.6612746201
  O         0.0736191466        5.9698736087        8.2575932528
  H         0.1716445688        5.1695767439        8.8040635750
  H        -2.3335070157        6.1795645664        6.6702864463
  O         2.7233393596        1.5367173237        8.2519217293
  H         2.7877261471        0.7406048386        8.8088646088
  H         0.2275192721        1.7568943711        6.6604664094
  C         7.6775301973        4.2658511941        9.1071958254
  C         6.6123738531        4.3960067214       10.0773567658
  H         8.1988105093        3.3063826945        9.2323182429
  H         7.2473338731        4.2544339049        8.0950517957
  H         8.3909192099        5.0990196030        9.1828199875
  N         5.7325376410        4.5067240005       10.8399103202
     168
 i =       68, E =     -8144.3770233678
 Fe         5.0938794100       11.8196869300        0.3885799900
 Fe         7.6575796300        7.3792284900        0.3885799900
 Fe        10.2212798400        2.9387700600        0.3885799900
 Fe        -0.0335205200       11.8196869300        0.3885799900
 Fe         2.5301797000        7.3792284900        0.3885799900
 Fe         5.0938799200        2.9387700600        0.3885799900
 Fe        -5.1609204400       11.8196869300        0.3885799900
 Fe        -2.5972202200        7.3792284900        0.3885799900
 Fe        -0.0335200000        2.9387700600        0.3885799900
  O         8.4519195100        8.9577468800        1.1642700400
  O        11.0156197300        4.5172884400        1.1642700400
  O        13.5793199500        0.0768300000        1.1642700400
  O         3.3245195900        8.9577468800        1.1642700400
  O         5.8882198100        4.5172884400        1.1642700400
  O         8.4519200300        0.0768300000        1.1642700400
  O        -1.8028803300        8.9577468800        1.1642700400
  O         0.7608198900        4.5172884400        1.1642700400
  O         3.3245201100        0.0768300000        1.1642700400
  O         8.4568493000       11.7183869300        1.1650400200
  O        11.0205495200        7.2779284900        1.1650400200
  O        13.5842497300        2.8374700500        1.1650400200
  O         3.3294493700       11.7183869300        1.1650400200
  O         5.8931495900        7.2779284900        1.1650400200
  O         8.4568498100        2.8374700500        1.1650400200
  O        -1.7979505500       11.7183869300        1.1650400200
  O         0.7657496700        7.2779284900        1.1650400200
  O         3.3294498900        2.8374700500        1.1650400200
  O         6.0627194200       10.3425368500        1.1660399400
  O         8.6264196400        5.9020784100        1.1660399400
  O        11.1901198600        1.4616199700        1.1660399400
  O         0.9353195000       10.3425368500        1.1660399400
  O         3.4990197200        5.9020784100        1.1660399400
  O         6.0627199400        1.4616199700        1.1660399400
  O        -4.1920804200       10.3425368500        1.1660399400
  O        -1.6283802000        5.9020784100        1.1660399400
  O         0.9353200200        1.4616199700        1.1660399400
 Fe         7.6576695000       13.2997167500        1.9292099500
 Fe        10.2213697200        8.8592583200        1.9292099500
 Fe        12.7850699400        4.4187998800        1.9292099500
 Fe         2.5302695800       13.2997167500        1.9292099500
 Fe         5.0939698000        8.8592583200        1.9292099500
 Fe         7.6576700200        4.4187998800        1.9292099500
 Fe        -2.5971303400       13.2997167500        1.9292099500
 Fe        -0.0334301200        8.8592583200        1.9292099500
 Fe         2.5302701000        4.4187998800        1.9292099500
 Fe         7.6573893600       10.3392168700        2.7128999200
 Fe        10.2210895800        5.8987584300        2.7128999200
 Fe        12.7847898000        1.4582999900        2.7128999200
 Fe         2.5299894400       10.3392168700        2.7128999200
 Fe         5.0936896600        5.8987584300        2.7128999200
 Fe         7.6573898800        1.4582999900        2.7128999200
 Fe        -2.5974104800       10.3392168700        2.7128999200
 Fe        -0.0337102600        5.8987584300        2.7128999200
 Fe         2.5299899600        1.4582999900        2.7128999200
  O         4.0937877811       13.3154708064        3.5126663780
  O         6.6594976408        8.8765046424        3.5128852782
  O         9.2182604378        4.4337226600        3.5138745698
  O        -1.0343017907       13.3174606971        3.5115180140
  O         1.5291574661        8.8756378227        3.5117717933
  O         4.1018401467        4.4343917125        3.5167343312
  O        -6.1616607392       13.3166531841        3.5122393765
  O        -3.5984260503        8.8756560207        3.5125444544
  O        -1.0346918054        4.4332044731        3.5115996447
  O         6.8135910992       11.8738550929        3.4951484576
  O         9.3774380481        7.4336179000        3.4944078853
  O        11.9375713361        2.9896829475        3.4967165256
  O         1.6856354664       11.8745385781        3.4886781965
  O         4.2522777812        7.4329485379        3.4928310396
  O         6.8128707328        2.9934315087        3.5035133349
  O        -3.4414731458       11.8763752482        3.4925307283
  O        -0.8790057824        7.4306662260        3.4936874474
  O         1.6857741715        2.9923192787        3.4931633611
  O         9.4287817145       10.2237681356        3.4885224393
  O        11.9912297405        5.7831828872        3.4862741613
  O        14.5556106393        1.3421113103        3.4862282896
  O         4.3025683879       10.2249647794        3.4862156897
  O         6.8667501955        5.7779192545        3.4868364748
  O         9.4259032783        1.3491496301        3.4904866026
  O        -0.8263063099       10.2236712540        3.4850985053
  O         1.7380412350        5.7809469342        3.4800694543
  O         4.3030440294        1.3462605647        3.4910375243
 Fe         5.0377567820       11.8348309412        4.4205874065
 Fe         7.6036542329        7.4007745125        4.4141991381
 Fe        10.1605454839        2.9544457036        4.4224509323
 Fe        -0.0905836699       11.8328488083        4.4166283854
 Fe         2.4715875931        7.3939028629        4.4178770302
 Fe         5.0395495853        2.9603654090        4.4242865060
 Fe        -5.2159429711       11.8389190236        4.4184107096
 Fe        -2.6540550637        7.3965325878        4.4196237815
 Fe        -0.0905550126        2.9550988834        4.4192158762
 Fe         7.6088958258       13.1868307363        4.8094878762
 Fe        10.1739167598        8.7479528377        4.8094873501
 Fe        12.7382005760        4.3044302804        4.8039581948
 Fe         2.4857171949       13.1825228902        4.8024522965
 Fe         5.0467504629        8.7434161573        4.8088372818
 Fe         7.6060808892        4.3116098160        4.8108077906
 Fe        -2.6422725986       13.1887047527        4.8080851760
 Fe        -0.0812117232        8.7447856546        4.8085511037
 Fe         2.4795611743        4.3038978459        4.8045571567
  O         5.8559904192       10.3458114058        5.8688196734
  O         8.4361550069        5.9159012273        5.8771638398
  O        10.9774894644        1.4611882060        5.8710921906
  O         0.7290745968       10.3470068732        5.8726058170
  O         3.2816717023        5.9135412323        5.8301116041
  O         5.8725093445        1.4617314377        5.8986178488
  O        -4.3934317503       10.3498603021        5.8745515231
  O        -1.8370478793        5.9083186079        5.8641076168
  O         0.7323059743        1.4709939526        5.8674890458
  O         5.9274519155       13.1763524840        5.6914172371
  O         8.4927409569        8.7351040043        5.6945544195
  O        11.0538451855        4.2928304743        5.6820207708
  O         0.7971949224       13.1681908846        5.6694421678
  O         3.3634655012        8.7344266852        5.6803559505
  O         5.9431821723        4.3061015477        5.7314649274
  O        -4.3248336195       13.1746799715        5.6879463113
  O        -1.7666163545        8.7344633591        5.6825987048
  O         0.7987528356        4.2936746217        5.6869351386
  O         3.4661955107       11.7721620104        5.6642796525
  O         6.0475702580        7.3275080412        5.6595156890
  O         8.5868407953        2.9032474644        5.6851975716
  O        -1.6580129081       11.7746096474        5.6615237309
  O         0.9019187774        7.3328534514        5.6635063165
  O         3.4755591589        2.8953848719        5.6635134815
  O        -6.7832252126       11.7746520088        5.6666172321
  O        -4.2248710376        7.3352667180        5.6697880333
  O        -1.6602185661        2.8927059594        5.6664107756
 Fe         7.7818087218       10.2765016438        6.4343503329
 Fe        10.3582284417        5.8285564682        6.4338819015
 Fe        12.9069110407        1.3935233665        6.4338311102
 Fe         2.6573372952       10.2690421041        6.4342141052
 Fe         5.1960677768        5.8493809303        6.4374617432
 Fe         7.8019784097        1.3795050975        6.4324817734
 Fe        -2.4667999177       10.2739065143        6.4333151109
 Fe         0.0915623160        5.8321238095        6.4333730089
 Fe         2.6590317271        1.3934815054        6.4325379340
  O         7.8112423038       10.4289343017        8.2593585586
  H         7.8086346844        9.6268201285        8.8114692069
  H         5.3522115663       10.6078772915        6.6725641863
  O        10.5043387246        5.8524033990        8.2704479597
  H        10.8400270806        5.0402115564        8.6918387104
  H         7.9081440121        6.2529914643        6.6340797434
  O        12.9088597128        1.5513197440        8.2595150473
  H        12.9493872570        0.7469973609        8.8075259690
  H        10.4771593584        1.6931834784        6.6865847448
  O         2.7453642085       10.3761953770        8.2601483009
  H         2.8284337320        9.5467728173        8.7655609866
  H         0.2164059865       10.6142021833        6.6687559318
  O         4.9471627382        6.2123969385        8.1999621959
  H         4.9060844078        5.5952488279        8.9552306573
  H         2.8197306093        6.1848633266        6.6563373820
  O         8.0761023991        1.3524869612        8.2549590564
  H         8.1359798612        0.4770545038        8.6797041794
  H         5.3449820097        1.7357984317        6.6823339181
  O        -2.3377935369       10.3946032715        8.2559581188
  H        -2.2624262146        9.5747544068        8.7769031395
  H        -4.9068920650       10.6352913966        6.6633248916
  O         0.0741576416        5.9703499627        8.2568576383
  H         0.1728512088        5.1689488592        8.8015322372
  H        -2.3334212602        6.1778694758        6.6698827447
  O         2.7222360080        1.5357827377        8.2525108093
  H         2.7873661010        0.7382538878        8.8074957647
  H         0.2277256600        1.7527540272        6.6633405296
  C         7.6766527360        4.2623716773        9.1069565718
  C         6.6117657971        4.3931724916       10.0777584599
  H         8.1909952679        3.2978155214        9.2266898780
  H         7.2459396462        4.2571553347        8.0938184408
  H         8.3947915191        5.0918369301        9.1845022379
  N         5.7327956888        4.5077527818       10.8402196838
     168
 i =       69, E =     -8144.3770456749
 Fe         5.0938794100       11.8196869300        0.3885799900
 Fe         7.6575796300        7.3792284900        0.3885799900
 Fe        10.2212798400        2.9387700600        0.3885799900
 Fe        -0.0335205200       11.8196869300        0.3885799900
 Fe         2.5301797000        7.3792284900        0.3885799900
 Fe         5.0938799200        2.9387700600        0.3885799900
 Fe        -5.1609204400       11.8196869300        0.3885799900
 Fe        -2.5972202200        7.3792284900        0.3885799900
 Fe        -0.0335200000        2.9387700600        0.3885799900
  O         8.4519195100        8.9577468800        1.1642700400
  O        11.0156197300        4.5172884400        1.1642700400
  O        13.5793199500        0.0768300000        1.1642700400
  O         3.3245195900        8.9577468800        1.1642700400
  O         5.8882198100        4.5172884400        1.1642700400
  O         8.4519200300        0.0768300000        1.1642700400
  O        -1.8028803300        8.9577468800        1.1642700400
  O         0.7608198900        4.5172884400        1.1642700400
  O         3.3245201100        0.0768300000        1.1642700400
  O         8.4568493000       11.7183869300        1.1650400200
  O        11.0205495200        7.2779284900        1.1650400200
  O        13.5842497300        2.8374700500        1.1650400200
  O         3.3294493700       11.7183869300        1.1650400200
  O         5.8931495900        7.2779284900        1.1650400200
  O         8.4568498100        2.8374700500        1.1650400200
  O        -1.7979505500       11.7183869300        1.1650400200
  O         0.7657496700        7.2779284900        1.1650400200
  O         3.3294498900        2.8374700500        1.1650400200
  O         6.0627194200       10.3425368500        1.1660399400
  O         8.6264196400        5.9020784100        1.1660399400
  O        11.1901198600        1.4616199700        1.1660399400
  O         0.9353195000       10.3425368500        1.1660399400
  O         3.4990197200        5.9020784100        1.1660399400
  O         6.0627199400        1.4616199700        1.1660399400
  O        -4.1920804200       10.3425368500        1.1660399400
  O        -1.6283802000        5.9020784100        1.1660399400
  O         0.9353200200        1.4616199700        1.1660399400
 Fe         7.6576695000       13.2997167500        1.9292099500
 Fe        10.2213697200        8.8592583200        1.9292099500
 Fe        12.7850699400        4.4187998800        1.9292099500
 Fe         2.5302695800       13.2997167500        1.9292099500
 Fe         5.0939698000        8.8592583200        1.9292099500
 Fe         7.6576700200        4.4187998800        1.9292099500
 Fe        -2.5971303400       13.2997167500        1.9292099500
 Fe        -0.0334301200        8.8592583200        1.9292099500
 Fe         2.5302701000        4.4187998800        1.9292099500
 Fe         7.6573893600       10.3392168700        2.7128999200
 Fe        10.2210895800        5.8987584300        2.7128999200
 Fe        12.7847898000        1.4582999900        2.7128999200
 Fe         2.5299894400       10.3392168700        2.7128999200
 Fe         5.0936896600        5.8987584300        2.7128999200
 Fe         7.6573898800        1.4582999900        2.7128999200
 Fe        -2.5974104800       10.3392168700        2.7128999200
 Fe        -0.0337102600        5.8987584300        2.7128999200
 Fe         2.5299899600        1.4582999900        2.7128999200
  O         4.0937706525       13.3159407434        3.5125782103
  O         6.6598813207        8.8770032043        3.5132401494
  O         9.2177274750        4.4339393617        3.5135870478
  O        -1.0341562854       13.3175986370        3.5115001303
  O         1.5292283783        8.8757045191        3.5118419336
  O         4.1018920202        4.4346650624        3.5167248512
  O        -6.1613391507       13.3166097300        3.5121955138
  O        -3.5981061253        8.8758769896        3.5123339145
  O        -1.0345926920        4.4332398163        3.5116535256
  O         6.8137009821       11.8740276636        3.4954960228
  O         9.3781613614        7.4336486458        3.4946671466
  O        11.9373733093        2.9901124843        3.4964204879
  O         1.6858136607       11.8745808795        3.4886097055
  O         4.2522691048        7.4330756320        3.4929773823
  O         6.8118552030        2.9936733114        3.5036296091
  O        -3.4416330862       11.8766783699        3.4925702645
  O        -0.8789837021        7.4304667607        3.4937177300
  O         1.6861495964        2.9920525802        3.4932724008
  O         9.4285223666       10.2234144228        3.4886334281
  O        11.9911945958        5.7834141026        3.4863160609
  O        14.5558429368        1.3422417863        3.4862866870
  O         4.3027339695       10.2250274352        3.4863562640
  O         6.8667612792        5.7784320674        3.4869215698
  O         9.4256695083        1.3494626205        3.4903611913
  O        -0.8262853686       10.2235231189        3.4857186234
  O         1.7380928897        5.7807635582        3.4798144154
  O         4.3031526474        1.3463648767        3.4912249856
 Fe         5.0375881800       11.8351036624        4.4206776634
 Fe         7.6036105617        7.4013041436        4.4144422015
 Fe        10.1598673113        2.9556461518        4.4227536463
 Fe        -0.0908467787       11.8326096744        4.4168109277
 Fe         2.4717685138        7.3941269036        4.4180903218
 Fe         5.0393854854        2.9601222489        4.4241805453
 Fe        -5.2161670722       11.8388698969        4.4189105373
 Fe        -2.6542227682        7.3969846082        4.4199898889
 Fe        -0.0907766040        2.9553140553        4.4190353197
 Fe         7.6087592924       13.1871090285        4.8093270042
 Fe        10.1737295222        8.7480835625        4.8092943006
 Fe        12.7380053394        4.3044112434        4.8039322297
 Fe         2.4856383486       13.1830162200        4.8021838821
 Fe         5.0465755293        8.7439331225        4.8087705847
 Fe         7.6050205255        4.3123000894        4.8110765182
 Fe        -2.6423125615       13.1885388104        4.8080817059
 Fe        -0.0812574164        8.7443598839        4.8077167958
 Fe         2.4795497421        4.3038685391        4.8042431819
  O         5.8559451540       10.3460126574        5.8695152874
  O         8.4355942480        5.9168324589        5.8774434455
  O        10.9772755790        1.4620667008        5.8710225477
  O         0.7289218957       10.3460870631        5.8729579860
  O         3.2808874696        5.9137430100        5.8299485286
  O         5.8728067204        1.4618101526        5.8986706103
  O        -4.3936414956       10.3490504492        5.8750325125
  O        -1.8368595171        5.9077891934        5.8634985509
  O         0.7319804207        1.4705712337        5.8681837839
  O         5.9269226032       13.1766311646        5.6913684562
  O         8.4928407560        8.7355702128        5.6947541724
  O        11.0534575201        4.2931793566        5.6823410285
  O         0.7972773980       13.1680633978        5.6691597929
  O         3.3630204252        8.7347833554        5.6803310396
  O         5.9423532641        4.3068242116        5.7315932335
  O        -4.3246721056       13.1748696004        5.6882122177
  O        -1.7664515647        8.7341775011        5.6826784071
  O         0.7985153024        4.2932396758        5.6863564714
  O         3.4659557791       11.7724527039        5.6638351833
  O         6.0474554061        7.3278311669        5.6593581353
  O         8.5863817792        2.9036264608        5.6848944749
  O        -1.6581782265       11.7744190987        5.6615090535
  O         0.9020147334        7.3319828910        5.6624456717
  O         3.4753585854        2.8951008929        5.6629566136
  O        -6.7833362062       11.7755720239        5.6670837681
  O        -4.2249762826        7.3354986457        5.6697226694
  O        -1.6604691678        2.8930051842        5.6662298788
 Fe         7.7818742418       10.2769968382        6.4342255305
 Fe        10.3576905942        5.8294232253        6.4339943974
 Fe        12.9065321328        1.3940385919        6.4337118204
 Fe         2.6570386117       10.2697136359        6.4340891172
 Fe         5.1951730084        5.8503236742        6.4376016580
 Fe         7.8024696919        1.3791831079        6.4321084454
 Fe        -2.4668401732       10.2737043217        6.4333897138
 Fe         0.0915968938        5.8316880426        6.4328290872
 Fe         2.6587457558        1.3936763831        6.4325519191
  O         7.8124297959       10.4279530450        8.2593436305
  H         7.8091324301        9.6241441249        8.8090456313
  H         5.3522122876       10.6071140043        6.6735652719
  O        10.5004224235        5.8595970306        8.2705262166
  H        10.8320609495        5.0480053844        8.6967739321
  H         7.9085222168        6.2541040136        6.6349619684
  O        12.9091741340        1.5495146767        8.2594671187
  H        12.9507650556        0.7439432237        8.8055989155
  H        10.4771472482        1.6938886101        6.6866573549
  O         2.7443421496       10.3771856513        8.2600916453
  H         2.8295066723        9.5480119592        8.7656218181
  H         0.2163854119       10.6106928928        6.6700141555
  O         4.9465885100        6.2155965575        8.1994767534
  H         4.9119059081        5.6019204152        8.9580254192
  H         2.8181992869        6.1841632313        6.6560378062
  O         8.0778442663        1.3501189898        8.2548638456
  H         8.1397636195        0.4737138282        8.6774506453
  H         5.3456217120        1.7349471213        6.6829015812
  O        -2.3400745922       10.3929688664        8.2563025271
  H        -2.2649359897        9.5724764890        8.7762872892
  H        -4.9061574803       10.6335006002        6.6648554234
  O         0.0751297414        5.9704985440        8.2561792172
  H         0.1739426535        5.1682087595        8.7995533994
  H        -2.3332915697        6.1764745770        6.6694602381
  O         2.7213596513        1.5344913182        8.2528138730
  H         2.7870367974        0.7355036441        8.8057693239
  H         0.2280459000        1.7495622825        6.6654826370
  C         7.6774398305        4.2589914317        9.1033785110
  C         6.6141392722        4.3912475463       10.0758339707
  H         8.1855469879        3.2898464972        9.2175364929
  H         7.2461387002        4.2618769630        8.0903271104
  H         8.3999155725        5.0843355670        9.1840023172
  N         5.7361704969        4.5078397713       10.8392829200
     168
 i =       70, E =     -8144.3770686742
 Fe         5.0938794100       11.8196869300        0.3885799900
 Fe         7.6575796300        7.3792284900        0.3885799900
 Fe        10.2212798400        2.9387700600        0.3885799900
 Fe        -0.0335205200       11.8196869300        0.3885799900
 Fe         2.5301797000        7.3792284900        0.3885799900
 Fe         5.0938799200        2.9387700600        0.3885799900
 Fe        -5.1609204400       11.8196869300        0.3885799900
 Fe        -2.5972202200        7.3792284900        0.3885799900
 Fe        -0.0335200000        2.9387700600        0.3885799900
  O         8.4519195100        8.9577468800        1.1642700400
  O        11.0156197300        4.5172884400        1.1642700400
  O        13.5793199500        0.0768300000        1.1642700400
  O         3.3245195900        8.9577468800        1.1642700400
  O         5.8882198100        4.5172884400        1.1642700400
  O         8.4519200300        0.0768300000        1.1642700400
  O        -1.8028803300        8.9577468800        1.1642700400
  O         0.7608198900        4.5172884400        1.1642700400
  O         3.3245201100        0.0768300000        1.1642700400
  O         8.4568493000       11.7183869300        1.1650400200
  O        11.0205495200        7.2779284900        1.1650400200
  O        13.5842497300        2.8374700500        1.1650400200
  O         3.3294493700       11.7183869300        1.1650400200
  O         5.8931495900        7.2779284900        1.1650400200
  O         8.4568498100        2.8374700500        1.1650400200
  O        -1.7979505500       11.7183869300        1.1650400200
  O         0.7657496700        7.2779284900        1.1650400200
  O         3.3294498900        2.8374700500        1.1650400200
  O         6.0627194200       10.3425368500        1.1660399400
  O         8.6264196400        5.9020784100        1.1660399400
  O        11.1901198600        1.4616199700        1.1660399400
  O         0.9353195000       10.3425368500        1.1660399400
  O         3.4990197200        5.9020784100        1.1660399400
  O         6.0627199400        1.4616199700        1.1660399400
  O        -4.1920804200       10.3425368500        1.1660399400
  O        -1.6283802000        5.9020784100        1.1660399400
  O         0.9353200200        1.4616199700        1.1660399400
 Fe         7.6576695000       13.2997167500        1.9292099500
 Fe        10.2213697200        8.8592583200        1.9292099500
 Fe        12.7850699400        4.4187998800        1.9292099500
 Fe         2.5302695800       13.2997167500        1.9292099500
 Fe         5.0939698000        8.8592583200        1.9292099500
 Fe         7.6576700200        4.4187998800        1.9292099500
 Fe        -2.5971303400       13.2997167500        1.9292099500
 Fe        -0.0334301200        8.8592583200        1.9292099500
 Fe         2.5302701000        4.4187998800        1.9292099500
 Fe         7.6573893600       10.3392168700        2.7128999200
 Fe        10.2210895800        5.8987584300        2.7128999200
 Fe        12.7847898000        1.4582999900        2.7128999200
 Fe         2.5299894400       10.3392168700        2.7128999200
 Fe         5.0936896600        5.8987584300        2.7128999200
 Fe         7.6573898800        1.4582999900        2.7128999200
 Fe        -2.5974104800       10.3392168700        2.7128999200
 Fe        -0.0337102600        5.8987584300        2.7128999200
 Fe         2.5299899600        1.4582999900        2.7128999200
  O         4.0937880694       13.3162105382        3.5124174568
  O         6.6601927865        8.8774239307        3.5133487084
  O         9.2171778113        4.4339837492        3.5132179579
  O        -1.0345009700       13.3173754975        3.5112685999
  O         1.5295042478        8.8758493839        3.5120838035
  O         4.1017078745        4.4350887219        3.5166822183
  O        -6.1611204441       13.3167864820        3.5122293747
  O        -3.5978229006        8.8763611782        3.5126682567
  O        -1.0345933553        4.4330958679        3.5116045702
  O         6.8137012867       11.8739108172        3.4960239732
  O         9.3784458458        7.4341186212        3.4941538819
  O        11.9373168285        2.9904770628        3.4960924487
  O         1.6859979948       11.8742951948        3.4890171884
  O         4.2524944647        7.4336212183        3.4928853681
  O         6.8109003773        2.9937962221        3.5039617492
  O        -3.4417094589       11.8764578297        3.4927057253
  O        -0.8791614550        7.4307063998        3.4935106981
  O         1.6863110245        2.9913291684        3.4938975296
  O         9.4282651594       10.2237650413        3.4888443009
  O        11.9909894666        5.7834712349        3.4863693899
  O        14.5562871135        1.3426870734        3.4863396051
  O         4.3028462341       10.2251219096        3.4863954722
  O         6.8670853600        5.7786251994        3.4869920588
  O         9.4253904542        1.3493417582        3.4899864432
  O        -0.8263225036       10.2238281239        3.4862226652
  O         1.7378402803        5.7802210866        3.4796161448
  O         4.3035893745        1.3464463840        3.4909985901
 Fe         5.0375329295       11.8351008139        4.4210043332
 Fe         7.6033848195        7.4016906210        4.4144627046
 Fe        10.1590358074        2.9566591438        4.4228887441
 Fe        -0.0913029075       11.8322320014        4.4172262135
 Fe         2.4719436505        7.3942738775        4.4181595099
 Fe         5.0391460783        2.9599151135        4.4244279427
 Fe        -5.2165115342       11.8392313191        4.4191706042
 Fe        -2.6543565837        7.3970301034        4.4199114166
 Fe        -0.0910334400        2.9552587265        4.4196156069
 Fe         7.6085894539       13.1872043649        4.8089302412
 Fe        10.1733762607        8.7483378802        4.8087643281
 Fe        12.7377414073        4.3045816630        4.8039313851
 Fe         2.4856321709       13.1833593127        4.8022196955
 Fe         5.0464168138        8.7444123689        4.8084062049
 Fe         7.6038629918        4.3126739510        4.8109518354
 Fe        -2.6426036264       13.1882891067        4.8079231382
 Fe        -0.0813168404        8.7440526822        4.8066523412
 Fe         2.4795339024        4.3035217400        4.8042457888
  O         5.8556187502       10.3459719856        5.8703246180
  O         8.4349800886        5.9177734639        5.8772078601
  O        10.9765506375        1.4628446348        5.8712485269
  O         0.7287481339       10.3449492654        5.8737102451
  O         3.2797741961        5.9135010606        5.8295882048
  O         5.8732713654        1.4619079982        5.8985774375
  O        -4.3942459066       10.3486673039        5.8757488824
  O        -1.8366733527        5.9072269717        5.8628521872
  O         0.7316405732        1.4692738007        5.8691182618
  O         5.9264275641       13.1768060338        5.6911221680
  O         8.4926518522        8.7359284614        5.6942629140
  O        11.0526491987        4.2938460517        5.6827827445
  O         0.7969906527       13.1677341916        5.6688094473
  O         3.3624752548        8.7349612547        5.6799135828
  O         5.9414939068        4.3078914027        5.7315982677
  O        -4.3246893732       13.1748558324        5.6882523664
  O        -1.7665305504        8.7335805613        5.6823544379
  O         0.7981915700        4.2928601937        5.6861986522
  O         3.4660264322       11.7727941635        5.6637632804
  O         6.0469782429        7.3283935335        5.6592009460
  O         8.5858050422        2.9035521832        5.6848018595
  O        -1.6586216064       11.7739467352        5.6615059588
  O         0.9017226122        7.3312640860        5.6615093891
  O         3.4755770189        2.8943533796        5.6628599838
  O        -6.7835716601       11.7761716524        5.6672800945
  O        -4.2254085221        7.3358964106        5.6690939852
  O        -1.6610432322        2.8930856877        5.6660411180
 Fe         7.7819050375       10.2773117858        6.4340695326
 Fe        10.3566745568        5.8305595642        6.4340513413
 Fe        12.9059687334        1.3941006701        6.4335236182
 Fe         2.6569513604       10.2701306420        6.4339528602
 Fe         5.1941076502        5.8512433606        6.4378935846
 Fe         7.8028186504        1.3787465772        6.4318628298
 Fe        -2.4668515056       10.2730163535        6.4334559647
 Fe         0.0913836407        5.8313537032        6.4325857868
 Fe         2.6585009282        1.3934574859        6.4323118423
  O         7.8139707666       10.4265026333        8.2595415301
  H         7.8095749487        9.6209670426        8.8067701426
  H         5.3521726974       10.6065088113        6.6747000589
  O        10.4954563824        5.8668837600        8.2706348189
  H        10.8254997193        5.0577172474        8.7030936863
  H         7.9084792849        6.2549862392        6.6350897817
  O        12.9099056819        1.5478575587        8.2593880955
  H        12.9524205555        0.7406338412        8.8031065260
  H        10.4761887347        1.6953318355        6.6866001275
  O         2.7430358052       10.3785183934        8.2600808918
  H         2.8313472824        9.5498191846        8.7659557266
  H         0.2169989210       10.6057488747        6.6726068943
  O         4.9448733943        6.2190591662        8.1989867413
  H         4.9180549036        5.6094599342        8.9612554457
  H         2.8161796268        6.1831784636        6.6553892021
  O         8.0806610657        1.3473026941        8.2547453927
  H         8.1451402338        0.4695725484        8.6744421749
  H         5.3459685908        1.7336515147        6.6831945476
  O        -2.3431749441       10.3909807035        8.2569110159
  H        -2.2676478417        9.5698805071        8.7758748239
  H        -4.9054308816       10.6302872861        6.6675625951
  O         0.0764694442        5.9699331399        8.2557692642
  H         0.1753719990        5.1673464918        8.7987429214
  H        -2.3333852748        6.1744741003        6.6690037723
  O         2.7200919305        1.5329212943        8.2528536705
  H         2.7866510956        0.7325670868        8.8038551047
  H         0.2283027717        1.7448628543        6.6680769120
  C         7.6788483544        4.2554141927        9.0987591986
  C         6.6174700652        4.3891632544       10.0735392067
  H         8.1801220854        3.2811940929        9.2069598587
  H         7.2455979931        4.2669878004        8.0858912748
  H         8.4063986837        5.0761935599        9.1826479452
  N         5.7410207393        4.5071591622       10.8388127418
     168
 i =       71, E =     -8144.3770835670
 Fe         5.0938794100       11.8196869300        0.3885799900
 Fe         7.6575796300        7.3792284900        0.3885799900
 Fe        10.2212798400        2.9387700600        0.3885799900
 Fe        -0.0335205200       11.8196869300        0.3885799900
 Fe         2.5301797000        7.3792284900        0.3885799900
 Fe         5.0938799200        2.9387700600        0.3885799900
 Fe        -5.1609204400       11.8196869300        0.3885799900
 Fe        -2.5972202200        7.3792284900        0.3885799900
 Fe        -0.0335200000        2.9387700600        0.3885799900
  O         8.4519195100        8.9577468800        1.1642700400
  O        11.0156197300        4.5172884400        1.1642700400
  O        13.5793199500        0.0768300000        1.1642700400
  O         3.3245195900        8.9577468800        1.1642700400
  O         5.8882198100        4.5172884400        1.1642700400
  O         8.4519200300        0.0768300000        1.1642700400
  O        -1.8028803300        8.9577468800        1.1642700400
  O         0.7608198900        4.5172884400        1.1642700400
  O         3.3245201100        0.0768300000        1.1642700400
  O         8.4568493000       11.7183869300        1.1650400200
  O        11.0205495200        7.2779284900        1.1650400200
  O        13.5842497300        2.8374700500        1.1650400200
  O         3.3294493700       11.7183869300        1.1650400200
  O         5.8931495900        7.2779284900        1.1650400200
  O         8.4568498100        2.8374700500        1.1650400200
  O        -1.7979505500       11.7183869300        1.1650400200
  O         0.7657496700        7.2779284900        1.1650400200
  O         3.3294498900        2.8374700500        1.1650400200
  O         6.0627194200       10.3425368500        1.1660399400
  O         8.6264196400        5.9020784100        1.1660399400
  O        11.1901198600        1.4616199700        1.1660399400
  O         0.9353195000       10.3425368500        1.1660399400
  O         3.4990197200        5.9020784100        1.1660399400
  O         6.0627199400        1.4616199700        1.1660399400
  O        -4.1920804200       10.3425368500        1.1660399400
  O        -1.6283802000        5.9020784100        1.1660399400
  O         0.9353200200        1.4616199700        1.1660399400
 Fe         7.6576695000       13.2997167500        1.9292099500
 Fe        10.2213697200        8.8592583200        1.9292099500
 Fe        12.7850699400        4.4187998800        1.9292099500
 Fe         2.5302695800       13.2997167500        1.9292099500
 Fe         5.0939698000        8.8592583200        1.9292099500
 Fe         7.6576700200        4.4187998800        1.9292099500
 Fe        -2.5971303400       13.2997167500        1.9292099500
 Fe        -0.0334301200        8.8592583200        1.9292099500
 Fe         2.5302701000        4.4187998800        1.9292099500
 Fe         7.6573893600       10.3392168700        2.7128999200
 Fe        10.2210895800        5.8987584300        2.7128999200
 Fe        12.7847898000        1.4582999900        2.7128999200
 Fe         2.5299894400       10.3392168700        2.7128999200
 Fe         5.0936896600        5.8987584300        2.7128999200
 Fe         7.6573898800        1.4582999900        2.7128999200
 Fe        -2.5974104800       10.3392168700        2.7128999200
 Fe        -0.0337102600        5.8987584300        2.7128999200
 Fe         2.5299899600        1.4582999900        2.7128999200
  O         4.0937401890       13.3161721497        3.5122829492
  O         6.6601206448        8.8774824263        3.5131395384
  O         9.2171713001        4.4337199030        3.5131675827
  O        -1.0349209379       13.3170307824        3.5111392310
  O         1.5297704734        8.8758224613        3.5122569982
  O         4.1012997563        4.4352769393        3.5165561984
  O        -6.1609121571       13.3165703285        3.5122428610
  O        -3.5977789236        8.8763542354        3.5127688666
  O        -1.0349360203        4.4333982956        3.5116850683
  O         6.8135530257       11.8737020420        3.4961113745
  O         9.3781598717        7.4347591452        3.4932194892
  O        11.9372233080        2.9903142235        3.4961255388
  O         1.6860589438       11.8737735503        3.4896166634
  O         4.2526434314        7.4340414679        3.4926861717
  O         6.8108880864        2.9936923389        3.5042997367
  O        -3.4418633989       11.8758065160        3.4928833250
  O        -0.8795891870        7.4311588497        3.4933035897
  O         1.6863786991        2.9906713289        3.4946220667
  O         9.4282877960       10.2246345538        3.4887813044
  O        11.9908493367        5.7835533319        3.4865810463
  O        14.5564233059        1.3427883090        3.4864071634
  O         4.3028310616       10.2251828875        3.4863614442
  O         6.8674089626        5.7783507487        3.4869850619
  O         9.4252669261        1.3489933292        3.4896790460
  O        -0.8264225635       10.2242897999        3.4863735908
  O         1.7376041956        5.7798956772        3.4793664186
  O         4.3038015316        1.3463234473        3.4909120936
 Fe         5.0376316014       11.8348937239        4.4211946139
 Fe         7.6031998339        7.4016827536        4.4142132468
 Fe        10.1586563810        2.9566404713        4.4230429771
 Fe        -0.0915932509       11.8319394386        4.4175524347
 Fe         2.4719304369        7.3942517316        4.4182890333
 Fe         5.0390603781        2.9599261235        4.4247601970
 Fe        -5.2166676261       11.8393730745        4.4196138659
 Fe        -2.6543191369        7.3968141806        4.4200493084
 Fe        -0.0912583298        2.9550280249        4.4197381423
 Fe         7.6084521797       13.1870754742        4.8084957344
 Fe        10.1732329586        8.7486410632        4.8081447909
 Fe        12.7376018931        4.3045697304        4.8040376995
 Fe         2.4856658156       13.1832500891        4.8024097392
 Fe         5.0463893602        8.7444092849        4.8080905693
 Fe         7.6034285415        4.3125632119        4.8103854435
 Fe        -2.6426293176       13.1879239434        4.8078249777
 Fe        -0.0812715030        8.7440069801        4.8063252317
 Fe         2.4793471160        4.3032261958        4.8045608086
  O         5.8552988637       10.3457403547        5.8706625269
  O         8.4348266326        5.9180772766        5.8764425377
  O        10.9756600773        1.4628312367        5.8715928987
  O         0.7286903076       10.3443063394        5.8744413123
  O         3.2791095375        5.9128777448        5.8294391460
  O         5.8736240205        1.4618247018        5.8986974344
  O        -4.3948286324       10.3486966697        5.8762649466
  O        -1.8366314430        5.9068150549        5.8628406517
  O         0.7313471307        1.4682819162        5.8695341249
  O         5.9262644504       13.1767527073        5.6909169039
  O         8.4923905584        8.7357159080        5.6935686928
  O        11.0520069164        4.2944299022        5.6829594788
  O         0.7965487115       13.1673388197        5.6686002965
  O         3.3623151433        8.7348123891        5.6796736141
  O         5.9412296727        4.3086421332        5.7314646225
  O        -4.3246951461       13.1750479329        5.6877841206
  O        -1.7666492562        8.7334906087        5.6821066590
  O         0.7978752833        4.2923784351        5.6866476740
  O         3.4663510390       11.7729827322        5.6641080924
  O         6.0465483011        7.3287306807        5.6590697817
  O         8.5854063744        2.9032113727        5.6849301500
  O        -1.6588449697       11.7734567649        5.6617745199
  O         0.9012729114        7.3311828051        5.6615869332
  O         3.4760533776        2.8937395245        5.6632464778
  O        -6.7840877954       11.7760595119        5.6671176248
  O        -4.2261237455        7.3360292864        5.6683115831
  O        -1.6611791895        2.8927845634        5.6660474451
 Fe         7.7819839652       10.2771221587        6.4340277859
 Fe        10.3559178644        5.8310072131        6.4341766768
 Fe        12.9054657491        1.3937376268        6.4333534947
 Fe         2.6571399578       10.2700022774        6.4338863863
 Fe         5.1936344960        5.8515688505        6.4381270345
 Fe         7.8029755770        1.3785121010        6.4319014040
 Fe        -2.4671114278       10.2724899570        6.4335110642
 Fe         0.0912347051        5.8312072055        6.4327749459
 Fe         2.6583706061        1.3930479234        6.4321991371
  O         7.8148330438       10.4252956715        8.2598224146
  H         7.8097940088        9.6191857923        8.8062242028
  H         5.3520769466       10.6064200698        6.6751438073
  O        10.4924103965        5.8706171875        8.2708044474
  H        10.8239998613        5.0642570834        8.7074261266
  H         7.9080003094        6.2551550042        6.6340916377
  O        12.9108010084        1.5470778412        8.2593333394
  H        12.9532951802        0.7388082264        8.8015789276
  H        10.4748728196        1.6964412986        6.6864665105
  O         2.7425759646       10.3793402459        8.2600695339
  H         2.8329384746        9.5511620455        8.7664629553
  H         0.2178808129       10.6026108291        6.6748320662
  O         4.9437014117        6.2207011132        8.1988921329
  H         4.9215850384        5.6131875889        8.9628995858
  H         2.8150112087        6.1825652333        6.6549466307
  O         8.0840510569        1.3458041792        8.2544794441
  H         8.1503647333        0.4674159916        8.6726166830
  H         5.3457530959        1.7328268992        6.6831897777
  O        -2.3452483296       10.3894209616        8.2574243892
  H        -2.2690813722        9.5680536626        8.7758464958
  H        -4.9052265344       10.6277168600        6.6695278223
  O         0.0773859338        5.9689439915        8.2559447061
  H         0.1762645707        5.1669417243        8.7998160512
  H        -2.3338032569        6.1733376102        6.6688818684
  O         2.7193138259        1.5318603171        8.2527725148
  H         2.7864517074        0.7310291320        8.8029886104
  H         0.2283167027        1.7416055366        6.6694880663
  C         7.6806156971        4.2540406842        9.0943583897
  C         6.6211527860        4.3882483610       10.0713912000
  H         8.1798991621        3.2777629407        9.1995284072
  H         7.2458859094        4.2701774454        8.0822086164
  H         8.4108108481        5.0728331427        9.1792027927
  N         5.7462162386        4.5061190910       10.8384142975
     168
 i =       72, E =     -8144.3770954605
 Fe         5.0938794100       11.8196869300        0.3885799900
 Fe         7.6575796300        7.3792284900        0.3885799900
 Fe        10.2212798400        2.9387700600        0.3885799900
 Fe        -0.0335205200       11.8196869300        0.3885799900
 Fe         2.5301797000        7.3792284900        0.3885799900
 Fe         5.0938799200        2.9387700600        0.3885799900
 Fe        -5.1609204400       11.8196869300        0.3885799900
 Fe        -2.5972202200        7.3792284900        0.3885799900
 Fe        -0.0335200000        2.9387700600        0.3885799900
  O         8.4519195100        8.9577468800        1.1642700400
  O        11.0156197300        4.5172884400        1.1642700400
  O        13.5793199500        0.0768300000        1.1642700400
  O         3.3245195900        8.9577468800        1.1642700400
  O         5.8882198100        4.5172884400        1.1642700400
  O         8.4519200300        0.0768300000        1.1642700400
  O        -1.8028803300        8.9577468800        1.1642700400
  O         0.7608198900        4.5172884400        1.1642700400
  O         3.3245201100        0.0768300000        1.1642700400
  O         8.4568493000       11.7183869300        1.1650400200
  O        11.0205495200        7.2779284900        1.1650400200
  O        13.5842497300        2.8374700500        1.1650400200
  O         3.3294493700       11.7183869300        1.1650400200
  O         5.8931495900        7.2779284900        1.1650400200
  O         8.4568498100        2.8374700500        1.1650400200
  O        -1.7979505500       11.7183869300        1.1650400200
  O         0.7657496700        7.2779284900        1.1650400200
  O         3.3294498900        2.8374700500        1.1650400200
  O         6.0627194200       10.3425368500        1.1660399400
  O         8.6264196400        5.9020784100        1.1660399400
  O        11.1901198600        1.4616199700        1.1660399400
  O         0.9353195000       10.3425368500        1.1660399400
  O         3.4990197200        5.9020784100        1.1660399400
  O         6.0627199400        1.4616199700        1.1660399400
  O        -4.1920804200       10.3425368500        1.1660399400
  O        -1.6283802000        5.9020784100        1.1660399400
  O         0.9353200200        1.4616199700        1.1660399400
 Fe         7.6576695000       13.2997167500        1.9292099500
 Fe        10.2213697200        8.8592583200        1.9292099500
 Fe        12.7850699400        4.4187998800        1.9292099500
 Fe         2.5302695800       13.2997167500        1.9292099500
 Fe         5.0939698000        8.8592583200        1.9292099500
 Fe         7.6576700200        4.4187998800        1.9292099500
 Fe        -2.5971303400       13.2997167500        1.9292099500
 Fe        -0.0334301200        8.8592583200        1.9292099500
 Fe         2.5302701000        4.4187998800        1.9292099500
 Fe         7.6573893600       10.3392168700        2.7128999200
 Fe        10.2210895800        5.8987584300        2.7128999200
 Fe        12.7847898000        1.4582999900        2.7128999200
 Fe         2.5299894400       10.3392168700        2.7128999200
 Fe         5.0936896600        5.8987584300        2.7128999200
 Fe         7.6573898800        1.4582999900        2.7128999200
 Fe        -2.5974104800       10.3392168700        2.7128999200
 Fe        -0.0337102600        5.8987584300        2.7128999200
 Fe         2.5299899600        1.4582999900        2.7128999200
  O         4.0935746410       13.3159803191        3.5122029110
  O         6.6598205455        8.8772570211        3.5127334566
  O         9.2175303929        4.4334771498        3.5134137738
  O        -1.0353642620       13.3165796605        3.5110621024
  O         1.5298129717        8.8756869767        3.5123356585
  O         4.1009194110        4.4352855283        3.5163908681
  O        -6.1610332451       13.3164576405        3.5123014729
  O        -3.5979386759        8.8763076875        3.5130364509
  O        -1.0352814762        4.4334515522        3.5116327006
  O         6.8133033109       11.8734605912        3.4959732077
  O         9.3775222888        7.4352278447        3.4923723775
  O        11.9371717878        2.9899045388        3.4963689711
  O         1.6860514827       11.8732480460        3.4901010177
  O         4.2526844418        7.4342021851        3.4924990702
  O         6.8113168043        2.9933673762        3.5046038833
  O        -3.4418292814       11.8750233104        3.4931328969
  O        -0.8799112903        7.4316172435        3.4932024727
  O         1.6861390326        2.9902132512        3.4951913536
  O         9.4282545603       10.2254413615        3.4889163710
  O        11.9907385407        5.7834015143        3.4865937524
  O        14.5563962646        1.3427877959        3.4865556747
  O         4.3026503658       10.2252129694        3.4863889372
  O         6.8676437300        5.7779591406        3.4868608959
  O         9.4252413869        1.3484968195        3.4894813975
  O        -0.8264398552       10.2246619421        3.4862151456
  O         1.7372717059        5.7796684910        3.4792772804
  O         4.3039084984        1.3461410664        3.4907389252
 Fe         5.0377510682       11.8346063873        4.4212507737
 Fe         7.6031230927        7.4014841711        4.4139999930
 Fe        10.1586432100        2.9559866782        4.4230717117
 Fe        -0.0916881690       11.8316458183        4.4178065539
 Fe         2.4717177214        7.3941327519        4.4182798533
 Fe         5.0389201065        2.9600211845        4.4251683169
 Fe        -5.2167326198       11.8394306026        4.4196327743
 Fe        -2.6542429793        7.3963429770        4.4198901061
 Fe        -0.0913364663        2.9546198058        4.4202221416
 Fe         7.6083833690       13.1867321179        4.8082097581
 Fe        10.1732770992        8.7486505252        4.8078757106
 Fe        12.7374541389        4.3045932283        4.8041271006
 Fe         2.4857036432       13.1828869373        4.8026945061
 Fe         5.0464591204        8.7441089941        4.8078362651
 Fe         7.6035181571        4.3121955099        4.8094146920
 Fe        -2.6425458663       13.1876754233        4.8078462246
 Fe        -0.0812633935        8.7440461639        4.8065405359
 Fe         2.4792446559        4.3029922794        4.8049400585
  O         5.8550406118       10.3454606669        5.8705606666
  O         8.4348917632        5.9179351040        5.8753459777
  O        10.9748349560        1.4625118049        5.8720386509
  O         0.7288047553       10.3436884500        5.8751694371
  O         3.2787186921        5.9122354397        5.8295256884
  O         5.8739078398        1.4615933120        5.8991559140
  O        -4.3953318573       10.3488649998        5.8766234985
  O        -1.8368119386        5.9066828789        5.8633449863
  O         0.7311804487        1.4673728616        5.8696519547
  O         5.9262468852       13.1765832696        5.6906701533
  O         8.4919843453        8.7351927887        5.6929404480
  O        11.0515711317        4.2946668525        5.6831696626
  O         0.7960570783       13.1668951348        5.6684007114
  O         3.3623758970        8.7343943838        5.6795912848
  O         5.9414090501        4.3091451853        5.7311659406
  O        -4.3247390745       13.1748865885        5.6873395254
  O        -1.7669505438        8.7335186972        5.6819525868
  O         0.7979337395        4.2922871101        5.6872609752
  O         3.4667067148       11.7729963430        5.6645952619
  O         6.0461535043        7.3287720786        5.6588630328
  O         8.5852367072        2.9028827313        5.6851153809
  O        -1.6590214694       11.7731069569        5.6622094850
  O         0.9007820365        7.3313423167        5.6622086101
  O         3.4766320758        2.8934243703        5.6639785903
  O        -6.7845178907       11.7753930843        5.6668114079
  O        -4.2265352492        7.3358415280        5.6676995671
  O        -1.6613881166        2.8924228771        5.6660783874
 Fe         7.7819720510       10.2766643883        6.4340948241
 Fe        10.3553974184        5.8309393898        6.4342454152
 Fe        12.9051972217        1.3932231260        6.4332716091
 Fe         2.6575305124       10.2695184750        6.4339245178
 Fe         5.1935384952        5.8514723559        6.4382578216
 Fe         7.8031402974        1.3784187333        6.4320745110
 Fe        -2.4674010306       10.2721028822        6.4336890691
 Fe         0.0910927142        5.8311511539        6.4333421248
 Fe         2.6583736624        1.3925266438        6.4320531057
  O         7.8152981117       10.4241495709        8.2600892694
  H         7.8099234982        9.6182295954        8.8067746032
  H         5.3519329302       10.6065937855        6.6749951641
  O        10.4906542834        5.8727907509        8.2709673887
  H        10.8256849905        5.0696011125        8.7107926126
  H         7.9071929421        6.2550197587        6.6323379963
  O        12.9119653180        1.5466146041        8.2593301436
  H        12.9536699196        0.7376987138        8.8006991207
  H        10.4733768636        1.6970630233        6.6863702550
  O         2.7428641297       10.3798662131        8.2600629746
  H         2.8345587866        9.5522988289        8.7671687560
  H         0.2188068686       10.6005871485        6.6765608278
  O         4.9432251520        6.2212002928        8.1990306607
  H         4.9240768140        5.6144056081        8.9635295513
  H         2.8144713818        6.1821553374        6.6548827651
  O         8.0888607943        1.3451864750        8.2539877564
  H         8.1569295655        0.4666523642        8.6715572583
  H         5.3451418154        1.7323335769        6.6831302676
  O        -2.3468355306       10.3878590483        8.2580048213
  H        -2.2698477393        9.5662889720        8.7759703643
  H        -4.9054617231       10.6254384057        6.6708946613
  O         0.0779630373        5.9678441153        8.2565872650
  H         0.1768874958        5.1668540805        8.8019268642
  H        -2.3344525542        6.1728169939        6.6692055495
  O         2.7188683762        1.5309149446        8.2525482048
  H         2.7863744431        0.7302274266        8.8028612923
  H         0.2280347674        1.7392121201        6.6699939522
  C         7.6842367008        4.2547590959        9.0890114859
  C         6.6266835614        4.3883445710       10.0682120739
  H         8.1834645643        3.2787105801        9.1922360168
  H         7.2467622498        4.2716619902        8.0776256727
  H         8.4151157000        5.0731622678        9.1733767974
  N         5.7533843711        4.5041581032       10.8376795486
     168
 i =       73, E =     -8144.3771074802
 Fe         5.0938794100       11.8196869300        0.3885799900
 Fe         7.6575796300        7.3792284900        0.3885799900
 Fe        10.2212798400        2.9387700600        0.3885799900
 Fe        -0.0335205200       11.8196869300        0.3885799900
 Fe         2.5301797000        7.3792284900        0.3885799900
 Fe         5.0938799200        2.9387700600        0.3885799900
 Fe        -5.1609204400       11.8196869300        0.3885799900
 Fe        -2.5972202200        7.3792284900        0.3885799900
 Fe        -0.0335200000        2.9387700600        0.3885799900
  O         8.4519195100        8.9577468800        1.1642700400
  O        11.0156197300        4.5172884400        1.1642700400
  O        13.5793199500        0.0768300000        1.1642700400
  O         3.3245195900        8.9577468800        1.1642700400
  O         5.8882198100        4.5172884400        1.1642700400
  O         8.4519200300        0.0768300000        1.1642700400
  O        -1.8028803300        8.9577468800        1.1642700400
  O         0.7608198900        4.5172884400        1.1642700400
  O         3.3245201100        0.0768300000        1.1642700400
  O         8.4568493000       11.7183869300        1.1650400200
  O        11.0205495200        7.2779284900        1.1650400200
  O        13.5842497300        2.8374700500        1.1650400200
  O         3.3294493700       11.7183869300        1.1650400200
  O         5.8931495900        7.2779284900        1.1650400200
  O         8.4568498100        2.8374700500        1.1650400200
  O        -1.7979505500       11.7183869300        1.1650400200
  O         0.7657496700        7.2779284900        1.1650400200
  O         3.3294498900        2.8374700500        1.1650400200
  O         6.0627194200       10.3425368500        1.1660399400
  O         8.6264196400        5.9020784100        1.1660399400
  O        11.1901198600        1.4616199700        1.1660399400
  O         0.9353195000       10.3425368500        1.1660399400
  O         3.4990197200        5.9020784100        1.1660399400
  O         6.0627199400        1.4616199700        1.1660399400
  O        -4.1920804200       10.3425368500        1.1660399400
  O        -1.6283802000        5.9020784100        1.1660399400
  O         0.9353200200        1.4616199700        1.1660399400
 Fe         7.6576695000       13.2997167500        1.9292099500
 Fe        10.2213697200        8.8592583200        1.9292099500
 Fe        12.7850699400        4.4187998800        1.9292099500
 Fe         2.5302695800       13.2997167500        1.9292099500
 Fe         5.0939698000        8.8592583200        1.9292099500
 Fe         7.6576700200        4.4187998800        1.9292099500
 Fe        -2.5971303400       13.2997167500        1.9292099500
 Fe        -0.0334301200        8.8592583200        1.9292099500
 Fe         2.5302701000        4.4187998800        1.9292099500
 Fe         7.6573893600       10.3392168700        2.7128999200
 Fe        10.2210895800        5.8987584300        2.7128999200
 Fe        12.7847898000        1.4582999900        2.7128999200
 Fe         2.5299894400       10.3392168700        2.7128999200
 Fe         5.0936896600        5.8987584300        2.7128999200
 Fe         7.6573898800        1.4582999900        2.7128999200
 Fe        -2.5974104800       10.3392168700        2.7128999200
 Fe        -0.0337102600        5.8987584300        2.7128999200
 Fe         2.5299899600        1.4582999900        2.7128999200
  O         4.0933515046       13.3156895104        3.5121194824
  O         6.6593497914        8.8769670325        3.5123399982
  O         9.2180969790        4.4331848016        3.5137725428
  O        -1.0357315727       13.3162229558        3.5110730675
  O         1.5296463340        8.8753903780        3.5122687396
  O         4.1005705918        4.4350745820        3.5162016513
  O        -6.1612219602       13.3161756960        3.5123646466
  O        -3.5982263390        8.8760303007        3.5130962794
  O        -1.0356332619        4.4335783941        3.5116362069
  O         6.8129408494       11.8732986246        3.4955717275
  O         9.3769386123        7.4354622757        3.4917878405
  O        11.9369953920        2.9893286712        3.4967249222
  O         1.6859353743       11.8727283091        3.4904534954
  O         4.2525117600        7.4339650300        3.4924810688
  O         6.8119987717        2.9929335419        3.5048827799
  O        -3.4418320821       11.8743573611        3.4932914869
  O        -0.8801826875        7.4318249940        3.4932698530
  O         1.6858196023        2.9899205996        3.4955784645
  O         9.4282117736       10.2259301515        3.4890198669
  O        11.9906803663        5.7832002382        3.4865987774
  O        14.5561633922        1.3425280591        3.4866905426
  O         4.3023682171       10.2252274430        3.4864843345
  O         6.8676863337        5.7775160973        3.4866332848
  O         9.4252420135        1.3481536962        3.4894960380
  O        -0.8264452567       10.2247393518        3.4859931057
  O         1.7369983001        5.7796335381        3.4792162934
  O         4.3038209698        1.3458836215        3.4906628564
 Fe         5.0377944116       11.8343486447        4.4212537897
 Fe         7.6032308784        7.4012639781        4.4137115386
 Fe        10.1589444890        2.9550480222        4.4232026591
 Fe        -0.0917037459       11.8313460944        4.4179274985
 Fe         2.4713475813        7.3939602075        4.4183038772
 Fe         5.0386955887        2.9601414493        4.4254429390
 Fe        -5.2167036885       11.8390817630        4.4197433508
 Fe        -2.6541248225        7.3958956928        4.4198656521
 Fe        -0.0914229294        2.9541600159        4.4204169273
 Fe         7.6083219943       13.1862734809        4.8080170965
 Fe        10.1734858362        8.7484387181        4.8077946522
 Fe        12.7373467323        4.3044634020        4.8041283254
 Fe         2.4857228555       13.1824555653        4.8028460929
 Fe         5.0465663047        8.7436248886        4.8077942140
 Fe         7.6039276734        4.3118101521        4.8084005554
 Fe        -2.6422652188       13.1874551400        4.8079373552
 Fe        -0.0812925512        8.7440085232        4.8070965004
 Fe         2.4790610382        4.3029181203        4.8052044114
  O         5.8549359313       10.3451885239        5.8702124597
  O         8.4349881690        5.9176338224        5.8740680243
  O        10.9741184426        1.4620907965        5.8724514325
  O         0.7290448970       10.3428579936        5.8758220202
  O         3.2785015477        5.9116707744        5.8298614880
  O         5.8741255300        1.4612249675        5.8999828071
  O        -4.3956973687       10.3485672740        5.8769168943
  O        -1.8372366889        5.9065736348        5.8642434552
  O         0.7309741860        1.4666668938        5.8695265271
  O         5.9262401251       13.1763937126        5.6904852629
  O         8.4915521979        8.7344721245        5.6924324013
  O        11.0515164678        4.2947359197        5.6834295480
  O         0.7955909129       13.1664430609        5.6680217848
  O         3.3625957218        8.7338347497        5.6797996233
  O         5.9417032858        4.3094498367        5.7307232414
  O        -4.3247533421       13.1748125986        5.6867591196
  O        -1.7672113557        8.7337631517        5.6820564855
  O         0.7980590292        4.2922913782        5.6876531357
  O         3.4668340229       11.7729175406        5.6650264305
  O         6.0459593159        7.3284921773        5.6585754092
  O         8.5851833889        2.9026332068        5.6851700765
  O        -1.6591530133       11.7729269277        5.6628152095
  O         0.9003470860        7.3314533596        5.6630571693
  O         3.4770417348        2.8933797201        5.6646118284
  O        -6.7849996922       11.7745126948        5.6665824543
  O        -4.2267593916        7.3352679886        5.6671283520
  O        -1.6614581423        2.8921282039        5.6661548488
 Fe         7.7819400114       10.2760303579        6.4342140289
 Fe        10.3549822019        5.8305059470        6.4342433214
 Fe        12.9050263281        1.3928603834        6.4331794683
 Fe         2.6579818797       10.2688873582        6.4340382096
 Fe         5.1936187421        5.8511706870        6.4383385415
 Fe         7.8034473809        1.3783680588        6.4323078354
 Fe        -2.4677778435       10.2719303913        6.4339657970
 Fe         0.0909720754        5.8310040483        6.4339616698
 Fe         2.6583473990        1.3920944238        6.4320219761
  O         7.8156240651       10.4228789188        8.2602666744
  H         7.8101116703        9.6174966448        8.8077483753
  H         5.3516728741       10.6068599555        6.6744050307
  O        10.4895396989        5.8750073158        8.2710949729
  H        10.8291954082        5.0756575383        8.7141338840
  H         7.9061592690        6.2548315285        6.6301989461
  O        12.9136662324        1.5459553428        8.2593205917
  H        12.9538926300        0.7366227364        8.8001979665
  H        10.4719709682        1.6972047740        6.6863178621
  O         2.7437468792       10.3803302329        8.2600472575
  H         2.8365243283        9.5535328280        8.7681251296
  H         0.2195470399       10.5988798066        6.6777819238
  O         4.9433272938        6.2211970151        8.1993193667
  H         4.9267390535        5.6144063154        8.9637708349
  H         2.8143225336        6.1817756852        6.6552222266
  O         8.0956515664        1.3449455521        8.2531871885
  H         8.1661295044        0.4665799448        8.6706518891
  H         5.3443719129        1.7320386077        6.6832701931
  O        -2.3485224141       10.3858421008        8.2586800990
  H        -2.2706024300        9.5640118360        8.7760928019
  H        -4.9060142185       10.6230476215        6.6717326789
  O         0.0782234534        5.9667924859        8.2573968544
  H         0.1776046360        5.1669577623        8.8043130718
  H        -2.3352615725        6.1727488534        6.6698723777
  O         2.7185686102        1.5298208480        8.2523672089
  H         2.7863324844        0.7294949705        8.8030973880
  H         0.2275240852        1.7369632660        6.6701371916
  C         7.6889516645        4.2564134754        9.0811318044
  C         6.6345346561        4.3880713568       10.0638353709
  H         8.1911364739        3.2814353176        9.1833597785
  H         7.2491366379        4.2738937880        8.0715853385
  H         8.4197850452        5.0754934945        9.1637556341
  N         5.7638671372        4.5021213879       10.8361226596
     168
 i =       74, E =     -8144.3771360630
 Fe         5.0938794100       11.8196869300        0.3885799900
 Fe         7.6575796300        7.3792284900        0.3885799900
 Fe        10.2212798400        2.9387700600        0.3885799900
 Fe        -0.0335205200       11.8196869300        0.3885799900
 Fe         2.5301797000        7.3792284900        0.3885799900
 Fe         5.0938799200        2.9387700600        0.3885799900
 Fe        -5.1609204400       11.8196869300        0.3885799900
 Fe        -2.5972202200        7.3792284900        0.3885799900
 Fe        -0.0335200000        2.9387700600        0.3885799900
  O         8.4519195100        8.9577468800        1.1642700400
  O        11.0156197300        4.5172884400        1.1642700400
  O        13.5793199500        0.0768300000        1.1642700400
  O         3.3245195900        8.9577468800        1.1642700400
  O         5.8882198100        4.5172884400        1.1642700400
  O         8.4519200300        0.0768300000        1.1642700400
  O        -1.8028803300        8.9577468800        1.1642700400
  O         0.7608198900        4.5172884400        1.1642700400
  O         3.3245201100        0.0768300000        1.1642700400
  O         8.4568493000       11.7183869300        1.1650400200
  O        11.0205495200        7.2779284900        1.1650400200
  O        13.5842497300        2.8374700500        1.1650400200
  O         3.3294493700       11.7183869300        1.1650400200
  O         5.8931495900        7.2779284900        1.1650400200
  O         8.4568498100        2.8374700500        1.1650400200
  O        -1.7979505500       11.7183869300        1.1650400200
  O         0.7657496700        7.2779284900        1.1650400200
  O         3.3294498900        2.8374700500        1.1650400200
  O         6.0627194200       10.3425368500        1.1660399400
  O         8.6264196400        5.9020784100        1.1660399400
  O        11.1901198600        1.4616199700        1.1660399400
  O         0.9353195000       10.3425368500        1.1660399400
  O         3.4990197200        5.9020784100        1.1660399400
  O         6.0627199400        1.4616199700        1.1660399400
  O        -4.1920804200       10.3425368500        1.1660399400
  O        -1.6283802000        5.9020784100        1.1660399400
  O         0.9353200200        1.4616199700        1.1660399400
 Fe         7.6576695000       13.2997167500        1.9292099500
 Fe        10.2213697200        8.8592583200        1.9292099500
 Fe        12.7850699400        4.4187998800        1.9292099500
 Fe         2.5302695800       13.2997167500        1.9292099500
 Fe         5.0939698000        8.8592583200        1.9292099500
 Fe         7.6576700200        4.4187998800        1.9292099500
 Fe        -2.5971303400       13.2997167500        1.9292099500
 Fe        -0.0334301200        8.8592583200        1.9292099500
 Fe         2.5302701000        4.4187998800        1.9292099500
 Fe         7.6573893600       10.3392168700        2.7128999200
 Fe        10.2210895800        5.8987584300        2.7128999200
 Fe        12.7847898000        1.4582999900        2.7128999200
 Fe         2.5299894400       10.3392168700        2.7128999200
 Fe         5.0936896600        5.8987584300        2.7128999200
 Fe         7.6573898800        1.4582999900        2.7128999200
 Fe        -2.5974104800       10.3392168700        2.7128999200
 Fe        -0.0337102600        5.8987584300        2.7128999200
 Fe         2.5299899600        1.4582999900        2.7128999200
  O         4.0926944117       13.3150618784        3.5120051228
  O         6.6582220641        8.8762854474        3.5114932702
  O         9.2195403340        4.4328216108        3.5147779688
  O        -1.0365054349       13.3154436863        3.5111286577
  O         1.5291583884        8.8745494190        3.5120176784
  O         4.0998367376        4.4343306932        3.5157730612
  O        -6.1617445628       13.3154693435        3.5124743444
  O        -3.5987946100        8.8752456128        3.5131191642
  O        -1.0364249861        4.4336384778        3.5116068649
  O         6.8121121346       11.8729188097        3.4945486475
  O         9.3756725157        7.4356509853        3.4907628314
  O        11.9366625673        2.9880557402        3.4977608027
  O         1.6855133393       11.8716285666        3.4909044490
  O         4.2517865306        7.4329718027        3.4925451608
  O         6.8134665604        2.9917707937        3.5053685247
  O        -3.4417076221       11.8730584852        3.4936665099
  O        -0.8807070677        7.4319259426        3.4934555472
  O         1.6850995174        2.9895338347        3.4961853100
  O         9.4280127695       10.2266111812        3.4893386943
  O        11.9907899845        5.7824790673        3.4862741830
  O        14.5554444352        1.3418648478        3.4869381704
  O         4.3015449977       10.2250758653        3.4868062248
  O         6.8676171742        5.7766484424        3.4859471256
  O         9.4253649514        1.3474047416        3.4896063550
  O        -0.8264176721       10.2245464671        3.4854397967
  O         1.7365546480        5.7796742244        3.4792135035
  O         4.3035656720        1.3453900669        3.4906628706
 Fe         5.0377651303       11.8337553833        4.4209589817
 Fe         7.6037340226        7.4009036862        4.4131239485
 Fe        10.1599235312        2.9526954559        4.4233569543
 Fe        -0.0916391548       11.8305994020        4.4180596130
 Fe         2.4704260652        7.3934566399        4.4184211293
 Fe         5.0381256176        2.9604800691        4.4260640448
 Fe        -5.2164951188       11.8379635658        4.4198639758
 Fe        -2.6537698348        7.3947544783        4.4198036459
 Fe        -0.0914982213        2.9530658080        4.4207428890
 Fe         7.6082120797       13.1851343182        4.8076916504
 Fe        10.1741642004        8.7477187537        4.8076584103
 Fe        12.7370629253        4.3042193275        4.8043168475
 Fe         2.4857461370       13.1813570886        4.8030562804
 Fe         5.0468585397        8.7423289685        4.8078489149
 Fe         7.6051172353        4.3110220756        4.8059079849
 Fe        -2.6413635873       13.1870597528        4.8083995894
 Fe        -0.0813465424        8.7437865546        4.8084221190
 Fe         2.4786603363        4.3028830512        4.8057737498
  O         5.8548273057       10.3445996303        5.8691667356
  O         8.4354505870        5.9169299958        5.8709309014
  O        10.9725751220        1.4610939674        5.8735339683
  O         0.7297155686       10.3404989169        5.8773038637
  O         3.2783591895        5.9104318815        5.8311946631
  O         5.8751209647        1.4599694135        5.9029441373
  O        -4.3964011925       10.3472725686        5.8774559656
  O        -1.8383074441        5.9064428450        5.8666668580
  O         0.7304925876        1.4651760400        5.8690674712
  O         5.9261350646       13.1758521330        5.6899595844
  O         8.4906950211        8.7328967471        5.6913324838
  O        11.0516669643        4.2944333234        5.6844768541
  O         0.7945616727       13.1650922569        5.6668070997
  O         3.3632346208        8.7325387073        5.6804591249
  O         5.9425126470        4.3098424214        5.7294607780
  O        -4.3247797941       13.1745817305        5.6854210094
  O        -1.7676004759        8.7343260907        5.6822819841
  O         0.7984582108        4.2924523531        5.6882796284
  O         3.4669211168       11.7725202459        5.6657266163
  O         6.0457724802        7.3275457183        5.6577814215
  O         8.5852997530        2.9023757640        5.6847738512
  O        -1.6594918458       11.7724352144        5.6643379739
  O         0.8993382792        7.3315256191        5.6649272469
  O         3.4778775062        2.8934219485        5.6658780711
  O        -6.7860400556       11.7723529826        5.6661188769
  O        -4.2269124712        7.3336717657        5.6655360532
  O        -1.6615759646        2.8915293984        5.6663154511
 Fe         7.7817753675       10.2744936931        6.4345362990
 Fe        10.3544947648        5.8294418181        6.4340819242
 Fe        12.9048088446        1.3921747218        6.4330620136
 Fe         2.6590713501       10.2674228838        6.4344020701
 Fe         5.1941146552        5.8502097997        6.4383823374
 Fe         7.8050484384        1.3782239793        6.4326698163
 Fe        -2.4686578706       10.2714568675        6.4347883716
 Fe         0.0907079144        5.8305235512        6.4354001170
 Fe         2.6582563642        1.3911602873        6.4319852421
  O         7.8161123386       10.4197632975        8.2605666424
  H         7.8106332275        9.6157984399        8.8101540998
  H         5.3510240556       10.6073488377        6.6727240996
  O        10.4881210246        5.8845652026        8.2711175509
  H        10.8367465521        5.0949580356        8.7243694531
  H         7.9037547155        6.2550234126        6.6246520227
  O        12.9183207018        1.5433608790        8.2594015432
  H        12.9540491411        0.7327882165        8.7987978164
  H        10.4688221849        1.6960549579        6.6867827567
  O         2.7477252041       10.3817373212        8.2600078171
  H         2.8424826846        9.5568753932        8.7706690269
  H         0.2209651260       10.5950776189        6.6800846112
  O         4.9461764123        6.2202908807        8.2003381417
  H         4.9381369175        5.6129727329        8.9644451431
  H         2.8143380857        6.1806828590        6.6566388295
  O         8.1203051690        1.3458396236        8.2500247744
  H         8.1982348698        0.4687038004        8.6687348753
  H         5.3428015680        1.7315377952        6.6842327715
  O        -2.3527903649       10.3791401822        8.2605414909
  H        -2.2727335822        9.5558833370        8.7754337983
  H        -4.9075813229       10.6173664910        6.6731039433
  O         0.0787216211        5.9648157389        8.2593392145
  H         0.1791316162        5.1676185753        8.8098347710
  H        -2.3371949728        6.1729028782        6.6717546794
  O         2.7182095149        1.5266419466        8.2519627285
  H         2.7864736898        0.7270878579        8.8036033286
  H         0.2261442799        1.7317781748        6.6702067617
  C         7.7100416674        4.2652539403        9.0528371331
  C         6.6653000621        4.3881182584       10.0464776701
  H         8.2217705121        3.2958204133        9.1509210971
  H         7.2589668012        4.2784131378        8.0479964369
  H         8.4366762701        5.0892471966        9.1288321623
  N         5.8032776491        4.4930581849       10.8298774527
     168
 i =       75, E =     -8144.3771526741
 Fe         5.0938794100       11.8196869300        0.3885799900
 Fe         7.6575796300        7.3792284900        0.3885799900
 Fe        10.2212798400        2.9387700600        0.3885799900
 Fe        -0.0335205200       11.8196869300        0.3885799900
 Fe         2.5301797000        7.3792284900        0.3885799900
 Fe         5.0938799200        2.9387700600        0.3885799900
 Fe        -5.1609204400       11.8196869300        0.3885799900
 Fe        -2.5972202200        7.3792284900        0.3885799900
 Fe        -0.0335200000        2.9387700600        0.3885799900
  O         8.4519195100        8.9577468800        1.1642700400
  O        11.0156197300        4.5172884400        1.1642700400
  O        13.5793199500        0.0768300000        1.1642700400
  O         3.3245195900        8.9577468800        1.1642700400
  O         5.8882198100        4.5172884400        1.1642700400
  O         8.4519200300        0.0768300000        1.1642700400
  O        -1.8028803300        8.9577468800        1.1642700400
  O         0.7608198900        4.5172884400        1.1642700400
  O         3.3245201100        0.0768300000        1.1642700400
  O         8.4568493000       11.7183869300        1.1650400200
  O        11.0205495200        7.2779284900        1.1650400200
  O        13.5842497300        2.8374700500        1.1650400200
  O         3.3294493700       11.7183869300        1.1650400200
  O         5.8931495900        7.2779284900        1.1650400200
  O         8.4568498100        2.8374700500        1.1650400200
  O        -1.7979505500       11.7183869300        1.1650400200
  O         0.7657496700        7.2779284900        1.1650400200
  O         3.3294498900        2.8374700500        1.1650400200
  O         6.0627194200       10.3425368500        1.1660399400
  O         8.6264196400        5.9020784100        1.1660399400
  O        11.1901198600        1.4616199700        1.1660399400
  O         0.9353195000       10.3425368500        1.1660399400
  O         3.4990197200        5.9020784100        1.1660399400
  O         6.0627199400        1.4616199700        1.1660399400
  O        -4.1920804200       10.3425368500        1.1660399400
  O        -1.6283802000        5.9020784100        1.1660399400
  O         0.9353200200        1.4616199700        1.1660399400
 Fe         7.6576695000       13.2997167500        1.9292099500
 Fe        10.2213697200        8.8592583200        1.9292099500
 Fe        12.7850699400        4.4187998800        1.9292099500
 Fe         2.5302695800       13.2997167500        1.9292099500
 Fe         5.0939698000        8.8592583200        1.9292099500
 Fe         7.6576700200        4.4187998800        1.9292099500
 Fe        -2.5971303400       13.2997167500        1.9292099500
 Fe        -0.0334301200        8.8592583200        1.9292099500
 Fe         2.5302701000        4.4187998800        1.9292099500
 Fe         7.6573893600       10.3392168700        2.7128999200
 Fe        10.2210895800        5.8987584300        2.7128999200
 Fe        12.7847898000        1.4582999900        2.7128999200
 Fe         2.5299894400       10.3392168700        2.7128999200
 Fe         5.0936896600        5.8987584300        2.7128999200
 Fe         7.6573898800        1.4582999900        2.7128999200
 Fe        -2.5974104800       10.3392168700        2.7128999200
 Fe        -0.0337102600        5.8987584300        2.7128999200
 Fe         2.5299899600        1.4582999900        2.7128999200
  O         4.0926882224       13.3151350581        3.5120522463
  O         6.6583272379        8.8763498513        3.5116617363
  O         9.2192032252        4.4330006437        3.5145851329
  O        -1.0363518725       13.3156473947        3.5111653952
  O         1.5290391577        8.8746152908        3.5119795899
  O         4.1000083700        4.4342696259        3.5158754509
  O        -6.1617920509       13.3156228051        3.5124339507
  O        -3.5986787386        8.8753404624        3.5131247124
  O        -1.0361770747        4.4334074162        3.5116069145
  O         6.8121828985       11.8729091214        3.4946635580
  O         9.3759703080        7.4351802458        3.4912894040
  O        11.9366212379        2.9883055235        3.4976615368
  O         1.6853710034       11.8718930871        3.4905612668
  O         4.2516630994        7.4327089342        3.4926781383
  O         6.8131449744        2.9919313754        3.5052084556
  O        -3.4416899896       11.8735083342        3.4935538897
  O        -0.8805030506        7.4314730584        3.4935024269
  O         1.6850776384        2.9897590985        3.4958049762
  O         9.4279671659       10.2259768222        3.4893241157
  O        11.9908753464        5.7823243278        3.4861703633
  O        14.5553940369        1.3419432929        3.4868360658
  O         4.3015490427       10.2249800664        3.4867513243
  O         6.8674644394        5.7768030437        3.4858719505
  O         9.4254242892        1.3476957225        3.4897025774
  O        -0.8264042745       10.2241601819        3.4855117558
  O         1.7367948381        5.7797433920        3.4793475611
  O         4.3035601645        1.3455664038        3.4907000851
 Fe         5.0375873088       11.8338766881        4.4208649367
 Fe         7.6038297160        7.4010401774        4.4132718537
 Fe        10.1599801562        2.9530227098        4.4233246159
 Fe        -0.0916570065       11.8306283340        4.4179201689
 Fe         2.4705197358        7.3934815830        4.4183447357
 Fe         5.0380358791        2.9605116889        4.4257850261
 Fe        -5.2164930809       11.8378492644        4.4197117459
 Fe        -2.6538049341        7.3948924684        4.4197179480
 Fe        -0.0914874079        2.9532273737        4.4206647632
 Fe         7.6082659602       13.1851534378        4.8077982118
 Fe        10.1741634516        8.7475044288        4.8077305424
 Fe        12.7371108840        4.3042079091        4.8043005081
 Fe         2.4857083686       13.1815484322        4.8028222091
 Fe         5.0467822401        8.7424803780        4.8079686659
 Fe         7.6050312682        4.3112391488        4.8067599148
 Fe        -2.6414520274       13.1872473398        4.8084365218
 Fe        -0.0814052363        8.7436294674        4.8082678607
 Fe         2.4786795019        4.3029410471        4.8054788834
  O         5.8549465962       10.3446954556        5.8691768196
  O         8.4354213436        5.9170293326        5.8714070863
  O        10.9730568905        1.4612877358        5.8733896642
  O         0.7296908626       10.3403565911        5.8769688940
  O         3.2785015979        5.9107460597        5.8313553812
  O         5.8751075690        1.4600748789        5.9029822597
  O        -4.3962395611       10.3467023022        5.8772253888
  O        -1.8383172277        5.9065410549        5.8664804452
  O         0.7304540046        1.4653227448        5.8690519832
  O         5.9260276967       13.1759364182        5.6898623045
  O         8.4909481548        8.7332367006        5.6915529732
  O        11.0520245804        4.2942260985        5.6847062896
  O         0.7947248639       13.1650580867        5.6665330251
  O         3.3632251619        8.7327637542        5.6805495551
  O         5.9421867366        4.3095216836        5.7296165361
  O        -4.3248843138       13.1745179450        5.6856434238
  O        -1.7673958983        8.7341131696        5.6823418035
  O         0.7984067677        4.2925716357        5.6877684426
  O         3.4665421221       11.7724208740        5.6652940758
  O         6.0459706428        7.3274228454        5.6578254355
  O         8.5853853672        2.9025545667        5.6845185855
  O        -1.6596052462       11.7725481563        5.6641679270
  O         0.8995479225        7.3311746547        5.6644198071
  O         3.4774172333        2.8935077920        5.6653920601
  O        -6.7857784439       11.7725856949        5.6663203848
  O        -4.2265834332        7.3334292751        5.6655018093
  O        -1.6616146866        2.8917339177        5.6663077688
 Fe         7.7816823669       10.2746484740        6.4344702028
 Fe        10.3547789977        5.8294850408        6.4341997677
 Fe        12.9049621697        1.3924648734        6.4331616325
 Fe         2.6588855278       10.2676752431        6.4344344005
 Fe         5.1940321159        5.8502826178        6.4383808559
 Fe         7.8052679146        1.3780356827        6.4322778645
 Fe        -2.4685457728       10.2714657713        6.4347317821
 Fe         0.0906444695        5.8304014131        6.4351179010
 Fe         2.6581534152        1.3913430615        6.4320079772
  O         7.8161543692       10.4197622999        8.2603745372
  H         7.8108872015        9.6155328233        8.8095609035
  H         5.3509775695       10.6072694691        6.6726466396
  O        10.4887359984        5.8862032863        8.2711114332
  H        10.8369303367        5.0966862232        8.7244309725
  H         7.9040230330        6.2554167927        6.6252226989
  O        12.9189036252        1.5428285820        8.2594782316
  H        12.9543121132        0.7322995595        8.7989194962
  H        10.4694866639        1.6953419204        6.6869506365
  O         2.7481905874       10.3819418893        8.2600404968
  H         2.8428437194        9.5570673155        8.7707305176
  H         0.2203185951       10.5951960973        6.6792435960
  O         4.9468562564        6.2202032599        8.2003823095
  H         4.9391050593        5.6128714488        8.9645310278
  H         2.8145504418        6.1806101501        6.6569572920
  O         8.1229880064        1.3454392093        8.2490672479
  H         8.2011291705        0.4686288528        8.6683206551
  H         5.3431492731        1.7316420434        6.6845061599
  O        -2.3530392700       10.3787966617        8.2604463355
  H        -2.2734235895        9.5552337114        8.7749569509
  H        -4.9076463410       10.6173908986        6.6725449575
  O         0.0783224189        5.9653164475        8.2590621161
  H         0.1795238692        5.1676152700        8.8086523944
  H        -2.3369341684        6.1731916758        6.6716911126
  O         2.7182424998        1.5264672485        8.2520791747
  H         2.7864102462        0.7266555779        8.8034240023
  H         0.2260621797        1.7319697112        6.6701887763
  C         7.7113520287        4.2653085665        9.0503139799
  C         6.6679383409        4.3877623817       10.0450397887
  H         8.2234464206        3.2956067602        9.1475162054
  H         7.2600234225        4.2791471535        8.0460016179
  H         8.4378143371        5.0894302876        9.1260500828
  N         5.8072338611        4.4940636654       10.8291413172
     168
 i =       76, E =     -8144.3771821351
 Fe         5.0938794100       11.8196869300        0.3885799900
 Fe         7.6575796300        7.3792284900        0.3885799900
 Fe        10.2212798400        2.9387700600        0.3885799900
 Fe        -0.0335205200       11.8196869300        0.3885799900
 Fe         2.5301797000        7.3792284900        0.3885799900
 Fe         5.0938799200        2.9387700600        0.3885799900
 Fe        -5.1609204400       11.8196869300        0.3885799900
 Fe        -2.5972202200        7.3792284900        0.3885799900
 Fe        -0.0335200000        2.9387700600        0.3885799900
  O         8.4519195100        8.9577468800        1.1642700400
  O        11.0156197300        4.5172884400        1.1642700400
  O        13.5793199500        0.0768300000        1.1642700400
  O         3.3245195900        8.9577468800        1.1642700400
  O         5.8882198100        4.5172884400        1.1642700400
  O         8.4519200300        0.0768300000        1.1642700400
  O        -1.8028803300        8.9577468800        1.1642700400
  O         0.7608198900        4.5172884400        1.1642700400
  O         3.3245201100        0.0768300000        1.1642700400
  O         8.4568493000       11.7183869300        1.1650400200
  O        11.0205495200        7.2779284900        1.1650400200
  O        13.5842497300        2.8374700500        1.1650400200
  O         3.3294493700       11.7183869300        1.1650400200
  O         5.8931495900        7.2779284900        1.1650400200
  O         8.4568498100        2.8374700500        1.1650400200
  O        -1.7979505500       11.7183869300        1.1650400200
  O         0.7657496700        7.2779284900        1.1650400200
  O         3.3294498900        2.8374700500        1.1650400200
  O         6.0627194200       10.3425368500        1.1660399400
  O         8.6264196400        5.9020784100        1.1660399400
  O        11.1901198600        1.4616199700        1.1660399400
  O         0.9353195000       10.3425368500        1.1660399400
  O         3.4990197200        5.9020784100        1.1660399400
  O         6.0627199400        1.4616199700        1.1660399400
  O        -4.1920804200       10.3425368500        1.1660399400
  O        -1.6283802000        5.9020784100        1.1660399400
  O         0.9353200200        1.4616199700        1.1660399400
 Fe         7.6576695000       13.2997167500        1.9292099500
 Fe        10.2213697200        8.8592583200        1.9292099500
 Fe        12.7850699400        4.4187998800        1.9292099500
 Fe         2.5302695800       13.2997167500        1.9292099500
 Fe         5.0939698000        8.8592583200        1.9292099500
 Fe         7.6576700200        4.4187998800        1.9292099500
 Fe        -2.5971303400       13.2997167500        1.9292099500
 Fe        -0.0334301200        8.8592583200        1.9292099500
 Fe         2.5302701000        4.4187998800        1.9292099500
 Fe         7.6573893600       10.3392168700        2.7128999200
 Fe        10.2210895800        5.8987584300        2.7128999200
 Fe        12.7847898000        1.4582999900        2.7128999200
 Fe         2.5299894400       10.3392168700        2.7128999200
 Fe         5.0936896600        5.8987584300        2.7128999200
 Fe         7.6573898800        1.4582999900        2.7128999200
 Fe        -2.5974104800       10.3392168700        2.7128999200
 Fe        -0.0337102600        5.8987584300        2.7128999200
 Fe         2.5299899600        1.4582999900        2.7128999200
  O         4.0926732377       13.3154807525        3.5120908432
  O         6.6589209247        8.8767190543        3.5124716424
  O         9.2180273356        4.4336638183        3.5138061870
  O        -1.0357737408       13.3163758925        3.5111551709
  O         1.5290191747        8.8747653864        3.5119608952
  O         4.1004965793        4.4341818116        3.5162005111
  O        -6.1616686482       13.3157648425        3.5121909579
  O        -3.5980868839        8.8753858378        3.5128387604
  O        -1.0354048167        4.4329192471        3.5118616919
  O         6.8125660133       11.8728613544        3.4952982474
  O         9.3771482454        7.4337547725        3.4928921322
  O        11.9365128628        2.9893483037        3.4971068042
  O         1.6849633443       11.8728040174        3.4894127692
  O         4.2512950992        7.4321653214        3.4930861593
  O         6.8112899887        2.9924592232        3.5044080013
  O        -3.4420264789       11.8749989405        3.4931909787
  O        -0.8800719155        7.4299017792        3.4934491053
  O         1.6853562698        2.9904038044        3.4946253640
  O         9.4279412884       10.2238610461        3.4889451152
  O        11.9912838600        5.7820129397        3.4858438559
  O        14.5553607681        1.3422595795        3.4863362797
  O         4.3017291358       10.2245803113        3.4865198959
  O         6.8668115938        5.7775224145        3.4858275271
  O         9.4255593464        1.3486772541        3.4899288186
  O        -0.8265800847       10.2229153405        3.4861147370
  O         1.7377079331        5.7799056172        3.4795467859
  O         4.3034794808        1.3461851267        3.4910325453
 Fe         5.0369870113       11.8343416704        4.4204406038
 Fe         7.6039599756        7.4014115848        4.4137337950
 Fe        10.1599245362        2.9545073628        4.4232171376
 Fe        -0.0918945663       11.8307311111        4.4173774781
 Fe         2.4710004329        7.3934756067        4.4183992232
 Fe         5.0377485643        2.9605504726        4.4249018076
 Fe        -5.2165927380       11.8373988113        4.4197674586
 Fe        -2.6539844135        7.3953758847        4.4198520560
 Fe        -0.0915555739        2.9538421223        4.4199038155
 Fe         7.6082146635       13.1854745948        4.8081191744
 Fe        10.1738957897        8.7469490921        4.8077881203
 Fe        12.7372855914        4.3041709030        4.8044335811
 Fe         2.4855342725       13.1822167367        4.8021023490
 Fe         5.0464690700        8.7431261285        4.8083101127
 Fe         7.6042977261        4.3119222833        4.8093072872
 Fe        -2.6420370045       13.1876381649        4.8084125233
 Fe        -0.0816018117        8.7430083433        4.8071289431
 Fe         2.4785142243        4.3031573186        4.8045096065
  O         5.8552637239       10.3451562182        5.8695680181
  O         8.4348754064        5.9171707397        5.8737668109
  O        10.9746314841        1.4620656096        5.8728496957
  O         0.7292025616       10.3401720507        5.8757790435
  O         3.2787008385        5.9117877742        5.8314347273
  O         5.8747735058        1.4604290380        5.9024373294
  O        -4.3958778638       10.3445595121        5.8766020865
  O        -1.8379113673        5.9066058508        5.8652821612
  O         0.7301705029        1.4657562827        5.8693633117
  O         5.9253724156       13.1760496535        5.6897816591
  O         8.4917859376        8.7342511390        5.6925163058
  O        11.0530868785        4.2933750193        5.6854191027
  O         0.7951319711       13.1649968726        5.6655817370
  O         3.3629791646        8.7338120458        5.6806373020
  O         5.9410160474        4.3084815184        5.7303090941
  O        -4.3253641044       13.1744592621        5.6865335502
  O        -1.7665907719        8.7333314902        5.6824625133
  O         0.7978059395        4.2923119215        5.6862706731
  O         3.4653831306       11.7720361438        5.6637660269
  O         6.0466414645        7.3271945258        5.6584654656
  O         8.5852260302        2.9030760490        5.6835373174
  O        -1.6600296791       11.7726758379        5.6632482400
  O         0.9001167892        7.3299625789        5.6622946102
  O         3.4754085480        2.8934675379        5.6634012313
  O        -6.7851682814       11.7737687181        5.6668383608
  O        -4.2259673004        7.3328682418        5.6655209624
  O        -1.6616310170        2.8922901344        5.6661110373
 Fe         7.7814880579       10.2752755640        6.4341962105
 Fe        10.3555494184        5.8296622805        6.4344456194
 Fe        12.9052332382        1.3934602341        6.4334917423
 Fe         2.6578621282       10.2687752603        6.4344621055
 Fe         5.1932625737        5.8506378310        6.4382324839
 Fe         7.8056288938        1.3771769045        6.4310871284
 Fe        -2.4682965850       10.2714281742        6.4343908537
 Fe         0.0906074067        5.8298953800        6.4338389203
 Fe         2.6575996677        1.3919569306        6.4322041828
  O         7.8167232820       10.4201727614        8.2597746266
  H         7.8116826741        9.6147112875        8.8070922043
  H         5.3507911519       10.6071602078        6.6727903245
  O        10.4918069571        5.8881750436        8.2708058932
  H        10.8433262229        5.0992048826        8.7214415536
  H         7.9048980719        6.2563655816        6.6282586116
  O        12.9212465411        1.5420645809        8.2597249090
  H        12.9558689645        0.7320514828        8.7998622047
  H        10.4717746746        1.6936937840        6.6873221459
  O         2.7485998599       10.3827128215        8.2602159516
  H         2.8438499013        9.5577327036        8.7707959939
  H         0.2180160085       10.5950946349        6.6768340218
  O         4.9463895060        6.2193738126        8.2001084688
  H         4.9372945458        5.6121733557        8.9644020130
  H         2.8149156474        6.1803416581        6.6574882111
  O         8.1284092595        1.3426691263        8.2461914293
  H         8.2055988089        0.4662097833        8.6659663246
  H         5.3442627967        1.7319204168        6.6849697411
  O        -2.3538940629       10.3793773773        8.2598115113
  H        -2.2756129315        9.5553859272        8.7738680694
  H        -4.9075976482       10.6169224600        6.6712429948
  O         0.0763094347        5.9669996601        8.2577294398
  H         0.1814431928        5.1674665911        8.8039567346
  H        -2.3358477926        6.1739535508        6.6706977435
  O         2.7180546377        1.5267363858        8.2527081107
  H         2.7859305817        0.7259350779        8.8028580994
  H         0.2258992887        1.7320578451        6.6708852185
  C         7.7113666046        4.2635670006        9.0484056584
  C         6.6702887147        4.3882537145       10.0443671463
  H         8.2195416987        3.2912400460        9.1428187295
  H         7.2587222670        4.2786781312        8.0439740885
  H         8.4392570162        5.0853279175        9.1244042928
  N         5.8118937321        4.4989325065       10.8303318281
     168
 i =       77, E =     -8144.3771878261
 Fe         5.0938794100       11.8196869300        0.3885799900
 Fe         7.6575796300        7.3792284900        0.3885799900
 Fe        10.2212798400        2.9387700600        0.3885799900
 Fe        -0.0335205200       11.8196869300        0.3885799900
 Fe         2.5301797000        7.3792284900        0.3885799900
 Fe         5.0938799200        2.9387700600        0.3885799900
 Fe        -5.1609204400       11.8196869300        0.3885799900
 Fe        -2.5972202200        7.3792284900        0.3885799900
 Fe        -0.0335200000        2.9387700600        0.3885799900
  O         8.4519195100        8.9577468800        1.1642700400
  O        11.0156197300        4.5172884400        1.1642700400
  O        13.5793199500        0.0768300000        1.1642700400
  O         3.3245195900        8.9577468800        1.1642700400
  O         5.8882198100        4.5172884400        1.1642700400
  O         8.4519200300        0.0768300000        1.1642700400
  O        -1.8028803300        8.9577468800        1.1642700400
  O         0.7608198900        4.5172884400        1.1642700400
  O         3.3245201100        0.0768300000        1.1642700400
  O         8.4568493000       11.7183869300        1.1650400200
  O        11.0205495200        7.2779284900        1.1650400200
  O        13.5842497300        2.8374700500        1.1650400200
  O         3.3294493700       11.7183869300        1.1650400200
  O         5.8931495900        7.2779284900        1.1650400200
  O         8.4568498100        2.8374700500        1.1650400200
  O        -1.7979505500       11.7183869300        1.1650400200
  O         0.7657496700        7.2779284900        1.1650400200
  O         3.3294498900        2.8374700500        1.1650400200
  O         6.0627194200       10.3425368500        1.1660399400
  O         8.6264196400        5.9020784100        1.1660399400
  O        11.1901198600        1.4616199700        1.1660399400
  O         0.9353195000       10.3425368500        1.1660399400
  O         3.4990197200        5.9020784100        1.1660399400
  O         6.0627199400        1.4616199700        1.1660399400
  O        -4.1920804200       10.3425368500        1.1660399400
  O        -1.6283802000        5.9020784100        1.1660399400
  O         0.9353200200        1.4616199700        1.1660399400
 Fe         7.6576695000       13.2997167500        1.9292099500
 Fe        10.2213697200        8.8592583200        1.9292099500
 Fe        12.7850699400        4.4187998800        1.9292099500
 Fe         2.5302695800       13.2997167500        1.9292099500
 Fe         5.0939698000        8.8592583200        1.9292099500
 Fe         7.6576700200        4.4187998800        1.9292099500
 Fe        -2.5971303400       13.2997167500        1.9292099500
 Fe        -0.0334301200        8.8592583200        1.9292099500
 Fe         2.5302701000        4.4187998800        1.9292099500
 Fe         7.6573893600       10.3392168700        2.7128999200
 Fe        10.2210895800        5.8987584300        2.7128999200
 Fe        12.7847898000        1.4582999900        2.7128999200
 Fe         2.5299894400       10.3392168700        2.7128999200
 Fe         5.0936896600        5.8987584300        2.7128999200
 Fe         7.6573898800        1.4582999900        2.7128999200
 Fe        -2.5974104800       10.3392168700        2.7128999200
 Fe        -0.0337102600        5.8987584300        2.7128999200
 Fe         2.5299899600        1.4582999900        2.7128999200
  O         4.0926456309       13.3152039642        3.5120719526
  O         6.6587487624        8.8765486905        3.5123531919
  O         9.2181852600        4.4336602937        3.5138764343
  O        -1.0360363643       13.3160932054        3.5109209264
  O         1.5289205798        8.8746179136        3.5119753183
  O         4.1003862246        4.4340845626        3.5162708390
  O        -6.1618782604       13.3157517901        3.5121223422
  O        -3.5980021893        8.8753189329        3.5129976635
  O        -1.0353308524        4.4326462829        3.5118624351
  O         6.8123944847       11.8726122942        3.4952522876
  O         9.3768280122        7.4334202010        3.4927988719
  O        11.9364152372        2.9891593100        3.4972773088
  O         1.6846473888       11.8725402803        3.4893332369
  O         4.2511777124        7.4318428771        3.4932748789
  O         6.8110596044        2.9921930257        3.5042658483
  O        -3.4421088073       11.8749113836        3.4932071237
  O        -0.8800977071        7.4295731582        3.4934029192
  O         1.6850552374        2.9902772131        3.4946003855
  O         9.4278433622       10.2236516602        3.4890209073
  O        11.9913825110        5.7814645002        3.4857044264
  O        14.5552197595        1.3423140753        3.4862976251
  O         4.3016208180       10.2244219483        3.4863872762
  O         6.8666712589        5.7773369514        3.4856487984
  O         9.4255999089        1.3486247884        3.4900072317
  O        -0.8266483159       10.2225680374        3.4860944457
  O         1.7377880547        5.7796998210        3.4797083610
  O         4.3034958361        1.3461467522        3.4910252277
 Fe         5.0369358017       11.8341252989        4.4205005490
 Fe         7.6039857448        7.4012842439        4.4136382776
 Fe        10.1602546762        2.9540914760        4.4231959285
 Fe        -0.0920633522       11.8304020950        4.4173383146
 Fe         2.4709717993        7.3931931263        4.4182984074
 Fe         5.0374997062        2.9606561786        4.4248348245
 Fe        -5.2166289451       11.8371780711        4.4197176112
 Fe        -2.6538328079        7.3949811027        4.4196008814
 Fe        -0.0916599399        2.9536544461        4.4202058931
 Fe         7.6082650027       13.1850680744        4.8080514417
 Fe        10.1739191532        8.7465647243        4.8075461057
 Fe        12.7372787483        4.3041062077        4.8045063903
 Fe         2.4855825606       13.1819484532        4.8019681841
 Fe         5.0464364419        8.7429722076        4.8083343094
 Fe         7.6044139020        4.3116918087        4.8091383405
 Fe        -2.6420191657       13.1876223961        4.8084723461
 Fe        -0.0816077563        8.7427351200        4.8071525587
 Fe         2.4784260647        4.3029025788        4.8045111048
  O         5.8551821564       10.3449490273        5.8694230103
  O         8.4348659644        5.9168654080        5.8735528743
  O        10.9744698429        1.4616146829        5.8733947224
  O         0.7292427612       10.3393786818        5.8759965584
  O         3.2786842148        5.9114335172        5.8320011434
  O         5.8754422553        1.4598917401        5.9035896521
  O        -4.3962333454       10.3436259927        5.8764571447
  O        -1.8380759840        5.9066103437        5.8654759855
  O         0.7298603145        1.4649967496        5.8694507717
  O         5.9251756960       13.1759806727        5.6892522743
  O         8.4917796067        8.7338982177        5.6923463913
  O        11.0533986873        4.2931285558        5.6861432699
  O         0.7947148256       13.1641469605        5.6645225301
  O         3.3630676835        8.7335593152        5.6807599479
  O         5.9409131664        4.3081682684        5.7300556239
  O        -4.3255637739       13.1741445138        5.6863435591
  O        -1.7665186962        8.7330408358        5.6824185787
  O         0.7977578551        4.2923743655        5.6862064055
  O         3.4651128957       11.7716872481        5.6635182530
  O         6.0466816336        7.3269082374        5.6584938736
  O         8.5850975162        2.9029866167        5.6829215426
  O        -1.6604616536       11.7723347186        5.6634168604
  O         0.9000418969        7.3295120544        5.6621781351
  O         3.4752107210        2.8931226744        5.6634617266
  O        -6.7852426255       11.7732623411        5.6667560499
  O        -4.2258339874        7.3321062811        5.6644400447
  O        -1.6618939360        2.8921353513        5.6661410485
 Fe         7.7813022969       10.2748313692        6.4341467821
 Fe        10.3555850530        5.8295948801        6.4343947501
 Fe        12.9052005251        1.3932930296        6.4336003506
 Fe         2.6579494957       10.2685159855        6.4345435708
 Fe         5.1932568815        5.8503261269        6.4382494146
 Fe         7.8067379842        1.3765574540        6.4307390416
 Fe        -2.4685870810       10.2709530693        6.4344819531
 Fe         0.0903482180        5.8296632365        6.4339945976
 Fe         2.6573254910        1.3915561234        6.4321136380
  O         7.8172567620       10.4189589469        8.2597090701
  H         7.8124641722        9.6134329151        8.8069377522
  H         5.3504336764       10.6074289587        6.6723034471
  O        10.4931025516        5.8935515834        8.2705655058
  H        10.8516183184        5.1093560392        8.7245692477
  H         7.9043866109        6.2568690679        6.6273367825
  O        12.9248053184        1.5407591243        8.2599281894
  H        12.9570632871        0.7302474537        8.7994942791
  H        10.4710754693        1.6923809003        6.6878904077
  O         2.7507692637       10.3839408273        8.2602237786
  H         2.8472171377        9.5597715877        8.7718914606
  H         0.2175935750       10.5935869968        6.6769411013
  O         4.9471175607        6.2183288392        8.2004558162
  H         4.9413548554        5.6108954014        8.9646083630
  H         2.8149596326        6.1797860294        6.6581506116
  O         8.1436052529        1.3412755546        8.2431903313
  H         8.2233204554        0.4653290135        8.6635077660
  H         5.3439898206        1.7318657868        6.6853067248
  O        -2.3562367309       10.3768148630        8.2602431661
  H        -2.2779889667        9.5519353794        8.7729297444
  H        -4.9081830103       10.6141313026        6.6716065293
  O         0.0756635369        5.9667034240        8.2579748811
  H         0.1832194759        5.1675968335        8.8043763871
  H        -2.3359901452        6.1744086779        6.6707632207
  O         2.7178176467        1.5255677012        8.2526998945
  H         2.7856563556        0.7245712863        8.8025835393
  H         0.2252498045        1.7300222507        6.6711850430
  C         7.7205868609        4.2660012048        9.0339223605
  C         6.6856636330        4.3883581770       10.0365832976
  H         8.2313202480        3.2947353899        9.1256037947
  H         7.2628395666        4.2812849306        8.0323023190
  H         8.4477628424        5.0890869815        9.1063815742
  N         5.8327394720        4.4980688972       10.8286852077
     168
 i =       78, E =     -8144.3772028726
 Fe         5.0938794100       11.8196869300        0.3885799900
 Fe         7.6575796300        7.3792284900        0.3885799900
 Fe        10.2212798400        2.9387700600        0.3885799900
 Fe        -0.0335205200       11.8196869300        0.3885799900
 Fe         2.5301797000        7.3792284900        0.3885799900
 Fe         5.0938799200        2.9387700600        0.3885799900
 Fe        -5.1609204400       11.8196869300        0.3885799900
 Fe        -2.5972202200        7.3792284900        0.3885799900
 Fe        -0.0335200000        2.9387700600        0.3885799900
  O         8.4519195100        8.9577468800        1.1642700400
  O        11.0156197300        4.5172884400        1.1642700400
  O        13.5793199500        0.0768300000        1.1642700400
  O         3.3245195900        8.9577468800        1.1642700400
  O         5.8882198100        4.5172884400        1.1642700400
  O         8.4519200300        0.0768300000        1.1642700400
  O        -1.8028803300        8.9577468800        1.1642700400
  O         0.7608198900        4.5172884400        1.1642700400
  O         3.3245201100        0.0768300000        1.1642700400
  O         8.4568493000       11.7183869300        1.1650400200
  O        11.0205495200        7.2779284900        1.1650400200
  O        13.5842497300        2.8374700500        1.1650400200
  O         3.3294493700       11.7183869300        1.1650400200
  O         5.8931495900        7.2779284900        1.1650400200
  O         8.4568498100        2.8374700500        1.1650400200
  O        -1.7979505500       11.7183869300        1.1650400200
  O         0.7657496700        7.2779284900        1.1650400200
  O         3.3294498900        2.8374700500        1.1650400200
  O         6.0627194200       10.3425368500        1.1660399400
  O         8.6264196400        5.9020784100        1.1660399400
  O        11.1901198600        1.4616199700        1.1660399400
  O         0.9353195000       10.3425368500        1.1660399400
  O         3.4990197200        5.9020784100        1.1660399400
  O         6.0627199400        1.4616199700        1.1660399400
  O        -4.1920804200       10.3425368500        1.1660399400
  O        -1.6283802000        5.9020784100        1.1660399400
  O         0.9353200200        1.4616199700        1.1660399400
 Fe         7.6576695000       13.2997167500        1.9292099500
 Fe        10.2213697200        8.8592583200        1.9292099500
 Fe        12.7850699400        4.4187998800        1.9292099500
 Fe         2.5302695800       13.2997167500        1.9292099500
 Fe         5.0939698000        8.8592583200        1.9292099500
 Fe         7.6576700200        4.4187998800        1.9292099500
 Fe        -2.5971303400       13.2997167500        1.9292099500
 Fe        -0.0334301200        8.8592583200        1.9292099500
 Fe         2.5302701000        4.4187998800        1.9292099500
 Fe         7.6573893600       10.3392168700        2.7128999200
 Fe        10.2210895800        5.8987584300        2.7128999200
 Fe        12.7847898000        1.4582999900        2.7128999200
 Fe         2.5299894400       10.3392168700        2.7128999200
 Fe         5.0936896600        5.8987584300        2.7128999200
 Fe         7.6573898800        1.4582999900        2.7128999200
 Fe        -2.5974104800       10.3392168700        2.7128999200
 Fe        -0.0337102600        5.8987584300        2.7128999200
 Fe         2.5299899600        1.4582999900        2.7128999200
  O         4.0928685495       13.3152102516        3.5120733585
  O         6.6590065174        8.8765798955        3.5124969426
  O         9.2179017135        4.4336396805        3.5136989087
  O        -1.0360509589       13.3160838260        3.5107405837
  O         1.5291711263        8.8748415496        3.5121373685
  O         4.1005157488        4.4343501233        3.5164838116
  O        -6.1618139577       13.3159587090        3.5120877269
  O        -3.5978165121        8.8755230324        3.5130629630
  O        -1.0351249889        4.4326125152        3.5118548908
  O         6.8125752060       11.8725829445        3.4955104050
  O         9.3767020152        7.4333845004        3.4927554572
  O        11.9365123336        2.9892860305        3.4970622429
  O         1.6846912448       11.8725792971        3.4893467620
  O         4.2515622088        7.4322610257        3.4933128695
  O         6.8105911683        2.9924128165        3.5040585239
  O        -3.4422582465       11.8749797105        3.4932061862
  O        -0.8800696275        7.4296413292        3.4932703340
  O         1.6851061873        2.9901312123        3.4946722384
  O         9.4278850337       10.2236534799        3.4889710407
  O        11.9913291800        5.7814567765        3.4858260666
  O        14.5553969908        1.3425367069        3.4862901275
  O         4.3019073577       10.2243822453        3.4861694677
  O         6.8667088866        5.7773677595        3.4859588853
  O         9.4255572829        1.3486844841        3.4899729958
  O        -0.8267561777       10.2226792871        3.4861916938
  O         1.7378700508        5.7793930970        3.4796810079
  O         4.3035381223        1.3461465513        3.4910765426
 Fe         5.0370458072       11.8341564230        4.4206784582
 Fe         7.6035602169        7.4011113495        4.4137668070
 Fe        10.1600497172        2.9544914943        4.4230977811
 Fe        -0.0922092521       11.8304577842        4.4173237316
 Fe         2.4712835309        7.3930662532        4.4181950021
 Fe         5.0376862242        2.9605544452        4.4247447252
 Fe        -5.2167668608       11.8376115998        4.4197353279
 Fe        -2.6538843367        7.3950812591        4.4194768738
 Fe        -0.0917671056        2.9538847754        4.4203857106
 Fe         7.6082968559       13.1852041733        4.8080341627
 Fe        10.1736299033        8.7466998720        4.8072918712
 Fe        12.7373625467        4.3041882429        4.8044366605
 Fe         2.4856225983       13.1820174194        4.8019885808
 Fe         5.0463140555        8.7432986101        4.8082848335
 Fe         7.6041194085        4.3115546297        4.8096192188
 Fe        -2.6423461037       13.1876232934        4.8082930793
 Fe        -0.0815385499        8.7427647879        4.8067246265
 Fe         2.4785220646        4.3025911022        4.8045325972
  O         5.8550087665       10.3450067964        5.8697439164
  O         8.4346916189        5.9166897150        5.8746360241
  O        10.9747139712        1.4613773968        5.8735676801
  O         0.7289334555       10.3399406611        5.8757002618
  O         3.2785874766        5.9113974934        5.8316278722
  O         5.8755028501        1.4599235464        5.9031285760
  O        -4.3963871740       10.3438792167        5.8762112805
  O        -1.8377240481        5.9066901409        5.8646413735
  O         0.7297636948        1.4648545327        5.8697588470
  O         5.9251086839       13.1760371801        5.6890482718
  O         8.4919673223        8.7339893457        5.6924920708
  O        11.0532740839        4.2933282530        5.6858778579
  O         0.7945868997       13.1640829581        5.6643314835
  O         3.3628831826        8.7336878371        5.6805447331
  O         5.9407194609        4.3079374461        5.7303668751
  O        -4.3256674714       13.1740606835        5.6865489101
  O        -1.7664258149        8.7327426756        5.6823698778
  O         0.7975612202        4.2923160995        5.6863161952
  O         3.4651831760       11.7715961112        5.6633672795
  O         6.0465654046        7.3271820350        5.6589848924
  O         8.5848652697        2.9027002866        5.6829146380
  O        -1.6605431953       11.7721553527        5.6629732464
  O         0.9003308854        7.3294486820        5.6616932553
  O         3.4750075585        2.8927568283        5.6634852903
  O        -6.7850635787       11.7734871302        5.6666057429
  O        -4.2259509812        7.3322631454        5.6642539894
  O        -1.6620651560        2.8921175682        5.6660851292
 Fe         7.7812685447       10.2749779706        6.4340127426
 Fe        10.3555865154        5.8298518563        6.4344259274
 Fe        12.9052840282        1.3931712060        6.4337064663
 Fe         2.6576404182       10.2686640591        6.4344388910
 Fe         5.1930229172        5.8503840675        6.4382390140
 Fe         7.8066454086        1.3761790705        6.4308757840
 Fe        -2.4686041058       10.2708073704        6.4341762730
 Fe         0.0903027786        5.8298760997        6.4337299624
 Fe         2.6571579327        1.3914697905        6.4320774129
  O         7.8176153974       10.4193533842        8.2596611493
  H         7.8128651323        9.6133571247        8.8062173987
  H         5.3503865921       10.6076605461        6.6726577086
  O        10.4952582200        5.8906038327        8.2704487636
  H        10.8593278582        5.1066019542        8.7209091311
  H         7.9046851844        6.2565964801        6.6287983124
  O        12.9259163074        1.5416885141        8.2600574293
  H        12.9583121208        0.7315517224        8.8001647258
  H        10.4713305890        1.6924073786        6.6879980077
  O         2.7502030106       10.3842359649        8.2602056353
  H         2.8471187889        9.5599827736        8.7716673902
  H         0.2169026741       10.5940927804        6.6764374656
  O         4.9447091165        6.2175071249        8.2001901845
  H         4.9361197858        5.6097358917        8.9639914606
  H         2.8149620934        6.1799613405        6.6577607333
  O         8.1412728800        1.3393569698        8.2432164887
  H         8.2204158795        0.4625854544        8.6619651653
  H         5.3439705507        1.7320567227        6.6847257935
  O        -2.3561848560       10.3786644544        8.2597212043
  H        -2.2787385809        9.5541966866        8.7731436413
  H        -4.9080137268       10.6140523853        6.6717120481
  O         0.0747756063        5.9668082938        8.2575412401
  H         0.1842199179        5.1673212094        8.8030549118
  H        -2.3354384570        6.1747597213        6.6699163546
  O         2.7177111213        1.5264372976        8.2527952466
  H         2.7851936453        0.7252460114        8.8024448515
  H         0.2252632679        1.7305178550        6.6713582675
  C         7.7154252790        4.2626172898        9.0387125035
  C         6.6801105926        4.3889836947       10.0408383940
  H         8.2223413351        3.2893019565        9.1308510809
  H         7.2587648691        4.2800825738        8.0368230749
  H         8.4454461599        5.0832090159        9.1114489625
  N         5.8264624183        4.5017005407       10.8318797753
     168
 i =       79, E =     -8144.3772204005
 Fe         5.0938794100       11.8196869300        0.3885799900
 Fe         7.6575796300        7.3792284900        0.3885799900
 Fe        10.2212798400        2.9387700600        0.3885799900
 Fe        -0.0335205200       11.8196869300        0.3885799900
 Fe         2.5301797000        7.3792284900        0.3885799900
 Fe         5.0938799200        2.9387700600        0.3885799900
 Fe        -5.1609204400       11.8196869300        0.3885799900
 Fe        -2.5972202200        7.3792284900        0.3885799900
 Fe        -0.0335200000        2.9387700600        0.3885799900
  O         8.4519195100        8.9577468800        1.1642700400
  O        11.0156197300        4.5172884400        1.1642700400
  O        13.5793199500        0.0768300000        1.1642700400
  O         3.3245195900        8.9577468800        1.1642700400
  O         5.8882198100        4.5172884400        1.1642700400
  O         8.4519200300        0.0768300000        1.1642700400
  O        -1.8028803300        8.9577468800        1.1642700400
  O         0.7608198900        4.5172884400        1.1642700400
  O         3.3245201100        0.0768300000        1.1642700400
  O         8.4568493000       11.7183869300        1.1650400200
  O        11.0205495200        7.2779284900        1.1650400200
  O        13.5842497300        2.8374700500        1.1650400200
  O         3.3294493700       11.7183869300        1.1650400200
  O         5.8931495900        7.2779284900        1.1650400200
  O         8.4568498100        2.8374700500        1.1650400200
  O        -1.7979505500       11.7183869300        1.1650400200
  O         0.7657496700        7.2779284900        1.1650400200
  O         3.3294498900        2.8374700500        1.1650400200
  O         6.0627194200       10.3425368500        1.1660399400
  O         8.6264196400        5.9020784100        1.1660399400
  O        11.1901198600        1.4616199700        1.1660399400
  O         0.9353195000       10.3425368500        1.1660399400
  O         3.4990197200        5.9020784100        1.1660399400
  O         6.0627199400        1.4616199700        1.1660399400
  O        -4.1920804200       10.3425368500        1.1660399400
  O        -1.6283802000        5.9020784100        1.1660399400
  O         0.9353200200        1.4616199700        1.1660399400
 Fe         7.6576695000       13.2997167500        1.9292099500
 Fe        10.2213697200        8.8592583200        1.9292099500
 Fe        12.7850699400        4.4187998800        1.9292099500
 Fe         2.5302695800       13.2997167500        1.9292099500
 Fe         5.0939698000        8.8592583200        1.9292099500
 Fe         7.6576700200        4.4187998800        1.9292099500
 Fe        -2.5971303400       13.2997167500        1.9292099500
 Fe        -0.0334301200        8.8592583200        1.9292099500
 Fe         2.5302701000        4.4187998800        1.9292099500
 Fe         7.6573893600       10.3392168700        2.7128999200
 Fe        10.2210895800        5.8987584300        2.7128999200
 Fe        12.7847898000        1.4582999900        2.7128999200
 Fe         2.5299894400       10.3392168700        2.7128999200
 Fe         5.0936896600        5.8987584300        2.7128999200
 Fe         7.6573898800        1.4582999900        2.7128999200
 Fe        -2.5974104800       10.3392168700        2.7128999200
 Fe        -0.0337102600        5.8987584300        2.7128999200
 Fe         2.5299899600        1.4582999900        2.7128999200
  O         4.0930374417       13.3153898866        3.5119990371
  O         6.6593302745        8.8766200803        3.5127386486
  O         9.2175993235        4.4333177145        3.5136216670
  O        -1.0362229952       13.3161531817        3.5106967933
  O         1.5298199814        8.8750659677        3.5124074833
  O         4.1007457500        4.4346210548        3.5167858314
  O        -6.1615179616       13.3159426671        3.5121799000
  O        -3.5976725262        8.8756915782        3.5128369261
  O        -1.0351479648        4.4330340729        3.5119418980
  O         6.8128778770       11.8726579087        3.4956105733
  O         9.3761620966        7.4337089876        3.4922640970
  O        11.9365483175        2.9890964093        3.4969472526
  O         1.6850896643       11.8723910882        3.4895549241
  O         4.2523191595        7.4332791699        3.4932170111
  O         6.8103134770        2.9928909362        3.5038372778
  O        -3.4425477688       11.8746443380        3.4934252393
  O        -0.8802023233        7.4302902109        3.4929881882
  O         1.6854823049        2.9896851553        3.4952974739
  O         9.4280697715       10.2241949749        3.4887591969
  O        11.9912873396        5.7817138602        3.4859773710
  O        14.5556092090        1.3426493765        3.4863991533
  O         4.3025225198       10.2242067831        3.4859317648
  O         6.8668883001        5.7771570910        3.4868193387
  O         9.4254163863        1.3485663867        3.4898994112
  O        -0.8269471319       10.2231948593        3.4862188395
  O         1.7379693999        5.7788089788        3.4791627436
  O         4.3034929784        1.3458887560        3.4914424569
 Fe         5.0374187552       11.8342775059        4.4206897576
 Fe         7.6024910896        7.4005351721        4.4137853537
 Fe        10.1594664739        2.9549469933        4.4229964103
 Fe        -0.0924173760       11.8304539158        4.4172219480
 Fe         2.4717519704        7.3926736957        4.4182971825
 Fe         5.0385197846        2.9601580907        4.4249158819
 Fe        -5.2169404943       11.8383475266        4.4202021019
 Fe        -2.6539867044        7.3953377970        4.4194748971
 Fe        -0.0920636414        2.9542115413        4.4203279946
 Fe         7.6080594027       13.1856091768        4.8079256072
 Fe        10.1730417474        8.7472052960        4.8067283005
 Fe        12.7372449960        4.3043487466        4.8043885765
 Fe         2.4857944843       13.1819043966        4.8021588169
 Fe         5.0461211703        8.7437004426        4.8082068111
 Fe         7.6037405837        4.3111080692        4.8102087563
 Fe        -2.6427194273       13.1872872219        4.8080827561
 Fe        -0.0813232544        8.7429923060        4.8062289579
 Fe         2.4787030936        4.3020330450        4.8048837050
  O         5.8545744878       10.3452159957        5.8703950454
  O         8.4345186913        5.9161941174        5.8767502165
  O        10.9746218854        1.4603832542        5.8744083446
  O         0.7283267702       10.3410767232        5.8755119024
  O         3.2782032176        5.9110103637        5.8306295392
  O         5.8755819502        1.4596757384        5.9023289168
  O        -4.3968429768       10.3446895593        5.8759519284
  O        -1.8368513042        5.9068116441        5.8631420998
  O         0.7294176795        1.4646445595        5.8704600608
  O         5.9247843822       13.1757024714        5.6888462201
  O         8.4920085594        8.7337811421        5.6925531621
  O        11.0524345221        4.2936810932        5.6850395951
  O         0.7941795477       13.1635341545        5.6638906734
  O         3.3625581037        8.7337102215        5.6802465715
  O         5.9406787200        4.3078210731        5.7311139813
  O        -4.3257284312       13.1743527716        5.6865185064
  O        -1.7663832919        8.7325687309        5.6825484805
  O         0.7972745967        4.2918302714        5.6870926081
  O         3.4657059418       11.7713665111        5.6632967030
  O         6.0461679748        7.3277181370        5.6598856008
  O         8.5843965486        2.9019427311        5.6833014239
  O        -1.6603826031       11.7715045541        5.6623171828
  O         0.9007609029        7.3298184643        5.6613803336
  O         3.4751702978        2.8921156534        5.6640926346
  O        -6.7852832967       11.7737045016        5.6658748862
  O        -4.2264449507        7.3327139288        5.6637991517
  O        -1.6622412976        2.8919461534        5.6658751147
 Fe         7.7814038757       10.2751139588        6.4338514074
 Fe        10.3555180452        5.8301423865        6.4343558725
 Fe        12.9054714403        1.3926881841        6.4337666956
 Fe         2.6571848401       10.2686628457        6.4342683441
 Fe         5.1924798303        5.8505116191        6.4381754767
 Fe         7.8062327355        1.3752875104        6.4307954109
 Fe        -2.4690222058       10.2706893221        6.4336767106
 Fe         0.0905980618        5.8303807654        6.4334049109
 Fe         2.6568685275        1.3913242209        6.4321592782
  O         7.8187532638       10.4195336135        8.2597636634
  H         7.8143591151        9.6125250732        8.8049066450
  H         5.3502703308       10.6082368155        6.6734924182
  O        10.5003414411        5.8832540103        8.2701456290
  H        10.8795365325        5.1017612848        8.7132959142
  H         7.9050501185        6.2557166671        6.6314838785
  O        12.9294891466        1.5437846276        8.2602797017
  H        12.9623115314        0.7343831308        8.8014836844
  H        10.4709968432        1.6927094599        6.6883680614
  O         2.7489787926       10.3852489482        8.2600298552
  H         2.8472718113        9.5611122402        8.7713702808
  H         0.2158752170       10.5953499013        6.6759843907
  O         4.9381291207        6.2159837390        8.1994693256
  H         4.9234320758        5.6075938978        8.9626559392
  H         2.8147646212        6.1804074089        6.6566044871
  O         8.1361805722        1.3330113696        8.2431080294
  H         8.2156779943        0.4539946825        8.6574776388
  H         5.3435422521        1.7325708263        6.6832490413
  O        -2.3568348055       10.3827591088        8.2588405776
  H        -2.2816446054        9.5593676400        8.7741864324
  H        -4.9076966154       10.6134806960        6.6723718220
  O         0.0731466307        5.9660888931        8.2569331354
  H         0.1871563619        5.1663381094        8.8011734126
  H        -2.3346541164        6.1757864620        6.6679688269
  O         2.7174105831        1.5280914329        8.2530114745
  H         2.7837392329        0.7264906777        8.8021683376
  H         0.2251928930        1.7312209904        6.6719253627
  C         7.7020873999        4.2530210768        9.0501476391
  C         6.6661307923        4.3915277502       10.0507707060
  H         8.1976296627        3.2737755545        9.1412771601
  H         7.2464145032        4.2772398742        8.0473518818
  H         8.4418765371        5.0641681477        9.1241368746
  N         5.8111934750        4.5113847521       10.8398527216
     168
 i =       80, E =     -8144.3772280277
 Fe         5.0938794100       11.8196869300        0.3885799900
 Fe         7.6575796300        7.3792284900        0.3885799900
 Fe        10.2212798400        2.9387700600        0.3885799900
 Fe        -0.0335205200       11.8196869300        0.3885799900
 Fe         2.5301797000        7.3792284900        0.3885799900
 Fe         5.0938799200        2.9387700600        0.3885799900
 Fe        -5.1609204400       11.8196869300        0.3885799900
 Fe        -2.5972202200        7.3792284900        0.3885799900
 Fe        -0.0335200000        2.9387700600        0.3885799900
  O         8.4519195100        8.9577468800        1.1642700400
  O        11.0156197300        4.5172884400        1.1642700400
  O        13.5793199500        0.0768300000        1.1642700400
  O         3.3245195900        8.9577468800        1.1642700400
  O         5.8882198100        4.5172884400        1.1642700400
  O         8.4519200300        0.0768300000        1.1642700400
  O        -1.8028803300        8.9577468800        1.1642700400
  O         0.7608198900        4.5172884400        1.1642700400
  O         3.3245201100        0.0768300000        1.1642700400
  O         8.4568493000       11.7183869300        1.1650400200
  O        11.0205495200        7.2779284900        1.1650400200
  O        13.5842497300        2.8374700500        1.1650400200
  O         3.3294493700       11.7183869300        1.1650400200
  O         5.8931495900        7.2779284900        1.1650400200
  O         8.4568498100        2.8374700500        1.1650400200
  O        -1.7979505500       11.7183869300        1.1650400200
  O         0.7657496700        7.2779284900        1.1650400200
  O         3.3294498900        2.8374700500        1.1650400200
  O         6.0627194200       10.3425368500        1.1660399400
  O         8.6264196400        5.9020784100        1.1660399400
  O        11.1901198600        1.4616199700        1.1660399400
  O         0.9353195000       10.3425368500        1.1660399400
  O         3.4990197200        5.9020784100        1.1660399400
  O         6.0627199400        1.4616199700        1.1660399400
  O        -4.1920804200       10.3425368500        1.1660399400
  O        -1.6283802000        5.9020784100        1.1660399400
  O         0.9353200200        1.4616199700        1.1660399400
 Fe         7.6576695000       13.2997167500        1.9292099500
 Fe        10.2213697200        8.8592583200        1.9292099500
 Fe        12.7850699400        4.4187998800        1.9292099500
 Fe         2.5302695800       13.2997167500        1.9292099500
 Fe         5.0939698000        8.8592583200        1.9292099500
 Fe         7.6576700200        4.4187998800        1.9292099500
 Fe        -2.5971303400       13.2997167500        1.9292099500
 Fe        -0.0334301200        8.8592583200        1.9292099500
 Fe         2.5302701000        4.4187998800        1.9292099500
 Fe         7.6573893600       10.3392168700        2.7128999200
 Fe        10.2210895800        5.8987584300        2.7128999200
 Fe        12.7847898000        1.4582999900        2.7128999200
 Fe         2.5299894400       10.3392168700        2.7128999200
 Fe         5.0936896600        5.8987584300        2.7128999200
 Fe         7.6573898800        1.4582999900        2.7128999200
 Fe        -2.5974104800       10.3392168700        2.7128999200
 Fe        -0.0337102600        5.8987584300        2.7128999200
 Fe         2.5299899600        1.4582999900        2.7128999200
  O         4.0930094621       13.3152809573        3.5119886246
  O         6.6591908159        8.8765042635        3.5126393474
  O         9.2178667931        4.4332147391        3.5137915130
  O        -1.0363687907       13.3160074418        3.5106800853
  O         1.5297701017        8.8749850233        3.5124080749
  O         4.1007316345        4.4344992284        3.5167253529
  O        -6.1615783992       13.3159003225        3.5122200673
  O        -3.5977438236        8.8756463557        3.5128161254
  O        -1.0352198396        4.4330591582        3.5119130200
  O         6.8127424124       11.8726830653        3.4953355970
  O         9.3759363858        7.4336938621        3.4921573372
  O        11.9364321082        2.9888155415        3.4971926771
  O         1.6851403350       11.8722374565        3.4894751958
  O         4.2522921903        7.4331163891        3.4932652275
  O         6.8106511058        2.9927895658        3.5038887455
  O        -3.4424816198       11.8745132527        3.4934440153
  O        -0.8801505618        7.4303855827        3.4930666078
  O         1.6854293141        2.9896468698        3.4954219965
  O         9.4280434430       10.2243080126        3.4888159502
  O        11.9913463238        5.7815548202        3.4858493532
  O        14.5555240592        1.3425402028        3.4864805122
  O         4.3025290900       10.2241428653        3.4859708316
  O         6.8669469607        5.7770522538        3.4867791733
  O         9.4253764385        1.3484538216        3.4900340503
  O        -0.8268866253       10.2231577868        3.4860730704
  O         1.7379470727        5.7787770002        3.4791337538
  O         4.3035317601        1.3457515937        3.4914398804
 Fe         5.0375476263       11.8341665482        4.4207218104
 Fe         7.6024813867        7.4004430778        4.4137175302
 Fe        10.1595838205        2.9545845635        4.4231204948
 Fe        -0.0923608862       11.8302100267        4.4171691074
 Fe         2.4716559323        7.3925993775        4.4183089838
 Fe         5.0386624281        2.9601093628        4.4249086270
 Fe        -5.2169079528       11.8382765115        4.4201659980
 Fe        -2.6538725050        7.3952418315        4.4193843850
 Fe        -0.0920851565        2.9541056847        4.4204152236
 Fe         7.6080872901       13.1854961900        4.8079154312
 Fe        10.1730861203        8.7471458335        4.8067322335
 Fe        12.7371926213        4.3043162473        4.8043723750
 Fe         2.4859509987       13.1816742512        4.8021418702
 Fe         5.0461607798        8.7435271090        4.8082411441
 Fe         7.6040481005        4.3110550579        4.8098091259
 Fe        -2.6425175748       13.1872176048        4.8082467910
 Fe        -0.0812386014        8.7429766099        4.8065998720
 Fe         2.4788165957        4.3019554972        4.8049902630
  O         5.8545745954       10.3451188227        5.8703085238
  O         8.4348294205        5.9160329048        5.8766395783
  O        10.9742522536        1.4598946864        5.8749806375
  O         0.7284597908       10.3407590210        5.8758084482
  O         3.2782634666        5.9108266576        5.8307963942
  O         5.8761545813        1.4593218038        5.9031462048
  O        -4.3969656927       10.3446260592        5.8759448167
  O        -1.8369185530        5.9068829453        5.8633268972
  O         0.7293060408        1.4645693476        5.8704674034
  O         5.9247805816       13.1756773369        5.6886374546
  O         8.4918692247        8.7335325995        5.6924446439
  O        11.0524166888        4.2936759399        5.6851025321
  O         0.7939779366       13.1629677815        5.6633072342
  O         3.3626753830        8.7334481905        5.6804631424
  O         5.9409745859        4.3077160202        5.7309998043
  O        -4.3256856446       13.1743076648        5.6863800379
  O        -1.7664197624        8.7326510080        5.6826341797
  O         0.7975467654        4.2918713822        5.6872741314
  O         3.4657424457       11.7711670059        5.6632405847
  O         6.0461250758        7.3275136939        5.6597706850
  O         8.5843030934        2.9018205568        5.6831199609
  O        -1.6603582573       11.7713109329        5.6625542577
  O         0.9007600918        7.3298369376        5.6617140232
  O         3.4755946923        2.8921425476        5.6644361714
  O        -6.7854444845       11.7733958141        5.6657788140
  O        -4.2262986869        7.3324728723        5.6632772648
  O        -1.6623140533        2.8918296301        5.6658757666
 Fe         7.7813964300       10.2749010892        6.4338749723
 Fe        10.3557273763        5.8300860647        6.4343540166
 Fe        12.9054263182        1.3925481856        6.4338078626
 Fe         2.6573672123       10.2684226617        6.4343182994
 Fe         5.1926725359        5.8502394115        6.4382033629
 Fe         7.8069540079        1.3749228411        6.4308275501
 Fe        -2.4692374725       10.2706048825        6.4337755682
 Fe         0.0906241069        5.8303189167        6.4335887799
 Fe         2.6568847265        1.3912474689        6.4321462732
  O         7.8190255206       10.4187411890        8.2597827834
  H         7.8151840545        9.6117485377        8.8049672779
  H         5.3501747492       10.6083090798        6.6733090324
  O        10.5021622267        5.8860613775        8.2700129273
  H        10.8843415640        5.1073676870        8.7150341534
  H         7.9049558061        6.2559618248        6.6309155707
  O        12.9316296038        1.5430748079        8.2603717368
  H        12.9636485347        0.7333762638        8.8011822198
  H        10.4703109251        1.6916082573        6.6890054808
  O         2.7505624476       10.3860437117        8.2599086077
  H         2.8489726037        9.5623337153        8.7718621068
  H         0.2158734256       10.5955881092        6.6759943075
  O         4.9386275292        6.2153409893        8.1997103342
  H         4.9257156333        5.6066533843        8.9626720285
  H         2.8148826964        6.1802710786        6.6568094861
  O         8.1444118342        1.3317350220        8.2418579511
  H         8.2264638560        0.4527065678        8.6556639544
  H         5.3434270820        1.7327593700        6.6834102867
  O        -2.3579344186       10.3815327338        8.2590862338
  H        -2.2835779122        9.5576512940        8.7738084206
  H        -4.9079560639       10.6127725358        6.6724560420
  O         0.0731642227        5.9656094583        8.2571880740
  H         0.1881271502        5.1662113853        8.8017118615
  H        -2.3347858401        6.1763576555        6.6679671376
  O         2.7175185167        1.5274521370        8.2529783187
  H         2.7833877910        0.7257321395        8.8020133348
  H         0.2249320764        1.7309469069        6.6718913484
  C         7.7066986204        4.2534361355        9.0421577421
  C         6.6744237999        4.3919288420       10.0465597413
  H         8.2024087313        3.2743903790        9.1314712332
  H         7.2474539099        4.2784755785        8.0410432736
  H         8.4472637260        5.0641671039        9.1142077518
  N         5.8222369866        4.5111411357       10.8386917977
     168
 i =       81, E =     -8144.3772335252
 Fe         5.0938794100       11.8196869300        0.3885799900
 Fe         7.6575796300        7.3792284900        0.3885799900
 Fe        10.2212798400        2.9387700600        0.3885799900
 Fe        -0.0335205200       11.8196869300        0.3885799900
 Fe         2.5301797000        7.3792284900        0.3885799900
 Fe         5.0938799200        2.9387700600        0.3885799900
 Fe        -5.1609204400       11.8196869300        0.3885799900
 Fe        -2.5972202200        7.3792284900        0.3885799900
 Fe        -0.0335200000        2.9387700600        0.3885799900
  O         8.4519195100        8.9577468800        1.1642700400
  O        11.0156197300        4.5172884400        1.1642700400
  O        13.5793199500        0.0768300000        1.1642700400
  O         3.3245195900        8.9577468800        1.1642700400
  O         5.8882198100        4.5172884400        1.1642700400
  O         8.4519200300        0.0768300000        1.1642700400
  O        -1.8028803300        8.9577468800        1.1642700400
  O         0.7608198900        4.5172884400        1.1642700400
  O         3.3245201100        0.0768300000        1.1642700400
  O         8.4568493000       11.7183869300        1.1650400200
  O        11.0205495200        7.2779284900        1.1650400200
  O        13.5842497300        2.8374700500        1.1650400200
  O         3.3294493700       11.7183869300        1.1650400200
  O         5.8931495900        7.2779284900        1.1650400200
  O         8.4568498100        2.8374700500        1.1650400200
  O        -1.7979505500       11.7183869300        1.1650400200
  O         0.7657496700        7.2779284900        1.1650400200
  O         3.3294498900        2.8374700500        1.1650400200
  O         6.0627194200       10.3425368500        1.1660399400
  O         8.6264196400        5.9020784100        1.1660399400
  O        11.1901198600        1.4616199700        1.1660399400
  O         0.9353195000       10.3425368500        1.1660399400
  O         3.4990197200        5.9020784100        1.1660399400
  O         6.0627199400        1.4616199700        1.1660399400
  O        -4.1920804200       10.3425368500        1.1660399400
  O        -1.6283802000        5.9020784100        1.1660399400
  O         0.9353200200        1.4616199700        1.1660399400
 Fe         7.6576695000       13.2997167500        1.9292099500
 Fe        10.2213697200        8.8592583200        1.9292099500
 Fe        12.7850699400        4.4187998800        1.9292099500
 Fe         2.5302695800       13.2997167500        1.9292099500
 Fe         5.0939698000        8.8592583200        1.9292099500
 Fe         7.6576700200        4.4187998800        1.9292099500
 Fe        -2.5971303400       13.2997167500        1.9292099500
 Fe        -0.0334301200        8.8592583200        1.9292099500
 Fe         2.5302701000        4.4187998800        1.9292099500
 Fe         7.6573893600       10.3392168700        2.7128999200
 Fe        10.2210895800        5.8987584300        2.7128999200
 Fe        12.7847898000        1.4582999900        2.7128999200
 Fe         2.5299894400       10.3392168700        2.7128999200
 Fe         5.0936896600        5.8987584300        2.7128999200
 Fe         7.6573898800        1.4582999900        2.7128999200
 Fe        -2.5974104800       10.3392168700        2.7128999200
 Fe        -0.0337102600        5.8987584300        2.7128999200
 Fe         2.5299899600        1.4582999900        2.7128999200
  O         4.0930737628       13.3153138780        3.5120487728
  O         6.6591684387        8.8765036219        3.5126270461
  O         9.2180235057        4.4331829397        3.5139675606
  O        -1.0363666073       13.3159638840        3.5106789151
  O         1.5296682270        8.8750016433        3.5123792813
  O         4.1008380179        4.4344246436        3.5165987579
  O        -6.1615765026       13.3159794881        3.5122961603
  O        -3.5978534816        8.8757297432        3.5128131730
  O        -1.0352416150        4.4330544142        3.5118160942
  O         6.8126922249       11.8728834161        3.4951144001
  O         9.3759892819        7.4337295222        3.4922561737
  O        11.9363925563        2.9886555308        3.4973808941
  O         1.6853841595       11.8722690869        3.4893195270
  O         4.2522943856        7.4329743555        3.4932696284
  O         6.8111561751        2.9928371856        3.5040406362
  O        -3.4422673644       11.8745010087        3.4934380042
  O        -0.8799571007        7.4306525555        3.4932205996
  O         1.6855006162        2.9897355367        3.4954694396
  O         9.4279641003       10.2244194519        3.4889403236
  O        11.9913508238        5.7816167147        3.4856832128
  O        14.5555706987        1.3424768531        3.4865920227
  O         4.3025596737       10.2241649723        3.4861236026
  O         6.8671309071        5.7771183041        3.4867727884
  O         9.4252777183        1.3484014842        3.4901730819
  O        -0.8267195335       10.2232434727        3.4859266462
  O         1.7378076247        5.7788937507        3.4790998466
  O         4.3036356160        1.3457444620        3.4913387416
 Fe         5.0377156140       11.8341161996        4.4208178085
 Fe         7.6025821949        7.4004967597        4.4137525146
 Fe        10.1595419748        2.9544152309        4.4232358556
 Fe        -0.0921511811       11.8301226996        4.4171180915
 Fe         2.4715144008        7.3927419241        4.4182967696
 Fe         5.0389258760        2.9600283021        4.4249016719
 Fe        -5.2168624759       11.8383050868        4.4200047066
 Fe        -2.6538364195        7.3953712721        4.4193337586
 Fe        -0.0919539667        2.9541067017        4.4205346356
 Fe         7.6081794408       13.1856326527        4.8079745496
 Fe        10.1731339730        8.7471893143        4.8069341564
 Fe        12.7371442299        4.3043657528        4.8042759896
 Fe         2.4861450445       13.1816331112        4.8021214082
 Fe         5.0462468892        8.7434307761        4.8082746052
 Fe         7.6043892298        4.3111909918        4.8095324123
 Fe        -2.6422711689       13.1872431593        4.8083970248
 Fe        -0.0811797564        8.7430729062        4.8070224876
 Fe         2.4790581794        4.3020404624        4.8050237656
  O         5.8546900635       10.3451113838        5.8702638908
  O         8.4352743729        5.9161025979        5.8767010270
  O        10.9739908183        1.4596575357        5.8754120618
  O         0.7286869606       10.3407784848        5.8759364418
  O         3.2783579772        5.9109819255        5.8305944580
  O         5.8763788853        1.4593374934        5.9034312657
  O        -4.3968486816       10.3450163316        5.8759852267
  O        -1.8369938280        5.9071013698        5.8634533044
  O         0.7294347286        1.4650427258        5.8703684023
  O         5.9249220628       13.1757879460        5.6886692163
  O         8.4917230927        8.7335428796        5.6924764678
  O        11.0522790357        4.2936408485        5.6847853895
  O         0.7941047171       13.1627342030        5.6632221999
  O         3.3627627460        8.7332973779        5.6806664367
  O         5.9413976064        4.3077570334        5.7310226666
  O        -4.3254950309       13.1743022413        5.6864357379
  O        -1.7665619641        8.7329045417        5.6827132415
  O         0.7980171461        4.2920645490        5.6873667456
  O         3.4658458077       11.7711616843        5.6632243287
  O         6.0461236103        7.3273606713        5.6595529746
  O         8.5843926756        2.9017981153        5.6833367593
  O        -1.6600873871       11.7714141246        5.6627592220
  O         0.9008398595        7.3300223362        5.6621334283
  O         3.4762467446        2.8924989878        5.6647378927
  O        -6.7854682903       11.7733883015        5.6658833075
  O        -4.2260084070        7.3326542311        5.6633853682
  O        -1.6623049010        2.8918986018        5.6658482757
 Fe         7.7814560456       10.2749612537        6.4339212706
 Fe        10.3560930492        5.8300366497        6.4343803026
 Fe        12.9054482557        1.3925870702        6.4338211077
 Fe         2.6575562819       10.2683484754        6.4343253155
 Fe         5.1929155616        5.8500948892        6.4381940881
 Fe         7.8071698813        1.3747992713        6.4308430067
 Fe        -2.4692160375       10.2708346223        6.4339299743
 Fe         0.0907186529        5.8303346358        6.4337067493
 Fe         2.6571158242        1.3914560073        6.4321019328
  O         7.8191338869       10.4183265668        8.2597970216
  H         7.8160318105        9.6113407933        8.8050050258
  H         5.3502776959       10.6081625652        6.6733032150
  O        10.5034608652        5.8866582647        8.2700144521
  H        10.8853892602        5.1086090601        8.7155267761
  H         7.9052555582        6.2560423070        6.6308692160
  O        12.9323191420        1.5427720149        8.2603477066
  H        12.9650866526        0.7329902832        8.8009712771
  H        10.4699500474        1.6907596535        6.6895726078
  O         2.7514062161       10.3864086813        8.2597413117
  H         2.8490439314        9.5627427353        8.7718805452
  H         0.2161042994       10.5970578370        6.6756592311
  O         4.9388848299        6.2153608293        8.1997364904
  H         4.9263793353        5.6065798125        8.9626663141
  H         2.8151086850        6.1804653321        6.6566998690
  O         8.1456472429        1.3304587697        8.2420105002
  H         8.2300621790        0.4510297538        8.6545387532
  H         5.3435622929        1.7330874142        6.6835258032
  O        -2.3580943614       10.3815044441        8.2592383356
  H        -2.2851253198        9.5574839404        8.7739689169
  H        -4.9079176627       10.6139016823        6.6721780309
  O         0.0737184478        5.9651419466        8.2573581199
  H         0.1884318072        5.1657964229        8.8019448260
  H        -2.3348327437        6.1769378885        6.6680149818
  O         2.7178309789        1.5272079368        8.2528840985
  H         2.7829834393        0.7254162412        8.8019214352
  H         0.2250097733        1.7320702971        6.6715419450
  C         7.7062883747        4.2515675885        9.0406302815
  C         6.6752241887        4.3921231028       10.0459644860
  H         8.1995403030        3.2713515856        9.1289260096
  H         7.2461631524        4.2790389939        8.0401877062
  H         8.4493505137        5.0602431635        9.1124956969
  N         5.8234570655        4.5123284277       10.8382706157
     168
 i =       82, E =     -8144.3772406072
 Fe         5.0938794100       11.8196869300        0.3885799900
 Fe         7.6575796300        7.3792284900        0.3885799900
 Fe        10.2212798400        2.9387700600        0.3885799900
 Fe        -0.0335205200       11.8196869300        0.3885799900
 Fe         2.5301797000        7.3792284900        0.3885799900
 Fe         5.0938799200        2.9387700600        0.3885799900
 Fe        -5.1609204400       11.8196869300        0.3885799900
 Fe        -2.5972202200        7.3792284900        0.3885799900
 Fe        -0.0335200000        2.9387700600        0.3885799900
  O         8.4519195100        8.9577468800        1.1642700400
  O        11.0156197300        4.5172884400        1.1642700400
  O        13.5793199500        0.0768300000        1.1642700400
  O         3.3245195900        8.9577468800        1.1642700400
  O         5.8882198100        4.5172884400        1.1642700400
  O         8.4519200300        0.0768300000        1.1642700400
  O        -1.8028803300        8.9577468800        1.1642700400
  O         0.7608198900        4.5172884400        1.1642700400
  O         3.3245201100        0.0768300000        1.1642700400
  O         8.4568493000       11.7183869300        1.1650400200
  O        11.0205495200        7.2779284900        1.1650400200
  O        13.5842497300        2.8374700500        1.1650400200
  O         3.3294493700       11.7183869300        1.1650400200
  O         5.8931495900        7.2779284900        1.1650400200
  O         8.4568498100        2.8374700500        1.1650400200
  O        -1.7979505500       11.7183869300        1.1650400200
  O         0.7657496700        7.2779284900        1.1650400200
  O         3.3294498900        2.8374700500        1.1650400200
  O         6.0627194200       10.3425368500        1.1660399400
  O         8.6264196400        5.9020784100        1.1660399400
  O        11.1901198600        1.4616199700        1.1660399400
  O         0.9353195000       10.3425368500        1.1660399400
  O         3.4990197200        5.9020784100        1.1660399400
  O         6.0627199400        1.4616199700        1.1660399400
  O        -4.1920804200       10.3425368500        1.1660399400
  O        -1.6283802000        5.9020784100        1.1660399400
  O         0.9353200200        1.4616199700        1.1660399400
 Fe         7.6576695000       13.2997167500        1.9292099500
 Fe        10.2213697200        8.8592583200        1.9292099500
 Fe        12.7850699400        4.4187998800        1.9292099500
 Fe         2.5302695800       13.2997167500        1.9292099500
 Fe         5.0939698000        8.8592583200        1.9292099500
 Fe         7.6576700200        4.4187998800        1.9292099500
 Fe        -2.5971303400       13.2997167500        1.9292099500
 Fe        -0.0334301200        8.8592583200        1.9292099500
 Fe         2.5302701000        4.4187998800        1.9292099500
 Fe         7.6573893600       10.3392168700        2.7128999200
 Fe        10.2210895800        5.8987584300        2.7128999200
 Fe        12.7847898000        1.4582999900        2.7128999200
 Fe         2.5299894400       10.3392168700        2.7128999200
 Fe         5.0936896600        5.8987584300        2.7128999200
 Fe         7.6573898800        1.4582999900        2.7128999200
 Fe        -2.5974104800       10.3392168700        2.7128999200
 Fe        -0.0337102600        5.8987584300        2.7128999200
 Fe         2.5299899600        1.4582999900        2.7128999200
  O         4.0931100629       13.3155390153        3.5121771840
  O         6.6592482751        8.8765905144        3.5127483583
  O         9.2181475801        4.4332061488        3.5142366670
  O        -1.0362862069       13.3161235731        3.5108026549
  O         1.5296075677        8.8750454922        3.5123995272
  O         4.1010608767        4.4342289200        3.5163345267
  O        -6.1614399865       13.3160435855        3.5124789347
  O        -3.5980432988        8.8758578813        3.5126090222
  O        -1.0352320119        4.4331522107        3.5117684601
  O         6.8127787532       11.8732349212        3.4948418059
  O         9.3763091758        7.4338068826        3.4925060932
  O        11.9363067579        2.9884543881        3.4976673714
  O         1.6858340131       11.8724430676        3.4889305896
  O         4.2521956262        7.4326818955        3.4932061232
  O         6.8119665604        2.9930211411        3.5042887930
  O        -3.4418878023       11.8745904278        3.4934168753
  O        -0.8796379134        7.4310494145        3.4933801868
  O         1.6858285524        2.9899732247        3.4954901506
  O         9.4278549883       10.2245492252        3.4890745435
  O        11.9913877009        5.7818488775        3.4853939810
  O        14.5557364375        1.3423987316        3.4866031303
  O         4.3025735250       10.2240631368        3.4864342132
  O         6.8674423122        5.7772803633        3.4867989826
  O         9.4252085250        1.3484776408        3.4903976376
  O        -0.8264557908       10.2233723386        3.4857215084
  O         1.7376248644        5.7791962511        3.4789450877
  O         4.3038158227        1.3459336014        3.4913146474
 Fe         5.0379602048       11.8340516590        4.4206778214
 Fe         7.6028978357        7.4007075252        4.4138267112
 Fe        10.1594718061        2.9543385863        4.4236046925
 Fe        -0.0917852079       11.8300215448        4.4168320765
 Fe         2.4712490487        7.3930081649        4.4183420161
 Fe         5.0394123082        2.9599362533        4.4249623007
 Fe        -5.2167164002       11.8382718964        4.4198540654
 Fe        -2.6537902803        7.3958165907        4.4193109320
 Fe        -0.0916666899        2.9541533066        4.4204344559
 Fe         7.6082156496       13.1860780456        4.8081070369
 Fe        10.1732910415        8.7473364738        4.8071685349
 Fe        12.7371227735        4.3044408790        4.8040723084
 Fe         2.4865226252       13.1816437271        4.8020416470
 Fe         5.0464189423        8.7432510291        4.8083865448
 Fe         7.6049754271        4.3116058515        4.8092835077
 Fe        -2.6417962707       13.1872853545        4.8086831671
 Fe        -0.0811706727        8.7432592281        4.8075752955
 Fe         2.4794023231        4.3023702599        4.8049809166
  O         5.8549779049       10.3452051428        5.8702479475
  O         8.4362171582        5.9163909464        5.8770317259
  O        10.9736401430        1.4592825544        5.8762908714
  O         0.7291315403       10.3409289429        5.8759987619
  O         3.2786437839        5.9114442671        5.8299873285
  O         5.8767827575        1.4594850826        5.9038120523
  O        -4.3965716303       10.3456763406        5.8760255938
  O        -1.8371095931        5.9075446409        5.8636665615
  O         0.7297591333        1.4662219622        5.8701075769
  O         5.9250268000       13.1758098733        5.6889196598
  O         8.4916283571        8.7337392746        5.6924932665
  O        11.0521988406        4.2937538773        5.6841620836
  O         0.7944181731       13.1622800700        5.6630525307
  O         3.3629071323        8.7331996687        5.6809618396
  O         5.9421346303        4.3079221543        5.7311279349
  O        -4.3250772475       13.1744878084        5.6865837632
  O        -1.7667365392        8.7334104448        5.6828160248
  O         0.7987262250        4.2922804873        5.6873648390
  O         3.4660852644       11.7711635056        5.6630375031
  O         6.0462873794        7.3271040344        5.6592263023
  O         8.5845932535        2.9018006336        5.6837035390
  O        -1.6594647540       11.7717172785        5.6631429962
  O         0.9008703385        7.3304003260        5.6627282683
  O         3.4772778953        2.8932259279        5.6649882951
  O        -6.7855465656       11.7736803826        5.6661776760
  O        -4.2254345449        7.3331500026        5.6636083589
  O        -1.6621074710        2.8921883080        5.6658187143
 Fe         7.7816695492       10.2751820472        6.4340161431
 Fe        10.3569011687        5.8300996273        6.4345152108
 Fe        12.9055591833        1.3928105113        6.4338213162
 Fe         2.6579042475       10.2683818101        6.4343824774
 Fe         5.1932835724        5.8499108155        6.4380959161
 Fe         7.8076175862        1.3745442417        6.4306756951
 Fe        -2.4691271259       10.2713436077        6.4341707709
 Fe         0.0909419804        5.8302886066        6.4337862500
 Fe         2.6575772104        1.3919913446        6.4320966258
  O         7.8195723750       10.4175200907        8.2598319219
  H         7.8181155069        9.6103393341        8.8047635629
  H         5.3505159002       10.6077027661        6.6734414549
  O        10.5059781303        5.8875238218        8.2700401290
  H        10.8891082553        5.1106366161        8.7160665611
  H         7.9060622647        6.2562132476        6.6311307981
  O        12.9338581589        1.5421565097        8.2602715111
  H        12.9689691496        0.7322588923        8.8005501756
  H        10.4693738397        1.6887729643        6.6907935562
  O         2.7531900674       10.3873958195        8.2594921966
  H         2.8491568808        9.5637331671        8.7719378041
  H         0.2165886945       10.6002008740        6.6748158324
  O         4.9388289476        6.2152841787        8.1996301676
  H         4.9272717834        5.6066948034        8.9627821532
  H         2.8156293636        6.1808625317        6.6562667145
  O         8.1473238696        1.3270333759        8.2422057431
  H         8.2377485100        0.4465561999        8.6514259428
  H         5.3441028275        1.7337531918        6.6838369501
  O        -2.3585814433       10.3817841428        8.2595150604
  H        -2.2889314052        9.5576450155        8.7745666401
  H        -4.9076774726       10.6166608193        6.6714866629
  O         0.0749216705        5.9641499776        8.2575427457
  H         0.1892655117        5.1646675409        8.8019536587
  H        -2.3348869414        6.1781573139        6.6680546848
  O         2.7184809469        1.5268455736        8.2527506075
  H         2.7819555587        0.7247645140        8.8015977596
  H         0.2253564393        1.7345307582        6.6709044611
  C         7.7040636215        4.2465267897        9.0385007219
  C         6.6753220842        4.3924447684       10.0454099563
  H         8.1904492455        3.2624182722        9.1241855589
  H         7.2419314511        4.2795854770        8.0390905208
  H         8.4539616015        5.0491364108        9.1102542193
  N         5.8243408993        4.5156062598       10.8379793547
     168
 i =       83, E =     -8144.3772429566
 Fe         5.0938794100       11.8196869300        0.3885799900
 Fe         7.6575796300        7.3792284900        0.3885799900
 Fe        10.2212798400        2.9387700600        0.3885799900
 Fe        -0.0335205200       11.8196869300        0.3885799900
 Fe         2.5301797000        7.3792284900        0.3885799900
 Fe         5.0938799200        2.9387700600        0.3885799900
 Fe        -5.1609204400       11.8196869300        0.3885799900
 Fe        -2.5972202200        7.3792284900        0.3885799900
 Fe        -0.0335200000        2.9387700600        0.3885799900
  O         8.4519195100        8.9577468800        1.1642700400
  O        11.0156197300        4.5172884400        1.1642700400
  O        13.5793199500        0.0768300000        1.1642700400
  O         3.3245195900        8.9577468800        1.1642700400
  O         5.8882198100        4.5172884400        1.1642700400
  O         8.4519200300        0.0768300000        1.1642700400
  O        -1.8028803300        8.9577468800        1.1642700400
  O         0.7608198900        4.5172884400        1.1642700400
  O         3.3245201100        0.0768300000        1.1642700400
  O         8.4568493000       11.7183869300        1.1650400200
  O        11.0205495200        7.2779284900        1.1650400200
  O        13.5842497300        2.8374700500        1.1650400200
  O         3.3294493700       11.7183869300        1.1650400200
  O         5.8931495900        7.2779284900        1.1650400200
  O         8.4568498100        2.8374700500        1.1650400200
  O        -1.7979505500       11.7183869300        1.1650400200
  O         0.7657496700        7.2779284900        1.1650400200
  O         3.3294498900        2.8374700500        1.1650400200
  O         6.0627194200       10.3425368500        1.1660399400
  O         8.6264196400        5.9020784100        1.1660399400
  O        11.1901198600        1.4616199700        1.1660399400
  O         0.9353195000       10.3425368500        1.1660399400
  O         3.4990197200        5.9020784100        1.1660399400
  O         6.0627199400        1.4616199700        1.1660399400
  O        -4.1920804200       10.3425368500        1.1660399400
  O        -1.6283802000        5.9020784100        1.1660399400
  O         0.9353200200        1.4616199700        1.1660399400
 Fe         7.6576695000       13.2997167500        1.9292099500
 Fe        10.2213697200        8.8592583200        1.9292099500
 Fe        12.7850699400        4.4187998800        1.9292099500
 Fe         2.5302695800       13.2997167500        1.9292099500
 Fe         5.0939698000        8.8592583200        1.9292099500
 Fe         7.6576700200        4.4187998800        1.9292099500
 Fe        -2.5971303400       13.2997167500        1.9292099500
 Fe        -0.0334301200        8.8592583200        1.9292099500
 Fe         2.5302701000        4.4187998800        1.9292099500
 Fe         7.6573893600       10.3392168700        2.7128999200
 Fe        10.2210895800        5.8987584300        2.7128999200
 Fe        12.7847898000        1.4582999900        2.7128999200
 Fe         2.5299894400       10.3392168700        2.7128999200
 Fe         5.0936896600        5.8987584300        2.7128999200
 Fe         7.6573898800        1.4582999900        2.7128999200
 Fe        -2.5974104800       10.3392168700        2.7128999200
 Fe        -0.0337102600        5.8987584300        2.7128999200
 Fe         2.5299899600        1.4582999900        2.7128999200
  O         4.0932692634       13.3155325049        3.5122615994
  O         6.6593090258        8.8766334345        3.5127815685
  O         9.2181445533        4.4332638757        3.5142274233
  O        -1.0361992262       13.3161546823        3.5107687806
  O         1.5296050160        8.8751030911        3.5124046823
  O         4.1011061142        4.4342635755        3.5162940477
  O        -6.1613542147       13.3161137106        3.5124909841
  O        -3.5980395820        8.8758939658        3.5125967217
  O        -1.0351927310        4.4331646921        3.5117920576
  O         6.8128579245       11.8732807986        3.4948928431
  O         9.3765335310        7.4338947582        3.4926007565
  O        11.9364211819        2.9885103322        3.4977239936
  O         1.6858514945       11.8725755915        3.4887914995
  O         4.2521712752        7.4326167737        3.4931388391
  O         6.8121156908        2.9930640273        3.5043040553
  O        -3.4417521045       11.8747560961        3.4933504649
  O        -0.8795578341        7.4311381014        3.4933388023
  O         1.6859330117        2.9901162253        3.4953657339
  O         9.4278749471       10.2246242381        3.4890798107
  O        11.9914227029        5.7819491470        3.4853315825
  O        14.5558383974        1.3424235490        3.4865300909
  O         4.3025949283       10.2240856962        3.4864262150
  O         6.8675191119        5.7773558562        3.4867784558
  O         9.4252669043        1.3485399333        3.4904251752
  O        -0.8263948482       10.2234520418        3.4857128486
  O         1.7375871662        5.7793733120        3.4790293403
  O         4.3038884067        1.3460571606        3.4912777923
 Fe         5.0380535726       11.8339519289        4.4207459296
 Fe         7.6031323946        7.4008766104        4.4138438659
 Fe        10.1595314739        2.9543631725        4.4236918064
 Fe        -0.0916597802       11.8300960933        4.4167858889
 Fe         2.4712012189        7.3931874713        4.4182995007
 Fe         5.0394346854        2.9599916779        4.4249143419
 Fe        -5.2166463432       11.8383238700        4.4197543228
 Fe        -2.6537512397        7.3959469383        4.4193266110
 Fe        -0.0915038102        2.9541834429        4.4203225754
 Fe         7.6083046529       13.1862042632        4.8081838013
 Fe        10.1733992791        8.7474777679        4.8072750992
 Fe        12.7372347420        4.3045087340        4.8040619172
 Fe         2.4866579926       13.1817010248        4.8019463074
 Fe         5.0464840728        8.7431971520        4.8084336217
 Fe         7.6051418079        4.3117656058        4.8092813339
 Fe        -2.6416735990       13.1874008892        4.8087290499
 Fe        -0.0811892616        8.7433705419        4.8077229341
 Fe         2.4794558042        4.3025195848        4.8049248476
  O         5.8551339646       10.3451550722        5.8702444732
  O         8.4366049145        5.9165424309        5.8770834506
  O        10.9736803857        1.4592336612        5.8764699167
  O         0.7293507370       10.3412484768        5.8758785795
  O         3.2789212238        5.9117190031        5.8296989748
  O         5.8768940040        1.4597268895        5.9037799808
  O        -4.3963851945       10.3461194202        5.8759305785
  O        -1.8371170214        5.9077334147        5.8638280904
  O         0.7300050747        1.4667653882        5.8698835440
  O         5.9252016225       13.1759490480        5.6890319450
  O         8.4917284589        8.7338725279        5.6925084300
  O        11.0523420503        4.2938168804        5.6840188451
  O         0.7946845457       13.1623351905        5.6631678380
  O         3.3629837787        8.7332695613        5.6809680052
  O         5.9423388728        4.3079624350        5.7311032354
  O        -4.3249077309       13.1745548489        5.6866870503
  O        -1.7667690455        8.7335815035        5.6826787637
  O         0.7988351377        4.2923492898        5.6872687592
  O         3.4661291611       11.7712343984        5.6629488328
  O         6.0464788697        7.3270979809        5.6591902458
  O         8.5847609687        2.9018550945        5.6837783243
  O        -1.6592987243       11.7719432162        5.6632276922
  O         0.9008004468        7.3305364939        5.6628333174
  O         3.4774942422        2.8934449539        5.6648916664
  O        -6.7854178646       11.7739397694        5.6664461200
  O        -4.2252593078        7.3334708154        5.6637789045
  O        -1.6619585346        2.8923098193        5.6658421677
 Fe         7.7817684066       10.2752929144        6.4340201922
 Fe        10.3572702281        5.8301907857        6.4345736055
 Fe        12.9055895935        1.3929422602        6.4338618793
 Fe         2.6580704132       10.2684907666        6.4343728125
 Fe         5.1934936895        5.8498545312        6.4380674603
 Fe         7.8077522704        1.3745966959        6.4306145801
 Fe        -2.4689808230       10.2715233847        6.4342340603
 Fe         0.0909770186        5.8302555184        6.4338074074
 Fe         2.6577959914        1.3921670249        6.4320701434
  O         7.8196619887       10.4174762141        8.2598262665
  H         7.8189143159        9.6103079489        8.8047678891
  H         5.3506777094       10.6074283945        6.6734992996
  O        10.5067802738        5.8872010194        8.2700929779
  H        10.8897497934        5.1099909482        8.7159737474
  H         7.9065068379        6.2562433251        6.6312644297
  O        12.9338349973        1.5420674838        8.2602618299
  H        12.9706085184        0.7321542893        8.8004049036
  H        10.4694081748        1.6878893923        6.6911943745
  O         2.7539797448       10.3876775519        8.2594642944
  H         2.8488548399        9.5638862570        8.7719293944
  H         0.2169053640       10.6017209717        6.6743696896
  O         4.9389677462        6.2150654612        8.1995769031
  H         4.9278268010        5.6065755025        8.9628261160
  H         2.8159855568        6.1810797921        6.6560377318
  O         8.1467129976        1.3261950258        8.2424284161
  H         8.2398862863        0.4454104200        8.6503810281
  H         5.3445041824        1.7339467550        6.6840321330
  O        -2.3584672390       10.3821361515        8.2595863965
  H        -2.2901336721        9.5580818547        8.7749606010
  H        -4.9074638802       10.6184374980        6.6709870507
  O         0.0755513961        5.9638493395        8.2575880546
  H         0.1891814854        5.1641755595        8.8018886905
  H        -2.3348978283        6.1785366564        6.6681597324
  O         2.7188236157        1.5269379266        8.2526600285
  H         2.7816477742        0.7248108522        8.8015133361
  H         0.2256971828        1.7359813023        6.6704476886
  C         7.7029347650        4.2446282489        9.0384600488
  C         6.6745491875        4.3923512199       10.0454451700
  H         8.1865133068        3.2589412354        9.1236954951
  H         7.2404324825        4.2790230551        8.0392092648
  H         8.4551281493        5.0452669681        9.1101949375
  N         5.8234259120        4.5164583433       10.8377416120
     168
 i =       84, E =     -8144.3772450578
 Fe         5.0938794100       11.8196869300        0.3885799900
 Fe         7.6575796300        7.3792284900        0.3885799900
 Fe        10.2212798400        2.9387700600        0.3885799900
 Fe        -0.0335205200       11.8196869300        0.3885799900
 Fe         2.5301797000        7.3792284900        0.3885799900
 Fe         5.0938799200        2.9387700600        0.3885799900
 Fe        -5.1609204400       11.8196869300        0.3885799900
 Fe        -2.5972202200        7.3792284900        0.3885799900
 Fe        -0.0335200000        2.9387700600        0.3885799900
  O         8.4519195100        8.9577468800        1.1642700400
  O        11.0156197300        4.5172884400        1.1642700400
  O        13.5793199500        0.0768300000        1.1642700400
  O         3.3245195900        8.9577468800        1.1642700400
  O         5.8882198100        4.5172884400        1.1642700400
  O         8.4519200300        0.0768300000        1.1642700400
  O        -1.8028803300        8.9577468800        1.1642700400
  O         0.7608198900        4.5172884400        1.1642700400
  O         3.3245201100        0.0768300000        1.1642700400
  O         8.4568493000       11.7183869300        1.1650400200
  O        11.0205495200        7.2779284900        1.1650400200
  O        13.5842497300        2.8374700500        1.1650400200
  O         3.3294493700       11.7183869300        1.1650400200
  O         5.8931495900        7.2779284900        1.1650400200
  O         8.4568498100        2.8374700500        1.1650400200
  O        -1.7979505500       11.7183869300        1.1650400200
  O         0.7657496700        7.2779284900        1.1650400200
  O         3.3294498900        2.8374700500        1.1650400200
  O         6.0627194200       10.3425368500        1.1660399400
  O         8.6264196400        5.9020784100        1.1660399400
  O        11.1901198600        1.4616199700        1.1660399400
  O         0.9353195000       10.3425368500        1.1660399400
  O         3.4990197200        5.9020784100        1.1660399400
  O         6.0627199400        1.4616199700        1.1660399400
  O        -4.1920804200       10.3425368500        1.1660399400
  O        -1.6283802000        5.9020784100        1.1660399400
  O         0.9353200200        1.4616199700        1.1660399400
 Fe         7.6576695000       13.2997167500        1.9292099500
 Fe        10.2213697200        8.8592583200        1.9292099500
 Fe        12.7850699400        4.4187998800        1.9292099500
 Fe         2.5302695800       13.2997167500        1.9292099500
 Fe         5.0939698000        8.8592583200        1.9292099500
 Fe         7.6576700200        4.4187998800        1.9292099500
 Fe        -2.5971303400       13.2997167500        1.9292099500
 Fe        -0.0334301200        8.8592583200        1.9292099500
 Fe         2.5302701000        4.4187998800        1.9292099500
 Fe         7.6573893600       10.3392168700        2.7128999200
 Fe        10.2210895800        5.8987584300        2.7128999200
 Fe        12.7847898000        1.4582999900        2.7128999200
 Fe         2.5299894400       10.3392168700        2.7128999200
 Fe         5.0936896600        5.8987584300        2.7128999200
 Fe         7.6573898800        1.4582999900        2.7128999200
 Fe        -2.5974104800       10.3392168700        2.7128999200
 Fe        -0.0337102600        5.8987584300        2.7128999200
 Fe         2.5299899600        1.4582999900        2.7128999200
  O         4.0934334417       13.3155284388        3.5123564656
  O         6.6593991051        8.8766548012        3.5127859992
  O         9.2181774242        4.4333457384        3.5141238304
  O        -1.0360909933       13.3162862345        3.5108093201
  O         1.5296702362        8.8751813110        3.5124474347
  O         4.1011016120        4.4343575215        3.5162915290
  O        -6.1612845038       13.3161818034        3.5124730495
  O        -3.5980124632        8.8759441759        3.5126006195
  O        -1.0351267605        4.4331702563        3.5118526637
  O         6.8130763243       11.8732008617        3.4951544043
  O         9.3767790383        7.4340899492        3.4925972302
  O        11.9366181626        2.9886480086        3.4976773254
  O         1.6857619351       11.8727272681        3.4887551126
  O         4.2521712352        7.4326925459        3.4930026392
  O         6.8120322458        2.9930338440        3.5042069678
  O        -3.4416483270       11.8749971000        3.4932453612
  O        -0.8795753733        7.4311312723        3.4931661877
  O         1.6859962074        2.9903015925        3.4951483621
  O         9.4279768975       10.2247891368        3.4890434145
  O        11.9914549850        5.7820471351        3.4854073158
  O        14.5559819279        1.3424877122        3.4863409505
  O         4.3025913296       10.2241253441        3.4863195884
  O         6.8675133167        5.7774062446        3.4867376670
  O         9.4254712947        1.3485990085        3.4903500537
  O        -0.8264044042       10.2235530334        3.4857770252
  O         1.7375845926        5.7795753479        3.4792060333
  O         4.3039357803        1.3462159678        3.4912797776
 Fe         5.0381344868       11.8338235538        4.4206839367
 Fe         7.6034593529        7.4010807292        4.4138608269
 Fe        10.1597012458        2.9543806504        4.4237519285
 Fe        -0.0915855944       11.8302866986        4.4166817995
 Fe         2.4712211913        7.3933743324        4.4182263447
 Fe         5.0392792077        2.9601313551        4.4249066749
 Fe        -5.2165174280       11.8384480726        4.4196620996
 Fe        -2.6536979274        7.3960462911        4.4193046928
 Fe        -0.0913430114        2.9541636786        4.4201496873
 Fe         7.6083420736       13.1862930160        4.8083238961
 Fe        10.1735930387        8.7476916850        4.8073654492
 Fe        12.7374751022        4.3045542010        4.8040974183
 Fe         2.4867668949       13.1817534287        4.8018701803
 Fe         5.0465672176        8.7431186930        4.8084752741
 Fe         7.6052020262        4.3118844365        4.8092201631
 Fe        -2.6416336105       13.1875289318        4.8087309717
 Fe        -0.0812480828        8.7434995011        4.8077019612
 Fe         2.4793979261        4.3027297872        4.8048394934
  O         5.8552972885       10.3450801105        5.8702275862
  O         8.4369920225        5.9166543949        5.8769744008
  O        10.9739093646        1.4592117928        5.8764862958
  O         0.7296078686       10.3418660593        5.8756528833
  O         3.2793408788        5.9120472526        5.8293833499
  O         5.8769998620        1.4600164594        5.9036055010
  O        -4.3961739950       10.3467751995        5.8757227843
  O        -1.8370958635        5.9078921446        5.8640764461
  O         0.7304025211        1.4673002885        5.8695339599
  O         5.9253952046       13.1759414429        5.6892896761
  O         8.4919514326        8.7340279668        5.6924655366
  O        11.0526623578        4.2938884204        5.6839969992
  O         0.7950015179       13.1626113832        5.6634211533
  O         3.3630600395        8.7334436357        5.6808120792
  O         5.9424657363        4.3080469400        5.7309308690
  O        -4.3247401021       13.1746633892        5.6867902733
  O        -1.7667662615        8.7337006947        5.6823958710
  O         0.7987265313        4.2923494616        5.6871109912
  O         3.4662548976       11.7713065622        5.6628454019
  O         6.0467858715        7.3272064537        5.6592797848
  O         8.5849532177        2.9019867147        5.6836579355
  O        -1.6591359281       11.7722238030        5.6632820525
  O         0.9006160001        7.3307036740        5.6628275154
  O         3.4774199942        2.8935468005        5.6645804491
  O        -6.7851850532       11.7743259738        5.6667554869
  O        -4.2251970354        7.3338210825        5.6639964034
  O        -1.6617453855        2.8924270799        5.6659277024
 Fe         7.7819303231       10.2754003125        6.4340368810
 Fe        10.3576426449        5.8302731370        6.4346624161
 Fe        12.9056726362        1.3930266640        6.4338638536
 Fe         2.6582874614       10.2686702525        6.4343837741
 Fe         5.1937416757        5.8498221851        6.4380459363
 Fe         7.8078819697        1.3748342357        6.4304979631
 Fe        -2.4687666098       10.2716642532        6.4342404678
 Fe         0.0909876534        5.8302259322        6.4338254018
 Fe         2.6580344821        1.3922624302        6.4320323885
  O         7.8197461318       10.4177276386        8.2598534539
  H         7.8197485501        9.6106649289        8.8049369675
  H         5.3508942451       10.6070195311        6.6736239912
  O        10.5075695698        5.8860539838        8.2701987269
  H        10.8902609879        5.1081030922        8.7155700486
  H         7.9069863632        6.2562013494        6.6312777972
  O        12.9332798552        1.5421336340        8.2602465662
  H        12.9726430163        0.7322419057        8.8002658576
  H        10.4696431958        1.6869761500        6.6914398277
  O         2.7549712781       10.3879666098        8.2595595147
  H         2.8484417401        9.5639625498        8.7719887266
  H         0.2173961659       10.6032630775        6.6739909905
  O         4.9390952352        6.2144716013        8.1995129784
  H         4.9287981240        5.6061506228        8.9629115255
  H         2.8164624642        6.1813093235        6.6557637676
  O         8.1454358219        1.3257874221        8.2425633881
  H         8.2422436567        0.4448515216        8.6493085550
  H         5.3450520361        1.7339758265        6.6842612251
  O        -2.3582602020       10.3826730466        8.2596153125
  H        -2.2911148731        9.5589030522        8.7755870887
  H        -4.9071195271       10.6207430395        6.6703429749
  O         0.0763356991        5.9635477299        8.2576344830
  H         0.1887198686        5.1636067195        8.8018617212
  H        -2.3349270539        6.1787103541        6.6683862497
  O         2.7191897155        1.5273239289        8.2525454763
  H         2.7814600289        0.7252323363        8.8014985137
  H         0.2262185686        1.7376845357        6.6697901466
  C         7.7018817807        4.2427786701        9.0385713546
  C         6.6735226895        4.3920401122       10.0453316721
  H         8.1829231234        3.2554377916        9.1238816955
  H         7.2391703256        4.2775103034        8.0393399167
  H         8.4560063802        5.0417651243        9.1100589121
  N         5.8221446003        4.5165617883       10.8374073412
     168
 i =       85, E =     -8144.3772462506
 Fe         5.0938794100       11.8196869300        0.3885799900
 Fe         7.6575796300        7.3792284900        0.3885799900
 Fe        10.2212798400        2.9387700600        0.3885799900
 Fe        -0.0335205200       11.8196869300        0.3885799900
 Fe         2.5301797000        7.3792284900        0.3885799900
 Fe         5.0938799200        2.9387700600        0.3885799900
 Fe        -5.1609204400       11.8196869300        0.3885799900
 Fe        -2.5972202200        7.3792284900        0.3885799900
 Fe        -0.0335200000        2.9387700600        0.3885799900
  O         8.4519195100        8.9577468800        1.1642700400
  O        11.0156197300        4.5172884400        1.1642700400
  O        13.5793199500        0.0768300000        1.1642700400
  O         3.3245195900        8.9577468800        1.1642700400
  O         5.8882198100        4.5172884400        1.1642700400
  O         8.4519200300        0.0768300000        1.1642700400
  O        -1.8028803300        8.9577468800        1.1642700400
  O         0.7608198900        4.5172884400        1.1642700400
  O         3.3245201100        0.0768300000        1.1642700400
  O         8.4568493000       11.7183869300        1.1650400200
  O        11.0205495200        7.2779284900        1.1650400200
  O        13.5842497300        2.8374700500        1.1650400200
  O         3.3294493700       11.7183869300        1.1650400200
  O         5.8931495900        7.2779284900        1.1650400200
  O         8.4568498100        2.8374700500        1.1650400200
  O        -1.7979505500       11.7183869300        1.1650400200
  O         0.7657496700        7.2779284900        1.1650400200
  O         3.3294498900        2.8374700500        1.1650400200
  O         6.0627194200       10.3425368500        1.1660399400
  O         8.6264196400        5.9020784100        1.1660399400
  O        11.1901198600        1.4616199700        1.1660399400
  O         0.9353195000       10.3425368500        1.1660399400
  O         3.4990197200        5.9020784100        1.1660399400
  O         6.0627199400        1.4616199700        1.1660399400
  O        -4.1920804200       10.3425368500        1.1660399400
  O        -1.6283802000        5.9020784100        1.1660399400
  O         0.9353200200        1.4616199700        1.1660399400
 Fe         7.6576695000       13.2997167500        1.9292099500
 Fe        10.2213697200        8.8592583200        1.9292099500
 Fe        12.7850699400        4.4187998800        1.9292099500
 Fe         2.5302695800       13.2997167500        1.9292099500
 Fe         5.0939698000        8.8592583200        1.9292099500
 Fe         7.6576700200        4.4187998800        1.9292099500
 Fe        -2.5971303400       13.2997167500        1.9292099500
 Fe        -0.0334301200        8.8592583200        1.9292099500
 Fe         2.5302701000        4.4187998800        1.9292099500
 Fe         7.6573893600       10.3392168700        2.7128999200
 Fe        10.2210895800        5.8987584300        2.7128999200
 Fe        12.7847898000        1.4582999900        2.7128999200
 Fe         2.5299894400       10.3392168700        2.7128999200
 Fe         5.0936896600        5.8987584300        2.7128999200
 Fe         7.6573898800        1.4582999900        2.7128999200
 Fe        -2.5974104800       10.3392168700        2.7128999200
 Fe        -0.0337102600        5.8987584300        2.7128999200
 Fe         2.5299899600        1.4582999900        2.7128999200
  O         4.0935664590       13.3154702379        3.5123920467
  O         6.6594207494        8.8766528249        3.5127526337
  O         9.2182312962        4.4334037520        3.5140373391
  O        -1.0359976470       13.3162786962        3.5108070607
  O         1.5296917534        8.8752035653        3.5124508542
  O         4.1010536088        4.4344529927        3.5163440566
  O        -6.1612768878       13.3162121529        3.5123997671
  O        -3.5979579398        8.8759441469        3.5126519717
  O        -1.0351328024        4.4331831942        3.5118769848
  O         6.8131751273       11.8731062671        3.4953460701
  O         9.3768530557        7.4342272827        3.4925000198
  O        11.9367624267        2.9887331071        3.4976082455
  O         1.6856230444       11.8727561961        3.4888412023
  O         4.2522298472        7.4328453837        3.4929704919
  O         6.8118297672        2.9929506622        3.5041094050
  O        -3.4416467407       11.8751222025        3.4932070465
  O        -0.8796523042        7.4310528077        3.4930824077
  O         1.6859678632        2.9903623228        3.4950204484
  O         9.4280536442       10.2248826139        3.4889928629
  O        11.9914790840        5.7820729905        3.4855345243
  O        14.5559922220        1.3424897695        3.4863035233
  O         4.3026019082       10.2242274108        3.4861876469
  O         6.8674463121        5.7774121159        3.4867199088
  O         9.4256098385        1.3485891595        3.4902633992
  O        -0.8264498464       10.2235939213        3.4858533846
  O         1.7376057861        5.7796507700        3.4793488275
  O         4.3039000040        1.3462269069        3.4913017938
 Fe         5.0381744347       11.8337497567        4.4207460723
 Fe         7.6036174235        7.4011741447        4.4138635896
 Fe        10.1598179119        2.9543619565        4.4236872559
 Fe        -0.0915904294       11.8303950996        4.4167354712
 Fe         2.4713048151        7.3934354020        4.4182017456
 Fe         5.0390811207        2.9602242155        4.4248790520
 Fe        -5.2164695519       11.8385382991        4.4196246430
 Fe        -2.6536670052        7.3959918059        4.4193427118
 Fe        -0.0913104124        2.9541418373        4.4200436220
 Fe         7.6084135118       13.1862057492        4.8083724974
 Fe        10.1736800796        8.7478060072        4.8073917927
 Fe        12.7376329991        4.3045569949        4.8041730210
 Fe         2.4867852474       13.1817512555        4.8018194017
 Fe         5.0466005459        8.7431003187        4.8084954633
 Fe         7.6051149000        4.3118479129        4.8091548792
 Fe        -2.6416663801       13.1875879559        4.8086889302
 Fe        -0.0812595981        8.7435417718        4.8075788423
 Fe         2.4792865866        4.3027891980        4.8048169245
  O         5.8553475077       10.3449876635        5.8702469092
  O         8.4370679999        5.9166296527        5.8768019862
  O        10.9741221234        1.4592170615        5.8762976923
  O         0.7297388819       10.3422174879        5.8755540503
  O         3.2795146239        5.9121427839        5.8293258753
  O         5.8770014635        1.4601483412        5.9034734913
  O        -4.3960925778       10.3471169028        5.8755494988
  O        -1.8370537742        5.9078793226        5.8642099087
  O         0.7305775871        1.4673701027        5.8693462366
  O         5.9255666014       13.1759880873        5.6893695931
  O         8.4920876503        8.7340591898        5.6924669400
  O        11.0528591888        4.2938016496        5.6840971017
  O         0.7951729280       13.1629104721        5.6635852169
  O         3.3630684657        8.7335529696        5.6806716091
  O         5.9423895533        4.3080803059        5.7307349310
  O        -4.3246958817       13.1746957287        5.6868111627
  O        -1.7667295075        8.7337038069        5.6822455299
  O         0.7984906963        4.2923230625        5.6870096620
  O         3.4663100671       11.7713418400        5.6628298406
  O         6.0469557045        7.3273292586        5.6594077026
  O         8.5850123956        2.9020559345        5.6834479272
  O        -1.6591463468       11.7723124820        5.6632709415
  O         0.9005276085        7.3307404726        5.6627472684
  O         3.4771795393        2.8934617897        5.6643750526
  O        -6.7849905050       11.7744949760        5.6669044611
  O        -4.2253315726        7.3339034495        5.6641123031
  O        -1.6616714612        2.8923769737        5.6659388239
 Fe         7.7820062026       10.2754233328        6.4340482734
 Fe        10.3577321059        5.8302013819        6.4346682265
 Fe        12.9057133892        1.3929950884        6.4338949289
 Fe         2.6583919865       10.2687707039        6.4343947488
 Fe         5.1938209370        5.8498438654        6.4380538673
 Fe         7.8078807783        1.3750151373        6.4304284223
 Fe        -2.4686587402       10.2716562399        6.4342358754
 Fe         0.0909586515        5.8302493075        6.4338410638
 Fe         2.6580711093        1.3922044916        6.4320075902
  O         7.8198205259       10.4180580971        8.2598759791
  H         7.8200487777        9.6111089158        8.8051228199
  H         5.3509780776       10.6067917396        6.6736996244
  O        10.5077082362        5.8849962659        8.2702544656
  H        10.8904508823        5.1066407671        8.7151537675
  H         7.9070675682        6.2561276205        6.6311282308
  O        12.9327559148        1.5422653838        8.2602988337
  H        12.9736954881        0.7323859472        8.8002259180
  H        10.4699273835        1.6867975665        6.6913337378
  O         2.7554216680       10.3880757600        8.2596646157
  H         2.8483627269        9.5640262300        8.7721305346
  H         0.2176196113       10.6035221268        6.6739668744
  O         4.9390942428        6.2139774427        8.1995104357
  H         4.9295750889        5.6057890314        8.9630284014
  H         2.8166740533        6.1813677197        6.6557252820
  O         8.1449029094        1.3260000338        8.2424494434
  H         8.2435858187        0.4451550557        8.6488625480
  H         5.3452532566        1.7337570488        6.6843791219
  O        -2.3583083984       10.3829614852        8.2596042911
  H        -2.2912574802        9.5594413277        8.7759581329
  H        -4.9069149918       10.6216803439        6.6700632296
  O         0.0766455458        5.9634539260        8.2576589588
  H         0.1883186469        5.1633628230        8.8018397660
  H        -2.3349398814        6.1785058936        6.6685414993
  O         2.7192476398        1.5276993581        8.2525118584
  H         2.7815447065        0.7256873061        8.8015731013
  H         0.2264732059        1.7382226886        6.6694871722
  C         7.7018127248        4.2420819707        9.0383909686
  C         6.6733823365        4.3916582584       10.0450213455
  H         8.1822260660        3.2542662392        9.1239612808
  H         7.2391172201        4.2762471639        8.0390818624
  H         8.4561619746        5.0409100053        9.1096523559
  N         5.8219869909        4.5159405234       10.8371567680
     168
 i =       86, E =     -8144.3772462481
 Fe         5.0938794100       11.8196869300        0.3885799900
 Fe         7.6575796300        7.3792284900        0.3885799900
 Fe        10.2212798400        2.9387700600        0.3885799900
 Fe        -0.0335205200       11.8196869300        0.3885799900
 Fe         2.5301797000        7.3792284900        0.3885799900
 Fe         5.0938799200        2.9387700600        0.3885799900
 Fe        -5.1609204400       11.8196869300        0.3885799900
 Fe        -2.5972202200        7.3792284900        0.3885799900
 Fe        -0.0335200000        2.9387700600        0.3885799900
  O         8.4519195100        8.9577468800        1.1642700400
  O        11.0156197300        4.5172884400        1.1642700400
  O        13.5793199500        0.0768300000        1.1642700400
  O         3.3245195900        8.9577468800        1.1642700400
  O         5.8882198100        4.5172884400        1.1642700400
  O         8.4519200300        0.0768300000        1.1642700400
  O        -1.8028803300        8.9577468800        1.1642700400
  O         0.7608198900        4.5172884400        1.1642700400
  O         3.3245201100        0.0768300000        1.1642700400
  O         8.4568493000       11.7183869300        1.1650400200
  O        11.0205495200        7.2779284900        1.1650400200
  O        13.5842497300        2.8374700500        1.1650400200
  O         3.3294493700       11.7183869300        1.1650400200
  O         5.8931495900        7.2779284900        1.1650400200
  O         8.4568498100        2.8374700500        1.1650400200
  O        -1.7979505500       11.7183869300        1.1650400200
  O         0.7657496700        7.2779284900        1.1650400200
  O         3.3294498900        2.8374700500        1.1650400200
  O         6.0627194200       10.3425368500        1.1660399400
  O         8.6264196400        5.9020784100        1.1660399400
  O        11.1901198600        1.4616199700        1.1660399400
  O         0.9353195000       10.3425368500        1.1660399400
  O         3.4990197200        5.9020784100        1.1660399400
  O         6.0627199400        1.4616199700        1.1660399400
  O        -4.1920804200       10.3425368500        1.1660399400
  O        -1.6283802000        5.9020784100        1.1660399400
  O         0.9353200200        1.4616199700        1.1660399400
 Fe         7.6576695000       13.2997167500        1.9292099500
 Fe        10.2213697200        8.8592583200        1.9292099500
 Fe        12.7850699400        4.4187998800        1.9292099500
 Fe         2.5302695800       13.2997167500        1.9292099500
 Fe         5.0939698000        8.8592583200        1.9292099500
 Fe         7.6576700200        4.4187998800        1.9292099500
 Fe        -2.5971303400       13.2997167500        1.9292099500
 Fe        -0.0334301200        8.8592583200        1.9292099500
 Fe         2.5302701000        4.4187998800        1.9292099500
 Fe         7.6573893600       10.3392168700        2.7128999200
 Fe        10.2210895800        5.8987584300        2.7128999200
 Fe        12.7847898000        1.4582999900        2.7128999200
 Fe         2.5299894400       10.3392168700        2.7128999200
 Fe         5.0936896600        5.8987584300        2.7128999200
 Fe         7.6573898800        1.4582999900        2.7128999200
 Fe        -2.5974104800       10.3392168700        2.7128999200
 Fe        -0.0337102600        5.8987584300        2.7128999200
 Fe         2.5299899600        1.4582999900        2.7128999200
  O         4.0935664590       13.3154702379        3.5123920467
  O         6.6594207494        8.8766528249        3.5127526337
  O         9.2182312962        4.4334037520        3.5140373391
  O        -1.0359976470       13.3162786962        3.5108070607
  O         1.5296917534        8.8752035653        3.5124508542
  O         4.1010536088        4.4344529927        3.5163440566
  O        -6.1612768878       13.3162121529        3.5123997671
  O        -3.5979579398        8.8759441469        3.5126519717
  O        -1.0351328024        4.4331831942        3.5118769848
  O         6.8131751273       11.8731062671        3.4953460701
  O         9.3768530557        7.4342272827        3.4925000198
  O        11.9367624267        2.9887331071        3.4976082455
  O         1.6856230444       11.8727561961        3.4888412023
  O         4.2522298472        7.4328453837        3.4929704919
  O         6.8118297672        2.9929506622        3.5041094050
  O        -3.4416467407       11.8751222025        3.4932070465
  O        -0.8796523042        7.4310528077        3.4930824077
  O         1.6859678632        2.9903623228        3.4950204484
  O         9.4280536442       10.2248826139        3.4889928629
  O        11.9914790840        5.7820729905        3.4855345243
  O        14.5559922220        1.3424897695        3.4863035233
  O         4.3026019082       10.2242274108        3.4861876469
  O         6.8674463121        5.7774121159        3.4867199088
  O         9.4256098385        1.3485891595        3.4902633992
  O        -0.8264498464       10.2235939213        3.4858533846
  O         1.7376057861        5.7796507700        3.4793488275
  O         4.3039000040        1.3462269069        3.4913017938
 Fe         5.0381744347       11.8337497567        4.4207460723
 Fe         7.6036174235        7.4011741447        4.4138635896
 Fe        10.1598179119        2.9543619565        4.4236872559
 Fe        -0.0915904294       11.8303950996        4.4167354712
 Fe         2.4713048151        7.3934354020        4.4182017456
 Fe         5.0390811207        2.9602242155        4.4248790520
 Fe        -5.2164695519       11.8385382991        4.4196246430
 Fe        -2.6536670052        7.3959918059        4.4193427118
 Fe        -0.0913104124        2.9541418373        4.4200436220
 Fe         7.6084135118       13.1862057492        4.8083724974
 Fe        10.1736800796        8.7478060072        4.8073917927
 Fe        12.7376329991        4.3045569949        4.8041730210
 Fe         2.4867852474       13.1817512555        4.8018194017
 Fe         5.0466005459        8.7431003187        4.8084954633
 Fe         7.6051149000        4.3118479129        4.8091548792
 Fe        -2.6416663801       13.1875879559        4.8086889302
 Fe        -0.0812595981        8.7435417718        4.8075788423
 Fe         2.4792865866        4.3027891980        4.8048169245
  O         5.8553475077       10.3449876635        5.8702469092
  O         8.4370679999        5.9166296527        5.8768019862
  O        10.9741221234        1.4592170615        5.8762976923
  O         0.7297388819       10.3422174879        5.8755540503
  O         3.2795146239        5.9121427839        5.8293258753
  O         5.8770014635        1.4601483412        5.9034734913
  O        -4.3960925778       10.3471169028        5.8755494988
  O        -1.8370537742        5.9078793226        5.8642099087
  O         0.7305775871        1.4673701027        5.8693462366
  O         5.9255666014       13.1759880873        5.6893695931
  O         8.4920876503        8.7340591898        5.6924669400
  O        11.0528591888        4.2938016496        5.6840971017
  O         0.7951729280       13.1629104721        5.6635852169
  O         3.3630684657        8.7335529696        5.6806716091
  O         5.9423895533        4.3080803059        5.7307349310
  O        -4.3246958817       13.1746957287        5.6868111627
  O        -1.7667295075        8.7337038069        5.6822455299
  O         0.7984906963        4.2923230625        5.6870096620
  O         3.4663100671       11.7713418400        5.6628298406
  O         6.0469557045        7.3273292586        5.6594077026
  O         8.5850123956        2.9020559345        5.6834479272
  O        -1.6591463468       11.7723124820        5.6632709415
  O         0.9005276085        7.3307404726        5.6627472684
  O         3.4771795393        2.8934617897        5.6643750526
  O        -6.7849905050       11.7744949760        5.6669044611
  O        -4.2253315726        7.3339034495        5.6641123031
  O        -1.6616714612        2.8923769737        5.6659388239
 Fe         7.7820062026       10.2754233328        6.4340482734
 Fe        10.3577321059        5.8302013819        6.4346682265
 Fe        12.9057133892        1.3929950884        6.4338949289
 Fe         2.6583919865       10.2687707039        6.4343947488
 Fe         5.1938209370        5.8498438654        6.4380538673
 Fe         7.8078807783        1.3750151373        6.4304284223
 Fe        -2.4686587402       10.2716562399        6.4342358754
 Fe         0.0909586515        5.8302493075        6.4338410638
 Fe         2.6580711093        1.3922044916        6.4320075902
  O         7.8198205259       10.4180580971        8.2598759791
  H         7.8200487777        9.6111089158        8.8051228199
  H         5.3509780776       10.6067917396        6.6736996244
  O        10.5077082362        5.8849962659        8.2702544656
  H        10.8904508823        5.1066407671        8.7151537675
  H         7.9070675682        6.2561276205        6.6311282308
  O        12.9327559148        1.5422653838        8.2602988337
  H        12.9736954881        0.7323859472        8.8002259180
  H        10.4699273835        1.6867975665        6.6913337378
  O         2.7554216680       10.3880757600        8.2596646157
  H         2.8483627269        9.5640262300        8.7721305346
  H         0.2176196113       10.6035221268        6.6739668744
  O         4.9390942428        6.2139774427        8.1995104357
  H         4.9295750889        5.6057890314        8.9630284014
  H         2.8166740533        6.1813677197        6.6557252820
  O         8.1449029094        1.3260000338        8.2424494434
  H         8.2435858187        0.4451550557        8.6488625480
  H         5.3452532566        1.7337570488        6.6843791219
  O        -2.3583083984       10.3829614852        8.2596042911
  H        -2.2912574802        9.5594413277        8.7759581329
  H        -4.9069149918       10.6216803439        6.6700632296
  O         0.0766455458        5.9634539260        8.2576589588
  H         0.1883186469        5.1633628230        8.8018397660
  H        -2.3349398814        6.1785058936        6.6685414993
  O         2.7192476398        1.5276993581        8.2525118584
  H         2.7815447065        0.7256873061        8.8015731013
  H         0.2264732059        1.7382226886        6.6694871722
  C         7.7018127248        4.2420819707        9.0383909686
  C         6.6733823365        4.3916582584       10.0450213455
  H         8.1822260660        3.2542662392        9.1239612808
  H         7.2391172201        4.2762471639        8.0390818624
  H         8.4561619746        5.0409100053        9.1096523559
  N         5.8219869909        4.5159405234       10.8371567680
