8
Lattice="5.1123820279787395 0.0 0.0 2.5561910139893698 4.427452710080594 0.0 0.0 0.0 32.0871212231205" Properties=species:S:1:pos:R:3:tags:I:1:momenta:R:3:forces:R:3 energy=-28.85732710873691 free_energy=-28.85732710873691 stress="0.00040051536501506944 -7.61970877523176e-20 -4.689893878979238e-20 -7.61970877523176e-20 0.0004005153650013006 1.1624082462932744e-14 -4.689893878979238e-20 1.1624082462932744e-14 3.090935506820892e-05" pbc="T T F"
Cu      -0.00000000       1.47581757      15.00000000        2       0.16051042       1.37433767      -0.25404687      -0.00000001       0.00000003       0.04547265
Cu       2.55619101       1.47581757      15.00000000        2      -1.65198075       1.53581939       1.46552736       0.00000002       0.00000002       0.04547265
Cu       1.27809551       3.68954393      15.00000000        2      -1.67833380      -0.68795581       0.02836553      -0.00000002      -0.00000002       0.04547264
Cu       3.83428652       3.68954393      15.00000000        2      -0.61195697       0.94199319      -1.28660265       0.00000001      -0.00000003       0.04547264
Cu       0.00000000       0.00000000      17.08712122        1       0.26749097       2.13554743       0.28749106      -0.00000001       0.00000003      -0.04547264
Cu       2.55619101       0.00000000      17.08712122        1      -0.66277334      -0.47510063      -2.76497153       0.00000002       0.00000002      -0.04547264
Cu       1.27809551       2.21372636      17.08712122        1      -1.61522907      -0.30026368       0.93565452      -0.00000002      -0.00000002      -0.04547265
Cu       3.83428652       2.21372636      17.08712122        1      -1.11138497       3.32798706       1.21678010       0.00000001      -0.00000003      -0.04547265
