8
Lattice="5.1123820279787395 0.0 0.0 2.5561910139893698 4.427452710080594 0.0 0.0 0.0 32.0871212231205" Properties=species:S:1:pos:R:3:tags:I:1:momenta:R:3:forces:R:3 energy=-28.639987888566438 free_energy=-28.639987888566438 stress="0.0003634658810401968 -5.296098450987031e-06 1.0718056830553311e-05 -5.296098450987031e-06 0.0004394206236036581 -2.482551159336197e-05 1.0718056830553311e-05 -2.482551159336197e-05 9.621404576905124e-05" pbc="T T F"
Cu      -0.18965931       1.75257442      14.98898743        2       0.27966702      -0.30880670      -2.03117693      -0.44514595       0.07406699      -0.13066218
Cu       2.24162444       1.73397839      14.95510173        2      -0.01221563       1.16668360       0.28083976       0.59096800       0.30921929       0.18723200
Cu       1.04571705       4.02730472      14.86921824        2      -1.34301018       1.68791844       0.39617098       0.04494857      -0.14268962       0.44058655
Cu       3.62828394       4.00885106      15.02160167        2      -1.17078238       0.25397295       2.28281170      -0.08293082      -0.38950752      -0.00740930
Cu      -0.19649006       0.17867582      17.09609819        1      -0.51611542       0.46880013       0.53470155      -0.53900978       0.32473172      -0.14322553
Cu       2.21649343       0.30400012      17.27263336        1      -0.45024247       1.08003291       0.46175240       0.59458148      -0.06356458      -0.50685395
Cu       1.00878225       2.50412919      17.03113343        1      -1.67867607       0.72262509      -1.37177760       0.14762803       0.08435606       0.04011828
Cu       3.64467715       2.45266209      17.00935339        1      -0.78094063       1.38058431      -0.85880937      -0.31103955      -0.19661235       0.12021412
