8
Lattice="5.1123820279787395 0.0 0.0 2.5561910139893698 4.427452710080594 0.0 0.0 0.0 32.0871212231205" Properties=species:S:1:pos:R:3:tags:I:1:momenta:R:3:forces:R:3 energy=-28.85732710873691 stress="0.00040051536501506944 -7.61970877523176e-20 -4.689893878979238e-20 -7.61970877523176e-20 0.0004005153650013006 1.1624082462932744e-14 -4.689893878979238e-20 1.1624082462932744e-14 3.090935506820892e-05" free_energy=-28.85732710873691 pbc="T T F"
Cu      -0.00000000       1.47581757      15.00000000        2       0.16051042       1.37433767      -0.25404687      -0.00000001       0.00000003       0.04547265
Cu       2.55619101       1.47581757      15.00000000        2      -1.65198075       1.53581939       1.46552736       0.00000002       0.00000002       0.04547265
Cu       1.27809551       3.68954393      15.00000000        2      -1.67833380      -0.68795581       0.02836553      -0.00000002      -0.00000002       0.04547264
Cu       3.83428652       3.68954393      15.00000000        2      -0.61195697       0.94199319      -1.28660265       0.00000001      -0.00000003       0.04547264
Cu       0.00000000       0.00000000      17.08712122        1       0.26749097       2.13554743       0.28749106      -0.00000001       0.00000003      -0.04547264
Cu       2.55619101       0.00000000      17.08712122        1      -0.66277334      -0.47510063      -2.76497153       0.00000002       0.00000002      -0.04547264
Cu       1.27809551       2.21372636      17.08712122        1      -1.61522907      -0.30026368       0.93565452      -0.00000002      -0.00000002      -0.04547265
Cu       3.83428652       2.21372636      17.08712122        1      -1.11138497       3.32798706       1.21678010       0.00000001      -0.00000003      -0.04547265
8
Lattice="5.1123820279787395 0.0 0.0 2.5561910139893698 4.427452710080594 0.0 0.0 0.0 32.0871212231205" Properties=species:S:1:pos:R:3:tags:I:1:momenta:R:3:forces:R:3 energy=-28.838353394316893 stress="0.0003955083276690331 -1.3480990620387997e-06 1.2406794600124646e-06 -1.3480990620387997e-06 0.0003885424648732919 4.062170478844825e-06 1.2406794600124646e-06 4.062170478844825e-06 2.4416264124396516e-05" free_energy=-28.838353394316893 pbc="T T F"
Cu       0.00138951       1.49419557      14.99510873        2       0.06470836       1.02215894      -0.42507906      -0.16622567      -0.08795761       0.09123103
Cu       2.53350920       1.49875249      15.02411501        2      -1.29909932       1.40881620       1.57252795       0.13170770      -0.04672592      -0.02925508
Cu       1.25232061       3.67949741      15.00002169        2      -1.60962270      -0.62481056      -0.12442149       0.13298979       0.16417180       0.02953801
Cu       3.82592287       3.70291714      14.98151497        2      -0.51593107       0.98303171      -1.29879043      -0.09018303      -0.01005972       0.04770553
Cu       0.00450516       0.03386801      17.09047843        1       0.14023382       2.09811894       0.32585377      -0.17412806      -0.06844952      -0.10524869
Cu       2.54360650      -0.00820007      17.04620643        1      -0.96620041      -0.40939433      -2.37819158       0.09858196       0.16509066       0.11762965
Cu       1.25366522       2.21347284      17.10236903        1      -1.42345822       0.13723364       0.99732465       0.09849624       0.09693577      -0.04234927
Cu       3.81603535       2.26445696      17.10295154        1      -1.22680743       3.16045630       0.96260794      -0.03123893      -0.21300545      -0.10925118
8
Lattice="5.1123820279787395 0.0 0.0 2.5561910139893698 4.427452710080594 0.0 0.0 0.0 32.0871212231205" Properties=species:S:1:pos:R:3:tags:I:1:momenta:R:3:forces:R:3 energy=-28.792112870800853 stress="0.000383922502558639 -5.690981730083001e-06 4.1506940609745385e-06 -5.690981730083001e-06 0.00036502160231040466 8.969093810023665e-06 4.1506940609745385e-06 8.969093810023665e-06 1.3826258684539463e-05" free_energy=-28.792112870800853 pbc="T T F"
Cu       0.00004097       1.51229344      14.99012186        2      -0.19946850       1.43018916      -0.06736105      -0.29146008      -0.16238971       0.13397539
Cu       2.51375063       1.51977250      15.04806804        2      -1.31507583       1.25598387       1.50634800       0.23152109      -0.07814932      -0.11696338
Cu       1.22977738       3.67325870      14.99981589        2      -1.14066197      -0.10318900      -0.02593813       0.24369724       0.29123360      -0.00433626
Cu       3.81442950       3.71540090      14.96308201        2      -1.02151441       0.74654367      -1.23400241      -0.15567778      -0.01293178       0.05034220
Cu       0.00484983       0.06494081      17.09398512        1      -0.25137870       1.59879440       0.17129733      -0.30999174      -0.11323186      -0.15451155
Cu       2.53123456      -0.01372599      17.00815577        1      -0.56705241      -0.24725549      -2.47723395       0.17162337       0.29387158       0.29019663
Cu       1.23550459       2.21566525      17.11814636        1      -1.06073506       0.19828740       1.01105876       0.14721252       0.17680779      -0.04764144
Cu       3.79621328       2.31095873      17.11572764        1      -1.21346912       2.82025326       0.75126189      -0.03692462      -0.39521031      -0.15106158
8
Lattice="5.1123820279787395 0.0 0.0 2.5561910139893698 4.427452710080594 0.0 0.0 0.0 32.0871212231205" Properties=species:S:1:pos:R:3:tags:I:1:momenta:R:3:forces:R:3 energy=-28.738916822583633 stress="0.0003713743219288742 -1.0574955635687803e-05 8.688242641778491e-06 -1.0574955635687803e-05 0.0003390011941380878 1.4906822055195575e-05 8.688242641778491e-06 1.4906822055195575e-05 1.6847590194075284e-06" free_energy=-28.738916822583633 pbc="T T F"
Cu      -0.00405129       1.53419036      14.99101402        2      -0.39306011       1.43065767       0.08583345      -0.37594346      -0.22228426       0.15635447
Cu       2.49561098       1.53592646      15.06950210        2      -0.97778017       0.88707401       1.25425776       0.29794568      -0.07337432      -0.20607289
Cu       1.21651885       3.67633805      14.99899552        2      -0.79093613       0.55573608      -0.02734600       0.30077703       0.35752800      -0.05598883
Cu       3.79665445       3.72570418      14.94138084        2      -1.08010039       0.59407869      -1.29404034      -0.16410292      -0.00228571       0.07473319
Cu       0.00013519       0.08971852      17.09509300        1      -0.48318368       1.50017046      -0.16082621      -0.39135537      -0.13285933      -0.18422055
Cu       2.52144570      -0.01608806      16.97196482        1      -0.47631836      -0.09523447      -2.25356015       0.18966135       0.37741657       0.46210851
Cu       1.21869427       2.22122363      17.13469151        1      -1.09759836       0.40201712       1.00829622       0.18221521       0.22824625      -0.06056972
Cu       3.77666673       2.34998612      17.12885309        1      -1.40421100       2.34984706       1.02637924      -0.03919752      -0.53238719      -0.18634418
8
Lattice="5.1123820279787395 0.0 0.0 2.5561910139893698 4.427452710080594 0.0 0.0 0.0 32.0871212231205" Properties=species:S:1:pos:R:3:tags:I:1:momenta:R:3:forces:R:3 energy=-28.691521942057232 stress="0.0003619873515215848 -1.417195238998856e-05 1.4258362665750764e-05 -1.417195238998856e-05 0.0003174001246315682 2.2197398197519118e-05 1.4258362665750764e-05 2.2197398197519118e-05 -1.250099874753759e-05" free_energy=-28.691521942057232 pbc="T T F"
Cu      -0.01313962       1.55412848      14.99408575        2      -0.75750651       1.04746163       0.28450325      -0.40127314      -0.23632424       0.16619426
Cu       2.48496945       1.54770816      15.08739719        2      -0.42049017       0.65831337       1.08636693       0.30128183      -0.02310346      -0.28896164
Cu       1.20586450       3.68667141      14.99765528        2      -0.53519194       0.79133853      -0.19880359       0.33819460       0.35133610      -0.11833856
Cu       3.77629993       3.73769266      14.92265806        2      -1.72891445       0.99694519      -1.01216482      -0.14286701      -0.00079791       0.09861306
Cu      -0.00803378       0.11069920      17.08821459        1      -0.50795278       1.23182092      -0.57944042      -0.44310266      -0.12904929      -0.18016216
Cu       2.51254392      -0.01543062      16.94117112        1      -0.46967474       0.21336801      -1.81037095       0.17648804       0.41339733       0.62642507
Cu       1.20626939       2.22873700      17.14859459        1      -0.62877379       0.57451053       0.78693503       0.17756087       0.26058480      -0.08018128
Cu       3.75379303       2.38407024      17.14616536        1      -1.58916275       2.03606344       1.08549723      -0.00628254      -0.63604332      -0.22358876
8
Lattice="5.1123820279787395 0.0 0.0 2.5561910139893698 4.427452710080594 0.0 0.0 0.0 32.0871212231205" Properties=species:S:1:pos:R:3:tags:I:1:momenta:R:3:forces:R:3 energy=-28.6618618163952 stress="0.00036071786671681267 -1.214427646626449e-05 2.0910983449687447e-05 -1.214427646626449e-05 0.00030823666006885014 3.0470518074155175e-05 2.0910983449687447e-05 3.0470518074155175e-05 -2.31289613860477e-05" free_energy=-28.6618618163952 pbc="T T F"
Cu      -0.02537588       1.56734979      14.99704370        2      -1.02415874       0.57494932       0.23236846      -0.39259665      -0.16865330       0.16799766
Cu       2.47813526       1.55723048      15.10099129        2      -0.35728053       0.61266685       0.72362815       0.26086765       0.04614125      -0.36079098
Cu       1.19844287       3.70306064      14.99497956        2      -0.34342385       1.36873809      -0.08857940       0.30731114       0.28215422      -0.17238624
Cu       3.74662648       3.75291073      14.90809038        2      -1.81412057       0.85564960      -1.04154224      -0.03694355      -0.02187705       0.13229903
Cu      -0.01769310       0.12654820      17.07494701        1      -0.76680245       0.83210546      -1.01705781      -0.45540718      -0.09933223      -0.14321696
Cu       2.50875965      -0.00692156      16.91895509        1      -0.18831196       0.79246523      -1.09691012       0.11215350       0.37471833       0.74896480
Cu       1.19765906       2.23950647      17.16165800        1      -0.56809566       0.94810085       0.82082848       0.13610814       0.26770393      -0.11343332
Cu       3.72991228       2.41072270      17.16377820        1      -1.51059277       1.49134965       1.11328135       0.06850695      -0.68085514      -0.25943398
8
Lattice="5.1123820279787395 0.0 0.0 2.5561910139893698 4.427452710080594 0.0 0.0 0.0 32.0871212231205" Properties=species:S:1:pos:R:3:tags:I:1:momenta:R:3:forces:R:3 energy=-28.651487506037167 stress="0.0003645851580145477 -6.785241107789124e-06 2.6470989890118326e-05 -6.785241107789124e-06 0.0003126087708512427 3.814953458146848e-05 2.6470989890118326e-05 3.814953458146848e-05 -3.078589514289095e-05" free_energy=-28.651487506037167 pbc="T T F"
Cu      -0.04174966       1.57868140      15.00206436        2      -1.33471909       0.79502804       0.37046469      -0.33647293      -0.06794783       0.15132031
Cu       2.47274066       1.56394647      15.10862090        2      -0.36691031       0.35985670       0.21583134       0.18534504       0.12975393      -0.40462668
Cu       1.19425174       3.72809841      14.99533980        2      -0.05900876       1.82983961      -0.00850319       0.24423007       0.15435301      -0.23096223
Cu       3.71816960       3.76571338      14.89280919        2      -1.92162517       0.79067489      -1.00339581       0.08308662      -0.02791211       0.18304767
Cu      -0.03316821       0.13991749      17.05747229        1      -1.10359897       1.04544660      -1.23170871      -0.39989453      -0.07544686      -0.07850019
Cu       2.50557098       0.00622562      16.90686598        1      -0.28490147       0.88980669      -0.38756350       0.00114167       0.30943745       0.82503262
Cu       1.18984993       2.25598437      17.17226808        1      -0.27969141       1.14268259       0.62875467       0.09152213       0.23416906      -0.15013239
Cu       3.70969935       2.42683610      17.17955768        1      -1.15808495       0.54961471       1.06559740       0.13104194      -0.65640665      -0.29517912
8
Lattice="5.1123820279787395 0.0 0.0 2.5561910139893698 4.427452710080594 0.0 0.0 0.0 32.0871212231205" Properties=species:S:1:pos:R:3:tags:I:1:momenta:R:3:forces:R:3 energy=-28.659032607136737 stress="0.00037071079125896336 -2.8444724906488615e-06 2.95038311279242e-05 -2.8444724906488615e-06 0.0003256543700869728 4.4704259215389677e-05 2.95038311279242e-05 4.4704259215389677e-05 -3.529955241197525e-05" free_energy=-28.659032607136737 pbc="T T F"
Cu      -0.06502390       1.59056548      15.01050944        2      -1.57418924       0.83864204       0.61401612      -0.23125747       0.03614320       0.10644793
Cu       2.47066904       1.57251664      15.11280048        2      -0.00463928       0.70640960       0.20022787       0.06901676       0.17449357      -0.42437552
Cu       1.18975229       3.75424179      14.99368503        2      -0.39388983       1.58502400      -0.32992428       0.14361409       0.02852575      -0.25943378
Cu       3.68962993       3.77677274      14.87904112        2      -1.67303538       0.64350203      -0.68367868       0.21033261      -0.00096981       0.23776111
Cu      -0.05452541       0.15472270      17.03658157        1      -1.69089937       0.91963932      -1.42041910      -0.28317284      -0.09733302       0.01762449
Cu       2.50206055       0.02399142      16.90698913        1      -0.26617260       1.36097742       0.47489986      -0.11783912       0.22395785       0.82302124
Cu       1.18588604       2.27479055      17.17975869        1      -0.17230543       1.37967794       0.48356972       0.04248032       0.19143894      -0.18277233
Cu       3.69680186       2.43167368      17.19024110        1      -0.66979054      -0.10328346       0.31421163       0.16682565      -0.55625648      -0.31827313
8
Lattice="5.1123820279787395 0.0 0.0 2.5561910139893698 4.427452710080594 0.0 0.0 0.0 32.0871212231205" Properties=species:S:1:pos:R:3:tags:I:1:momenta:R:3:forces:R:3 energy=-28.682535163508785 stress="0.0003803900540297895 -1.1990017841368994e-06 2.6799977983998376e-05 -1.1990017841368994e-06 0.0003491328956293847 4.670028838387025e-05 2.6799977983998376e-05 4.670028838387025e-05 -2.552909118049756e-05" free_energy=-28.682535163508785 pbc="T T F"
Cu      -0.09162114       1.60457902      15.01785874        2      -1.98363976       1.00494087       0.40515281      -0.10126950       0.11007865       0.05416136
Cu       2.46929783       1.58541540      15.10714515        2      -0.26388144       1.05245739      -0.61059841      -0.05737342       0.14476531      -0.37156622
Cu       1.18382471       3.77664209      14.98867134        2      -0.34434036       1.29596873      -0.42164751       0.02527933      -0.04912521      -0.23930855
Cu       3.66811946       3.78699333      14.87037844        2      -1.08720639       0.60828299      -0.34672269       0.30025635       0.05331225       0.28193569
Cu      -0.08339539       0.16985259      17.01599820        1      -1.85352047       0.82831917      -1.21206337      -0.10757219      -0.13927559       0.12457813
Cu       2.49747044       0.04498946      16.92136188        1      -0.40009239       1.56596278       1.30778488      -0.23095379       0.16082747       0.71076185
Cu       1.18451795       2.29813096      17.18864967        1       0.10774400       1.49467927       0.49237184      -0.01251894       0.11925034      -0.23223744
Cu       3.68790112       2.42543084      17.19420412        1      -0.55698827      -0.59167596       0.04201831       0.18415217      -0.39983323      -0.32832481
8
Lattice="5.1123820279787395 0.0 0.0 2.5561910139893698 4.427452710080594 0.0 0.0 0.0 32.0871212231205" Properties=species:S:1:pos:R:3:tags:I:1:momenta:R:3:forces:R:3 energy=-28.707906483691975 stress="0.0003918415735527453 -7.025169907653354e-07 1.965675545435133e-05 -7.025169907653354e-07 0.000376796908071985 4.393658273462473e-05 1.965675545435133e-05 4.393658273462473e-05 -1.4187415074591558e-08" free_energy=-28.707906483691975 pbc="T T F"
Cu      -0.12237788       1.62147679      15.02420948        2      -2.03047860       1.16325675       0.45301450       0.05997861       0.13811119       0.01133462
Cu       2.46644471       1.60181542      15.09312427        2      -0.30677603       1.29114779      -1.05084380      -0.18860418       0.07005507      -0.26917075
Cu       1.17661109       3.79931485      14.97824750        2      -0.60586233       1.47441242      -0.93599024      -0.08486319      -0.09921606      -0.16554676
Cu       3.65728364       3.79520158      14.86545420        2      -0.46035855       0.45987585      -0.07683888       0.32550111       0.13898476       0.31843158
Cu      -0.11393435       0.18118616      17.00050083        1      -1.92507511       0.66306083      -0.87484974       0.07190000      -0.16548827       0.20225887
Cu       2.49037174       0.06931056      16.94748116        1      -0.66812066       1.53202065       1.94790896      -0.30738782       0.10209303       0.51279769
Cu       1.18523603       2.32135517      17.19857806        1       0.18696406       1.60093198       0.63013523      -0.08859896       0.04921840      -0.29159625
Cu       3.67831360       2.41402969      17.19138519        1      -0.50983705      -0.99672427      -0.43288059       0.21207443      -0.23375813      -0.31850902
8
Lattice="5.1123820279787395 0.0 0.0 2.5561910139893698 4.427452710080594 0.0 0.0 0.0 32.0871212231205" Properties=species:S:1:pos:R:3:tags:I:1:momenta:R:3:forces:R:3 energy=-28.72610903757793 stress="0.0004012358845874685 3.380973386065815e-07 1.2379472543736245e-05 3.380973386065815e-07 0.00039870722499227605 3.892025633218213e-05 1.2379472543736245e-05 3.892025633218213e-05 2.9000665236830567e-05" free_energy=-28.72610903757793 pbc="T T F"
Cu      -0.15454553       1.64175466      15.03405151        2      -1.97524807       1.58157300       0.80012262       0.22334407       0.13559227      -0.04795978
Cu       2.45807820       1.61798399      15.07550569        2      -0.72849755       0.94852942      -1.10232340      -0.29386461      -0.00014764      -0.15691571
Cu       1.16765607       3.82351583      14.96025097        2      -0.62588871       1.57087906      -1.33928197      -0.16947498      -0.12887417      -0.04699335
Cu       3.65278303       3.80448528      14.86647796        2      -0.20102500       0.70555189       0.15473036       0.29698380       0.22079688       0.33867132
Cu      -0.14257211       0.19224173      16.98968487        1      -1.90109055       0.49343292      -0.60533659       0.22889978      -0.21667606       0.25208095
Cu       2.47662760       0.09415561      16.98082299        1      -0.88111064       1.83340684       2.38567009      -0.33042334       0.03373602       0.27888712
Cu       1.18872775       2.34527561      17.20445945        1       0.35283190       1.46971415       0.07178827      -0.16643652      -0.00507712      -0.33554355
Cu       3.67398670       2.39484263      17.18249210        1      -0.29774457      -1.48536500      -0.70238721       0.21097180      -0.03935017      -0.28222699
8
Lattice="5.1123820279787395 0.0 0.0 2.5561910139893698 4.427452710080594 0.0 0.0 0.0 32.0871212231205" Properties=species:S:1:pos:R:3:tags:I:1:momenta:R:3:forces:R:3 energy=-28.72607349783431 stress="0.0004013703652123603 3.4933072504258597e-06 7.613315220996444e-06 3.4933072504258597e-06 0.00040913148964628654 3.1422398413844876e-05 7.613315220996444e-06 3.1422398413844876e-05 4.861768737728809e-05" free_energy=-28.72607349783431 pbc="T T F"
Cu      -0.18374365       1.66735100      15.04842829        2      -1.76792269       1.47019012       0.80648427       0.35916640       0.09189712      -0.12098611
Cu       2.44349336       1.63356773      15.06122060        2      -1.09480126       0.93560781      -0.72839861      -0.34511662      -0.05437987      -0.08834594
Cu       1.16230731       3.84569568      14.93956839        2      -0.19811194       1.32703346      -1.59723244      -0.24191051      -0.12607729       0.06644772
Cu       3.65200424       3.81779414      14.86787027        2       0.10792695       1.00649512       0.05776200       0.24871891       0.28140706       0.35865490
Cu      -0.17097672       0.19653818      16.98261684        1      -1.79732342       0.16353305      -0.35585934       0.38110992      -0.24099324       0.27106588
Cu       2.46131082       0.12476205      17.02034006        1      -0.96178905       1.97880906       2.69533969      -0.35874432      -0.10061210       0.06144835
Cu       1.19364258       2.36723892      17.20051499        1       0.03357101       1.48142296      -0.42160262      -0.28340551      -0.04142588      -0.34066078
Cu       3.66644706       2.37079202      17.16800212        1      -0.51815551      -1.31494225      -0.79021654       0.24018172       0.19018419      -0.20762401
8
Lattice="5.1123820279787395 0.0 0.0 2.5561910139893698 4.427452710080594 0.0 0.0 0.0 32.0871212231205" Properties=species:S:1:pos:R:3:tags:I:1:momenta:R:3:forces:R:3 energy=-28.71461706041299 stress="0.00040599461731440935 6.845688242550428e-06 6.532840450185047e-06 6.845688242550428e-06 0.0004144556377835923 2.3863235207087166e-05 6.532840450185047e-06 2.3863235207087166e-05 6.768774791950627e-05" free_energy=-28.71461706041299 pbc="T T F"
Cu      -0.20948295       1.68678044      15.05936027        2      -1.45674977       1.20294787       0.55690668       0.45634157       0.05582404      -0.18458140
Cu       2.42261583       1.65134732      15.04696380        2      -1.73627128       1.19616850      -0.86778478      -0.33569314      -0.10595819      -0.02447645
Cu       1.15981189       3.86506877      14.91870490        2      -0.22080495       1.05048544      -1.10410527      -0.30264721      -0.10810524       0.16690180
Cu       3.65448906       3.83352581      14.86936178        2       0.44476028       1.17359062       0.22385473       0.19618230       0.30724800       0.37512290
Cu      -0.19183060       0.19738384      16.98215298        1      -0.98419556      -0.03373657       0.23600238       0.45849174      -0.24116088       0.25215950
Cu       2.44088242       0.15578297      17.06171020        1      -1.66098275       2.07675344       2.51294768      -0.34426332      -0.21525551      -0.12236990
Cu       1.19156993       2.38801469      17.19101193        1      -0.23916075       1.14809685      -0.74777447      -0.36375849      -0.05841597      -0.32859942
Cu       3.66111359       2.35425012      17.15416236        1      -0.28263172      -0.83504974      -1.14050854       0.23534655       0.36582375      -0.13415703
8
Lattice="5.1123820279787395 0.0 0.0 2.5561910139893698 4.427452710080594 0.0 0.0 0.0 32.0871212231205" Properties=species:S:1:pos:R:3:tags:I:1:momenta:R:3:forces:R:3 energy=-28.708308131237537 stress="0.00041835075492958093 1.0197474718030692e-05 9.618428114000668e-06 1.0197474718030692e-05 0.00041979592994629894 1.5198879124935532e-05 9.618428114000668e-06 1.5198879124935532e-05 8.633320912275298e-05" free_energy=-28.708308131237537 pbc="T T F"
Cu      -0.23014865       1.70293515      15.06373407        2      -1.16183595       0.97455207       0.13512381       0.49828394      -0.01117252      -0.22512892
Cu       2.39584972       1.66634322      15.03102442        2      -1.84681874       0.88000768      -1.40380910      -0.25701479      -0.11835102       0.02725201
Cu       1.15355379       3.87807235      14.90104898        2      -0.63837045       0.83734267      -1.13633654      -0.29528541      -0.05901107       0.25891830
Cu       3.66294441       3.85436857      14.87508015        2       0.70896473       1.49573325       0.50827099       0.09460167       0.27977631       0.38348293
Cu      -0.20494465       0.19870428      16.99245088        1      -0.35413252      -0.01440308       0.94897959       0.44728782      -0.22309707       0.17497421
Cu       2.41161717       0.18740381      17.10220873        1      -2.21138497       1.95016370       2.54330563      -0.25999007      -0.31764293      -0.25718266
Cu       1.18692956       2.40626367      17.17758459        1      -0.38005222       0.99571052      -0.80350974      -0.42424001      -0.03834145      -0.30613699
Cu       3.65898366       2.34541743      17.13521326        1      -0.19242903      -0.20806991      -1.11925609       0.19635685       0.48783975      -0.05617889
8
Lattice="5.1123820279787395 0.0 0.0 2.5561910139893698 4.427452710080594 0.0 0.0 0.0 32.0871212231205" Properties=species:S:1:pos:R:3:tags:I:1:momenta:R:3:forces:R:3 energy=-28.70531425394025 stress="0.00043685527598357393 1.2073833704989452e-05 1.4430184878924367e-05 1.2073833704989452e-05 0.0004327453924721644 5.448231755825756e-06 1.4430184878924367e-05 5.448231755825756e-06 0.00011069597266650663" free_energy=-28.70531425394025 pbc="T T F"
Cu      -0.24340727       1.72021303      15.06428950        2      -0.50910865       1.23064855      -0.12284843       0.47634246      -0.08895343      -0.23767197
Cu       2.36586374       1.67928890      15.00824369        2      -1.83761966       0.68925402      -1.46798570      -0.12887093      -0.08460224       0.10439197
Cu       1.14289813       3.89212070      14.88516792        2      -0.86075200       1.05629586      -0.78429708      -0.23675679      -0.00791380       0.33554421
Cu       3.67242535       3.88071881      14.88334398        2       0.50721168       1.87761861       0.57556004      -0.02729391       0.20469004       0.38238523
Cu      -0.20713154       0.19726520      17.00840460        1      -0.02507063      -0.45807400       1.07614992       0.34834912      -0.17490872       0.07379221
Cu       2.37809138       0.21301265      17.14034914        1      -2.06157845       1.42140976       2.36418747      -0.12632413      -0.37343480      -0.36044877
Cu       1.17632605       2.42065230      17.16418309        1      -1.10856625       0.91129894      -0.92768475      -0.44203384      -0.00344831      -0.28921124
Cu       3.65625756       2.34254205      17.11932971        1      -0.12118406       0.11503249      -1.03711437       0.13658801       0.52857126      -0.00878163
8
Lattice="5.1123820279787395 0.0 0.0 2.5561910139893698 4.427452710080594 0.0 0.0 0.0 32.0871212231205" Properties=species:S:1:pos:R:3:tags:I:1:momenta:R:3:forces:R:3 energy=-28.70593363521986 stress="0.0004494549197889054 9.45161019046123e-06 1.9319522019065164e-05 9.45161019046123e-06 0.00044473349578489025 -4.139377214704562e-06 1.9319522019065164e-05 -4.139377214704562e-06 0.000125912504597456" free_energy=-28.70593363521986 pbc="T T F"
Cu      -0.24758115       1.73470848      15.06351395        2       0.08629491       0.79171299       0.07800827       0.39078266      -0.13568080      -0.24730835
Cu       2.33494856       1.68631030      14.98936201        2      -1.88774620       0.21676933      -0.97254178       0.02808811       0.00281758       0.16070795
Cu       1.12946108       3.90979696      14.87519501        2      -1.05422816       1.33007206      -0.49677711      -0.17167373       0.01222172       0.38155850
Cu       3.67542113       3.91034266      14.89227850        2       0.01821261       1.68830923       0.46348710      -0.12163394       0.07741069       0.37517332
Cu      -0.20546065       0.18854530      17.02701625        1       0.01073627      -0.57760250       1.27074549       0.22471092      -0.06826177      -0.01815835
Cu       2.34597505       0.23547710      17.17306674        1      -1.93066367       1.43959235       1.83561636       0.01176957      -0.37943978      -0.42571624
Cu       1.15851454       2.43688019      17.14489825        1      -1.38769546       1.04113527      -1.31519072      -0.40932098       0.00189826      -0.25334137
Cu       3.65749680       2.34901874      17.10299668        1       0.18723224       0.84660312      -1.18421319       0.04727739       0.48903411       0.02708455
8
Lattice="5.1123820279787395 0.0 0.0 2.5561910139893698 4.427452710080594 0.0 0.0 0.0 32.0871212231205" Properties=species:S:1:pos:R:3:tags:I:1:momenta:R:3:forces:R:3 energy=-28.705018575712224 stress="0.00044920412669808424 3.929130500340948e-06 2.172255582851228e-05 3.929130500340948e-06 0.00045075243551048657 -1.2850462094851049e-05 2.172255582851228e-05 -1.2850462094851049e-05 0.00012863653010093624" free_energy=-28.705018575712224 pbc="T T F"
Cu      -0.24309453       1.74510966      15.06361667        2       0.49840917       0.52553625      -0.15416756       0.25790842      -0.14606680      -0.27469906
Cu       2.30610888       1.68913812      14.97636950        2      -1.87314670       0.02608692      -0.84209885       0.18818717       0.12614263       0.19331606
Cu       1.11317411       3.93282652      14.86873447        2      -1.05212265       1.59984637      -0.37279638      -0.09260148      -0.00869691       0.41029577
Cu       3.67593658       3.93814540      14.90448582        2      -0.10098345       1.82851210       1.12701133      -0.20182788      -0.06918575       0.35333785
Cu      -0.19997368       0.17825819      17.04295847        1       0.58471267      -0.56890204       0.95800661       0.06367187       0.04937475      -0.07898011
Cu       2.31450147       0.25385993      17.20041763        1      -2.11425298       0.94560838       1.86204776       0.16263559      -0.33833841      -0.46680991
Cu       1.13207749       2.45174749      17.12146206        1      -1.96215208       1.21764784      -1.52135391      -0.32116601       0.01122327      -0.19544431
Cu       3.65840164       2.36623158      17.08534724        1       0.11991429       1.13601748      -1.37437826      -0.05680767       0.37554722       0.05898371
8
Lattice="5.1123820279787395 0.0 0.0 2.5561910139893698 4.427452710080594 0.0 0.0 0.0 32.0871212231205" Properties=species:S:1:pos:R:3:tags:I:1:momenta:R:3:forces:R:3 energy=-28.693145891245653 stress="0.0004345851229803182 -2.82389710550792e-06 2.15197562440982e-05 -2.82389710550792e-06 0.00045059935908859825 -2.0860857004877396e-05 2.15197562440982e-05 -2.0860857004877396e-05 0.0001264387130075483" free_energy=-28.693145891245653 pbc="T T F"
Cu      -0.23004522       1.75179482      15.05579042        2       1.26644152       0.31586013      -0.71875080       0.07069577      -0.12438180      -0.28277607
Cu       2.28009658       1.68945868      14.96577891        2      -1.41496105       0.12263342      -0.45441413       0.35558485       0.26083097       0.21773973
Cu       1.09789967       3.95623079      14.86417770        2      -0.92974740       1.40879413      -0.30089068      -0.02719267      -0.04001156       0.43161562
Cu       3.67115471       3.96500912      14.92714236        2      -0.57656180       1.60254366       1.68943459      -0.24084069      -0.23774699       0.30073780
Cu      -0.19259600       0.17265692      17.05847776        1       0.49187660      -0.22927094       1.00698126      -0.12800200       0.15043363      -0.12145553
Cu       2.28127830       0.26648035      17.22595016        1      -2.29680117       0.84623561       1.42341570       0.32461594      -0.24811586      -0.49418847
Cu       1.09940600       2.46840774      17.09718197        1      -2.14480940       0.94681329      -1.51782637      -0.18096957       0.01921054      -0.13166383
Cu       3.65919025       2.38849673      17.06400527        1      -0.23739254       1.63115293      -1.44257316      -0.17389163       0.21978107       0.07999075
8
Lattice="5.1123820279787395 0.0 0.0 2.5561910139893698 4.427452710080594 0.0 0.0 0.0 32.0871212231205" Properties=species:S:1:pos:R:3:tags:I:1:momenta:R:3:forces:R:3 energy=-28.669664657492035 stress="0.0004080533131309602 -7.206442770769439e-06 1.8064014634179704e-05 -7.206442770769439e-06 0.00044693111034103174 -2.627441509156479e-05 1.8064014634179704e-05 -2.627441509156479e-05 0.0001211623520953755" free_energy=-28.669664657492035 pbc="T T F"
Cu      -0.21308854       1.75497083      15.03988967        2       0.92433033       0.00348863      -1.28084990      -0.14424083      -0.07158408      -0.25394676
Cu       2.25876851       1.69871019      14.95894581        2      -1.16283604       0.88307646      -0.34028508       0.50703640       0.32911094       0.22270700
Cu       1.08425113       3.97888427      14.86260933        2      -0.86475987       1.47713173       0.18687510       0.00267705      -0.05890900       0.44251471
Cu       3.66148826       3.98707773      14.95436408        2      -0.75803066       1.38844843       1.87999111      -0.22159254      -0.36581173       0.22537407
Cu      -0.18774269       0.17094814      17.07172868        1       0.19576378       0.04800678       0.82317333      -0.32265709       0.22944903      -0.14528282
Cu       2.25012259       0.27656915      17.24765382        1      -1.75226245       0.64747276       1.18483017       0.47850470      -0.15878652      -0.50856150
Cu       1.06675868       2.48161995      17.07485298        1      -2.13751958       0.69290298      -1.52791639      -0.04902351       0.04521937      -0.06558155
Cu       3.65596573       2.41196424      17.04362067        1      -0.22953791       1.43928449      -1.23736658      -0.25070418       0.05131199       0.08277687
8
Lattice="5.1123820279787395 0.0 0.0 2.5561910139893698 4.427452710080594 0.0 0.0 0.0 32.0871212231205" Properties=species:S:1:pos:R:3:tags:I:1:momenta:R:3:forces:R:3 energy=-28.649133825649223 stress="0.00038215117014873745 -7.817323561921828e-06 1.427128453071787e-05 -7.817323561921828e-06 0.0004439151989298662 -2.723022434910931e-05 1.427128453071787e-05 -2.723022434910931e-05 0.00011329544245456145" free_energy=-28.649133825649223 pbc="T T F"
Cu      -0.19925405       1.75524278      15.01581015        2       0.82314867      -0.09697828      -1.58923534      -0.33062006      -0.00232394      -0.19377764
Cu       2.24468632       1.71485737      14.95351093        2      -0.53547474       1.27882774      -0.21315408       0.59965197       0.33857382       0.21595488
Cu       1.06769673       4.00138242      14.86492467        2      -1.30726312       1.59262697       0.14788301       0.01932544      -0.08261044       0.44555455
Cu       3.64685156       4.00257042      14.98694101        2      -1.21447791       0.63354395       2.20945079      -0.16359344      -0.42300424       0.12459286
Cu      -0.18875945       0.17376470      17.08569064        1      -0.21029276       0.12081132       0.77035017      -0.46440778       0.27635307      -0.15640398
Cu       2.22866481       0.28994637      17.26213394        1      -1.17255142       0.91078539       0.90553195       0.57262817      -0.10600283      -0.50940865
Cu       1.03606067       2.49216946      17.05408015        1      -1.92011269       0.75660043      -1.36300354       0.06458096       0.07677918      -0.01240711
Cu       3.65159482       2.43202128      17.02578133        1      -0.19128375       1.31927965      -1.17632596      -0.29756526      -0.07776462       0.08589509
8
Lattice="5.1123820279787395 0.0 0.0 2.5561910139893698 4.427452710080594 0.0 0.0 0.0 32.0871212231205" Properties=species:S:1:pos:R:3:tags:I:1:momenta:R:3:forces:R:3 energy=-28.639987888566438 stress="0.0003634658810401968 -5.296098450987031e-06 1.0718056830553311e-05 -5.296098450987031e-06 0.0004394206236036581 -2.482551159336197e-05 1.0718056830553311e-05 -2.482551159336197e-05 9.621404576905124e-05" free_energy=-28.639987888566438 pbc="T T F"
Cu      -0.18965931       1.75257442      14.98898743        2       0.27966702      -0.30880670      -2.03117693      -0.44514595       0.07406699      -0.13066218
Cu       2.24162444       1.73397839      14.95510173        2      -0.01221563       1.16668360       0.28083976       0.59096800       0.30921929       0.18723200
Cu       1.04571705       4.02730472      14.86921824        2      -1.34301018       1.68791844       0.39617098       0.04494857      -0.14268962       0.44058655
Cu       3.62828394       4.00885106      15.02160167        2      -1.17078238       0.25397295       2.28281170      -0.08293082      -0.38950752      -0.00740930
Cu      -0.19649006       0.17867582      17.09609819        1      -0.51611542       0.46880013       0.53470155      -0.53900978       0.32473172      -0.14322553
Cu       2.21649343       0.30400012      17.27263336        1      -0.45024247       1.08003291       0.46175240       0.59458148      -0.06356458      -0.50685395
Cu       1.00878225       2.50412919      17.03113343        1      -1.67867607       0.72262509      -1.37177760       0.14762803       0.08435606       0.04011828
Cu       3.64467715       2.45266209      17.00935339        1      -0.78094063       1.38058431      -0.85880937      -0.31103955      -0.19661235       0.12021412
