8

Cu     -0.000000000000000      1.475817570000000     15.000000000000000
Cu      2.556191010000000      1.475817570000000     15.000000000000000
Cu      1.278095510000000      3.689543930000000     15.000000000000000
Cu      3.834286520000000      3.689543930000000     15.000000000000000
Cu      0.000000000000000      0.000000000000000     17.087121220000000
Cu      2.556191010000000      0.000000000000000     17.087121220000000
Cu      1.278095510000000      2.213726360000000     17.087121220000000
Cu      3.834286520000000      2.213726360000000     17.087121220000000
8

Cu      0.001389509551880      1.494195565053699     14.995108731990404
Cu      2.533509201549782      1.498752491555497     15.024115007857265
Cu      1.252320608599674      3.679497413542042     15.000021692576640
Cu      3.825922868029150      3.702917135941657     14.981514967480010
Cu      0.004505164534741      0.033868006494298     17.090478426008172
Cu      2.543606499006024     -0.008200067199037     17.046206433479767
Cu      1.253665216947179      2.213472839338543     17.102369032665372
Cu      3.816035347545697      2.264456957967032     17.102951543484942
8

Cu      0.000040972912854      1.512293437268907     14.990121857521491
Cu      2.513750628038203      1.519772501889660     15.048068044533331
Cu      1.229777375759694      3.673258699956462     14.999815893229957
Cu      3.814429499432313      3.715400902299023     14.963082007883699
Cu      0.004849825232885      0.064940809570500     17.093985117208248
Cu      2.531234563261187     -0.013725992110020     17.008155768984139
Cu      1.235504590482110      2.215665251641151     17.118146360426696
Cu      3.796213278437964      2.310958732375333     17.115727642722657
8

Cu     -0.004051290312257      1.534190357626664     14.991014017550640
Cu      2.495610983552319      1.535926464863140     15.069502097693166
Cu      1.216518853456654      3.676338050972444     14.998995522573747
Cu      3.796654448136179      3.725704175902897     14.941380844708409
Cu      0.000135190596059      0.089718520288058     17.095093002168802
Cu      2.521445700856304     -0.016088057547888     16.971964820282967
Cu      1.218694274792681      2.221223630185195     17.134691506878355
Cu      3.776666726432513      2.349986118425003     17.128853092632298
8

Cu     -0.013139619531473      1.554128484074472     14.994085746294006
Cu      2.484969451153843      1.547708162741330     15.087397194923678
Cu      1.205864500470075      3.686671408041923     14.997655277518698
Cu      3.776299928819015      3.737692658307452     14.922658056823083
Cu     -0.008033779099048      0.110699201586987     17.088214588754440
Cu      2.512543921692373     -0.015430622960521     16.941171116962067
Cu      1.206269393253462      2.228736995988270     17.148594589420451
Cu      3.753793034168726      2.384070235710723     17.146165359707108
8

Cu     -0.025375883520361      1.567349793565235     14.997043696198537
Cu      2.478135256581670      1.557230476479469     15.100991291244160
Cu      1.198442872627335      3.703060639111277     14.994979562177306
Cu      3.746626481148259      3.752910728123358     14.908090376701089
Cu     -0.017693101855720      0.126548199663172     17.074947010761480
Cu      2.508759650983668     -0.006921558585664     16.918955094419744
Cu      1.197659062245107      2.239506468417899     17.161657999643502
Cu      3.729912277102453      2.410722700067436     17.163778203324860
8

Cu     -0.041749660333519      1.578681403819371     15.002064360757469
Cu      2.472740656289320      1.563946465727682     15.108620899065151
Cu      1.194251742278581      3.728098414472423     14.995339804238775
Cu      3.718169596169651      3.765713382033610     14.892809189480545
Cu     -0.033168206108771      0.139917489263417     17.057472294361901
Cu      2.505570977432108      0.006225617426886     16.906865980956798
Cu      1.189849933470958      2.255984367448669     17.172268081354289
Cu      3.709699350216747      2.426836095598092     17.179557675927256
8

Cu     -0.065023899177002      1.590565475518161     15.010509441108946
Cu      2.470669039597099      1.572516637702952     15.112800480808659
Cu      1.189752291499530      3.754241788905564     14.993685031896677
Cu      3.689629925846624      3.776772738952967     14.879041115700693
Cu     -0.054525412550481      0.154722699760580     17.036581565973414
Cu      2.502060553512278      0.023991417189480     16.906989131837332
Cu      1.185886038326979      2.274790545221203     17.179758691529390
Cu      3.696801861220366      2.431673682578954     17.190241101201000
8

Cu     -0.091621135590669      1.604579023276935     15.017858738106241
Cu      2.469297826470681      1.585415404243187     15.107145153145927
Cu      1.183824709570592      3.776642085029803     14.988671344150278
Cu      3.668119464901324      3.786993325091994     14.870378439933843
Cu     -0.083395391073240      0.169852592521092     17.015998196133879
Cu      2.497470440254232      0.044989455540154     16.921361879082891
Cu      1.184517949199138      2.298130955738707     17.188649665125617
Cu      3.687901118552657      2.425430842560600     17.194204120307347
8

Cu     -0.122377879079420      1.621476787683119     15.024209481423398
Cu      2.466444711099165      1.601815415288087     15.093124274536821
Cu      1.176611086196042      3.799314845392736     14.978247499525356
Cu      3.657283639142064      3.795201575817399     14.865454201713963
Cu     -0.113934353197413      0.181186162700607     17.000500830655046
Cu      2.490371740891161      0.069310557413042     16.947481161796858
Cu      1.185236028111686      2.321355171244504     17.198578059843612
Cu      3.678313603089994      2.414029694415633     17.191385189295225
8

Cu     -0.154545527220018      1.641754664797985     15.034051508688979
Cu      2.458078195883445      1.617983986537081     15.075505690078540
Cu      1.167656068940880      3.823515831300370     14.960250971938128
Cu      3.652783031248073      3.804485280744184     14.866477958798871
Cu     -0.142572111851164      0.192241730321818     16.989684867708817
Cu      2.476627601368730      0.094155607015680     16.980822992481674
Cu      1.188727752469401      2.345275606183366     17.204459445784615
Cu      3.673986697647972      2.394842630090152     17.182492102882815
8

Cu     -0.183743648610250      1.667350996192597     15.048428285694603
Cu      2.443493356922566      1.633567733373733     15.061220604290840
Cu      1.162307314892228      3.845695683672847     14.939568385920252
Cu      3.652004242140861      3.817794144427916     14.867870265219294
Cu     -0.170976723085775      0.196538182038210     16.982616838096227
Cu      2.461310822287048      0.124762049817109     17.020340062853599
Cu      1.193642575573078      2.367238923623598     17.200514986487338
Cu      3.666447059755441      2.370792019961003     17.168002121020237
8

Cu     -0.209482946716341      1.686780442014213     15.059360268720805
Cu      2.422615825887484      1.651347321517091     15.046963802595846
Cu      1.159811885827663      3.865068765100667     14.918704904251522
Cu      3.654489055935422      3.833525805568494     14.869361775278559
Cu     -0.191830602173302      0.197383842147748     16.982152981568955
Cu      2.440882422488757      0.155782971332621     17.061710202565681
Cu      1.191569928849156      2.388014689817736     17.191011932693076
Cu      3.661113592883568      2.354250124528185     17.154162364592903
8

Cu     -0.230148648357070      1.702935149326481     15.063734074909174
Cu      2.395849722445582      1.666343220885347     15.031024424273342
Cu      1.153553794356704      3.878072352621817     14.901048978093126
Cu      3.662944406123571      3.854368574347029     14.875080154466986
Cu     -0.204944654499715      0.198704280095968     16.992450878340986
Cu      2.411617169346171      0.187403805980925     17.102208725263555
Cu      1.186929556415699      2.406263667172944     17.177584590954673
Cu      3.658983655324537      2.345417433785576     17.135213264821775
8

Cu     -0.243407270905949      1.720213034977138     15.064289498729444
Cu      2.365863743475511      1.679288896689356     15.008243694232078
Cu      1.142898131758061      3.892120703887936     14.885167924663934
Cu      3.672425353715787      3.880718811967873     14.883343982164464
Cu     -0.207131542725556      0.197265204075595     17.008404598955895
Cu      2.378091384410111      0.213012649137877     17.140349136100564
Cu      1.176326050258433      2.420652304968562     17.164183091865606
Cu      3.656257557648253      2.342542052189917     17.119329708986683
8

Cu     -0.247581154006389      1.734708479842040     15.063513950560480
Cu      2.334948560621746      1.686310302898803     14.989362005626621
Cu      1.129461080048422      3.909796964748854     14.875195007530897
Cu      3.675421134296210      3.910342663858786     14.892278500369356
Cu     -0.205460647776779      0.188545296920966     17.027016254477175
Cu      2.345975050620459      0.235477099425229     17.173066738090565
Cu      1.158514541713950      2.436880193487778     17.144898245718725
Cu      3.657496799157563      2.349018738850527     17.102996677960004
8

Cu     -0.243094529272840      1.745109655834090     15.063616667855541
Cu      2.306108878105769      1.689138115893274     14.976369497004530
Cu      1.113174112295621      3.932826522380491     14.868734465217516
Cu      3.675936575068132      3.938145404679775     14.904485818475328
Cu     -0.199973679817199      0.178258185143151     17.042958465311589
Cu      2.314501465169755      0.253859933879067     17.200417629736901
Cu      1.132077485074640      2.451747486126195     17.121462063374793
Cu      3.658401636053373      2.366231583410070     17.085347237141580
8

Cu     -0.230045220273325      1.751794820027125     15.055790420505151
Cu      2.280096583030909      1.689458678556048     14.965778907165177
Cu      1.097899670626586      3.956230789338852     14.864177697222644
Cu      3.671154713714442      3.965009124024814     14.927142356091368
Cu     -0.192596003673890      0.172656919108372     17.058477763638916
Cu      2.281278300872166      0.266480353898961     17.225950160056051
Cu      1.099406004934081      2.468407738567477     17.097181972507045
Cu      3.659190250093443      2.388496733747905     17.064005273653731
8

Cu     -0.213088539915802      1.754970832977365     15.039889667467460
Cu      2.258768510869069      1.698710191297324     14.958945806616837
Cu      1.084251130533687      3.978884266859840     14.862609327658312
Cu      3.661488264862696      3.987077734456129     14.954364082954410
Cu     -0.187742693785730      0.170948136571136     17.071728678830375
Cu      2.250122589188632      0.276569149981695     17.247653824150511
Cu      1.066758684354234      2.481619952848269     17.074852976241502
Cu      3.655965732623581      2.411964243939963     17.043620665025468
8

Cu     -0.199254052039286      1.755242778659159     15.015810147213902
Cu      2.244686321386931      1.714857368945935     14.953510927921785
Cu      1.067696733299959      4.001382422488884     14.864924673986096
Cu      3.646851555211624      4.002570418229231     14.986941005467019
Cu     -0.188759449996527      0.173764698506104     17.085690640597271
Cu      2.228664812456609      0.289946369434785     17.262133938006798
Cu      1.036060665692774      2.492169463060196     17.054080147818006
Cu      3.651594824582119      2.432021284790142     17.025781330474587
8

Cu     -0.189659305060407      1.752574420273396     14.988987433912319
Cu      2.241624444948560      1.733978390969635     14.955101725949355
Cu      1.045717051539932      4.027304716662452     14.869218238344619
Cu      3.628283941015045      4.008851060444187     15.021601671587590
Cu     -0.196490060913060      0.178675817723593     17.096098191640479
Cu      2.216493430534818      0.304000120196522     17.272633357809635
Cu      1.008782253903132      2.504129192821195     17.031133425669136
Cu      3.644677153395803      2.452662089113485     17.009353391166332
