      40
 i =        1, E =     -1284.5006509686
 Au        15.0734957413       14.8561274156       16.4443392395
 Au        17.2662630378       11.3855081602       14.3546943722
 Au        14.4332227055       12.0758239264       17.3828523940
 Au        18.0358547859       15.3094105087       17.1388916317
 Au        12.4402884308       14.0118547580       17.3158138193
 Au        11.2558619923       14.8382927511       14.9974623900
 Au        12.9626797742       18.0764306596       13.3648513288
 Au        15.3161818445       18.8389210527       14.5397414659
 Au        14.8917484933       15.9890162295       13.9284773656
 Au        14.2447083465       13.8699723218       19.4125718389
 Au        14.8916665182       12.3215048945       13.1621452008
 Au        12.8377751640       14.1562998207       12.8016341857
 Au        15.1851265988       14.2966736844       11.2947092669
 Au        16.8276424560       14.2088229057       14.4311263288
 Au        12.8399699692       12.5290976628       15.0118402111
 Au        14.7151983631       10.4596369130       15.2095965836
 Au        17.6783657152       16.8716434798       14.9120054295
 Au        19.6076087044       14.7391178960       14.7864705833
 Au        15.9821482281       17.5645914173       17.0427398236
 Au        18.9826076244       16.2212834575       12.5722483535
 Au        13.2961948996       17.9318408689       16.1875438216
 Au        16.8604030296       10.6901268540       17.0527756742
 Au        10.9655563640       16.2597479834       12.5774500769
 Au        15.2938598822       18.0911888090       11.8294981486
 Au        11.2207661441       16.4449482349       17.3897534820
 Au        10.7321416678       17.6705374465       14.9740803083
 Au        16.8630815256       13.1224436383       18.4391467787
 Au        15.5463153539       16.4423318893        9.5402316291
 Au        18.7208066430       12.6801810636       16.3392897135
 Au        16.4380394854       15.8407120848       19.2448446050
 Au        17.8155242699       14.9192617872       10.3706708755
 Au        14.4688181438       15.8951825013       21.2032557894
 Au        13.7433713876       16.6425297461       18.5677522501
 Au        13.2298937299       16.3268416082       11.0499939633
 Au        17.5221366842       12.8292396218       12.0729943107
 Au        17.7979911263       17.7720636554       10.5049632924
 Au        17.7505754760       18.8776166435       13.0016395799
 Au        17.6479052083       19.5361806444       15.7906903112
  C        19.2334283623       13.9728102881        8.7793317527
  O        19.9241664240       13.4898911872        8.0087288646
      40
 i =        2, E =     -1284.5122920953
 Au        15.0368075265       14.8444581779       16.4253419375
 Au        17.2949169038       11.3362820428       14.3721912218
 Au        14.4426116418       12.0577917208       17.3823705509
 Au        18.0777812605       15.3179706244       17.1667586818
 Au        12.4196187082       14.0128301938       17.3451160962
 Au        11.2359208369       14.8540625160       15.0064832416
 Au        12.9396416798       18.0871258936       13.3479211830
 Au        15.3187920947       18.8859462208       14.5518830906
 Au        14.8513360460       15.9971741815       13.9043632020
 Au        14.2379784216       13.8485517526       19.4684882610
 Au        14.8966025439       12.2999082730       13.1545988528
 Au        12.8189442412       14.1570711008       12.7811734923
 Au        15.2374981241       14.3308109445       11.2823829357
 Au        16.8371188380       14.1714381601       14.4285421616
 Au        12.8094806630       12.4984703205       15.0184003338
 Au        14.7097436232       10.4025962384       15.1940151789
 Au        17.6680483349       16.8742663818       14.8937638371
 Au        19.6398553436       14.7213949447       14.7712730294
 Au        15.9795258257       17.5776523267       17.0659871301
 Au        18.9716574749       16.2161025824       12.5304290177
 Au        13.2675014461       17.9440195226       16.1990722662
 Au        16.8706818110       10.6468804500       17.0670858533
 Au        10.9157192347       16.2577842400       12.5613297006
 Au        15.3105850581       18.0864027062       11.8186268891
 Au        11.1809997183       16.4670687405       17.4226488049
 Au        10.7046258541       17.6914477247       14.9717351956
 Au        16.8721460659       13.1204243577       18.4558950778
 Au        15.5727011008       16.4488256155        9.5015305998
 Au        18.7435080867       12.6641471437       16.3539690558
 Au        16.4642711784       15.8618197676       19.2931902520
 Au        17.9356175035       14.8375439060       10.1873774434
 Au        14.4611467591       15.9142278550       21.2302701131
 Au        13.7430132484       16.6563976258       18.6065471999
 Au        13.1999839805       16.3400495417       11.0010546170
 Au        17.5620505620       12.8255441619       12.0742885199
 Au        17.8107365107       17.7736518993       10.4790393395
 Au        17.7761220578       18.9211998576       12.9996474635
 Au        17.6719165368       19.5566131102       15.8149101312
  C        19.1791810394       14.0384714832        8.8256174940
  O        19.8752822471       13.5133483923        8.0740856778
      40
 i =        3, E =     -1284.5125101231
 Au        15.0368075265       14.8444581779       16.4253419375
 Au        17.2949169038       11.3362820428       14.3721912218
 Au        14.4426116418       12.0577917208       17.3823705509
 Au        18.0777812605       15.3179706244       17.1667586818
 Au        12.4196187082       14.0128301938       17.3451160962
 Au        11.2359208369       14.8540625160       15.0064832416
 Au        12.9396416798       18.0871258936       13.3479211830
 Au        15.3187920947       18.8859462208       14.5518830906
 Au        14.8513360460       15.9971741815       13.9043632020
 Au        14.2379784216       13.8485517526       19.4684882610
 Au        14.8966025439       12.2999082730       13.1545988528
 Au        12.8189442412       14.1570711008       12.7811734923
 Au        15.2374981241       14.3308109445       11.2823829357
 Au        16.8371188380       14.1714381601       14.4285421616
 Au        12.8094806630       12.4984703205       15.0184003338
 Au        14.7097436232       10.4025962384       15.1940151789
 Au        17.6680483349       16.8742663818       14.8937638371
 Au        19.6398553436       14.7213949447       14.7712730294
 Au        15.9795258257       17.5776523267       17.0659871301
 Au        18.9716574749       16.2161025824       12.5304290177
 Au        13.2675014461       17.9440195226       16.1990722662
 Au        16.8706818110       10.6468804500       17.0670858533
 Au        10.9157192347       16.2577842400       12.5613297006
 Au        15.3105850581       18.0864027062       11.8186268891
 Au        11.1809997183       16.4670687405       17.4226488049
 Au        10.7046258541       17.6914477247       14.9717351956
 Au        16.8721460659       13.1204243577       18.4558950778
 Au        15.5727011008       16.4488256155        9.5015305998
 Au        18.7435080867       12.6641471437       16.3539690558
 Au        16.4642711784       15.8618197676       19.2931902520
 Au        17.9356175035       14.8375439060       10.1873774434
 Au        14.4611467591       15.9142278550       21.2302701131
 Au        13.7430132484       16.6563976258       18.6065471999
 Au        13.1999839805       16.3400495417       11.0010546170
 Au        17.5620505620       12.8255441619       12.0742885199
 Au        17.8107365107       17.7736518993       10.4790393395
 Au        17.7761220578       18.9211998576       12.9996474635
 Au        17.6719165368       19.5566131102       15.8149101312
  C        19.1791810394       14.0384714832        8.8256174940
  O        19.8752822471       13.5133483923        8.0740856778
