     168
 i =        1, E =     -8144.3521232170
 Fe         5.0938794100       11.8196869300        0.3885799900
 Fe         7.6575796300        7.3792284900        0.3885799900
 Fe        10.2212798400        2.9387700600        0.3885799900
 Fe        -0.0335205200       11.8196869300        0.3885799900
 Fe         2.5301797000        7.3792284900        0.3885799900
 Fe         5.0938799200        2.9387700600        0.3885799900
 Fe        -5.1609204400       11.8196869300        0.3885799900
 Fe        -2.5972202200        7.3792284900        0.3885799900
 Fe        -0.0335200000        2.9387700600        0.3885799900
  O         8.4519195100        8.9577468800        1.1642700400
  O        11.0156197300        4.5172884400        1.1642700400
  O        13.5793199500        0.0768300000        1.1642700400
  O         3.3245195900        8.9577468800        1.1642700400
  O         5.8882198100        4.5172884400        1.1642700400
  O         8.4519200300        0.0768300000        1.1642700400
  O        -1.8028803300        8.9577468800        1.1642700400
  O         0.7608198900        4.5172884400        1.1642700400
  O         3.3245201100        0.0768300000        1.1642700400
  O         8.4568493000       11.7183869300        1.1650400200
  O        11.0205495200        7.2779284900        1.1650400200
  O        13.5842497300        2.8374700500        1.1650400200
  O         3.3294493700       11.7183869300        1.1650400200
  O         5.8931495900        7.2779284900        1.1650400200
  O         8.4568498100        2.8374700500        1.1650400200
  O        -1.7979505500       11.7183869300        1.1650400200
  O         0.7657496700        7.2779284900        1.1650400200
  O         3.3294498900        2.8374700500        1.1650400200
  O         6.0627194200       10.3425368500        1.1660399400
  O         8.6264196400        5.9020784100        1.1660399400
  O        11.1901198600        1.4616199700        1.1660399400
  O         0.9353195000       10.3425368500        1.1660399400
  O         3.4990197200        5.9020784100        1.1660399400
  O         6.0627199400        1.4616199700        1.1660399400
  O        -4.1920804200       10.3425368500        1.1660399400
  O        -1.6283802000        5.9020784100        1.1660399400
  O         0.9353200200        1.4616199700        1.1660399400
 Fe         7.6576695000       13.2997167500        1.9292099500
 Fe        10.2213697200        8.8592583200        1.9292099500
 Fe        12.7850699400        4.4187998800        1.9292099500
 Fe         2.5302695800       13.2997167500        1.9292099500
 Fe         5.0939698000        8.8592583200        1.9292099500
 Fe         7.6576700200        4.4187998800        1.9292099500
 Fe        -2.5971303400       13.2997167500        1.9292099500
 Fe        -0.0334301200        8.8592583200        1.9292099500
 Fe         2.5302701000        4.4187998800        1.9292099500
 Fe         7.6573893600       10.3392168700        2.7128999200
 Fe        10.2210895800        5.8987584300        2.7128999200
 Fe        12.7847898000        1.4582999900        2.7128999200
 Fe         2.5299894400       10.3392168700        2.7128999200
 Fe         5.0936896600        5.8987584300        2.7128999200
 Fe         7.6573898800        1.4582999900        2.7128999200
 Fe        -2.5974104800       10.3392168700        2.7128999200
 Fe        -0.0337102600        5.8987584300        2.7128999200
 Fe         2.5299899600        1.4582999900        2.7128999200
  O         4.0927054751       13.3150531057        3.5125070834
  O         6.6572951956        8.8755449566        3.5118469570
  O         9.2205132497        4.4374729407        3.5129217703
  O        -1.0347369346       13.3150938141        3.5121476424
  O         1.5318626890        8.8731197568        3.5137995260
  O         4.0918640576        4.4340680572        3.5101962588
  O        -6.1626418547       13.3149333259        3.5118042845
  O        -3.5983647406        8.8748261228        3.5120493461
  O        -1.0347395643        4.4342132277        3.5123650708
  O         6.8122810881       11.8720505205        3.4951498314
  O         9.3764901165        7.4307221638        3.4942293441
  O        11.9389325088        2.9905929850        3.4951508379
  O         1.6847836153       11.8721556510        3.4943732951
  O         4.2474273174        7.4323120211        3.4924647666
  O         6.8123660746        2.9910904819        3.4934394502
  O        -3.4422441887       11.8713445932        3.4956041593
  O        -0.8793621184        7.4314609991        3.4945498741
  O         1.6869151052        2.9901467969        3.4967701640
  O         9.4280427167       10.2245813075        3.4869383195
  O        11.9921373562        5.7836875520        3.4861052464
  O        14.5553160712        1.3434464012        3.4869917190
  O         4.2971729174       10.2238175690        3.4892904136
  O         6.8649292386        5.7838257886        3.4845681076
  O         9.4284822508        1.3432555772        3.4861716233
  O        -0.8268328279       10.2242142303        3.4869635235
  O         1.7362768650        5.7835286959        3.4859788898
  O         4.2998568241        1.3440511234        3.4866806561
 Fe         5.0354496061       11.8353787449        4.4192997625
 Fe         7.6016042150        7.3951314947        4.4175499137
 Fe        10.1614295483        2.9565845159        4.4194419065
 Fe        -0.0915703815       11.8365878889        4.4200816019
 Fe         2.4730128887        7.3935914853        4.4216039458
 Fe         5.0350008153        2.9545655300        4.4191681626
 Fe        -5.2188115872       11.8365388886        4.4198938857
 Fe        -2.6555398286        7.3956209876        4.4199077473
 Fe        -0.0903571089        2.9553004668        4.4197226844
 Fe         7.6084749538       13.1857190470        4.8069537887
 Fe        10.1718536423        8.7436502249        4.8056688795
 Fe        12.7358272893        4.3042243018        4.8068901635
 Fe         2.4804183446       13.1855310973        4.8068992839
 Fe         5.0429137415        8.7476135690        4.8031539532
 Fe         7.6117519250        4.3049589312        4.8055570297
 Fe        -2.6466351575       13.1864087954        4.8068319443
 Fe        -0.0825069766        8.7446024636        4.8061960231
 Fe         2.4815262950        4.3040740074        4.8063592358
  O         5.8556696964       10.3465848994        5.8714218994
  O         8.4200772989        5.9078276420        5.8710503250
  O        10.9830517748        1.4652835875        5.8713976508
  O         0.7278335210       10.3458628827        5.8714068730
  O         3.2738163758        5.9081143761        5.8594230703
  O         5.8545905436        1.4633751124        5.8713297987
  O        -4.4000716669       10.3447282832        5.8707433668
  O        -1.8350628740        5.9059898947        5.8711398770
  O         0.7280305582        1.4650633549        5.8708668981
  O         5.9244581716       13.1734773441        5.6856336725
  O         8.4894666305        8.7345328431        5.6866866298
  O        11.0526055083        4.2936018793        5.6857228934
  O         0.7971287655       13.1748077425        5.6857373004
  O         3.3612420739        8.7352557006        5.6866006803
  O         5.9332403511        4.2745054959        5.6762366778
  O        -4.3300172139       13.1736357636        5.6855786051
  O        -1.7657854967        8.7338383105        5.6864056773
  O         0.7975445859        4.2934995244        5.6846729117
  O         3.4671270840       11.7743620506        5.6691131032
  O         6.0404545257        7.3526219616        5.6602353952
  O         8.5950151162        2.8928211858        5.6677545382
  O        -1.6607002909       11.7739445034        5.6677757613
  O         0.9023147310        7.3342879151        5.6690615009
  O         3.4653055729        2.8920613577        5.6657014737
  O        -6.7881006106       11.7741613352        5.6687339244
  O        -4.2240288243        7.3334347813        5.6686118696
  O        -1.6597413875        2.8930333787        5.6680044691
 Fe         7.7824041324       10.2722300590        6.4328754783
 Fe        10.3456265033        5.8311776041        6.4338118298
 Fe        12.9102772369        1.3911035177        6.4328913264
 Fe         2.6542954699       10.2725685438        6.4328034822
 Fe         5.2095831035        5.8298216948        6.3534131728
 Fe         7.7810700631        1.3922137081        6.4334460793
 Fe        -2.4728114342       10.2723593589        6.4331361539
 Fe         0.0921668218        5.8308313642        6.4337090905
 Fe         2.6557420707        1.3911330760        6.4335397817
  O         7.8346441924       10.3819146121        8.2644079367
  H         7.8900577498        9.5534427920        8.7731221552
  H         5.3478124211       10.6145915733        6.6698178201
  O        10.4045966661        5.9428349255        8.2632444656
  H        10.4509740994        5.1147341173        8.7743578898
  H         7.9101748201        6.1723509811        6.6699443891
  O        12.9667169101        1.5012673110        8.2625446825
  H        13.0141825196        0.6746488666        8.7755481503
  H        10.4750567500        1.7321291940        6.6705270275
  O         2.7159653010       10.3821666478        8.2641669113
  H         2.7560303757        9.5531666671        8.7730694099
  H         0.2206888855       10.6138809038        6.6704538298
  O         5.2773456692        5.9555265213        8.1552179879
  H         5.3184459123        5.1776406291        8.7900335464
  H         2.7863508862        6.1709186508        6.6715327667
  O         7.8441514406        1.5000938974        8.2612573867
  H         7.8854009148        0.6747246625        8.7767939607
  H         5.3495683060        1.7326349936        6.6716370048
  O        -2.4157698591       10.3817938665        8.2628336195
  H        -2.3680180359        9.5547995182        8.7753813869
  H        -4.9061392586       10.6128988772        6.6704190531
  O         0.1480339975        5.9425617272        8.2631625117
  H         0.1970581796        5.1150783707        8.7750469601
  H        -2.3431196924        6.1733021957        6.6699782673
  O         2.7082588993        1.4998764824        8.2615316734
  H         2.7599323143        0.6748982053        8.7767504173
  H         0.2215202585        1.7321859719        6.6706463386
  C         5.3224067545        7.3956603091       11.5875948582
  C         5.3253058487        6.1051848100       10.9243668827
  H         4.9315903708        8.1986661444       10.9461361335
  H         4.6945803730        7.3093881418       12.4856012486
  H         6.3477983044        7.6475659486       11.8935126389
  N         5.3280416793        5.0542495505       10.4154642947
     168
 i =        2, E =     -8144.3558712510
 Fe         5.0938794100       11.8196869300        0.3885799900
 Fe         7.6575796300        7.3792284900        0.3885799900
 Fe        10.2212798400        2.9387700600        0.3885799900
 Fe        -0.0335205200       11.8196869300        0.3885799900
 Fe         2.5301797000        7.3792284900        0.3885799900
 Fe         5.0938799200        2.9387700600        0.3885799900
 Fe        -5.1609204400       11.8196869300        0.3885799900
 Fe        -2.5972202200        7.3792284900        0.3885799900
 Fe        -0.0335200000        2.9387700600        0.3885799900
  O         8.4519195100        8.9577468800        1.1642700400
  O        11.0156197300        4.5172884400        1.1642700400
  O        13.5793199500        0.0768300000        1.1642700400
  O         3.3245195900        8.9577468800        1.1642700400
  O         5.8882198100        4.5172884400        1.1642700400
  O         8.4519200300        0.0768300000        1.1642700400
  O        -1.8028803300        8.9577468800        1.1642700400
  O         0.7608198900        4.5172884400        1.1642700400
  O         3.3245201100        0.0768300000        1.1642700400
  O         8.4568493000       11.7183869300        1.1650400200
  O        11.0205495200        7.2779284900        1.1650400200
  O        13.5842497300        2.8374700500        1.1650400200
  O         3.3294493700       11.7183869300        1.1650400200
  O         5.8931495900        7.2779284900        1.1650400200
  O         8.4568498100        2.8374700500        1.1650400200
  O        -1.7979505500       11.7183869300        1.1650400200
  O         0.7657496700        7.2779284900        1.1650400200
  O         3.3294498900        2.8374700500        1.1650400200
  O         6.0627194200       10.3425368500        1.1660399400
  O         8.6264196400        5.9020784100        1.1660399400
  O        11.1901198600        1.4616199700        1.1660399400
  O         0.9353195000       10.3425368500        1.1660399400
  O         3.4990197200        5.9020784100        1.1660399400
  O         6.0627199400        1.4616199700        1.1660399400
  O        -4.1920804200       10.3425368500        1.1660399400
  O        -1.6283802000        5.9020784100        1.1660399400
  O         0.9353200200        1.4616199700        1.1660399400
 Fe         7.6576695000       13.2997167500        1.9292099500
 Fe        10.2213697200        8.8592583200        1.9292099500
 Fe        12.7850699400        4.4187998800        1.9292099500
 Fe         2.5302695800       13.2997167500        1.9292099500
 Fe         5.0939698000        8.8592583200        1.9292099500
 Fe         7.6576700200        4.4187998800        1.9292099500
 Fe        -2.5971303400       13.2997167500        1.9292099500
 Fe        -0.0334301200        8.8592583200        1.9292099500
 Fe         2.5302701000        4.4187998800        1.9292099500
 Fe         7.6573893600       10.3392168700        2.7128999200
 Fe        10.2210895800        5.8987584300        2.7128999200
 Fe        12.7847898000        1.4582999900        2.7128999200
 Fe         2.5299894400       10.3392168700        2.7128999200
 Fe         5.0936896600        5.8987584300        2.7128999200
 Fe         7.6573898800        1.4582999900        2.7128999200
 Fe        -2.5974104800       10.3392168700        2.7128999200
 Fe        -0.0337102600        5.8987584300        2.7128999200
 Fe         2.5299899600        1.4582999900        2.7128999200
  O         4.0934653928       13.3146608452        3.5128245846
  O         6.6568444578        8.8779019145        3.5082396860
  O         9.2265861510        4.4362146530        3.5167898160
  O        -1.0371148962       13.3140932446        3.5080664676
  O         1.5250333076        8.8749788327        3.5065121373
  O         4.0952012522        4.4369504828        3.5190803488
  O        -6.1628550533       13.3145697723        3.5115487844
  O        -3.5973680577        8.8750279912        3.5130379587
  O        -1.0352666403        4.4336009223        3.5106927454
  O         6.8116260331       11.8724849208        3.4945905951
  O         9.3782428125        7.4320460976        3.4941053679
  O        11.9398397398        2.9914289044        3.4935486254
  O         1.6849140999       11.8715170217        3.4962139445
  O         4.2476854756        7.4297698269        3.4985591331
  O         6.8140273244        2.9877363978        3.4933626123
  O        -3.4422230069       11.8734388324        3.4923527258
  O        -0.8792200358        7.4355312387        3.4886919718
  O         1.6829743616        2.9877724826        3.4960283293
  O         9.4279988541       10.2247238618        3.4873218483
  O        11.9926740861        5.7834240528        3.4856803884
  O        14.5556053033        1.3430706218        3.4863010114
  O         4.2981021703       10.2266018408        3.4888964109
  O         6.8607466540        5.7872224888        3.4939860205
  O         9.4285320076        1.3431786569        3.4863285653
  O        -0.8236728895       10.2223651349        3.4814418014
  O         1.7342930679        5.7839233671        3.4867535168
  O         4.3012119140        1.3389343323        3.4810973499
 Fe         5.0359858077       11.8369140018        4.4212178354
 Fe         7.6043792065        7.4012614939        4.4182322262
 Fe        10.1648151893        2.9540705653        4.4215609007
 Fe        -0.0935074609       11.8369355343        4.4185008975
 Fe         2.4668005245        7.3977073047        4.4178564599
 Fe         5.0362271202        2.9464752421        4.4172344275
 Fe        -5.2179823093       11.8367275037        4.4199294646
 Fe        -2.6540197479        7.3952375357        4.4195065564
 Fe        -0.0921224011        2.9550418242        4.4206428006
 Fe         7.6086773966       13.1856956241        4.8067697642
 Fe        10.1736553572        8.7445514204        4.8062899688
 Fe        12.7360998014        4.3039003436        4.8061254389
 Fe         2.4802511949       13.1864086615        4.8074874970
 Fe         5.0445658805        8.7519213023        4.8036789054
 Fe         7.6149307871        4.3009911826        4.8072384549
 Fe        -2.6465465273       13.1861039742        4.8062394385
 Fe        -0.0828790435        8.7452120617        4.8038535018
 Fe         2.4772201298        4.3014008331        4.8071552489
  O         5.8564963163       10.3503439990        5.8712228832
  O         8.4184225939        5.9083795512        5.8709762586
  O        10.9834470161        1.4645904519        5.8717115664
  O         0.7286591065       10.3459973789        5.8721952234
  O         3.2703724699        5.9123945642        5.8479490550
  O         5.8539245368        1.4595208151        5.8727405693
  O        -4.3990810250       10.3453225820        5.8710816021
  O        -1.8355774581        5.9054395904        5.8706814348
  O         0.7279567171        1.4647920681        5.8704792073
  O         5.9253663405       13.1748724095        5.6867630162
  O         8.4937209757        8.7375343772        5.6893701192
  O        11.0535830157        4.2944520000        5.6864663421
  O         0.7966120730       13.1741071345        5.6849923810
  O         3.3611943922        8.7338265705        5.6869600920
  O         5.9304928034        4.2699170508        5.6602396436
  O        -4.3301441815       13.1737694904        5.6850060086
  O        -1.7652236823        8.7341885657        5.6859410381
  O         0.7936109644        4.2926099536        5.6859108551
  O         3.4663488277       11.7743297625        5.6702271564
  O         6.0400263104        7.3503984432        5.6455519846
  O         8.5996166243        2.8894718593        5.6672362198
  O        -1.6608874775       11.7733657417        5.6678708109
  O         0.8993162362        7.3359548482        5.6703155346
  O         3.4657583155        2.8921413767        5.6639641733
  O        -6.7884550980       11.7734779477        5.6691571953
  O        -4.2234635735        7.3327887791        5.6683094589
  O        -1.6608543374        2.8927783858        5.6685650091
 Fe         7.7814269462       10.2723975555        6.4332281014
 Fe        10.3438545219        5.8315298225        6.4337921987
 Fe        12.9090565374        1.3916038745        6.4329818824
 Fe         2.6553554590       10.2717110095        6.4328309404
 Fe         5.2101668970        5.8254380131        6.3392964964
 Fe         7.7803324910        1.3923876941        6.4334825662
 Fe        -2.4724534310       10.2721329385        6.4330562615
 Fe         0.0912772127        5.8313479473        6.4338765227
 Fe         2.6564886522        1.3920486963        6.4336228820
  O         7.8299512321       10.3819297810        8.2669755532
  H         7.8939664603        9.5502459762        8.7690966731
  H         5.3470723061       10.6156455167        6.6692253198
  O        10.4059063800        5.9437132506        8.2640625498
  H        10.4494513429        5.1141903911        8.7732471282
  H         7.9057928801        6.1688742632        6.6701362264
  O        12.9669932348        1.5014512693        8.2628548347
  H        13.0142285923        0.6741938948        8.7745558192
  H        10.4747247798        1.7323757316        6.6699711317
  O         2.7212258107       10.3826593415        8.2666201496
  H         2.7509393716        9.5490586550        8.7686349837
  H         0.2195526164       10.6146030375        6.6700119805
  O         5.2794487714        5.9817188856        8.1231688579
  H         5.3145901339        5.2251688162        8.7809036690
  H         2.7937755031        6.1673870539        6.6710597157
  O         7.8495655418        1.4983762067        8.2600941987
  H         7.8839884206        0.6738677441        8.7772518763
  H         5.3509715075        1.7351826053        6.6724196639
  O        -2.4157507059       10.3816791934        8.2632848575
  H        -2.3680657497        9.5537887901        8.7741684795
  H        -4.9063401674       10.6132581492        6.6699455078
  O         0.1476476094        5.9432547668        8.2641053966
  H         0.1982677825        5.1145405517        8.7738436964
  H        -2.3427203995        6.1733127574        6.6698297190
  O         2.7028490616        1.4981453577        8.2609893002
  H         2.7617673742        0.6745416040        8.7775164122
  H         0.2221674014        1.7324161988        6.6706130099
  C         5.3246817321        7.3887177217       11.6012864707
  C         5.3239055409        6.0912802243       10.9563203228
  H         4.9347142592        8.1764421578       10.9375759297
  H         4.6912276945        7.3332217119       12.4968741875
  H         6.3483743387        7.6581681051       11.8956803769
  N         5.3322849433        5.0128554229       10.5015627428
     168
 i =        3, E =     -8144.3543717132
 Fe         5.0938794100       11.8196869300        0.3885799900
 Fe         7.6575796300        7.3792284900        0.3885799900
 Fe        10.2212798400        2.9387700600        0.3885799900
 Fe        -0.0335205200       11.8196869300        0.3885799900
 Fe         2.5301797000        7.3792284900        0.3885799900
 Fe         5.0938799200        2.9387700600        0.3885799900
 Fe        -5.1609204400       11.8196869300        0.3885799900
 Fe        -2.5972202200        7.3792284900        0.3885799900
 Fe        -0.0335200000        2.9387700600        0.3885799900
  O         8.4519195100        8.9577468800        1.1642700400
  O        11.0156197300        4.5172884400        1.1642700400
  O        13.5793199500        0.0768300000        1.1642700400
  O         3.3245195900        8.9577468800        1.1642700400
  O         5.8882198100        4.5172884400        1.1642700400
  O         8.4519200300        0.0768300000        1.1642700400
  O        -1.8028803300        8.9577468800        1.1642700400
  O         0.7608198900        4.5172884400        1.1642700400
  O         3.3245201100        0.0768300000        1.1642700400
  O         8.4568493000       11.7183869300        1.1650400200
  O        11.0205495200        7.2779284900        1.1650400200
  O        13.5842497300        2.8374700500        1.1650400200
  O         3.3294493700       11.7183869300        1.1650400200
  O         5.8931495900        7.2779284900        1.1650400200
  O         8.4568498100        2.8374700500        1.1650400200
  O        -1.7979505500       11.7183869300        1.1650400200
  O         0.7657496700        7.2779284900        1.1650400200
  O         3.3294498900        2.8374700500        1.1650400200
  O         6.0627194200       10.3425368500        1.1660399400
  O         8.6264196400        5.9020784100        1.1660399400
  O        11.1901198600        1.4616199700        1.1660399400
  O         0.9353195000       10.3425368500        1.1660399400
  O         3.4990197200        5.9020784100        1.1660399400
  O         6.0627199400        1.4616199700        1.1660399400
  O        -4.1920804200       10.3425368500        1.1660399400
  O        -1.6283802000        5.9020784100        1.1660399400
  O         0.9353200200        1.4616199700        1.1660399400
 Fe         7.6576695000       13.2997167500        1.9292099500
 Fe        10.2213697200        8.8592583200        1.9292099500
 Fe        12.7850699400        4.4187998800        1.9292099500
 Fe         2.5302695800       13.2997167500        1.9292099500
 Fe         5.0939698000        8.8592583200        1.9292099500
 Fe         7.6576700200        4.4187998800        1.9292099500
 Fe        -2.5971303400       13.2997167500        1.9292099500
 Fe        -0.0334301200        8.8592583200        1.9292099500
 Fe         2.5302701000        4.4187998800        1.9292099500
 Fe         7.6573893600       10.3392168700        2.7128999200
 Fe        10.2210895800        5.8987584300        2.7128999200
 Fe        12.7847898000        1.4582999900        2.7128999200
 Fe         2.5299894400       10.3392168700        2.7128999200
 Fe         5.0936896600        5.8987584300        2.7128999200
 Fe         7.6573898800        1.4582999900        2.7128999200
 Fe        -2.5974104800       10.3392168700        2.7128999200
 Fe        -0.0337102600        5.8987584300        2.7128999200
 Fe         2.5299899600        1.4582999900        2.7128999200
  O         4.0935477509       13.3156090343        3.5125886583
  O         6.6541929689        8.8842473710        3.4957135265
  O         9.2361566479        4.4309530654        3.5167913222
  O        -1.0265244617       13.3204095821        3.5283440972
  O         1.5414787869        8.8936918015        3.5475370717
  O         4.0986566953        4.4423590199        3.5326869496
  O        -6.1626243938       13.3141623087        3.5123097754
  O        -3.5956793438        8.8764312990        3.5144454277
  O        -1.0338541760        4.4336279558        3.5121373185
  O         6.8094763036       11.8727131316        3.4949879561
  O         9.3825653329        7.4368879061        3.4934442207
  O        11.9419720203        2.9906230686        3.4945785101
  O         1.6863044933       11.8713597422        3.4976963126
  O         4.2478326660        7.4253927704        3.5092372541
  O         6.8199539074        2.9846101283        3.4825215589
  O        -3.4437381058       11.8597917019        3.5126842094
  O        -0.8810869177        7.4102297752        3.5292726323
  O         1.6737219294        2.9863484263        3.4873468805
  O         9.4270184214       10.2238092767        3.4888559172
  O        11.9915728250        5.7844367251        3.4888868021
  O        14.5549586209        1.3422606324        3.4866980270
  O         4.3027111522       10.2331455954        3.4846345531
  O         6.8554071081        5.7928200707        3.5077234935
  O         9.4301090599        1.3423179873        3.4848013111
  O        -0.8446186272       10.2358034786        3.5220250786
  O         1.7319001500        5.7808521929        3.4800419472
  O         4.2900797917        1.3355506705        3.4964829739
 Fe         5.0354363691       11.8422568402        4.4244775028
 Fe         7.6095953006        7.4158013804        4.4179337982
 Fe        10.1705921048        2.9498459309        4.4247227338
 Fe        -0.0863982462       11.8435277404        4.4300423221
 Fe         2.4605139996        7.3900432220        4.4205748215
 Fe         5.0445376012        2.9350251833        4.4144803468
 Fe        -5.2224282396       11.8358087380        4.4242141913
 Fe        -2.6625876131        7.3948719356        4.4270649921
 Fe        -0.0940280804        2.9535213150        4.4231617998
 Fe         7.6090473893       13.1861731546        4.8069257250
 Fe        10.1786539361        8.7485153773        4.8079041214
 Fe        12.7365003069        4.3036982043        4.8066869945
 Fe         2.4809099882       13.1881196707        4.8073897190
 Fe         5.0486376647        8.7621863333        4.8037252815
 Fe         7.6234084248        4.2904739735        4.8074606936
 Fe        -2.6461095019       13.1840848857        4.8175064146
 Fe        -0.0844918241        8.7473793998        4.8211579167
 Fe         2.4659778588        4.2945689539        4.8058985921
  O         5.8586297656       10.3605924796        5.8705499531
  O         8.4135406403        5.9085743952        5.8714800532
  O        10.9841179948        1.4622616247        5.8723866114
  O         0.7327703111       10.3470960129        5.8758908983
  O         3.2637733100        5.9192834504        5.8171278743
  O         5.8526679616        1.4500703733        5.8768157119
  O        -4.3953108787       10.3478257999        5.8721824669
  O        -1.8359858782        5.9048633566        5.8695839052
  O         0.7279317398        1.4644060226        5.8694890987
  O         5.9274735522       13.1778677039        5.6899634863
  O         8.5055771690        8.7439018448        5.6966916034
  O        11.0552361111        4.2955564503        5.6888840718
  O         0.8008882937       13.1773194251        5.6867408431
  O         3.3604687494        8.7320678284        5.6874166944
  O         5.9255407230        4.2614328578        5.6190275207
  O        -4.3338515214       13.1733948380        5.6840857557
  O        -1.7701436797        8.7342655546        5.6871263621
  O         0.7840203475        4.2911239909        5.6886397266
  O         3.4642634687       11.7740936576        5.6738795168
  O         6.0379787505        7.3419430801        5.6038207822
  O         8.6109898712        2.8807634867        5.6650945146
  O        -1.6592053197       11.7686332639        5.6684030135
  O         0.8929333738        7.3376898086        5.6745391646
  O         3.4664999408        2.8921941198        5.6574159114
  O        -6.7922556154       11.7722746054        5.6728266587
  O        -4.2280403466        7.3322812446        5.6713589069
  O        -1.6631260786        2.8918281036        5.6696079156
 Fe         7.7794489238       10.2717172006        6.4344037370
 Fe        10.3386401241        5.8312811281        6.4337565517
 Fe        12.9062846997        1.3928238967        6.4336207800
 Fe         2.6567638364       10.2704198157        6.4328334260
 Fe         5.2113529093        5.8144101266        6.3078291313
 Fe         7.7777628573        1.3939368046        6.4338578726
 Fe        -2.4718997791       10.2718853887        6.4333351101
 Fe         0.0892723698        5.8328720708        6.4341858744
 Fe         2.6582297922        1.3947465134        6.4340468235
  O         7.8152260124       10.3817209142        8.2745812360
  H         7.9062732323        9.5401285587        8.7566038554
  H         5.3450452604       10.6191646783        6.6677062937
  O        10.4097144358        5.9462879303        8.2658872554
  H        10.4447334400        5.1127081892        8.7695502303
  H         7.8925865462        6.1583690228        6.6706358141
  O        12.9677498260        1.5021809375        8.2643088607
  H        13.0144024333        0.6725559010        8.7716564313
  H        10.4736452225        1.7330473803        6.6684927406
  O         2.7378176197       10.3834021703        8.2732060837
  H         2.7349314916        9.5361265104        8.7550353116
  H         0.2166364662       10.6168923130        6.6683295737
  O         5.2841972966        6.0648326818        8.0427415165
  H         5.3035955514        5.3654084965        8.7472390434
  H         2.8164994844        6.1572908600        6.6675520909
  O         7.8665861981        1.4929853940        8.2562301678
  H         7.8796062707        0.6712639778        8.7787034427
  H         5.3552171030        1.7425353828        6.6745586175
  O        -2.4157205717       10.3810531693        8.2642963682
  H        -2.3681783922        9.5506730241        8.7704813148
  H        -4.9069081995       10.6144086635        6.6683200599
  O         0.1465988436        5.9449684810        8.2663299613
  H         0.2019411493        5.1129684335        8.7702938984
  H        -2.3418621667        6.1731998384        6.6690801472
  O         2.6860335616        1.4929884399        8.2594304365
  H         2.7674586599        0.6735207344        8.7799355116
  H         0.2239826720        1.7328711222        6.6706256787
  C         5.3304614550        7.3697093587       11.6393740996
  C         5.3226764765        6.0405067645       11.0666821606
  H         4.9425624305        8.1094088110       10.9086445620
  H         4.6833631632        7.4064839421       12.5305405768
  H         6.3490427079        7.6883333856       11.9032804944
  N         5.3439496255        4.8946035496       10.7515627428
     168
 i =        4, E =     -8144.3573828755
 Fe         5.0938794100       11.8196869300        0.3885799900
 Fe         7.6575796300        7.3792284900        0.3885799900
 Fe        10.2212798400        2.9387700600        0.3885799900
 Fe        -0.0335205200       11.8196869300        0.3885799900
 Fe         2.5301797000        7.3792284900        0.3885799900
 Fe         5.0938799200        2.9387700600        0.3885799900
 Fe        -5.1609204400       11.8196869300        0.3885799900
 Fe        -2.5972202200        7.3792284900        0.3885799900
 Fe        -0.0335200000        2.9387700600        0.3885799900
  O         8.4519195100        8.9577468800        1.1642700400
  O        11.0156197300        4.5172884400        1.1642700400
  O        13.5793199500        0.0768300000        1.1642700400
  O         3.3245195900        8.9577468800        1.1642700400
  O         5.8882198100        4.5172884400        1.1642700400
  O         8.4519200300        0.0768300000        1.1642700400
  O        -1.8028803300        8.9577468800        1.1642700400
  O         0.7608198900        4.5172884400        1.1642700400
  O         3.3245201100        0.0768300000        1.1642700400
  O         8.4568493000       11.7183869300        1.1650400200
  O        11.0205495200        7.2779284900        1.1650400200
  O        13.5842497300        2.8374700500        1.1650400200
  O         3.3294493700       11.7183869300        1.1650400200
  O         5.8931495900        7.2779284900        1.1650400200
  O         8.4568498100        2.8374700500        1.1650400200
  O        -1.7979505500       11.7183869300        1.1650400200
  O         0.7657496700        7.2779284900        1.1650400200
  O         3.3294498900        2.8374700500        1.1650400200
  O         6.0627194200       10.3425368500        1.1660399400
  O         8.6264196400        5.9020784100        1.1660399400
  O        11.1901198600        1.4616199700        1.1660399400
  O         0.9353195000       10.3425368500        1.1660399400
  O         3.4990197200        5.9020784100        1.1660399400
  O         6.0627199400        1.4616199700        1.1660399400
  O        -4.1920804200       10.3425368500        1.1660399400
  O        -1.6283802000        5.9020784100        1.1660399400
  O         0.9353200200        1.4616199700        1.1660399400
 Fe         7.6576695000       13.2997167500        1.9292099500
 Fe        10.2213697200        8.8592583200        1.9292099500
 Fe        12.7850699400        4.4187998800        1.9292099500
 Fe         2.5302695800       13.2997167500        1.9292099500
 Fe         5.0939698000        8.8592583200        1.9292099500
 Fe         7.6576700200        4.4187998800        1.9292099500
 Fe        -2.5971303400       13.2997167500        1.9292099500
 Fe        -0.0334301200        8.8592583200        1.9292099500
 Fe         2.5302701000        4.4187998800        1.9292099500
 Fe         7.6573893600       10.3392168700        2.7128999200
 Fe        10.2210895800        5.8987584300        2.7128999200
 Fe        12.7847898000        1.4582999900        2.7128999200
 Fe         2.5299894400       10.3392168700        2.7128999200
 Fe         5.0936896600        5.8987584300        2.7128999200
 Fe         7.6573898800        1.4582999900        2.7128999200
 Fe        -2.5974104800       10.3392168700        2.7128999200
 Fe        -0.0337102600        5.8987584300        2.7128999200
 Fe         2.5299899600        1.4582999900        2.7128999200
  O         4.0919453292       13.3167082502        3.5115947861
  O         6.6565167571        8.8842941360        3.5006157849
  O         9.2255746704        4.4289863282        3.5028446464
  O        -1.0325608745       13.3191776836        3.5205937812
  O         1.5369882934        8.8871374429        3.5377860783
  O         4.0889358262        4.4354836760        3.5086324438
  O        -6.1632659892       13.3141460295        3.5119405882
  O        -3.5965793556        8.8738033355        3.5128248742
  O        -1.0356721154        4.4327489856        3.5101183047
  O         6.8115066297       11.8729853396        3.4954269849
  O         9.3814940050        7.4363264781        3.4939927415
  O        11.9430239609        2.9916164919        3.4944885477
  O         1.6854052075       11.8731212536        3.4945921907
  O         4.2435730335        7.4298869443        3.4952246000
  O         6.8192803471        2.9914074931        3.4737824420
  O        -3.4442451987       11.8655284967        3.5024658001
  O        -0.8791798748        7.4164047490        3.5201902272
  O         1.6766080724        2.9921776650        3.4814325614
  O         9.4271481122       10.2239458378        3.4884466259
  O        11.9916257528        5.7835618327        3.4868297872
  O        14.5544726744        1.3416302691        3.4865957291
  O         4.3026812090       10.2313437567        3.4832685259
  O         6.8679800587        5.7856671020        3.4799870799
  O         9.4313331851        1.3412469269        3.4834583808
  O        -0.8387012155       10.2312635938        3.5101635162
  O         1.7370985773        5.7805335912        3.4724654435
  O         4.2966394897        1.3353941985        3.4898648915
 Fe         5.0354426442       11.8421726162        4.4198282833
 Fe         7.6054839081        7.4047700784        4.4126850705
 Fe        10.1676292613        2.9537905058        4.4183733675
 Fe        -0.0901561544       11.8416632908        4.4231630830
 Fe         2.4644059642        7.3907542484        4.4209688699
 Fe         5.0408676396        2.9431304207        4.4094356471
 Fe        -5.2197714003       11.8365418366        4.4209761194
 Fe        -2.6585547977        7.3938142050        4.4235653357
 Fe        -0.0929022384        2.9541990611        4.4195366280
 Fe         7.6082795202       13.1865559300        4.8075186917
 Fe        10.1763556631        8.7483794032        4.8086623888
 Fe        12.7360227672        4.3053776584        4.8072422782
 Fe         2.4806907823       13.1867961019        4.8072650414
 Fe         5.0440276836        8.7573668482        4.7990777216
 Fe         7.6199373741        4.2959161235        4.7993028473
 Fe        -2.6466779445       13.1811980319        4.8172113881
 Fe        -0.0857585466        8.7464473669        4.8235658784
 Fe         2.4718338799        4.2952982633        4.7995400230
  O         5.8567950734       10.3560881018        5.8702415029
  O         8.4143401398        5.9052976105        5.8742746020
  O        10.9843284307        1.4641638257        5.8719878073
  O         0.7309090824       10.3486954257        5.8776525660
  O         3.2663230359        5.9124089867        5.8258060737
  O         5.8539251049        1.4551177356        5.8773974600
  O        -4.3973261073       10.3485161848        5.8719302533
  O        -1.8367370497        5.9053871814        5.8714632722
  O         0.7266965845        1.4659752839        5.8681808828
  O         5.9259157991       13.1753320549        5.6899853534
  O         8.4975047462        8.7405919366        5.6924307325
  O        11.0541446477        4.2930786600        5.6897949001
  O         0.7997859577       13.1713386963        5.6866544689
  O         3.3618151921        8.7340837055        5.6905937323
  O         5.9291366351        4.2581871318        5.6350098793
  O        -4.3337673555       13.1723823949        5.6866632535
  O        -1.7723583504        8.7320404903        5.6921374256
  O         0.7901181268        4.2916783738        5.6860489457
  O         3.4673455483       11.7748612076        5.6730974067
  O         6.0410054871        7.3476118513        5.6113885927
  O         8.6062496224        2.8855316077        5.6640249998
  O        -1.6556127059       11.7715624136        5.6746850032
  O         0.8964482250        7.3369772599        5.6762740363
  O         3.4661359149        2.8917622588        5.6608846096
  O        -6.7895739645       11.7738417879        5.6714163610
  O        -4.2254035133        7.3334950562        5.6697118872
  O        -1.6623743024        2.8925199627        5.6680929851
 Fe         7.7810058928       10.2737564055        6.4344646202
 Fe        10.3424446202        5.8322985429        6.4334235130
 Fe        12.9089024948        1.3926019530        6.4344649303
 Fe         2.6564738496       10.2728909165        6.4332672794
 Fe         5.2143631329        5.8194704752        6.3114606609
 Fe         7.7830187078        1.3910405400        6.4345129147
 Fe        -2.4732245628       10.2730951760        6.4341550751
 Fe         0.0897144681        5.8318800608        6.4338995194
 Fe         2.6554494440        1.3928782817        6.4348154978
  O         7.8147652450       10.3799743644        8.2741149584
  H         7.9072990232        9.5391539654        8.7572615055
  H         5.3459117347       10.6199739474        6.6683013305
  O        10.4086590133        5.9455954057        8.2655028489
  H        10.4448069822        5.1126505893        8.7700410063
  H         7.8931309751        6.1593711793        6.6708289361
  O        12.9675005084        1.5023685119        8.2651190053
  H        13.0144718286        0.6721026238        8.7719626719
  H        10.4732561635        1.7323103123        6.6690310336
  O         2.7392282506       10.3815031932        8.2725355711
  H         2.7339423073        9.5350793638        8.7553146714
  H         0.2169685115       10.6183476194        6.6714223522
  O         5.2810310619        6.0776020035        8.0684190593
  H         5.3051265449        5.3608126959        8.7305547570
  H         2.8123385097        6.1605862567        6.6650294766
  O         7.8672391583        1.4943767472        8.2580788995
  H         7.8796271104        0.6711434622        8.7785266470
  H         5.3530381368        1.7415695635        6.6751274180
  O        -2.4155633267       10.3811334651        8.2652837429
  H        -2.3681704073        9.5500214294        8.7707899920
  H        -4.9068536971       10.6145780964        6.6696391839
  O         0.1474574787        5.9444263896        8.2660841595
  H         0.2016476632        5.1127257684        8.7707448425
  H        -2.3434917633        6.1724144285        6.6707239208
  O         2.6859300790        1.4939783953        8.2605178436
  H         2.7675106724        0.6738091311        8.7797456139
  H         0.2239675846        1.7320108522        6.6708441077
  C         5.3261715256        7.3795617442       11.6278935561
  C         5.3344894157        6.0048408415       11.1324917077
  H         4.9368650304        8.1141357619       10.9008676510
  H         4.6906327133        7.4040423327       12.5256181610
  H         6.3461932102        7.6788532770       11.9048793620
  N         5.3383351559        4.9242542242       10.7268489409
     168
 i =        5, E =     -8144.3458004353
 Fe         5.0938794100       11.8196869300        0.3885799900
 Fe         7.6575796300        7.3792284900        0.3885799900
 Fe        10.2212798400        2.9387700600        0.3885799900
 Fe        -0.0335205200       11.8196869300        0.3885799900
 Fe         2.5301797000        7.3792284900        0.3885799900
 Fe         5.0938799200        2.9387700600        0.3885799900
 Fe        -5.1609204400       11.8196869300        0.3885799900
 Fe        -2.5972202200        7.3792284900        0.3885799900
 Fe        -0.0335200000        2.9387700600        0.3885799900
  O         8.4519195100        8.9577468800        1.1642700400
  O        11.0156197300        4.5172884400        1.1642700400
  O        13.5793199500        0.0768300000        1.1642700400
  O         3.3245195900        8.9577468800        1.1642700400
  O         5.8882198100        4.5172884400        1.1642700400
  O         8.4519200300        0.0768300000        1.1642700400
  O        -1.8028803300        8.9577468800        1.1642700400
  O         0.7608198900        4.5172884400        1.1642700400
  O         3.3245201100        0.0768300000        1.1642700400
  O         8.4568493000       11.7183869300        1.1650400200
  O        11.0205495200        7.2779284900        1.1650400200
  O        13.5842497300        2.8374700500        1.1650400200
  O         3.3294493700       11.7183869300        1.1650400200
  O         5.8931495900        7.2779284900        1.1650400200
  O         8.4568498100        2.8374700500        1.1650400200
  O        -1.7979505500       11.7183869300        1.1650400200
  O         0.7657496700        7.2779284900        1.1650400200
  O         3.3294498900        2.8374700500        1.1650400200
  O         6.0627194200       10.3425368500        1.1660399400
  O         8.6264196400        5.9020784100        1.1660399400
  O        11.1901198600        1.4616199700        1.1660399400
  O         0.9353195000       10.3425368500        1.1660399400
  O         3.4990197200        5.9020784100        1.1660399400
  O         6.0627199400        1.4616199700        1.1660399400
  O        -4.1920804200       10.3425368500        1.1660399400
  O        -1.6283802000        5.9020784100        1.1660399400
  O         0.9353200200        1.4616199700        1.1660399400
 Fe         7.6576695000       13.2997167500        1.9292099500
 Fe        10.2213697200        8.8592583200        1.9292099500
 Fe        12.7850699400        4.4187998800        1.9292099500
 Fe         2.5302695800       13.2997167500        1.9292099500
 Fe         5.0939698000        8.8592583200        1.9292099500
 Fe         7.6576700200        4.4187998800        1.9292099500
 Fe        -2.5971303400       13.2997167500        1.9292099500
 Fe        -0.0334301200        8.8592583200        1.9292099500
 Fe         2.5302701000        4.4187998800        1.9292099500
 Fe         7.6573893600       10.3392168700        2.7128999200
 Fe        10.2210895800        5.8987584300        2.7128999200
 Fe        12.7847898000        1.4582999900        2.7128999200
 Fe         2.5299894400       10.3392168700        2.7128999200
 Fe         5.0936896600        5.8987584300        2.7128999200
 Fe         7.6573898800        1.4582999900        2.7128999200
 Fe        -2.5974104800       10.3392168700        2.7128999200
 Fe        -0.0337102600        5.8987584300        2.7128999200
 Fe         2.5299899600        1.4582999900        2.7128999200
  O         4.0928808555       13.3205199857        3.5172319465
  O         6.6666601564        8.8883204420        3.5260506304
  O         9.2446645137        4.4455276954        3.5520301957
  O        -1.0416792347       13.3172162550        3.5098525302
  O         1.5324817688        8.8734853881        3.5227088682
  O         4.1110032314        4.4380106679        3.5299813464
  O        -6.1639185026       13.3160321028        3.5136593596
  O        -3.5993289603        8.8712189606        3.5109955192
  O        -1.0367897651        4.4344806614        3.5127777470
  O         6.8158602674       11.8730341261        3.4979654620
  O         9.3781766339        7.4333298613        3.4949673850
  O        11.9445921147        2.9900442456        3.4991319453
  O         1.6847041901       11.8731569711        3.4949786557
  O         4.2363865377        7.4348286315        3.4732763458
  O         6.8134251458        2.9584952471        3.5323745025
  O        -3.4438123504       11.8753432147        3.4877020347
  O        -0.8753810568        7.4256828999        3.5079516723
  O         1.6823196006        2.9587381339        3.5437149599
  O         9.4277142281       10.2253785395        3.4880905482
  O        11.9874551854        5.7825882295        3.4900442453
  O        14.5517510785        1.3400673536        3.4888132643
  O         4.2946415857       10.2292456316        3.4942635215
  O         6.8583932907        5.7930811949        3.4918915262
  O         9.4286766273        1.3384399047        3.4875508284
  O        -0.8299706755       10.2241905859        3.4928893426
  O         1.7099302726        5.8035235329        3.5320168663
  O         4.3069866038        1.3373551673        3.4805811495
 Fe         5.0376069291       11.8411502458        4.4150545852
 Fe         7.6051430867        7.3941465444        4.4172321013
 Fe        10.1721380144        2.9432300400        4.4240004681
 Fe        -0.0962936498       11.8374854789        4.4139929420
 Fe         2.4834574164        7.4069393796        4.4384963388
 Fe         5.0281797083        2.9438990261        4.4308038706
 Fe        -5.2153579042       11.8386188770        4.4158654489
 Fe        -2.6521179839        7.3936357805        4.4177034992
 Fe        -0.1058087902        2.9536305318        4.4240046306
 Fe         7.6070426214       13.1876801959        4.8097718880
 Fe        10.1714795374        8.7466863732        4.8087165298
 Fe        12.7350252217        4.3091104557        4.8103460256
 Fe         2.4805589031       13.1844042438        4.8096408908
 Fe         5.0346664515        8.7454632573        4.7938151469
 Fe         7.6106631586        4.3088854075        4.8136908761
 Fe        -2.6477381143       13.1783153338        4.8171476569
 Fe        -0.0867798410        8.7444057227        4.8318075213
 Fe         2.4876203453        4.2996362519        4.8165401185
  O         5.8526927041       10.3422919491        5.8697196358
  O         8.4186407053        5.8998817636        5.8805300170
  O        10.9868578879        1.4643150246        5.8725319918
  O         0.7271272494       10.3509028162        5.8811415358
  O         3.2760757717        5.8975887739        5.8545132191
  O         5.8599007624        1.4651799919        5.8787406525
  O        -4.4021844692       10.3478863520        5.8713231199
  O        -1.8371576428        5.9064354164        5.8761914142
  O         0.7259174135        1.4691659397        5.8660658915
  O         5.9229134376       13.1721643830        5.6882336659
  O         8.4850115555        8.7381328446        5.6882193352
  O        11.0520428588        4.2905644442        5.6903069193
  O         0.7972339853       13.1634369658        5.6858461814
  O         3.3700368136        8.7458235937        5.7013766584
  O         5.9312353494        4.2568008961        5.6868919018
  O        -4.3327462013       13.1713363535        5.6911137844
  O        -1.7761241732        8.7283832338        5.7024728637
  O         0.7990071175        4.2927398169        5.6815282345
  O         3.4723171819       11.7764375933        5.6690691359
  O         6.0473986586        7.3603513980        5.6383333152
  O         8.5949307268        2.8915690567        5.6644394054
  O        -1.6515518026       11.7792751549        5.6860817312
  O         0.9054861571        7.3333838335        5.6793372920
  O         3.4600157410        2.8866493375        5.6764519118
  O        -6.7849311606       11.7773894998        5.6679645250
  O        -4.2216991450        7.3352346972        5.6670591030
  O        -1.6680473610        2.8942751086        5.6698712724
 Fe         7.7823226452       10.2796904052        6.4337161907
 Fe        10.3495875474        5.8338737450        6.4331611361
 Fe        12.9123703486        1.3905557392        6.4352348864
 Fe         2.6541624934       10.2807450976        6.4339287320
 Fe         5.2172272242        5.8372709614        6.3285827454
 Fe         7.7916166969        1.3846482088        6.4350776818
 Fe        -2.4760322707       10.2760555301        6.4358156490
 Fe         0.0913123133        5.8294346216        6.4338381389
 Fe         2.6481943162        1.3856551539        6.4363075815
  O         7.8182829086       10.3750312773        8.2689067296
  H         7.9062301053        9.5399593898        8.7620766070
  H         5.3491205465       10.6204269424        6.6692361586
  O        10.4054828532        5.9431613302        8.2634107734
  H        10.4461184709        5.1131384767        8.7719609692
  H         7.8994389855        6.1645866454        6.6709691336
  O        12.9668313368        1.5017507438        8.2639114913
  H        13.0145403675        0.6722396058        8.7729952846
  H        10.4739748730        1.7305992265        6.6690221899
  O         2.7380602288       10.3759891620        8.2673716868
  H         2.7359342247        9.5363175060        8.7595562039
  H         0.2192958321       10.6215144525        6.6779506211
  O         5.2728721053        6.0793711521        8.1487442075
  H         5.3109656221        5.3124665892        8.7198716385
  H         2.7972132010        6.1705147933        6.6600568562
  O         7.8646294011        1.4979000816        8.2607053898
  H         7.8808868791        0.6723231354        8.7776827761
  H         5.3482843517        1.7373549374        6.6735431211
  O        -2.4153623584       10.3811147325        8.2666579695
  H        -2.3681715428        9.5494240107        8.7725964078
  H        -4.9064254430       10.6150392512        6.6723943072
  O         0.1495942379        5.9423695007        8.2644059704
  H         0.2000407024        5.1126907939        8.7728007417
  H        -2.3471988021        6.1707418499        6.6742048376
  O         2.6899964333        1.4972111005        8.2616903687
  H         2.7660845616        0.6754140782        8.7783082051
  H         0.2237109560        1.7299672078        6.6704282058
  C         5.3175806627        7.3996382001       11.6056762063
  C         5.3541878357        5.9760100338       11.1927162095
  H         4.9250647690        8.1251518364       10.8898996162
  H         4.7043605904        7.3872087357       12.5145115041
  H         6.3425561484        7.6542429890       11.9078820112
  N         5.3253396415        4.9974875319       10.6283053862
     168
 i =        6, E =     -8144.3580151325
 Fe         5.0938794100       11.8196869300        0.3885799900
 Fe         7.6575796300        7.3792284900        0.3885799900
 Fe        10.2212798400        2.9387700600        0.3885799900
 Fe        -0.0335205200       11.8196869300        0.3885799900
 Fe         2.5301797000        7.3792284900        0.3885799900
 Fe         5.0938799200        2.9387700600        0.3885799900
 Fe        -5.1609204400       11.8196869300        0.3885799900
 Fe        -2.5972202200        7.3792284900        0.3885799900
 Fe        -0.0335200000        2.9387700600        0.3885799900
  O         8.4519195100        8.9577468800        1.1642700400
  O        11.0156197300        4.5172884400        1.1642700400
  O        13.5793199500        0.0768300000        1.1642700400
  O         3.3245195900        8.9577468800        1.1642700400
  O         5.8882198100        4.5172884400        1.1642700400
  O         8.4519200300        0.0768300000        1.1642700400
  O        -1.8028803300        8.9577468800        1.1642700400
  O         0.7608198900        4.5172884400        1.1642700400
  O         3.3245201100        0.0768300000        1.1642700400
  O         8.4568493000       11.7183869300        1.1650400200
  O        11.0205495200        7.2779284900        1.1650400200
  O        13.5842497300        2.8374700500        1.1650400200
  O         3.3294493700       11.7183869300        1.1650400200
  O         5.8931495900        7.2779284900        1.1650400200
  O         8.4568498100        2.8374700500        1.1650400200
  O        -1.7979505500       11.7183869300        1.1650400200
  O         0.7657496700        7.2779284900        1.1650400200
  O         3.3294498900        2.8374700500        1.1650400200
  O         6.0627194200       10.3425368500        1.1660399400
  O         8.6264196400        5.9020784100        1.1660399400
  O        11.1901198600        1.4616199700        1.1660399400
  O         0.9353195000       10.3425368500        1.1660399400
  O         3.4990197200        5.9020784100        1.1660399400
  O         6.0627199400        1.4616199700        1.1660399400
  O        -4.1920804200       10.3425368500        1.1660399400
  O        -1.6283802000        5.9020784100        1.1660399400
  O         0.9353200200        1.4616199700        1.1660399400
 Fe         7.6576695000       13.2997167500        1.9292099500
 Fe        10.2213697200        8.8592583200        1.9292099500
 Fe        12.7850699400        4.4187998800        1.9292099500
 Fe         2.5302695800       13.2997167500        1.9292099500
 Fe         5.0939698000        8.8592583200        1.9292099500
 Fe         7.6576700200        4.4187998800        1.9292099500
 Fe        -2.5971303400       13.2997167500        1.9292099500
 Fe        -0.0334301200        8.8592583200        1.9292099500
 Fe         2.5302701000        4.4187998800        1.9292099500
 Fe         7.6573893600       10.3392168700        2.7128999200
 Fe        10.2210895800        5.8987584300        2.7128999200
 Fe        12.7847898000        1.4582999900        2.7128999200
 Fe         2.5299894400       10.3392168700        2.7128999200
 Fe         5.0936896600        5.8987584300        2.7128999200
 Fe         7.6573898800        1.4582999900        2.7128999200
 Fe        -2.5974104800       10.3392168700        2.7128999200
 Fe        -0.0337102600        5.8987584300        2.7128999200
 Fe         2.5299899600        1.4582999900        2.7128999200
  O         4.0948051500       13.3165322930        3.5148520871
  O         6.6604755317        8.8831144685        3.5135398881
  O         9.2369876585        4.4440289920        3.5398320922
  O        -1.0244794294       13.3187613567        3.5326784039
  O         1.5245555036        8.8747065384        3.5106209648
  O         4.1042316152        4.4373430954        3.5279082039
  O        -6.1638998260       13.3138953308        3.5091555075
  O        -3.5980538828        8.8731712025        3.5122784738
  O        -1.0383814666        4.4324097937        3.5086320603
  O         6.8134807211       11.8744813705        3.4942974862
  O         9.3776745360        7.4335197642        3.4937207782
  O        11.9427276463        2.9915669001        3.4946056833
  O         1.6842076504       11.8725429972        3.4933947927
  O         4.2415344947        7.4365989165        3.4831337428
  O         6.8147708720        2.9681751824        3.5190439722
  O        -3.4439830559       11.8584983716        3.5153479960
  O        -0.8765091777        7.4345832093        3.4960166594
  O         1.6832642576        2.9683416506        3.5276965442
  O         9.4286379158       10.2252882690        3.4865028115
  O        11.9917132388        5.7832117630        3.4851865996
  O        14.5527930913        1.3403863694        3.4874405529
  O         4.2973747948       10.2269642928        3.4893505714
  O         6.8603853018        5.7896234488        3.4943785617
  O         9.4300455842        1.3401477361        3.4861822862
  O        -0.8250708880       10.2200164984        3.4839111413
  O         1.7187548774        5.7961469168        3.5149997295
  O         4.2922599044        1.3460645217        3.5050131431
 Fe         5.0375531370       11.8382571417        4.4186715526
 Fe         7.6048402199        7.3992918990        4.4164705162
 Fe        10.1698962296        2.9488892090        4.4216458461
 Fe        -0.0909986771       11.8279241557        4.4220472685
 Fe         2.4730392513        7.4057398198        4.4269767154
 Fe         5.0362268259        2.9501902269        4.4308245400
 Fe        -5.2229418646       11.8378339247        4.4212072447
 Fe        -2.6513330462        7.3941880479        4.4182227958
 Fe        -0.1004811076        2.9545751575        4.4214998756
 Fe         7.6085665626       13.1869233437        4.8072876918
 Fe        10.1728280668        8.7462215247        4.8076507320
 Fe        12.7348504042        4.3071715836        4.8082911152
 Fe         2.4804108817       13.1837383172        4.8075068585
 Fe         5.0396687608        8.7523154473        4.7990231711
 Fe         7.6144081324        4.3020541523        4.8159222618
 Fe        -2.6461324421       13.1816153764        4.8233923844
 Fe        -0.0841190262        8.7440989516        4.8256073387
 Fe         2.4810399981        4.2989039053        4.8190398106
  O         5.8550460827       10.3479410358        5.8704333509
  O         8.4157135531        5.9024578961        5.8778151423
  O        10.9840661470        1.4642036744        5.8719302147
  O         0.7288490601       10.3469915149        5.8816792333
  O         3.2763912760        5.9043839974        5.8519035901
  O         5.8565447632        1.4634033818        5.8782706792
  O        -4.4005317257       10.3474008567        5.8714856616
  O        -1.8375220523        5.9053847334        5.8749481066
  O         0.7253917003        1.4670481972        5.8692516494
  O         5.9252409790       13.1732513726        5.6878837870
  O         8.4894866312        8.7379761473        5.6893945541
  O        11.0541042384        4.2912065425        5.6919610221
  O         0.7974808255       13.1678046396        5.6853853574
  O         3.3662482705        8.7400664456        5.6937794514
  O         5.9330597643        4.2660408686        5.6867269664
  O        -4.3327134609       13.1710621774        5.6898567021
  O        -1.7715501508        8.7313908377        5.6974261774
  O         0.7939580107        4.2910251444        5.6880417625
  O         3.4700130928       11.7762637238        5.6704686966
  O         6.0438517931        7.3555969561        5.6366390221
  O         8.6002325752        2.8878884660        5.6690331085
  O        -1.6551713947       11.7763266789        5.6810200341
  O         0.9054027917        7.3380038153        5.6836407411
  O         3.4650490856        2.8877600640        5.6742057166
  O        -6.7892312149       11.7766932284        5.6714409056
  O        -4.2229708290        7.3339522204        5.6677724241
  O        -1.6643454438        2.8940122247        5.6697696798
 Fe         7.7808846827       10.2762413698        6.4335084571
 Fe        10.3461067756        5.8325670193        6.4338193727
 Fe        12.9110221053        1.3909257477        6.4346613389
 Fe         2.6561722668       10.2770670952        6.4340909302
 Fe         5.2145393211        5.8382132056        6.3368228705
 Fe         7.7855407609        1.3865481472        6.4346819728
 Fe        -2.4748388207       10.2745844475        6.4357819629
 Fe         0.0908180750        5.8313360702        6.4346601025
 Fe         2.6511277065        1.3869341004        6.4352508979
  O         7.8204613384       10.3756045422        8.2675748485
  H         7.9048539811        9.5409434633        8.7619419853
  H         5.3479812592       10.6185592302        6.6690492006
  O        10.4062614105        5.9435578648        8.2638707729
  H        10.4461155815        5.1131989883        8.7720636991
  H         7.9017273001        6.1656454838        6.6732672389
  O        12.9670558054        1.5012966986        8.2639601156
  H        13.0145285050        0.6723018399        8.7737045847
  H        10.4746596465        1.7312868175        6.6704005640
  O         2.7361529924       10.3769267796        8.2673172053
  H         2.7372541965        9.5370592094        8.7596303688
  H         0.2194460170       10.6222140029        6.6764383755
  O         5.2746849392        6.0698673204        8.1492708024
  H         5.3106279977        5.3000163173        8.7430770736
  H         2.7979104073        6.1700028711        6.6644640686
  O         7.8647579114        1.4973683919        8.2602491742
  H         7.8812777915        0.6724806355        8.7781319971
  H         5.3499325188        1.7373766466        6.6752050478
  O        -2.4157120249       10.3808112693        8.2660980959
  H        -2.3682971959        9.5498310094        8.7727120956
  H        -4.9066962474       10.6153551794        6.6711597853
  O         0.1491388625        5.9421815813        8.2649858546
  H         0.2001583975        5.1125825092        8.7733448558
  H        -2.3459811517        6.1712959813        6.6738143643
  O         2.6902961149        1.4966675449        8.2615044086
  H         2.7657146866        0.6753320796        8.7792396077
  H         0.2224033264        1.7305373002        6.6721955960
  C         5.3270330653        7.3775079074       11.6403556236
  C         5.3393448286        6.0380064356       11.0917566556
  H         4.9355996163        8.0888694807       10.8945600462
  H         4.6897272418        7.4046869054       12.5336577995
  H         6.3506540388        7.6717653992       11.9086891115
  N         5.3256035162        4.9692703843       10.6350422961
     168
 i =        7, E =     -8144.3582498868
 Fe         5.0938794100       11.8196869300        0.3885799900
 Fe         7.6575796300        7.3792284900        0.3885799900
 Fe        10.2212798400        2.9387700600        0.3885799900
 Fe        -0.0335205200       11.8196869300        0.3885799900
 Fe         2.5301797000        7.3792284900        0.3885799900
 Fe         5.0938799200        2.9387700600        0.3885799900
 Fe        -5.1609204400       11.8196869300        0.3885799900
 Fe        -2.5972202200        7.3792284900        0.3885799900
 Fe        -0.0335200000        2.9387700600        0.3885799900
  O         8.4519195100        8.9577468800        1.1642700400
  O        11.0156197300        4.5172884400        1.1642700400
  O        13.5793199500        0.0768300000        1.1642700400
  O         3.3245195900        8.9577468800        1.1642700400
  O         5.8882198100        4.5172884400        1.1642700400
  O         8.4519200300        0.0768300000        1.1642700400
  O        -1.8028803300        8.9577468800        1.1642700400
  O         0.7608198900        4.5172884400        1.1642700400
  O         3.3245201100        0.0768300000        1.1642700400
  O         8.4568493000       11.7183869300        1.1650400200
  O        11.0205495200        7.2779284900        1.1650400200
  O        13.5842497300        2.8374700500        1.1650400200
  O         3.3294493700       11.7183869300        1.1650400200
  O         5.8931495900        7.2779284900        1.1650400200
  O         8.4568498100        2.8374700500        1.1650400200
  O        -1.7979505500       11.7183869300        1.1650400200
  O         0.7657496700        7.2779284900        1.1650400200
  O         3.3294498900        2.8374700500        1.1650400200
  O         6.0627194200       10.3425368500        1.1660399400
  O         8.6264196400        5.9020784100        1.1660399400
  O        11.1901198600        1.4616199700        1.1660399400
  O         0.9353195000       10.3425368500        1.1660399400
  O         3.4990197200        5.9020784100        1.1660399400
  O         6.0627199400        1.4616199700        1.1660399400
  O        -4.1920804200       10.3425368500        1.1660399400
  O        -1.6283802000        5.9020784100        1.1660399400
  O         0.9353200200        1.4616199700        1.1660399400
 Fe         7.6576695000       13.2997167500        1.9292099500
 Fe        10.2213697200        8.8592583200        1.9292099500
 Fe        12.7850699400        4.4187998800        1.9292099500
 Fe         2.5302695800       13.2997167500        1.9292099500
 Fe         5.0939698000        8.8592583200        1.9292099500
 Fe         7.6576700200        4.4187998800        1.9292099500
 Fe        -2.5971303400       13.2997167500        1.9292099500
 Fe        -0.0334301200        8.8592583200        1.9292099500
 Fe         2.5302701000        4.4187998800        1.9292099500
 Fe         7.6573893600       10.3392168700        2.7128999200
 Fe        10.2210895800        5.8987584300        2.7128999200
 Fe        12.7847898000        1.4582999900        2.7128999200
 Fe         2.5299894400       10.3392168700        2.7128999200
 Fe         5.0936896600        5.8987584300        2.7128999200
 Fe         7.6573898800        1.4582999900        2.7128999200
 Fe        -2.5974104800       10.3392168700        2.7128999200
 Fe        -0.0337102600        5.8987584300        2.7128999200
 Fe         2.5299899600        1.4582999900        2.7128999200
  O         4.0948002163       13.3159746743        3.5129212045
  O         6.6626599397        8.8838791074        3.5103301518
  O         9.2290343110        4.4339971162        3.5166921180
  O        -1.0391740665       13.3125449219        3.5083467682
  O         1.5325252403        8.8872023377        3.5300145181
  O         4.0947988498        4.4381004533        3.5251890730
  O        -6.1556234757       13.3150520726        3.5224980102
  O        -3.5955383663        8.8752755469        3.5140618885
  O        -1.0261138530        4.4378216158        3.5289560193
  O         6.8111594288       11.8666080201        3.5053432575
  O         9.3798796359        7.4349356079        3.4944804336
  O        11.9403610381        2.9805308559        3.5100482284
  O         1.6860963499       11.8699045640        3.4970090000
  O         4.2450045881        7.4258745697        3.5100274968
  O         6.8185131848        2.9844150985        3.4929084182
  O        -3.4393264757       11.8702388214        3.5009142322
  O        -0.8804741470        7.4232871746        3.5126715730
  O         1.6794603444        2.9852103812        3.4969672328
  O         9.4264950529       10.2240470724        3.4895499326
  O        11.9847824744        5.7903307619        3.5023973042
  O        14.5482862815        1.3461485227        3.4972676968
  O         4.2954363486       10.2334252692        3.4961993780
  O         6.8619093466        5.7837880763        3.4958542234
  O         9.4318714430        1.3434080116        3.4846800896
  O        -0.8355762898       10.2290051201        3.5065719822
  O         1.7302770927        5.7814542126        3.4852038955
  O         4.3007471190        1.3327984592        3.4836059477
 Fe         5.0356358994       11.8434972714        4.4258318537
 Fe         7.6076718807        7.4034607096        4.4181017375
 Fe        10.1652211173        2.9532633577        4.4248138530
 Fe        -0.0912891694       11.8436216494        4.4215117061
 Fe         2.4578527307        7.3930784377        4.4176748631
 Fe         5.0404769010        2.9395093477        4.4165233928
 Fe        -5.2151341939       11.8334299941        4.4230582741
 Fe        -2.6559809675        7.3987758090        4.4277770831
 Fe        -0.0888054604        2.9528151901        4.4275486715
 Fe         7.6091161695       13.1863933843        4.8115279911
 Fe        10.1768189572        8.7474345778        4.8084915544
 Fe        12.7355952887        4.3051622235        4.8144180350
 Fe         2.4806288389       13.1863457631        4.8063707853
 Fe         5.0460329665        8.7608948657        4.8077937492
 Fe         7.6201670631        4.2934026820        4.8171831258
 Fe        -2.6445953081       13.1828265423        4.8220127846
 Fe        -0.0823522199        8.7452974727        4.8253990502
 Fe         2.4706977838        4.2955403570        4.8180254777
  O         5.8575130958       10.3580003699        5.8705039734
  O         8.4129683682        5.9069377690        5.8761239396
  O        10.9829393820        1.4630247256        5.8716014535
  O         0.7302765033       10.3470711283        5.8800991768
  O         3.2755281797        5.9144422730        5.8364358474
  O         5.8525594628        1.4565238587        5.8813218898
  O        -4.3984806416       10.3464551782        5.8736351476
  O        -1.8361135255        5.9057755533        5.8719415773
  O         0.7251619058        1.4635270947        5.8719684363
  O         5.9264799655       13.1765901642        5.6909713241
  O         8.4985848219        8.7387753634        5.6943567900
  O        11.0554200865        4.2939821595        5.6927029399
  O         0.8023610043       13.1721910353        5.6883427015
  O         3.3588635212        8.7322228413        5.6852347385
  O         5.9259978533        4.2700369419        5.6608982392
  O        -4.3319387678       13.1718290469        5.6903654621
  O        -1.7665974956        8.7364340288        5.6914377423
  O         0.7871758598        4.2927769577        5.6949177832
  O         3.4654651372       11.7758149995        5.6732205630
  O         6.0386372132        7.3440545376        5.6189023295
  O         8.6067746656        2.8825102786        5.6724137640
  O        -1.6566808697       11.7702309108        5.6762238116
  O         0.8990028549        7.3425725546        5.6855816238
  O         3.4706164892        2.8926950692        5.6714166900
  O        -6.7885097833       11.7733048309        5.6715432070
  O        -4.2280923856        7.3317186624        5.6697750287
  O        -1.6611915024        2.8916814612        5.6692061600
 Fe         7.7798976324       10.2729140693        6.4340047499
 Fe        10.3405654241        5.8309958981        6.4342142675
 Fe        12.9076926591        1.3927257516        6.4342187524
 Fe         2.6587223760       10.2726243906        6.4351395534
 Fe         5.2140819680        5.8316472671        6.3419462900
 Fe         7.7805106547        1.3884482101        6.4340722633
 Fe        -2.4752209408       10.2719710005        6.4351434619
 Fe         0.0892613696        5.8347025388        6.4359944309
 Fe         2.6539281360        1.3918214858        6.4342961335
  O         7.8161162148       10.3760804183        8.2708041757
  H         7.9090379644        9.5367631595        8.7567308047
  H         5.3461058357       10.6186255674        6.6686567872
  O        10.4087792432        5.9449588471        8.2643675508
  H        10.4437989639        5.1128906396        8.7703772508
  H         7.8974966920        6.1616378081        6.6757459483
  O        12.9676135667        1.5006833306        8.2640158048
  H        13.0146092180        0.6718182110        8.7731886581
  H        10.4746425309        1.7320333018        6.6699005353
  O         2.7419482756       10.3783741568        8.2715285580
  H         2.7314617107        9.5313470358        8.7539523111
  H         0.2187821316       10.6229445745        6.6741990264
  O         5.2781477987        6.0968697061        8.1182054811
  H         5.3046189640        5.3498999239        8.7536857274
  H         2.8093828785        6.1655655230        6.6683553536
  O         7.8727076288        1.4940159473        8.2576465016
  H         7.8798279090        0.6714719993        8.7794495942
  H         5.3528443539        1.7419598523        6.6794986271
  O        -2.4159877162       10.3797807979        8.2654264751
  H        -2.3685774156        9.5488756577        8.7713041191
  H        -4.9076265360       10.6158955106        6.6703384311
  O         0.1478503125        5.9427026747        8.2664013433
  H         0.2020802291        5.1117474515        8.7722124501
  H        -2.3437184887        6.1716111176        6.6714283982
  O         2.6828020669        1.4937187158        8.2608338320
  H         2.7678084393        0.6747165369        8.7815968531
  H         0.2222412354        1.7310286251        6.6734453314
  C         5.3336544708        7.3659501309       11.6541675004
  C         5.3223550835        6.0343984013       11.0964297945
  H         4.9427426163        8.0638182962       10.8895014853
  H         4.6882768267        7.4362735673       12.5461603202
  H         6.3502564709        7.6938432601       11.9154021441
  N         5.3373886931        4.8971535621       10.7489171209
     168
 i =        8, E =     -8144.3616218733
 Fe         5.0938794100       11.8196869300        0.3885799900
 Fe         7.6575796300        7.3792284900        0.3885799900
 Fe        10.2212798400        2.9387700600        0.3885799900
 Fe        -0.0335205200       11.8196869300        0.3885799900
 Fe         2.5301797000        7.3792284900        0.3885799900
 Fe         5.0938799200        2.9387700600        0.3885799900
 Fe        -5.1609204400       11.8196869300        0.3885799900
 Fe        -2.5972202200        7.3792284900        0.3885799900
 Fe        -0.0335200000        2.9387700600        0.3885799900
  O         8.4519195100        8.9577468800        1.1642700400
  O        11.0156197300        4.5172884400        1.1642700400
  O        13.5793199500        0.0768300000        1.1642700400
  O         3.3245195900        8.9577468800        1.1642700400
  O         5.8882198100        4.5172884400        1.1642700400
  O         8.4519200300        0.0768300000        1.1642700400
  O        -1.8028803300        8.9577468800        1.1642700400
  O         0.7608198900        4.5172884400        1.1642700400
  O         3.3245201100        0.0768300000        1.1642700400
  O         8.4568493000       11.7183869300        1.1650400200
  O        11.0205495200        7.2779284900        1.1650400200
  O        13.5842497300        2.8374700500        1.1650400200
  O         3.3294493700       11.7183869300        1.1650400200
  O         5.8931495900        7.2779284900        1.1650400200
  O         8.4568498100        2.8374700500        1.1650400200
  O        -1.7979505500       11.7183869300        1.1650400200
  O         0.7657496700        7.2779284900        1.1650400200
  O         3.3294498900        2.8374700500        1.1650400200
  O         6.0627194200       10.3425368500        1.1660399400
  O         8.6264196400        5.9020784100        1.1660399400
  O        11.1901198600        1.4616199700        1.1660399400
  O         0.9353195000       10.3425368500        1.1660399400
  O         3.4990197200        5.9020784100        1.1660399400
  O         6.0627199400        1.4616199700        1.1660399400
  O        -4.1920804200       10.3425368500        1.1660399400
  O        -1.6283802000        5.9020784100        1.1660399400
  O         0.9353200200        1.4616199700        1.1660399400
 Fe         7.6576695000       13.2997167500        1.9292099500
 Fe        10.2213697200        8.8592583200        1.9292099500
 Fe        12.7850699400        4.4187998800        1.9292099500
 Fe         2.5302695800       13.2997167500        1.9292099500
 Fe         5.0939698000        8.8592583200        1.9292099500
 Fe         7.6576700200        4.4187998800        1.9292099500
 Fe        -2.5971303400       13.2997167500        1.9292099500
 Fe        -0.0334301200        8.8592583200        1.9292099500
 Fe         2.5302701000        4.4187998800        1.9292099500
 Fe         7.6573893600       10.3392168700        2.7128999200
 Fe        10.2210895800        5.8987584300        2.7128999200
 Fe        12.7847898000        1.4582999900        2.7128999200
 Fe         2.5299894400       10.3392168700        2.7128999200
 Fe         5.0936896600        5.8987584300        2.7128999200
 Fe         7.6573898800        1.4582999900        2.7128999200
 Fe        -2.5974104800       10.3392168700        2.7128999200
 Fe        -0.0337102600        5.8987584300        2.7128999200
 Fe         2.5299899600        1.4582999900        2.7128999200
  O         4.0942400472       13.3152433092        3.5121981563
  O         6.6576407756        8.8822356596        3.5029858621
  O         9.2296949993        4.4349463997        3.5207610020
  O        -1.0346209351       13.3142333335        3.5160339994
  O         1.5288752682        8.8813761297        3.5220466171
  O         4.0959554533        4.4367649016        3.5229319157
  O        -6.1624133168       13.3139186394        3.5122129980
  O        -3.5976459168        8.8752483817        3.5122014512
  O        -1.0332981005        4.4355240996        3.5172118669
  O         6.8115501789       11.8730336312        3.4957816437
  O         9.3784263327        7.4361752222        3.4915390056
  O        11.9411523639        2.9876204032        3.4999877756
  O         1.6859157771       11.8711591290        3.4956517841
  O         4.2442105773        7.4317548076        3.4970054695
  O         6.8179042116        2.9814724565        3.4976802870
  O        -3.4401870332       11.8673278737        3.5047172199
  O        -0.8781460137        7.4276026788        3.5082453593
  O         1.6801360890        2.9833199027        3.5021665981
  O         9.4290020059       10.2239452599        3.4861966203
  O        11.9897306328        5.7853157798        3.4918446221
  O        14.5537672670        1.3421325666        3.4875617267
  O         4.2998516197       10.2301185575        3.4875082557
  O         6.8621732115        5.7844277475        3.4942637627
  O         9.4311075225        1.3418542746        3.4848563342
  O        -0.8323843312       10.2259188967        3.4987627957
  O         1.7285586697        5.7848023859        3.4904062914
  O         4.2987109248        1.3366632503        3.4890314337
 Fe         5.0367964984       11.8413558188        4.4217826181
 Fe         7.6054347847        7.4049734219        4.4158346426
 Fe        10.1683994988        2.9517819103        4.4225347806
 Fe        -0.0909589750       11.8381368356        4.4210027872
 Fe         2.4633276925        7.3961315942        4.4189493344
 Fe         5.0402014360        2.9429396627        4.4198936638
 Fe        -5.2188301092       11.8365671330        4.4198066793
 Fe        -2.6562478693        7.3961422042        4.4217782418
 Fe        -0.0940698797        2.9538199321        4.4224737254
 Fe         7.6091768774       13.1856850982        4.8093806019
 Fe        10.1756888341        8.7467536396        4.8076110441
 Fe        12.7359635917        4.3049744318        4.8127314855
 Fe         2.4806402336       13.1858517721        4.8069684499
 Fe         5.0443125242        8.7582070243        4.8031631395
 Fe         7.6176591479        4.2954678544        4.8175452596
 Fe        -2.6452166529       13.1830912033        4.8228616551
 Fe        -0.0834349045        8.7467760402        4.8264626934
 Fe         2.4741152368        4.2968922891        4.8182344720
  O         5.8558771407       10.3550283935        5.8707302076
  O         8.4127030632        5.9058664441        5.8768439796
  O        10.9828917339        1.4631787629        5.8721487254
  O         0.7300120927       10.3473819027        5.8810219902
  O         3.2775654143        5.9119380591        5.8404543108
  O         5.8537832671        1.4573889974        5.8813108098
  O        -4.3986046552       10.3474412217        5.8733290512
  O        -1.8364239769        5.9069081059        5.8735245883
  O         0.7251202340        1.4654173331        5.8716047524
  O         5.9261681241       13.1751607192        5.6901750153
  O         8.4972377951        8.7381173217        5.6939991672
  O        11.0552220665        4.2937496921        5.6928412576
  O         0.7998844217       13.1721262328        5.6856037507
  O         3.3611685756        8.7346566652        5.6875941405
  O         5.9261228138        4.2725680012        5.6675541084
  O        -4.3317239643       13.1709828455        5.6904630233
  O        -1.7695433710        8.7333974287        5.6925542945
  O         0.7898261127        4.2914105237        5.6931730716
  O         3.4674634267       11.7764794297        5.6728658391
  O         6.0384562148        7.3441260136        5.6215043493
  O         8.6059465259        2.8837961832        5.6701550027
  O        -1.6563554367       11.7725404441        5.6770513354
  O         0.8998086039        7.3418401054        5.6832826647
  O         3.4689133964        2.8911852252        5.6713938981
  O        -6.7878938142       11.7739337577        5.6729623970
  O        -4.2259019079        7.3333989057        5.6704892068
  O        -1.6609339859        2.8927593587        5.6718786503
 Fe         7.7797265368       10.2730958541        6.4339317988
 Fe        10.3418932336        5.8321095576        6.4343959222
 Fe        12.9081122649        1.3920040337        6.4345126981
 Fe         2.6578119105       10.2744096019        6.4343235859
 Fe         5.2148532702        5.8342258472        6.3504165444
 Fe         7.7823519630        1.3885938217        6.4349940975
 Fe        -2.4736394527       10.2726838543        6.4355492118
 Fe         0.0906950055        5.8335622663        6.4359882208
 Fe         2.6540355335        1.3900671381        6.4354141456
  O         7.8159282756       10.3748273734        8.2705311116
  H         7.9100795091        9.5355639609        8.7562136198
  H         5.3467257780       10.6191532353        6.6694659309
  O        10.4085372438        5.9448949455        8.2647906261
  H        10.4434250527        5.1127150177        8.7706486894
  H         7.8979769909        6.1619346618        6.6762815407
  O        12.9676234644        1.5007789368        8.2644014916
  H        13.0146129403        0.6715373977        8.7731455826
  H        10.4742055664        1.7314974030        6.6704305757
  O         2.7436881509       10.3764668271        8.2704730006
  H         2.7302036745        9.5299862542        8.7534626342
  H         0.2190317352       10.6240602436        6.6748001927
  O         5.2768834590        6.1066458576        8.1300227161
  H         5.3041198818        5.3527344728        8.7510783415
  H         2.8084032818        6.1672771344        6.6679772738
  O         7.8744764080        1.4941761013        8.2587088941
  H         7.8798854103        0.6712361522        8.7798871138
  H         5.3526308565        1.7421067324        6.6789100784
  O        -2.4162858049       10.3796375596        8.2662857577
  H        -2.3686166701        9.5481741975        8.7715316712
  H        -4.9080327820       10.6161818463        6.6705854197
  O         0.1479103447        5.9424986124        8.2667974524
  H         0.2022597217        5.1113935852        8.7724581804
  H        -2.3448423738        6.1715884990        6.6730228561
  O         2.6815921540        1.4940602707        8.2617174461
  H         2.7679804762        0.6749022077        8.7818084782
  H         0.2219222424        1.7305060133        6.6741902682
  C         5.3301768943        7.3714897440       11.6483569919
  C         5.3314020278        6.0076129139       11.1466292770
  H         4.9409037267        8.0661294379       10.8849817857
  H         4.6917442148        7.4377172238       12.5433449896
  H         6.3479702685        7.6889105870       11.9146427804
  N         5.3338490810        4.9089850168       10.7474731580
     168
 i =        9, E =     -8144.3616213291
 Fe         5.0938794100       11.8196869300        0.3885799900
 Fe         7.6575796300        7.3792284900        0.3885799900
 Fe        10.2212798400        2.9387700600        0.3885799900
 Fe        -0.0335205200       11.8196869300        0.3885799900
 Fe         2.5301797000        7.3792284900        0.3885799900
 Fe         5.0938799200        2.9387700600        0.3885799900
 Fe        -5.1609204400       11.8196869300        0.3885799900
 Fe        -2.5972202200        7.3792284900        0.3885799900
 Fe        -0.0335200000        2.9387700600        0.3885799900
  O         8.4519195100        8.9577468800        1.1642700400
  O        11.0156197300        4.5172884400        1.1642700400
  O        13.5793199500        0.0768300000        1.1642700400
  O         3.3245195900        8.9577468800        1.1642700400
  O         5.8882198100        4.5172884400        1.1642700400
  O         8.4519200300        0.0768300000        1.1642700400
  O        -1.8028803300        8.9577468800        1.1642700400
  O         0.7608198900        4.5172884400        1.1642700400
  O         3.3245201100        0.0768300000        1.1642700400
  O         8.4568493000       11.7183869300        1.1650400200
  O        11.0205495200        7.2779284900        1.1650400200
  O        13.5842497300        2.8374700500        1.1650400200
  O         3.3294493700       11.7183869300        1.1650400200
  O         5.8931495900        7.2779284900        1.1650400200
  O         8.4568498100        2.8374700500        1.1650400200
  O        -1.7979505500       11.7183869300        1.1650400200
  O         0.7657496700        7.2779284900        1.1650400200
  O         3.3294498900        2.8374700500        1.1650400200
  O         6.0627194200       10.3425368500        1.1660399400
  O         8.6264196400        5.9020784100        1.1660399400
  O        11.1901198600        1.4616199700        1.1660399400
  O         0.9353195000       10.3425368500        1.1660399400
  O         3.4990197200        5.9020784100        1.1660399400
  O         6.0627199400        1.4616199700        1.1660399400
  O        -4.1920804200       10.3425368500        1.1660399400
  O        -1.6283802000        5.9020784100        1.1660399400
  O         0.9353200200        1.4616199700        1.1660399400
 Fe         7.6576695000       13.2997167500        1.9292099500
 Fe        10.2213697200        8.8592583200        1.9292099500
 Fe        12.7850699400        4.4187998800        1.9292099500
 Fe         2.5302695800       13.2997167500        1.9292099500
 Fe         5.0939698000        8.8592583200        1.9292099500
 Fe         7.6576700200        4.4187998800        1.9292099500
 Fe        -2.5971303400       13.2997167500        1.9292099500
 Fe        -0.0334301200        8.8592583200        1.9292099500
 Fe         2.5302701000        4.4187998800        1.9292099500
 Fe         7.6573893600       10.3392168700        2.7128999200
 Fe        10.2210895800        5.8987584300        2.7128999200
 Fe        12.7847898000        1.4582999900        2.7128999200
 Fe         2.5299894400       10.3392168700        2.7128999200
 Fe         5.0936896600        5.8987584300        2.7128999200
 Fe         7.6573898800        1.4582999900        2.7128999200
 Fe        -2.5974104800       10.3392168700        2.7128999200
 Fe        -0.0337102600        5.8987584300        2.7128999200
 Fe         2.5299899600        1.4582999900        2.7128999200
  O         4.0942400472       13.3152433092        3.5121981563
  O         6.6576407756        8.8822356596        3.5029858621
  O         9.2296949993        4.4349463997        3.5207610020
  O        -1.0346209351       13.3142333335        3.5160339994
  O         1.5288752682        8.8813761297        3.5220466171
  O         4.0959554533        4.4367649016        3.5229319157
  O        -6.1624133168       13.3139186394        3.5122129980
  O        -3.5976459168        8.8752483817        3.5122014512
  O        -1.0332981005        4.4355240996        3.5172118669
  O         6.8115501789       11.8730336312        3.4957816437
  O         9.3784263327        7.4361752222        3.4915390056
  O        11.9411523639        2.9876204032        3.4999877756
  O         1.6859157771       11.8711591290        3.4956517841
  O         4.2442105773        7.4317548076        3.4970054695
  O         6.8179042116        2.9814724565        3.4976802870
  O        -3.4401870332       11.8673278737        3.5047172199
  O        -0.8781460137        7.4276026788        3.5082453593
  O         1.6801360890        2.9833199027        3.5021665981
  O         9.4290020059       10.2239452599        3.4861966203
  O        11.9897306328        5.7853157798        3.4918446221
  O        14.5537672670        1.3421325666        3.4875617267
  O         4.2998516197       10.2301185575        3.4875082557
  O         6.8621732115        5.7844277475        3.4942637627
  O         9.4311075225        1.3418542746        3.4848563342
  O        -0.8323843312       10.2259188967        3.4987627957
  O         1.7285586697        5.7848023859        3.4904062914
  O         4.2987109248        1.3366632503        3.4890314337
 Fe         5.0367964984       11.8413558188        4.4217826181
 Fe         7.6054347847        7.4049734219        4.4158346426
 Fe        10.1683994988        2.9517819103        4.4225347806
 Fe        -0.0909589750       11.8381368356        4.4210027872
 Fe         2.4633276925        7.3961315942        4.4189493344
 Fe         5.0402014360        2.9429396627        4.4198936638
 Fe        -5.2188301092       11.8365671330        4.4198066793
 Fe        -2.6562478693        7.3961422042        4.4217782418
 Fe        -0.0940698797        2.9538199321        4.4224737254
 Fe         7.6091768774       13.1856850982        4.8093806019
 Fe        10.1756888341        8.7467536396        4.8076110441
 Fe        12.7359635917        4.3049744318        4.8127314855
 Fe         2.4806402336       13.1858517721        4.8069684499
 Fe         5.0443125242        8.7582070243        4.8031631395
 Fe         7.6176591479        4.2954678544        4.8175452596
 Fe        -2.6452166529       13.1830912033        4.8228616551
 Fe        -0.0834349045        8.7467760402        4.8264626934
 Fe         2.4741152368        4.2968922891        4.8182344720
  O         5.8558771407       10.3550283935        5.8707302076
  O         8.4127030632        5.9058664441        5.8768439796
  O        10.9828917339        1.4631787629        5.8721487254
  O         0.7300120927       10.3473819027        5.8810219902
  O         3.2775654143        5.9119380591        5.8404543108
  O         5.8537832671        1.4573889974        5.8813108098
  O        -4.3986046552       10.3474412217        5.8733290512
  O        -1.8364239769        5.9069081059        5.8735245883
  O         0.7251202340        1.4654173331        5.8716047524
  O         5.9261681241       13.1751607192        5.6901750153
  O         8.4972377951        8.7381173217        5.6939991672
  O        11.0552220665        4.2937496921        5.6928412576
  O         0.7998844217       13.1721262328        5.6856037507
  O         3.3611685756        8.7346566652        5.6875941405
  O         5.9261228138        4.2725680012        5.6675541084
  O        -4.3317239643       13.1709828455        5.6904630233
  O        -1.7695433710        8.7333974287        5.6925542945
  O         0.7898261127        4.2914105237        5.6931730716
  O         3.4674634267       11.7764794297        5.6728658391
  O         6.0384562148        7.3441260136        5.6215043493
  O         8.6059465259        2.8837961832        5.6701550027
  O        -1.6563554367       11.7725404441        5.6770513354
  O         0.8998086039        7.3418401054        5.6832826647
  O         3.4689133964        2.8911852252        5.6713938981
  O        -6.7878938142       11.7739337577        5.6729623970
  O        -4.2259019079        7.3333989057        5.6704892068
  O        -1.6609339859        2.8927593587        5.6718786503
 Fe         7.7797265368       10.2730958541        6.4339317988
 Fe        10.3418932336        5.8321095576        6.4343959222
 Fe        12.9081122649        1.3920040337        6.4345126981
 Fe         2.6578119105       10.2744096019        6.4343235859
 Fe         5.2148532702        5.8342258472        6.3504165444
 Fe         7.7823519630        1.3885938217        6.4349940975
 Fe        -2.4736394527       10.2726838543        6.4355492118
 Fe         0.0906950055        5.8335622663        6.4359882208
 Fe         2.6540355335        1.3900671381        6.4354141456
  O         7.8159282756       10.3748273734        8.2705311116
  H         7.9100795091        9.5355639609        8.7562136198
  H         5.3467257780       10.6191532353        6.6694659309
  O        10.4085372438        5.9448949455        8.2647906261
  H        10.4434250527        5.1127150177        8.7706486894
  H         7.8979769909        6.1619346618        6.6762815407
  O        12.9676234644        1.5007789368        8.2644014916
  H        13.0146129403        0.6715373977        8.7731455826
  H        10.4742055664        1.7314974030        6.6704305757
  O         2.7436881509       10.3764668271        8.2704730006
  H         2.7302036745        9.5299862542        8.7534626342
  H         0.2190317352       10.6240602436        6.6748001927
  O         5.2768834590        6.1066458576        8.1300227161
  H         5.3041198818        5.3527344728        8.7510783415
  H         2.8084032818        6.1672771344        6.6679772738
  O         7.8744764080        1.4941761013        8.2587088941
  H         7.8798854103        0.6712361522        8.7798871138
  H         5.3526308565        1.7421067324        6.6789100784
  O        -2.4162858049       10.3796375596        8.2662857577
  H        -2.3686166701        9.5481741975        8.7715316712
  H        -4.9080327820       10.6161818463        6.6705854197
  O         0.1479103447        5.9424986124        8.2667974524
  H         0.2022597217        5.1113935852        8.7724581804
  H        -2.3448423738        6.1715884990        6.6730228561
  O         2.6815921540        1.4940602707        8.2617174461
  H         2.7679804762        0.6749022077        8.7818084782
  H         0.2219222424        1.7305060133        6.6741902682
  C         5.3301768943        7.3714897440       11.6483569919
  C         5.3314020278        6.0076129139       11.1466292770
  H         4.9409037267        8.0661294379       10.8849817857
  H         4.6917442148        7.4377172238       12.5433449896
  H         6.3479702685        7.6889105870       11.9146427804
  N         5.3338490810        4.9089850168       10.7474731580
