 DBCSR| Multiplication driver                                               XSMM
 DBCSR| Multrec recursion limit                                              512
 DBCSR| Multiplication stack size                                           1000
 DBCSR| Maximum elements for images                                    UNLIMITED
 DBCSR| Multiplicative factor virtual images                                   1
 DBCSR| Multiplication size stacks                                             3
 DBCSR| Number of 3D layers                                               SINGLE
 DBCSR| Use MPI memory allocation                                              T
 DBCSR| Use RMA algorithm                                                      F
 DBCSR| Use Communication thread                                               T
 DBCSR| Communication thread load                                             87


  **** **** ******  **  PROGRAM STARTED AT               2020-10-07 12:28:47.599
 ***** ** ***  *** **   PROGRAM STARTED ON                             irene6277
 **    ****   ******    PROGRAM STARTED BY                              marticar
 ***** **    ** ** **   PROGRAM PROCESS ID                                 41724
  **** **  *******  **  PROGRAM STARTED IN /ccc/scratch/cont003/gen0609/marticar
                                           /684167

 CP2K| version string:                                          CP2K version 6.1
 CP2K| source code revision number:                                    svn:18464
 CP2K| cp2kflags: libint fftw3 parallel mpi3 scalapack xsmm mkl                 
 CP2K| is freely available from                            https://www.cp2k.org/
 CP2K| Program compiled at                          Thu Dec 12 15:40:57 CET 2019
 CP2K| Program compiled on                                             cobalt175
 CP2K| Program compiled for                                   Linux-x86-64-iomkl
 CP2K| Data directory path          /tmp/cp2k/6.1/iomkl-195281.401/cp2k-6.1/data
 CP2K| Input file name                                             screening.inp
 
 GLOBAL| Force Environment number                                              1
 GLOBAL| Basis set file name            /ccc/work/cont003/gen0609/marticar/data/
 GLOBAL| Potential file name            /ccc/work/cont003/gen0609/marticar/data/
 GLOBAL| MM Potential file name                                     MM_POTENTIAL
 GLOBAL| Coordinate file name                                          coord.xyz
 GLOBAL| Method name                                                        CP2K
 GLOBAL| Project name                                                    PROJECT
 GLOBAL| Preferred FFT library                                             FFTW3
 GLOBAL| Preferred diagonalization lib.                                       SL
 GLOBAL| Run type                                                        GEO_OPT
 GLOBAL| All-to-all communication in single precision                          F
 GLOBAL| FFTs using library dependent lengths                                  F
 GLOBAL| Global print level                                                  LOW
 GLOBAL| Total number of message passing processes                            16
 GLOBAL| Number of threads for this process                                    1
 GLOBAL| This output is from process                                           0
 GLOBAL| CPU model name :  AMD EPYC 7H12 64-Core Processor

 MEMORY| system memory details [Kb]
 MEMORY|                        rank 0           min           max       average
 MEMORY| MemTotal            263246932     263246932     263246932     263246932
 MEMORY| MemFree             244210904     244210904     244210904     244210904
 MEMORY| Buffers                     0             0             0             0
 MEMORY| Cached                2099016       2099016       2099016       2099016
 MEMORY| Slab                  1961156       1961092       1961156       1961108
 MEMORY| SReclaimable           285128        285128        285128        285128
 MEMORY| MemLikelyFree       246595048     246595048     246595048     246595048

 
 GENERATE|  Preliminary Number of Bonds generated:                             0
 GENERATE|  Achieved consistency in connectivity generation.

 *******************************************************************************
 *******************************************************************************
 **                                                                           **
 **     #####                         ##              ##                      **
 **    ##   ##            ##          ##              ##                      **
 **   ##     ##                       ##            ######                    **
 **   ##     ##  ##   ##  ##   #####  ##  ##   ####   ##    #####    #####    **
 **   ##     ##  ##   ##  ##  ##      ## ##   ##      ##   ##   ##  ##   ##   **
 **   ##  ## ##  ##   ##  ##  ##      ####     ###    ##   ######   ######    **
 **    ##  ###   ##   ##  ##  ##      ## ##      ##   ##   ##       ##        **
 **     #######   #####   ##   #####  ##  ##  ####    ##    #####   ##        **
 **           ##                                                    ##        **
 **                                                                           **
 **                                                ... make the atoms dance   **
 **                                                                           **
 **            Copyright (C) by CP2K developers group (2000 - 2018)           **
 **                                                                           **
 *******************************************************************************


 TOTAL NUMBERS AND MAXIMUM NUMBERS

  Total number of            - Atomic kinds:                                   7
                             - Atoms:                                        168
                             - Shell sets:                                   168
                             - Shells:                                       960
                             - Primitive Cartesian functions:               1122
                             - Cartesian basis functions:                   3081
                             - Spherical basis functions:                   2718

  Maximum angular momentum of- Orbital basis functions:                        3
                             - Local part of the GTH pseudopotential:          2
                             - Non-local part of the GTH pseudopotential:      3


 SCF PARAMETERS         Density guess:                                   RESTART
                        --------------------------------------------------------
                        max_scf:                                             500
                        max_scf_history:                                       0
                        max_diis:                                              4
                        --------------------------------------------------------
                        eps_scf:                                        1.00E-05
                        eps_scf_history:                                0.00E+00
                        eps_diis:                                       1.00E-01
                        eps_eigval:                                     1.00E-05
                        --------------------------------------------------------
                        level_shift [a.u.]:                                 0.00
                        --------------------------------------------------------
                        Outer loop SCF in use 
                        No variables optimised in outer loop
                        eps_scf                                         1.00E-05
                        max_scf                                               10
                        No outer loop optimization
                        step_size                                       5.00E-01

 BFGS| Use rational function optimization for step estimation:                NO
 BFGS| Use model Hessian for initial guess:                                  YES
 BFGS| Restart Hessian:                                                       NO
 BFGS| Trust radius:                                                       0.472

 *******************************************************************************
 ***                     STARTING GEOMETRY OPTIMIZATION                      ***
 ***                                   BFGS                                  ***
 *******************************************************************************

 Spin 1

 Number of electrons:                                                        719
 Number of occupied orbitals:                                                719
 Number of molecular orbitals:                                               719

 Spin 2

 Number of electrons:                                                        719
 Number of occupied orbitals:                                                719
 Number of molecular orbitals:                                               719

 Number of orbital functions:                                               2718
 Number of independent orbital functions:                                   2718

 Extrapolation method: initial_guess

 *** WARNING in qs_initial_guess.F:263 :: User requested to restart the    ***
 *** wavefunction from the file named: PROJECT-RESTART.wfn. This file does ***
 *** not exist. Please check the existence of the file or change properly  ***
 *** the value of the keyword WFN_RESTART_FILE_NAME. Calculation continues ***
 *** using ATOMIC GUESS.                                                   ***



 SCF WAVEFUNCTION OPTIMIZATION

  ----------------------------------- OT ---------------------------------------
  Minimizer      : CG                  : conjugate gradient
  Preconditioner : FULL_ALL            : diagonalization, state selective
  Precond_solver : DEFAULT
  Line search    : 3PNT                : 3 energies
  stepsize       :    0.15000000                  energy_gap     :    0.08000000
  eps_taylor     :   0.10000E-15                  max_taylor     :             4
  ----------------------------------- OT ---------------------------------------

  Step     Update method      Time    Convergence         Total energy    Change
  ------------------------------------------------------------------------------
     1 OT CG       0.12E+00   12.7     0.01794835     -8055.9350974211 -8.06E+03
     2 OT LS       0.17E+00    7.8                    -8118.7446574725
     3 OT LS       0.12E+00    7.8                    -8110.9691329124
     4 OT CG       0.99E-01   15.0     0.00584102     -8118.5265765705 -6.26E+01
     5 OT LS       0.14E+00    7.8                    -8127.2125504010
     6 OT LS       0.17E+00    7.8                    -8128.6299196507
     7 OT CG       0.13E+00   14.9     0.00506023     -8128.9248096204 -1.04E+01
     8 OT LS       0.19E+00    7.7                    -8136.7047813426
     9 OT LS       0.17E+00    7.7                    -8137.0000790477
    10 OT CG       0.14E+00   14.7     0.00278661     -8137.0605458876 -8.14E+00
    11 OT LS       0.19E+00    7.7                    -8139.7871511548
    12 OT LS       0.20E+00    7.7                    -8140.0850787679
    13 OT CG       0.16E+00   14.7     0.00265940     -8140.0911658332 -3.03E+00
    14 OT LS       0.22E+00    7.7                    -8140.7497594249
    15 OT LS       0.94E-01    7.7                    -8138.9543428741
    16 OT CG       0.75E-01   14.7     0.00190335     -8141.3771532805 -1.29E+00
    17 OT LS       0.11E+00    7.7                    -8142.1505986182
    18 OT LS       0.14E+00    7.7                    -8142.2985518926
    19 OT CG       0.11E+00   14.7     0.00157550     -8142.3535113674 -9.76E-01
    20 OT LS       0.16E+00    7.7                    -8142.8719696050
    21 OT LS       0.11E+00    7.7                    -8142.7647794235
    22 OT CG       0.85E-01   14.7     0.00120751     -8142.8726793900 -5.19E-01
    23 OT LS       0.12E+00    7.8                    -8143.2074503152
    24 OT LS       0.14E+00    7.8                    -8143.2549499901
    25 OT CG       0.11E+00   15.1     0.00107561     -8143.2599714936 -3.87E-01
    26 OT LS       0.15E+00    7.8                    -8143.4930745985
    27 OT LS       0.10E+00    7.8                    -8143.4429341484
    28 OT CG       0.83E-01   14.9     0.00085527     -8143.4935552045 -2.34E-01
    29 OT LS       0.12E+00    7.8                    -8143.6625299890
    30 OT LS       0.14E+00    7.8                    -8143.6923038063
    31 OT CG       0.12E+00   14.8     0.00079496     -8143.7005514721 -2.07E-01
    32 OT LS       0.16E+00    7.8                    -8143.8415002599
    33 OT LS       0.11E+00    7.8                    -8143.8165132557
    34 OT CG       0.91E-01   14.9     0.00064703     -8143.8415269580 -1.41E-01
    35 OT LS       0.13E+00    7.8                    -8143.9404945415
    36 OT LS       0.13E+00    7.8                    -8143.9516284215
    37 OT CG       0.11E+00   14.8     0.00058571     -8143.9518858177 -1.10E-01
    38 OT LS       0.15E+00    7.8                    -8144.0308758539
    39 OT LS       0.12E+00    7.8                    -8144.0257801870
    40 OT CG       0.95E-01   14.9     0.00048166     -8144.0315882895 -7.97E-02
    41 OT LS       0.13E+00    7.8                    -8144.0888293923
    42 OT LS       0.14E+00    7.8                    -8144.0955475574
    43 OT CG       0.11E+00   14.9     0.00044172     -8144.0957789291 -6.42E-02
    44 OT LS       0.16E+00    7.8                    -8144.1417392167
    45 OT LS       0.12E+00    7.8                    -8144.1376012254
    46 OT CG       0.97E-01   14.9     0.00037228     -8144.1419460208 -4.62E-02
    47 OT LS       0.14E+00    7.8                    -8144.1749719932
    48 OT LS       0.13E+00    7.8                    -8144.1772562882
    49 OT CG       0.10E+00   14.9     0.00033978     -8144.1773135122 -3.54E-02
    50 OT LS       0.15E+00    7.8                    -8144.2044778107
    51 OT LS       0.12E+00    7.8                    -8144.2041237314
    52 OT CG       0.98E-01   14.9     0.00029349     -8144.2051167413 -2.78E-02
    53 OT LS       0.14E+00    7.8                    -8144.2261974576
    54 OT LS       0.13E+00    7.8                    -8144.2278506515
    55 OT CG       0.11E+00   14.9     0.00027052     -8144.2278619503 -2.27E-02
    56 OT LS       0.15E+00    7.8                    -8144.2461152621
    57 OT LS       0.13E+00    7.8                    -8144.2463442278
    58 OT CG       0.11E+00   14.9     0.00024389     -8144.2467442233 -1.89E-02
    59 OT LS       0.15E+00    7.8                    -8144.2617114980
    60 OT LS       0.14E+00    7.8                    -8144.2623331722
    61 OT CG       0.11E+00   14.8     0.00022732     -8144.2624698516 -1.57E-02
    62 OT LS       0.15E+00    7.8                    -8144.2751256759
    63 OT LS       0.13E+00    7.8                    -8144.2750284531
    64 OT CG       0.10E+00   14.9     0.00020405     -8144.2754490765 -1.30E-02
    65 OT LS       0.14E+00    7.8                    -8144.2858640773
    66 OT LS       0.14E+00    7.8                    -8144.2864843942
    67 OT CG       0.11E+00   14.9     0.00018938     -8144.2865236796 -1.11E-02
    68 OT LS       0.15E+00    7.8                    -8144.2955150570
    69 OT LS       0.13E+00    7.8                    -8144.2955984973
    70 OT CG       0.11E+00   14.9     0.00017118     -8144.2958116252 -9.29E-03
    71 OT LS       0.15E+00    7.8                    -8144.3031341741
    72 OT LS       0.13E+00    7.8                    -8144.3033716985
    73 OT CG       0.11E+00   14.9     0.00015807     -8144.3034645362 -7.65E-03
    74 OT LS       0.15E+00    7.8                    -8144.3095427731
    75 OT LS       0.13E+00    7.8                    -8144.3095403442
    76 OT CG       0.10E+00   14.8     0.00013958     -8144.3097158292 -6.25E-03
    77 OT LS       0.14E+00    7.8                    -8144.3144568287
    78 OT LS       0.13E+00    7.8                    -8144.3146431664
    79 OT CG       0.10E+00   14.8     0.00012608     -8144.3146899690 -4.97E-03
    80 OT LS       0.15E+00    7.8                    -8144.3185762718
    81 OT LS       0.13E+00    7.7                    -8144.3186710770
    82 OT CG       0.10E+00   14.8     0.00011215     -8144.3187333932 -4.04E-03
    83 OT LS       0.15E+00    7.8                    -8144.3217760897
    84 OT LS       0.13E+00    7.9                    -8144.3218298941
    85 OT CG       0.10E+00   14.8     0.00009961     -8144.3218883342 -3.15E-03
    86 OT LS       0.14E+00    7.8                    -8144.3243048651
    87 OT LS       0.13E+00    7.8                    -8144.3243949761
    88 OT CG       0.10E+00   14.8     0.00008896     -8144.3244206637 -2.53E-03
    89 OT LS       0.15E+00    7.7                    -8144.3263700901
    90 OT LS       0.13E+00    7.7                    -8144.3264323533
    91 OT CG       0.11E+00   14.6     0.00007987     -8144.3264571985 -2.04E-03
    92 OT LS       0.15E+00    7.6                    -8144.3280161597
    93 OT LS       0.13E+00    7.6                    -8144.3280419510
    94 OT CG       0.10E+00   14.6     0.00007049     -8144.3280727214 -1.62E-03
    95 OT LS       0.15E+00    7.6                    -8144.3292936400
    96 OT LS       0.13E+00    7.7                    -8144.3293381432
    97 OT CG       0.11E+00   14.7     0.00006322     -8144.3293515034 -1.28E-03
    98 OT LS       0.15E+00    7.7                    -8144.3303288629
    99 OT LS       0.13E+00    7.7                    -8144.3303452493
   100 OT CG       0.10E+00   14.7     0.00005627     -8144.3303644463 -1.01E-03
   101 OT LS       0.15E+00    7.7                    -8144.3311261888
   102 OT LS       0.13E+00    7.7                    -8144.3311384814
   103 OT CG       0.10E+00   14.7     0.00005008     -8144.3311536780 -7.89E-04
   104 OT LS       0.14E+00    7.7                    -8144.3317581007
   105 OT LS       0.13E+00    7.7                    -8144.3317783201
   106 OT CG       0.10E+00   14.6     0.00004400     -8144.3317856502 -6.32E-04
   107 OT LS       0.14E+00    7.7                    -8144.3322562643
   108 OT LS       0.13E+00    7.7                    -8144.3322708765
   109 OT CG       0.10E+00   14.6     0.00003879     -8144.3322770486 -4.91E-04
   110 OT LS       0.15E+00    7.7                    -8144.3326432857
   111 OT LS       0.13E+00    7.7                    -8144.3326527784
   112 OT CG       0.10E+00   14.7     0.00003479     -8144.3326583946 -3.81E-04
   113 OT LS       0.15E+00    7.8                    -8144.3329533944
   114 OT LS       0.13E+00    7.8                    -8144.3329616206
   115 OT CG       0.10E+00   14.8     0.00003093     -8144.3329658894 -3.07E-04
   116 OT LS       0.15E+00    7.8                    -8144.3332021826
   117 OT LS       0.13E+00    7.8                    -8144.3332112735
   118 OT CG       0.11E+00   14.8     0.00002772     -8144.3332136771 -2.48E-04
   119 OT LS       0.15E+00    7.8                    -8144.3334058320
   120 OT LS       0.13E+00    7.8                    -8144.3334119791
   121 OT CG       0.11E+00   14.8     0.00002548     -8144.3334144241 -2.01E-04
   122 OT LS       0.15E+00    7.8                    -8144.3335760634
   123 OT LS       0.13E+00    7.8                    -8144.3335793239
   124 OT CG       0.11E+00   14.8     0.00002337     -8144.3335822303 -1.68E-04
   125 OT LS       0.15E+00    7.8                    -8144.3337178182
   126 OT LS       0.13E+00    7.8                    -8144.3337214746
   127 OT CG       0.11E+00   14.8     0.00002141     -8144.3337234907 -1.41E-04
   128 OT LS       0.15E+00    7.8                    -8144.3338394659
   129 OT LS       0.14E+00    7.8                    -8144.3338445999
   130 OT CG       0.11E+00   14.8     0.00001979     -8144.3338455393 -1.22E-04
   131 OT LS       0.15E+00    7.8                    -8144.3339453089
   132 OT LS       0.14E+00    7.7                    -8144.3339475883
   133 OT CG       0.11E+00   14.8     0.00001835     -8144.3339492577 -1.04E-04
   134 OT LS       0.15E+00    7.8                    -8144.3340356169
   135 OT LS       0.14E+00    7.7                    -8144.3340386316
   136 OT CG       0.11E+00   14.7     0.00001708     -8144.3340396286 -9.04E-05
   137 OT LS       0.15E+00    7.8                    -8144.3341146552
   138 OT LS       0.14E+00    7.7                    -8144.3341165387
   139 OT CG       0.11E+00   14.8     0.00001589     -8144.3341177161 -7.81E-05
   140 OT LS       0.15E+00    7.8                    -8144.3341823754
   141 OT LS       0.14E+00    7.6                    -8144.3341839017
   142 OT CG       0.11E+00   14.6     0.00001491     -8144.3341849606 -6.72E-05
   143 OT LS       0.15E+00    7.7                    -8144.3342418437
   144 OT LS       0.14E+00    7.6                    -8144.3342433731
   145 OT CG       0.11E+00   14.7     0.00001393     -8144.3342442211 -5.93E-05
   146 OT LS       0.15E+00    7.7                    -8144.3342942179
   147 OT LS       0.14E+00    7.7                    -8144.3342958769
   148 OT CG       0.11E+00   14.7     0.00001308     -8144.3342964890 -5.23E-05
   149 OT LS       0.15E+00    7.7                    -8144.3343406741
   150 OT LS       0.14E+00    7.7                    -8144.3343418396
   151 OT CG       0.11E+00   14.7     0.00001243     -8144.3343425081 -4.60E-05
   152 OT LS       0.15E+00    7.7                    -8144.3343822557
   153 OT LS       0.14E+00    7.7                    -8144.3343831424
   154 OT CG       0.11E+00   14.7     0.00001175     -8144.3343838171 -4.13E-05
   155 OT LS       0.15E+00    7.7                    -8144.3344194035
   156 OT LS       0.14E+00    7.7                    -8144.3344204953
   157 OT CG       0.11E+00   14.7     0.00001121     -8144.3344209674 -3.72E-05
   158 OT LS       0.15E+00    7.7                    -8144.3344537289
   159 OT LS       0.14E+00    7.7                    -8144.3344548719
   160 OT CG       0.11E+00   14.7     0.00001082     -8144.3344552505 -3.43E-05
   161 OT LS       0.16E+00    7.8                    -8144.3344861112
   162 OT LS       0.14E+00    7.8                    -8144.3344871518
   163 OT CG       0.11E+00   14.9     0.00001045     -8144.3344875229 -3.23E-05
   164 OT LS       0.16E+00    7.8                    -8144.3345166180
   165 OT LS       0.14E+00    7.8                    -8144.3345175593
   166 OT CG       0.11E+00   14.9     0.00001014     -8144.3345179253 -3.04E-05
   167 OT LS       0.16E+00    7.8                    -8144.3345455704
   168 OT LS       0.14E+00    7.8                    -8144.3345464867
   169 OT CG       0.12E+00   14.9     0.00000990     -8144.3345468253 -2.89E-05

  *** SCF run converged in   169 steps ***


  Electronic density on regular grids:      -1437.9999923212        0.0000076788
  Core density on regular grids:             1437.9999996447       -0.0000003553
  Total charge density on r-space grids:        0.0000073235
  Total charge density g-space grids:           0.0000073235

  Overlap energy of the core charge distribution:               0.00000638850629
  Self energy of the core charge distribution:             -14650.93922905635191
  Core Hamiltonian energy:                                   4107.57525431961949
  Hartree energy:                                            3440.64554827857364
  Exchange-correlation energy:                              -1042.49725471593501
  Dispersion energy:                                           -0.57764612029648

  DFT+U energy:                                                 1.45877408056715

  Total energy:                                             -8144.33454682531828

  outer SCF iter =    1 RMS gradient =   0.99E-05 energy =      -8144.3345468253
  outer SCF loop converged in   1 iterations or  169 steps


  Integrated absolute spin density  :                             235.0666978043
  Ideal and single determinant S**2 :                    0.000000     127.896815

 ENERGY| Total FORCE_EVAL ( QS ) energy (a.u.):            -8144.334573151939367


 --------  Informations at step =     0 ------------
  Optimization Method        =                 BFGS
  Total Energy               =     -8144.3345731519
  Used time                  =             1747.192
 ---------------------------------------------------

 --------------------------
 OPTIMIZATION STEP:      1
 --------------------------

 Spin 1

 Number of electrons:                                                        719
 Number of occupied orbitals:                                                719
 Number of molecular orbitals:                                               719

 Spin 2

 Number of electrons:                                                        719
 Number of occupied orbitals:                                                719
 Number of molecular orbitals:                                               719

 Number of orbital functions:                                               2718
 Number of independent orbital functions:                                   2718

 Extrapolation method: PS Nth order


 SCF WAVEFUNCTION OPTIMIZATION

  ----------------------------------- OT ---------------------------------------
  Minimizer      : CG                  : conjugate gradient
  Preconditioner : FULL_ALL            : diagonalization, state selective
  Precond_solver : DEFAULT
  Line search    : 3PNT                : 3 energies
  stepsize       :    0.15000000                  energy_gap     :    0.08000000
  eps_taylor     :   0.10000E-15                  max_taylor     :             4
  ----------------------------------- OT ---------------------------------------

  Step     Update method      Time    Convergence         Total energy    Change
  ------------------------------------------------------------------------------
     1 OT CG       0.12E+00   12.6     0.00010573     -8144.3416329370 -8.14E+03
     2 OT LS       0.17E+00    7.4                    -8144.3461593404
     3 OT LS       0.44E+00    7.4                    -8144.3475682748
     4 OT CG       0.35E+00   14.9     0.00006085     -8144.3512130080 -9.58E-03
     5 OT LS       0.18E+00    7.6                    -8144.3481388667
     6 OT LS       0.11E+00    7.6                    -8144.3517117643
     7 OT CG       0.87E-01   15.0     0.00001948     -8144.3520023378 -7.89E-04
     8 OT LS       0.12E+00    7.6                    -8144.3520839224
     9 OT LS       0.12E+00    7.6                    -8144.3520896784
    10 OT CG       0.94E-01   15.0     0.00001040     -8144.3520897983 -8.75E-05
    11 OT LS       0.13E+00    7.6                    -8144.3521148934
    12 OT LS       0.13E+00    7.6                    -8144.3521166303
    13 OT CG       0.10E+00   15.0     0.00000543     -8144.3521166729 -2.69E-05

  *** SCF run converged in    13 steps ***


  Electronic density on regular grids:      -1437.9999923083        0.0000076917
  Core density on regular grids:             1437.9999996448       -0.0000003552
  Total charge density on r-space grids:        0.0000073365
  Total charge density g-space grids:           0.0000073365

  Overlap energy of the core charge distribution:               0.00000637458263
  Self energy of the core charge distribution:             -14650.93922905635191
  Core Hamiltonian energy:                                   4107.55234070715687
  Hartree energy:                                            3440.64686929782692
  Exchange-correlation energy:                              -1042.49085065439044
  Dispersion energy:                                           -0.57767585483608

  DFT+U energy:                                                 1.45642251308080

  Total energy:                                             -8144.35211667293242

  outer SCF iter =    1 RMS gradient =   0.54E-05 energy =      -8144.3521166729
  outer SCF loop converged in   1 iterations or   13 steps


  Integrated absolute spin density  :                             235.0756906016
  Ideal and single determinant S**2 :                    0.000000     127.896052

 ENERGY| Total FORCE_EVAL ( QS ) energy (a.u.):            -8144.352123217048756


 --------  Informations at step =     1 ------------
  Optimization Method        =                 BFGS
  Total Energy               =     -8144.3521232170
  Real energy change         =        -0.0175500651
  Predicted change in energy =        -0.0137800647
  Scaling factor             =         0.0000000000
  Step size                  =         0.2626428395
  Trust radius               =         0.4724315332
  Decrease in energy         =                  YES
  Used time                  =              169.052

  Convergence check :
  Max. step size             =         0.2626428395
  Conv. limit for step size  =         1.0000000000
  Convergence in step size   =                  YES
  RMS step size              =         0.0191743842
  Conv. limit for RMS step   =         1.0000000000
  Convergence in RMS step    =                  YES
  Max. gradient              =         0.0216980340
  Conv. limit for gradients  =         0.0100000000
  Conv. for gradients        =                   NO
  RMS gradient               =         0.0014608615
  Conv. limit for RMS grad.  =         1.0000000000
  Conv. in RMS gradients     =                  YES
 ---------------------------------------------------

 --------------------------
 OPTIMIZATION STEP:      2
 --------------------------

 Spin 1

 Number of electrons:                                                        719
 Number of occupied orbitals:                                                719
 Number of molecular orbitals:                                               719

 Spin 2

 Number of electrons:                                                        719
 Number of occupied orbitals:                                                719
 Number of molecular orbitals:                                               719

 Number of orbital functions:                                               2718
 Number of independent orbital functions:                                   2718

 Extrapolation method: PS Nth order


 SCF WAVEFUNCTION OPTIMIZATION

  ----------------------------------- OT ---------------------------------------
  Minimizer      : CG                  : conjugate gradient
  Preconditioner : FULL_ALL            : diagonalization, state selective
  Precond_solver : DEFAULT
  Line search    : 3PNT                : 3 energies
  stepsize       :    0.15000000                  energy_gap     :    0.08000000
  eps_taylor     :   0.10000E-15                  max_taylor     :             4
  ----------------------------------- OT ---------------------------------------

  Step     Update method      Time    Convergence         Total energy    Change
  ------------------------------------------------------------------------------
     1 OT CG       0.12E+00   12.6     0.00008051     -8144.3507365132 -8.14E+03
     2 OT LS       0.17E+00    7.6                    -8144.3531069216
     3 OT LS       0.27E+00    7.5                    -8144.3536817147
     4 OT CG       0.22E+00   15.1     0.00006940     -8144.3542005264 -3.46E-03
     5 OT LS       0.31E+00    7.6                    -8144.3554824247
     6 OT LS       0.16E+00    7.5                    -8144.3543830093
     7 OT CG       0.13E+00   15.1     0.00002419     -8144.3557011979 -1.50E-03
     8 OT LS       0.18E+00    7.5                    -8144.3558312458
     9 OT LS       0.11E+00    7.6                    -8144.3557938161
    10 OT CG       0.92E-01   15.0     0.00001167     -8144.3558326254 -1.31E-04
    11 OT LS       0.13E+00    7.6                    -8144.3558615453
    12 OT LS       0.11E+00    7.6                    -8144.3558619747
    13 OT CG       0.90E-01   15.0     0.00000617     -8144.3558625696 -2.99E-05

  *** SCF run converged in    13 steps ***


  Electronic density on regular grids:      -1437.9999923093        0.0000076907
  Core density on regular grids:             1437.9999996448       -0.0000003552
  Total charge density on r-space grids:        0.0000073355
  Total charge density g-space grids:           0.0000073355

  Overlap energy of the core charge distribution:               0.00000604806874
  Self energy of the core charge distribution:             -14650.93922905635191
  Core Hamiltonian energy:                                   4107.54881603526155
  Hartree energy:                                            3440.64837539508653
  Exchange-correlation energy:                              -1042.49135609592690
  Dispersion energy:                                           -0.57701891245085

  DFT+U energy:                                                 1.45454401666992

  Total energy:                                             -8144.35586256964143

  outer SCF iter =    1 RMS gradient =   0.62E-05 energy =      -8144.3558625696
  outer SCF loop converged in   1 iterations or   13 steps


  Integrated absolute spin density  :                             235.0723435359
  Ideal and single determinant S**2 :                    0.000000     127.895658

 ENERGY| Total FORCE_EVAL ( QS ) energy (a.u.):            -8144.355871251049393


 --------  Informations at step =     2 ------------
  Optimization Method        =                 BFGS
  Total Energy               =     -8144.3558712510
  Real energy change         =        -0.0037480340
  Predicted change in energy =        -0.0031709514
  Scaling factor             =         0.0000000000
  Step size                  =         0.1627024875
  Trust radius               =         0.4724315332
  Decrease in energy         =                  YES
  Used time                  =              169.794

  Convergence check :
  Max. step size             =         0.1627024875
  Conv. limit for step size  =         1.0000000000
  Convergence in step size   =                  YES
  RMS step size              =         0.0114543260
  Conv. limit for RMS step   =         1.0000000000
  Convergence in RMS step    =                  YES
  Max. gradient              =         0.0180731898
  Conv. limit for gradients  =         0.0100000000
  Conv. for gradients        =                   NO
  RMS gradient               =         0.0026710406
  Conv. limit for RMS grad.  =         1.0000000000
  Conv. in RMS gradients     =                  YES
 ---------------------------------------------------

 --------------------------
 OPTIMIZATION STEP:      3
 --------------------------

  Step is scaled; Scaling factor =  0.58319

 Spin 1

 Number of electrons:                                                        719
 Number of occupied orbitals:                                                719
 Number of molecular orbitals:                                               719

 Spin 2

 Number of electrons:                                                        719
 Number of occupied orbitals:                                                719
 Number of molecular orbitals:                                               719

 Number of orbital functions:                                               2718
 Number of independent orbital functions:                                   2718

 Extrapolation method: PS Nth order


 SCF WAVEFUNCTION OPTIMIZATION

  ----------------------------------- OT ---------------------------------------
  Minimizer      : CG                  : conjugate gradient
  Preconditioner : FULL_ALL            : diagonalization, state selective
  Precond_solver : DEFAULT
  Line search    : 3PNT                : 3 energies
  stepsize       :    0.15000000                  energy_gap     :    0.08000000
  eps_taylor     :   0.10000E-15                  max_taylor     :             4
  ----------------------------------- OT ---------------------------------------

  Step     Update method      Time    Convergence         Total energy    Change
  ------------------------------------------------------------------------------
     1 OT CG       0.12E+00   12.6     0.00014634     -8144.3357225413 -8.14E+03
     2 OT LS       0.17E+00    7.5                    -8144.3439898663
     3 OT LS       0.34E+00    7.4                    -8144.3462996740
     4 OT CG       0.27E+00   14.8     0.00012677     -8144.3498814136 -1.42E-02
     5 OT LS       0.14E+00    7.5                    -8144.3498650163
     6 OT LS       0.14E+00    7.4                    -8144.3540939974
     7 OT CG       0.11E+00   14.8     0.00003179     -8144.3540940266 -4.21E-03
     8 OT LS       0.15E+00    7.7                    -8144.3543047627
     9 OT LS       0.11E+00    7.6                    -8144.3542682606
    10 OT CG       0.86E-01   15.0     0.00001392     -8144.3543047910 -2.11E-04
    11 OT LS       0.12E+00    7.6                    -8144.3543488017
    12 OT LS       0.13E+00    7.6                    -8144.3543547525
    13 OT CG       0.11E+00   15.0     0.00000836     -8144.3543552681 -5.05E-05

  *** SCF run converged in    13 steps ***


  Electronic density on regular grids:      -1437.9999922939        0.0000077061
  Core density on regular grids:             1437.9999996446       -0.0000003554
  Total charge density on r-space grids:        0.0000073507
  Total charge density g-space grids:           0.0000073507

  Overlap energy of the core charge distribution:               0.00000425402102
  Self energy of the core charge distribution:             -14650.93922905635191
  Core Hamiltonian energy:                                   4107.56115234887329
  Hartree energy:                                            3440.63681642491156
  Exchange-correlation energy:                              -1042.48634429875847
  Dispersion energy:                                           -0.57781717086912

  DFT+U energy:                                                 1.45106223004252

  Total energy:                                             -8144.35435526813035

  outer SCF iter =    1 RMS gradient =   0.84E-05 energy =      -8144.3543552681
  outer SCF loop converged in   1 iterations or   13 steps


  Integrated absolute spin density  :                             235.0381020232
  Ideal and single determinant S**2 :                    0.000000     127.884344

 ENERGY| Total FORCE_EVAL ( QS ) energy (a.u.):            -8144.354371713204273


 --------  Informations at step =     3 ------------
  Optimization Method        =                 BFGS
  Total Energy               =     -8144.3543717132
  Real energy change         =         0.0014995378
  Predicted change in energy =        -0.0121249386
  Scaling factor             =         0.5831902597
  Step size                  =         0.4724315332
  Trust radius               =         0.4724315332
  Decrease in energy         =                   NO
  Used time                  =              169.090

  Convergence check :
  Max. step size             =         0.4724315332
  Conv. limit for step size  =         1.0000000000
  Convergence in step size   =                  YES
  RMS step size              =         0.0339742110
  Conv. limit for RMS step   =         1.0000000000
  Convergence in RMS step    =                  YES
  Max. gradient              =         0.0454481254
  Conv. limit for gradients  =         0.0100000000
  Conv. for gradients        =                   NO
  RMS gradient               =         0.0039279976
  Conv. limit for RMS grad.  =         1.0000000000
  Conv. in RMS gradients     =                  YES
 ---------------------------------------------------

 --------------------------
 OPTIMIZATION STEP:      4
 --------------------------

 Spin 1

 Number of electrons:                                                        719
 Number of occupied orbitals:                                                719
 Number of molecular orbitals:                                               719

 Spin 2

 Number of electrons:                                                        719
 Number of occupied orbitals:                                                719
 Number of molecular orbitals:                                               719

 Number of orbital functions:                                               2718
 Number of independent orbital functions:                                   2718

 Extrapolation method: PS Nth order


 SCF WAVEFUNCTION OPTIMIZATION

  ----------------------------------- OT ---------------------------------------
  Minimizer      : CG                  : conjugate gradient
  Preconditioner : FULL_ALL            : diagonalization, state selective
  Precond_solver : DEFAULT
  Line search    : 3PNT                : 3 energies
  stepsize       :    0.15000000                  energy_gap     :    0.08000000
  eps_taylor     :   0.10000E-15                  max_taylor     :             4
  ----------------------------------- OT ---------------------------------------

  Step     Update method      Time    Convergence         Total energy    Change
  ------------------------------------------------------------------------------
     1 OT CG       0.12E+00   12.6     0.00034236     -8144.2590357767 -8.14E+03
     2 OT LS       0.17E+00    7.6                    -8144.3038057995
     3 OT LS       0.32E+00    7.6                    -8144.3159957826
     4 OT CG       0.26E+00   15.3     0.00028381     -8144.3330798693 -7.40E-02
     5 OT LS       0.36E+00    7.8                    -8144.3402204054
     6 OT LS       0.14E+00    7.8                    -8144.3015227047
     7 OT CG       0.11E+00   15.2     0.00008363     -8144.3554043798 -2.23E-02
     8 OT LS       0.16E+00    7.8                    -8144.3569060633
     9 OT LS       0.11E+00    7.8                    -8144.3566131766
    10 OT CG       0.88E-01   15.2     0.00003661     -8144.3569074423 -1.50E-03
    11 OT LS       0.12E+00    7.8                    -8144.3572135048
    12 OT LS       0.13E+00    7.8                    -8144.3572491048
    13 OT CG       0.10E+00   15.3     0.00002234     -8144.3572502730 -3.43E-04
    14 OT LS       0.15E+00    7.7                    -8144.3573663666
    15 OT LS       0.12E+00    7.8                    -8144.3573635163
    16 OT CG       0.97E-01   15.2     0.00000763     -8144.3573686042 -1.18E-04

  *** SCF run converged in    16 steps ***


  Electronic density on regular grids:      -1437.9999922911        0.0000077089
  Core density on regular grids:             1437.9999996447       -0.0000003553
  Total charge density on r-space grids:        0.0000073536
  Total charge density g-space grids:           0.0000073536

  Overlap energy of the core charge distribution:               0.00000825638103
  Self energy of the core charge distribution:             -14650.93922905635191
  Core Hamiltonian energy:                                   4107.59534382045058
  Hartree energy:                                            3440.61130587394018
  Exchange-correlation energy:                              -1042.50249853425566
  Dispersion energy:                                           -0.57541539536743

  DFT+U energy:                                                 1.45311643101479

  Total energy:                                             -8144.35736860419001

  outer SCF iter =    1 RMS gradient =   0.76E-05 energy =      -8144.3573686042
  outer SCF loop converged in   1 iterations or   16 steps


  Integrated absolute spin density  :                             235.0591534747
  Ideal and single determinant S**2 :                    0.000000     127.893601

 ENERGY| Total FORCE_EVAL ( QS ) energy (a.u.):            -8144.357382875531584


 --------  Informations at step =     4 ------------
  Optimization Method        =                 BFGS
  Total Energy               =     -8144.3573828755
  Real energy change         =        -0.0030111623
  Predicted change in energy =        -0.0056360863
  Scaling factor             =         0.5831902597
  Step size                  =         0.1243620210
  Trust radius               =         0.4724315332
  Decrease in energy         =                  YES
  Used time                  =              203.044

  Convergence check :
  Max. step size             =         0.1243620210
  Conv. limit for step size  =         1.0000000000
  Convergence in step size   =                  YES
  RMS step size              =         0.0101018939
  Conv. limit for RMS step   =         1.0000000000
  Convergence in RMS step    =                  YES
  Max. gradient              =         0.0358604767
  Conv. limit for gradients  =         0.0100000000
  Conv. for gradients        =                   NO
  RMS gradient               =         0.0052129597
  Conv. limit for RMS grad.  =         1.0000000000
  Conv. in RMS gradients     =                  YES
 ---------------------------------------------------

 --------------------------
 OPTIMIZATION STEP:      5
 --------------------------

 Spin 1

 Number of electrons:                                                        719
 Number of occupied orbitals:                                                719
 Number of molecular orbitals:                                               719

 Spin 2

 Number of electrons:                                                        719
 Number of occupied orbitals:                                                719
 Number of molecular orbitals:                                               719

 Number of orbital functions:                                               2718
 Number of independent orbital functions:                                   2718

 Extrapolation method: PS Nth order


 SCF WAVEFUNCTION OPTIMIZATION

  ----------------------------------- OT ---------------------------------------
  Minimizer      : CG                  : conjugate gradient
  Preconditioner : FULL_ALL            : diagonalization, state selective
  Precond_solver : DEFAULT
  Line search    : 3PNT                : 3 energies
  stepsize       :    0.15000000                  energy_gap     :    0.08000000
  eps_taylor     :   0.10000E-15                  max_taylor     :             4
  ----------------------------------- OT ---------------------------------------

  Step     Update method      Time    Convergence         Total energy    Change
  ------------------------------------------------------------------------------
     1 OT CG       0.12E+00   12.5     0.00020504     -8144.3136634334 -8.14E+03
     2 OT LS       0.17E+00    7.6                    -8144.3289087961
     3 OT LS       0.26E+00    7.5                    -8144.3324979166
     4 OT CG       0.21E+00   15.1     0.00017293     -8144.3353633373 -2.17E-02
     5 OT LS       0.30E+00    7.6                    -8144.3437763248
     6 OT LS       0.16E+00    7.5                    -8144.3381360390
     7 OT CG       0.13E+00   15.1     0.00005726     -8144.3447046973 -9.34E-03
     8 OT LS       0.18E+00    7.6                    -8144.3455201710
     9 OT LS       0.13E+00    7.6                    -8144.3453809484
    10 OT CG       0.10E+00   15.0     0.00002895     -8144.3455202417 -8.16E-04
    11 OT LS       0.14E+00    7.6                    -8144.3457226279
    12 OT LS       0.13E+00    7.6                    -8144.3457297141
    13 OT CG       0.10E+00   15.1     0.00001653     -8144.3457320423 -2.12E-04
    14 OT LS       0.14E+00    7.5                    -8144.3457927624
    15 OT LS       0.11E+00    7.6                    -8144.3457891869
    16 OT CG       0.92E-01   15.0     0.00000524     -8144.3457933660 -6.13E-05

  *** SCF run converged in    16 steps ***


  Electronic density on regular grids:      -1437.9999923062        0.0000076938
  Core density on regular grids:             1437.9999996448       -0.0000003552
  Total charge density on r-space grids:        0.0000073386
  Total charge density g-space grids:           0.0000073386

  Overlap energy of the core charge distribution:               0.00001364178500
  Self energy of the core charge distribution:             -14650.93922905635191
  Core Hamiltonian energy:                                   4107.63784378400942
  Hartree energy:                                            3440.58358421116372
  Exchange-correlation energy:                              -1042.50845089392078
  Dispersion energy:                                           -0.57748712945136

  DFT+U energy:                                                 1.45793207677195

  Total energy:                                             -8144.34579336599472

  outer SCF iter =    1 RMS gradient =   0.52E-05 energy =      -8144.3457933660
  outer SCF loop converged in   1 iterations or   16 steps


  Integrated absolute spin density  :                             235.0652374028
  Ideal and single determinant S**2 :                    0.000000     127.893794

 ENERGY| Total FORCE_EVAL ( QS ) energy (a.u.):            -8144.345800435257843


 --------  Informations at step =     5 ------------
  Optimization Method        =                 BFGS
  Total Energy               =     -8144.3458004353
  Real energy change         =         0.0115824403
  Predicted change in energy =        -0.0116918903
  Scaling factor             =         0.5831902597
  Step size                  =         0.1862203306
  Trust radius               =         0.4724315332
  Decrease in energy         =                   NO
  Used time                  =              200.297

  Convergence check :
  Max. step size             =         0.1862203306
  Conv. limit for step size  =         1.0000000000
  Convergence in step size   =                  YES
  RMS step size              =         0.0217375410
  Conv. limit for RMS step   =         1.0000000000
  Convergence in RMS step    =                  YES
  Max. gradient              =         0.1054702085
  Conv. limit for gradients  =         0.0100000000
  Conv. for gradients        =                   NO
  RMS gradient               =         0.0071479590
  Conv. limit for RMS grad.  =         1.0000000000
  Conv. in RMS gradients     =                  YES
 ---------------------------------------------------

 --------------------------
 OPTIMIZATION STEP:      6
 --------------------------

 Spin 1

 Number of electrons:                                                        719
 Number of occupied orbitals:                                                719
 Number of molecular orbitals:                                               719

 Spin 2

 Number of electrons:                                                        719
 Number of occupied orbitals:                                                719
 Number of molecular orbitals:                                               719

 Number of orbital functions:                                               2718
 Number of independent orbital functions:                                   2718

 Extrapolation method: PS Nth order


 SCF WAVEFUNCTION OPTIMIZATION

  ----------------------------------- OT ---------------------------------------
  Minimizer      : CG                  : conjugate gradient
  Preconditioner : FULL_ALL            : diagonalization, state selective
  Precond_solver : DEFAULT
  Line search    : 3PNT                : 3 energies
  stepsize       :    0.15000000                  energy_gap     :    0.08000000
  eps_taylor     :   0.10000E-15                  max_taylor     :             4
  ----------------------------------- OT ---------------------------------------

  Step     Update method      Time    Convergence         Total energy    Change
  ------------------------------------------------------------------------------
     1 OT CG       0.12E+00   12.5     0.00040153     -8144.2229000435 -8.14E+03
     2 OT LS       0.17E+00    7.6                    -8144.2842165096
     3 OT LS       0.32E+00    7.6                    -8144.3007144578
     4 OT CG       0.25E+00   15.2     0.00034784     -8144.3226118844 -9.97E-02
     5 OT LS       0.35E+00    7.8                    -8144.3322538339
     6 OT LS       0.14E+00    7.7                    -8144.2744082291
     7 OT CG       0.11E+00   15.3     0.00010534     -8144.3551593689 -3.25E-02
     8 OT LS       0.15E+00    7.8                    -8144.3573135921
     9 OT LS       0.10E+00    7.7                    -8144.3566950377
    10 OT CG       0.80E-01   15.3     0.00004466     -8144.3573357307 -2.18E-03
    11 OT LS       0.11E+00    7.8                    -8144.3577499203
    12 OT LS       0.12E+00    7.8                    -8144.3577981078
    13 OT CG       0.95E-01   15.3     0.00002480     -8144.3577997129 -4.64E-04
    14 OT LS       0.13E+00    7.8                    -8144.3579551133
    15 OT LS       0.15E+00    7.7                    -8144.3579761836
    16 OT CG       0.12E+00   15.3     0.00001049     -8144.3579780351 -1.78E-04
    17 OT LS       0.17E+00    7.7                    -8144.3580059030
    18 OT LS       0.13E+00    7.7                    -8144.3580040628
    19 OT CG       0.10E+00   15.3     0.00000571     -8144.3580061387 -2.81E-05

  *** SCF run converged in    19 steps ***


  Electronic density on regular grids:      -1437.9999922937        0.0000077063
  Core density on regular grids:             1437.9999996443       -0.0000003557
  Total charge density on r-space grids:        0.0000073506
  Total charge density g-space grids:           0.0000073506

  Overlap energy of the core charge distribution:               0.00000708894944
  Self energy of the core charge distribution:             -14650.93922905635191
  Core Hamiltonian energy:                                   4107.52814362250865
  Hartree energy:                                            3440.65497317319068
  Exchange-correlation energy:                              -1042.48227521115405
  Dispersion energy:                                           -0.57751030029857

  DFT+U energy:                                                 1.45788454448036

  Total energy:                                             -8144.35800613867650

  outer SCF iter =    1 RMS gradient =   0.57E-05 energy =      -8144.3580061387
  outer SCF loop converged in   1 iterations or   19 steps


  Integrated absolute spin density  :                             235.0678665001
  Ideal and single determinant S**2 :                    0.000000     127.895265

 ENERGY| Total FORCE_EVAL ( QS ) energy (a.u.):            -8144.358015132517721


 --------  Informations at step =     6 ------------
  Optimization Method        =                 BFGS
  Total Energy               =     -8144.3580151325
  Real energy change         =        -0.0122146973
  Predicted change in energy =        -0.0120737592
  Scaling factor             =         0.5831902597
  Step size                  =         0.1907859073
  Trust radius               =         0.4724315332
  Decrease in energy         =                  YES
  Used time                  =              234.423

  Convergence check :
  Max. step size             =         0.1907859073
  Conv. limit for step size  =         1.0000000000
  Convergence in step size   =                  YES
  RMS step size              =         0.0140261595
  Conv. limit for RMS step   =         1.0000000000
  Convergence in RMS step    =                  YES
  Max. gradient              =         0.0121840585
  Conv. limit for gradients  =         0.0100000000
  Conv. for gradients        =                   NO
  RMS gradient               =         0.0016803930
  Conv. limit for RMS grad.  =         1.0000000000
  Conv. in RMS gradients     =                  YES
 ---------------------------------------------------

 --------------------------
 OPTIMIZATION STEP:      7
 --------------------------

 Spin 1

 Number of electrons:                                                        719
 Number of occupied orbitals:                                                719
 Number of molecular orbitals:                                               719

 Spin 2

 Number of electrons:                                                        719
 Number of occupied orbitals:                                                719
 Number of molecular orbitals:                                               719

 Number of orbital functions:                                               2718
 Number of independent orbital functions:                                   2718

 Extrapolation method: PS Nth order


 SCF WAVEFUNCTION OPTIMIZATION

  ----------------------------------- OT ---------------------------------------
  Minimizer      : CG                  : conjugate gradient
  Preconditioner : FULL_ALL            : diagonalization, state selective
  Precond_solver : DEFAULT
  Line search    : 3PNT                : 3 energies
  stepsize       :    0.15000000                  energy_gap     :    0.08000000
  eps_taylor     :   0.10000E-15                  max_taylor     :             4
  ----------------------------------- OT ---------------------------------------

  Step     Update method      Time    Convergence         Total energy    Change
  ------------------------------------------------------------------------------
     1 OT CG       0.12E+00   12.5     0.00031966     -8144.2730724647 -8.14E+03
     2 OT LS       0.17E+00    7.6                    -8144.3116453886
     3 OT LS       0.31E+00    7.5                    -8144.3218483485
     4 OT CG       0.25E+00   15.3     0.00027397     -8144.3346507051 -6.16E-02
     5 OT LS       0.34E+00    7.8                    -8144.3479360090
     6 OT LS       0.15E+00    7.7                    -8144.3198137500
     7 OT CG       0.12E+00   15.2     0.00007323     -8144.3569179914 -2.23E-02
     8 OT LS       0.17E+00    7.6                    -8144.3578774997
     9 OT LS       0.97E-01    7.7                    -8144.3573833587
    10 OT CG       0.78E-01   15.2     0.00002962     -8144.3579366272 -1.02E-03
    11 OT LS       0.11E+00    7.6                    -8144.3581245201
    12 OT LS       0.13E+00    7.6                    -8144.3581556803
    13 OT CG       0.11E+00   15.2     0.00001782     -8144.3581625408 -2.26E-04
    14 OT LS       0.15E+00    7.7                    -8144.3582369873
    15 OT LS       0.12E+00    7.6                    -8144.3582352385
    16 OT CG       0.98E-01   15.3     0.00000673     -8144.3582384488 -7.59E-05

  *** SCF run converged in    16 steps ***


  Electronic density on regular grids:      -1437.9999922842        0.0000077158
  Core density on regular grids:             1437.9999996439       -0.0000003561
  Total charge density on r-space grids:        0.0000073597
  Total charge density g-space grids:           0.0000073597

  Overlap energy of the core charge distribution:               0.00000422650863
  Self energy of the core charge distribution:             -14650.93922905635191
  Core Hamiltonian energy:                                   4107.41854235986193
  Hartree energy:                                            3440.73775292769960
  Exchange-correlation energy:                              -1042.45368149999967
  Dispersion energy:                                           -0.57788288261734

  DFT+U energy:                                                 1.45625547609879

  Total energy:                                             -8144.35823844879906

  outer SCF iter =    1 RMS gradient =   0.67E-05 energy =      -8144.3582384488
  outer SCF loop converged in   1 iterations or   16 steps


  Integrated absolute spin density  :                             235.0572345295
  Ideal and single determinant S**2 :                    0.000000     127.893321

 ENERGY| Total FORCE_EVAL ( QS ) energy (a.u.):            -8144.358249886844533


 --------  Informations at step =     7 ------------
  Optimization Method        =                 BFGS
  Total Energy               =     -8144.3582498868
  Real energy change         =        -0.0002347543
  Predicted change in energy =        -0.0043203224
  Scaling factor             =         0.5831902597
  Step size                  =         0.2151922324
  Trust radius               =         0.4724315332
  Decrease in energy         =                  YES
  Used time                  =              201.887

  Convergence check :
  Max. step size             =         0.2151922324
  Conv. limit for step size  =         1.0000000000
  Convergence in step size   =                  YES
  RMS step size              =         0.0173454712
  Conv. limit for RMS step   =         1.0000000000
  Convergence in RMS step    =                  YES
  Max. gradient              =         0.0502540692
  Conv. limit for gradients  =         0.0100000000
  Conv. for gradients        =                   NO
  RMS gradient               =         0.0034003647
  Conv. limit for RMS grad.  =         1.0000000000
  Conv. in RMS gradients     =                  YES
 ---------------------------------------------------

 --------------------------
 OPTIMIZATION STEP:      8
 --------------------------

 Spin 1

 Number of electrons:                                                        719
 Number of occupied orbitals:                                                719
 Number of molecular orbitals:                                               719

 Spin 2

 Number of electrons:                                                        719
 Number of occupied orbitals:                                                719
 Number of molecular orbitals:                                               719

 Number of orbital functions:                                               2718
 Number of independent orbital functions:                                   2718

 Extrapolation method: PS Nth order


 SCF WAVEFUNCTION OPTIMIZATION

  ----------------------------------- OT ---------------------------------------
  Minimizer      : CG                  : conjugate gradient
  Preconditioner : FULL_ALL            : diagonalization, state selective
  Precond_solver : DEFAULT
  Line search    : 3PNT                : 3 energies
  stepsize       :    0.15000000                  energy_gap     :    0.08000000
  eps_taylor     :   0.10000E-15                  max_taylor     :             4
  ----------------------------------- OT ---------------------------------------

  Step     Update method      Time    Convergence         Total energy    Change
  ------------------------------------------------------------------------------
     1 OT CG       0.12E+00   12.5     0.00023427     -8144.3188271558 -8.14E+03
     2 OT LS       0.17E+00    7.6                    -8144.3387417443
     3 OT LS       0.26E+00    7.5                    -8144.3434422521
     4 OT CG       0.21E+00   15.1     0.00020205     -8144.3472390468 -2.84E-02
     5 OT LS       0.30E+00    7.3                    -8144.3589764609
     6 OT LS       0.16E+00    7.2                    -8144.3513760308
     7 OT CG       0.13E+00   14.6     0.00007269     -8144.3601736364 -1.29E-02
     8 OT LS       0.18E+00    7.4                    -8144.3611861922
     9 OT LS       0.10E+00    7.4                    -8144.3606577631
    10 OT CG       0.84E-01   14.9     0.00003326     -8144.3612506952 -1.08E-03
    11 OT LS       0.12E+00    7.5                    -8144.3614947903
    12 OT LS       0.13E+00    7.4                    -8144.3615265906
    13 OT CG       0.10E+00   14.8     0.00001778     -8144.3615288244 -2.78E-04
    14 OT LS       0.14E+00    7.4                    -8144.3616066115
    15 OT LS       0.13E+00    7.3                    -8144.3616101219
    16 OT CG       0.11E+00   14.9     0.00000645     -8144.3616107286 -8.19E-05

  *** SCF run converged in    16 steps ***


  Electronic density on regular grids:      -1437.9999922900        0.0000077100
  Core density on regular grids:             1437.9999996440       -0.0000003560
  Total charge density on r-space grids:        0.0000073540
  Total charge density g-space grids:           0.0000073540

  Overlap energy of the core charge distribution:               0.00000619743809
  Self energy of the core charge distribution:             -14650.93922905635191
  Core Hamiltonian energy:                                   4107.44479003420201
  Hartree energy:                                            3440.71540267377350
  Exchange-correlation energy:                              -1042.46255944828295
  Dispersion energy:                                           -0.57772392425610

  DFT+U energy:                                                 1.45770279489407

  Total energy:                                             -8144.36161072858249

  outer SCF iter =    1 RMS gradient =   0.64E-05 energy =      -8144.3616107286
  outer SCF loop converged in   1 iterations or   16 steps


  Integrated absolute spin density  :                             235.0650683747
  Ideal and single determinant S**2 :                    0.000000     127.897238

 ENERGY| Total FORCE_EVAL ( QS ) energy (a.u.):            -8144.361621873343211


 --------  Informations at step =     8 ------------
  Optimization Method        =                 BFGS
  Total Energy               =     -8144.3616218733
  Real energy change         =        -0.0033719865
  Predicted change in energy =        -0.0029271348
  Scaling factor             =         0.5831902597
  Step size                  =         0.0948632740
  Trust radius               =         0.4724315332
  Decrease in energy         =                  YES
  Used time                  =              197.180

  Convergence check :
  Max. step size             =         0.0948632740
  Conv. limit for step size  =         1.0000000000
  Convergence in step size   =                  YES
  RMS step size              =         0.0067857589
  Conv. limit for RMS step   =         1.0000000000
  Convergence in RMS step    =                  YES
  Max. gradient              =         0.0064338954
  Conv. limit for gradients  =         0.0100000000
  Conv. in gradients         =                  YES
  RMS gradient               =         0.0010940766
  Conv. limit for RMS grad.  =         1.0000000000
  Conv. in RMS gradients     =                  YES
 ---------------------------------------------------

 *******************************************************************************
 ***                    GEOMETRY OPTIMIZATION COMPLETED                      ***
 *******************************************************************************

                    Reevaluating energy at the minimum

 Spin 1

 Number of electrons:                                                        719
 Number of occupied orbitals:                                                719
 Number of molecular orbitals:                                               719

 Spin 2

 Number of electrons:                                                        719
 Number of occupied orbitals:                                                719
 Number of molecular orbitals:                                               719

 Number of orbital functions:                                               2718
 Number of independent orbital functions:                                   2718

 Extrapolation method: PS Nth order


 SCF WAVEFUNCTION OPTIMIZATION

  ----------------------------------- OT ---------------------------------------
  Minimizer      : CG                  : conjugate gradient
  Preconditioner : FULL_ALL            : diagonalization, state selective
  Precond_solver : DEFAULT
  Line search    : 3PNT                : 3 energies
  stepsize       :    0.15000000                  energy_gap     :    0.08000000
  eps_taylor     :   0.10000E-15                  max_taylor     :             4
  ----------------------------------- OT ---------------------------------------

  Step     Update method      Time    Convergence         Total energy    Change
  ------------------------------------------------------------------------------
     1 OT CG       0.12E+00   12.2     0.00022937     -8144.3171821670 -8.14E+03
     2 OT LS       0.17E+00    7.4                    -8144.3373364746
     3 OT LS       0.33E+00    7.3                    -8144.3428597225
     4 OT CG       0.26E+00   14.6     0.00019232     -8144.3507525107 -3.36E-02
     5 OT LS       0.37E+00    7.5                    -8144.3525863392
     6 OT LS       0.14E+00    7.3                    -8144.3333118752
     7 OT CG       0.11E+00   14.6     0.00005847     -8144.3606453372 -9.89E-03
     8 OT LS       0.15E+00    7.4                    -8144.3613551811
     9 OT LS       0.11E+00    7.4                    -8144.3612131651
    10 OT CG       0.85E-01   14.6     0.00002873     -8144.3613560042 -7.11E-04
    11 OT LS       0.12E+00    7.4                    -8144.3615420862
    12 OT LS       0.13E+00    7.4                    -8144.3615671013
    13 OT CG       0.11E+00   14.6     0.00001497     -8144.3615692116 -2.13E-04
    14 OT LS       0.15E+00    7.4                    -8144.3616206776
    15 OT LS       0.12E+00    7.3                    -8144.3616182384
    16 OT CG       0.95E-01   14.7     0.00000480     -8144.3616213291 -5.21E-05

  *** SCF run converged in    16 steps ***


  Electronic density on regular grids:      -1437.9999922965        0.0000077035
  Core density on regular grids:             1437.9999996440       -0.0000003560
  Total charge density on r-space grids:        0.0000073476
  Total charge density g-space grids:           0.0000073476

  Overlap energy of the core charge distribution:               0.00000619743809
  Self energy of the core charge distribution:             -14650.93922905635191
  Core Hamiltonian energy:                                   4107.45528294348605
  Hartree energy:                                            3440.70606314078714
  Exchange-correlation energy:                              -1042.46409772256652
  Dispersion energy:                                           -0.57772392425610

  DFT+U energy:                                                 1.45807709238530

  Total energy:                                             -8144.36162132907612

  outer SCF iter =    1 RMS gradient =   0.48E-05 energy =      -8144.3616213291
  outer SCF loop converged in   1 iterations or   16 steps


  Integrated absolute spin density  :                             235.0662010193
  Ideal and single determinant S**2 :                    0.000000     127.897711

 ENERGY| Total FORCE_EVAL ( QS ) energy (a.u.):            -8144.361621329076115


 -------------------------------------------------------------------------------
 -                                                                             -
 -                                DBCSR STATISTICS                             -
 -                                                                             -
 -------------------------------------------------------------------------------
 COUNTER                                    TOTAL       BLAS       SMM       ACC
 flops     5 x    15 x    15               945000       0.0%    100.0%      0.0%
 flops    13 x    15 x    15             10881000       0.0%    100.0%      0.0%
 flops    26 x    15 x    15             12636000       0.0%    100.0%      0.0%
 flops     5 x    32 x    32             94617600       0.0%    100.0%      0.0%
 flops     5 x    15 x     5            335380500       0.0%    100.0%      0.0%
 flops    13 x    32 x    32           1089454080       0.0%    100.0%      0.0%
 flops     5 x     5 x   160           1204896000       0.0%    100.0%      0.0%
 flops    26 x    32 x    32           1265172480       0.0%    100.0%      0.0%
 flops     5 x     5 x   175           1317855000       0.0%    100.0%      0.0%
 flops     5 x     5 x   192           2891750400       0.0%    100.0%      0.0%
 flops     5 x    15 x    13           3861666900       0.0%    100.0%      0.0%
 flops    13 x    15 x     5           3861666900       0.0%    100.0%      0.0%
 flops     5 x    15 x    26           4484516400       0.0%    100.0%      0.0%
 flops    26 x    15 x     5           4484516400       0.0%    100.0%      0.0%
 flops    13 x     5 x   160          13236121600       0.0%    100.0%      0.0%
 flops     5 x    13 x   160          13249683200       0.0%    100.0%      0.0%
 flops    13 x     5 x   175          14477008000       0.0%    100.0%      0.0%
 flops     5 x    13 x   175          14491841000       0.0%    100.0%      0.0%
 flops     5 x    26 x   160          15351731200       0.0%    100.0%      0.0%
 flops    26 x     5 x   160          15405977600       0.0%    100.0%      0.0%
 flops     5 x    32 x     5          15740524800       0.0%    100.0%      0.0%
 flops     5 x    26 x   175          16790956000       0.0%    100.0%      0.0%
 flops    26 x     5 x   175          16850288000       0.0%    100.0%      0.0%
 flops   160 x   160 x   160          20307968000     100.0%      0.0%      0.0%
 flops   160 x   160 x   175          22211840000     100.0%      0.0%      0.0%
 flops   160 x   175 x   160          22211840000     100.0%      0.0%      0.0%
 flops   175 x   160 x   160          22211840000     100.0%      0.0%      0.0%
 flops   160 x   175 x   175          24294200000     100.0%      0.0%      0.0%
 flops   175 x   160 x   175          24294200000     100.0%      0.0%      0.0%
 flops   175 x   175 x   160          24294200000     100.0%      0.0%      0.0%
 flops   175 x   175 x   175          26571781250     100.0%      0.0%      0.0%
 flops    13 x     5 x   192          31766691840       0.0%    100.0%      0.0%
 flops     5 x    13 x   192          31799239680       0.0%    100.0%      0.0%
 flops     5 x    26 x   192          36844154880       0.0%    100.0%      0.0%
 flops    26 x     5 x   192          36974346240       0.0%    100.0%      0.0%
 flops    13 x    15 x    13          44464336020       0.0%    100.0%      0.0%
 flops   160 x   160 x   678          44711116800     100.0%      0.0%      0.0%
 flops   160 x   160 x   192          48739123200     100.0%      0.0%      0.0%
 flops   160 x   192 x   160          48739123200     100.0%      0.0%      0.0%
 flops   192 x   160 x   160          48739123200     100.0%      0.0%      0.0%
 flops   160 x   175 x   678          48902784000     100.0%      0.0%      0.0%
 flops   175 x   160 x   678          48902784000     100.0%      0.0%      0.0%
 flops    26 x    15 x    13          51636003120       0.0%    100.0%      0.0%
 flops    13 x    15 x    26          51636003120       0.0%    100.0%      0.0%
 flops   160 x   175 x   192          53308416000     100.0%      0.0%      0.0%
 flops   160 x   192 x   175          53308416000     100.0%      0.0%      0.0%
 flops   175 x   160 x   192          53308416000     100.0%      0.0%      0.0%
 flops   175 x   192 x   160          53308416000     100.0%      0.0%      0.0%
 flops   192 x   160 x   175          53308416000     100.0%      0.0%      0.0%
 flops   192 x   175 x   160          53308416000     100.0%      0.0%      0.0%
 flops   175 x   175 x   678          53487420000     100.0%      0.0%      0.0%
 flops   175 x   175 x   192          58306080000     100.0%      0.0%      0.0%
 flops   175 x   192 x   175          58306080000     100.0%      0.0%      0.0%
 flops   192 x   175 x   175          58306080000     100.0%      0.0%      0.0%
 flops    26 x    15 x    26          59964390720       0.0%    100.0%      0.0%
 flops   678 x   160 x   160          65330995200     100.0%      0.0%      0.0%
 flops   678 x   160 x   678          70019066880     100.0%      0.0%      0.0%
 flops   678 x   160 x   175          71455776000     100.0%      0.0%      0.0%
 flops   678 x   175 x   160          71455776000     100.0%      0.0%      0.0%
 flops   678 x   175 x   678          76583354400     100.0%      0.0%      0.0%
 flops   678 x   175 x   175          78154755000     100.0%      0.0%      0.0%
 flops   160 x   192 x   678         107306680320     100.0%      0.0%      0.0%
 flops   192 x   160 x   678         107306680320     100.0%      0.0%      0.0%
 flops   192 x   192 x   160         116973895680     100.0%      0.0%      0.0%
 flops   160 x   192 x   192         116973895680     100.0%      0.0%      0.0%
 flops   192 x   160 x   192         116973895680     100.0%      0.0%      0.0%
 flops   175 x   192 x   678         117366681600     100.0%      0.0%      0.0%
 flops   192 x   175 x   678         117366681600     100.0%      0.0%      0.0%
 flops   192 x   192 x   175         127940198400     100.0%      0.0%      0.0%
 flops   175 x   192 x   192         127940198400     100.0%      0.0%      0.0%
 flops   192 x   175 x   192         127940198400     100.0%      0.0%      0.0%
 flops   160 x   160 x   680         134529024000     100.0%      0.0%      0.0%
 flops   160 x   175 x   680         147141120000     100.0%      0.0%      0.0%
 flops   175 x   160 x   680         147141120000     100.0%      0.0%      0.0%
 flops    13 x    13 x   160         154122159360       0.0%    100.0%      0.0%
 flops   678 x   160 x   192         156794388480     100.0%      0.0%      0.0%
 flops   678 x   192 x   160         156794388480     100.0%      0.0%      0.0%
 flops   175 x   175 x   680         160935600000     100.0%      0.0%      0.0%
 flops   678 x   192 x   678         168045760512     100.0%      0.0%      0.0%
 flops    13 x    13 x   175         168571111800       0.0%    100.0%      0.0%
 flops   678 x   175 x   192         171493862400     100.0%      0.0%      0.0%
 flops   678 x   192 x   175         171493862400     100.0%      0.0%      0.0%
 flops    26 x    13 x   160         176935482880       0.0%    100.0%      0.0%
 flops    13 x    26 x   160         177217564160       0.0%    100.0%      0.0%
 flops     5 x    32 x    13         181240899840       0.0%    100.0%      0.0%
 flops    13 x    32 x     5         181240899840       0.0%    100.0%      0.0%
 flops    26 x    13 x   175         193523184400       0.0%    100.0%      0.0%
 flops    13 x    26 x   175         193831710800       0.0%    100.0%      0.0%
 flops   680 x   160 x   160         196571136000     100.0%      0.0%      0.0%
 flops    26 x    26 x   160         209445350400       0.0%    100.0%      0.0%
 flops     5 x    32 x    26         210473303040       0.0%    100.0%      0.0%
 flops    26 x    32 x     5         210473303040       0.0%    100.0%      0.0%
 flops   678 x   160 x   680         210676838400     100.0%      0.0%      0.0%
 flops   680 x   160 x   678         210676838400     100.0%      0.0%      0.0%
 flops   680 x   160 x   175         214999680000     100.0%      0.0%      0.0%
 flops   680 x   175 x   160         214999680000     100.0%      0.0%      0.0%
 flops    26 x    26 x   175         229080852000       0.0%    100.0%      0.0%
 flops   678 x   175 x   680         230427792000     100.0%      0.0%      0.0%
 flops   680 x   175 x   678         230427792000     100.0%      0.0%      0.0%
 flops   680 x   175 x   175         235155900000     100.0%      0.0%      0.0%
 flops   192 x   192 x   678         257536032768     100.0%      0.0%      0.0%
 flops   192 x   192 x   192         280737349632     100.0%      0.0%      0.0%
 flops   160 x   192 x   680         322869657600     100.0%      0.0%      0.0%
 flops   192 x   160 x   680         322869657600     100.0%      0.0%      0.0%
 flops   175 x   192 x   680         353138688000     100.0%      0.0%      0.0%
 flops   192 x   175 x   680         353138688000     100.0%      0.0%      0.0%
 flops    13 x    13 x   192         369893182464       0.0%    100.0%      0.0%
 flops   678 x   192 x   192         376306532352     100.0%      0.0%      0.0%
 flops    26 x    13 x   192         424645158912       0.0%    100.0%      0.0%
 flops    13 x    26 x   192         425322153984       0.0%    100.0%      0.0%
 flops   680 x   192 x   160         471770726400     100.0%      0.0%      0.0%
 flops   680 x   160 x   192         471770726400     100.0%      0.0%      0.0%
 flops    26 x    26 x   192         502668840960       0.0%    100.0%      0.0%
 flops   680 x   192 x   678         505624412160     100.0%      0.0%      0.0%
 flops   678 x   192 x   680         505624412160     100.0%      0.0%      0.0%
 flops   680 x   192 x   175         515999232000     100.0%      0.0%      0.0%
 flops   680 x   175 x   192         515999232000     100.0%      0.0%      0.0%
 flops   680 x   160 x   680         633894912000     100.0%      0.0%      0.0%
 flops   680 x   175 x   680         693322560000     100.0%      0.0%      0.0%
 flops   192 x   192 x   680         774887178240     100.0%      0.0%      0.0%
 flops   680 x   192 x   192        1132249743360     100.0%      0.0%      0.0%
 flops   680 x   192 x   680        1521347788800     100.0%      0.0%      0.0%
 flops    13 x    32 x    13        2086859503872       0.0%    100.0%      0.0%
 flops    26 x    32 x    13        2423449746432       0.0%    100.0%      0.0%
 flops    13 x    32 x    26        2423449746432       0.0%    100.0%      0.0%
 flops    26 x    32 x    26        2814328737792       0.0%    100.0%      0.0%
 flops inhomo. stacks                           0       0.0%      0.0%      0.0%
 flops total                        30.070237E+12      52.6%     47.4%      0.0%
 flops max/rank                      2.025276E+12      53.4%     46.6%      0.0%
 matmuls inhomo. stacks                         0       0.0%      0.0%      0.0%
 matmuls total                          695732576       0.1%     99.9%      0.0%
 number of processed stacks               1863872      21.0%     79.0%      0.0%
 average stack size                                     1.0     472.4       0.0
 marketing flops                    33.618519E+12
 -------------------------------------------------------------------------------
 # multiplications                           7831
 max memory usage/rank             975.368192E+06
 # max total images/rank                        1
 # max 3D layers                                1
 # MPI messages exchanged                  751776
 MPI messages size (bytes):
  total size                       690.112299E+09
  min size                           0.000000E+00
  max size                           3.699200E+06
  average size                     917.975938E+03
 MPI breakdown and total messages size (bytes):
             size <=      128                2640                        0
       128 < size <=     8192                   0                        0
      8192 < size <=    32768                   0                        0
     32768 < size <=   131072                 240                 10921440
    131072 < size <=  4194304              748896             690112123776
   4194304 < size <= 16777216                   0                        0
  16777216 < size                               0                        0
 -------------------------------------------------------------------------------
 
 MEMORY| Estimated peak process memory [MiB]                                 938

 -------------------------------------------------------------------------------
 -                                                                             -
 -                         MESSAGE PASSING PERFORMANCE                         -
 -                                                                             -
 -------------------------------------------------------------------------------

 ROUTINE             CALLS      AVE VOLUME [Bytes]
 MP_Group              757
 MP_Bcast            24397                  54252.
 MP_Allreduce       104559                    597.
 MP_Sync               467
 MP_Alltoall         37676                3002069.
 MP_SendRecv          7484                 513717.
 MP_ISendRecv        39150                 105472.
 MP_Wait            460715
 MP_comm_split         462
 MP_ISend           163876                 470996.
 MP_IRecv           163876                 466528.
 MP_Recv               876                 618166.
 MP_Memory          341772
 -------------------------------------------------------------------------------


 -------------------------------------------------------------------------------
 -                                                                             -
 -                           R E F E R E N C E S                               -
 -                                                                             -
 -------------------------------------------------------------------------------
 
 CP2K version 6.1, the CP2K developers group (2018).
 CP2K is freely available from https://www.cp2k.org/ .

 Schuett, Ole; Messmer, Peter; Hutter, Juerg; VandeVondele, Joost. 
 Electronic Structure Calculations on Graphics Processing Units, John Wiley & Sons, Ltd, 173-190 (2016). 
 GPU-Accelerated Sparse Matrix-Matrix Multiplication for Linear Scaling Density Functional Theory.
 http://dx.doi.org/10.1002/9781118670712.ch8


 Borstnik, U; VandeVondele, J; Weber, V; Hutter, J. 
 PARALLEL COMPUTING, 40 (5-6), 47-58 (2014). 
 Sparse matrix multiplication: The distributed block-compressed sparse
 row library.
 http://dx.doi.org/10.1016/j.parco.2014.03.012


 Hutter, J; Iannuzzi, M; Schiffmann, F; VandeVondele, J. 
 WILEY INTERDISCIPLINARY REVIEWS-COMPUTATIONAL MOLECULAR SCIENCE, 4 (1), 15-25 (2014). 
 CP2K: atomistic simulations of condensed matter systems.
 http://dx.doi.org/10.1002/wcms.1159


 Grimme, S; Ehrlich, S; Goerigk, L. 
 JOURNAL OF COMPUTATIONAL CHEMISTRY, 32, 1456 (2011). 
 Effect of the damping function in dispersion corrected density functional theory.
 http://dx.doi.org/10.1002/jcc.21759


 Grimme, S; Antony, J; Ehrlich, S; Krieg, H. 
 JOURNAL OF CHEMICAL PHYSICS, 132 (15), 154104 (2010). 
 A consistent and accurate ab initio parametrization of density
 functional dispersion correction (DFT-D) for the 94 elements H-Pu.
 http://dx.doi.org/10.1063/1.3382344


 VandeVondele, J; Hutter, J. 
 JOURNAL OF CHEMICAL PHYSICS, 127 (11), 114105 (2007). 
 Gaussian basis sets for accurate calculations on molecular systems in
 gas and condensed phases.
 http://dx.doi.org/10.1063/1.2770708


 Krack, M. 
 THEORETICAL CHEMISTRY ACCOUNTS, 114 (1-3), 145-152 (2005). 
 Pseudopotentials for H to Kr optimized for gradient-corrected
 exchange-correlation functionals.
 http://dx.doi.org/10.1007/s00214-005-0655-y


 VandeVondele, J; Krack, M; Mohamed, F; Parrinello, M; Chassaing, T;
 Hutter, J. COMPUTER PHYSICS COMMUNICATIONS, 167 (2), 103-128 (2005). 
 QUICKSTEP: Fast and accurate density functional calculations using a
 mixed Gaussian and plane waves approach.
 http://dx.doi.org/10.1016/j.cpc.2004.12.014


 Frigo, M; Johnson, SG. 
 PROCEEDINGS OF THE IEEE, 93 (2), 216-231 (2005). 
 The design and implementation of FFTW3.
 http://dx.doi.org/10.1109/JPROC.2004.840301


 VandeVondele, J; Hutter, J. 
 JOURNAL OF CHEMICAL PHYSICS, 118 (10), 4365-4369 (2003). 
 An efficient orbital transformation method for electronic structure
 calculations.
 http://dx.doi.org/10.1063/1.1543154


 Hartwigsen, C; Goedecker, S; Hutter, J. 
 PHYSICAL REVIEW B, 58 (7), 3641-3662 (1998). 
 Relativistic separable dual-space Gaussian pseudopotentials from H to Rn.
 http://dx.doi.org/10.1103/PhysRevB.58.3641


 Dudarev, SL; Botton, GA; Savrasov, SY; Humphreys, CJ; Sutton, AP. 
 PHYSICAL REVIEW B, 57 (3), 1505-1509 (1998). 
 Electron-energy-loss spectra and the structural stability of
 nickel oxide: An LSDA+U study.
 http://dx.doi.org/10.1103/PhysRevB.57.1505


 Lippert, G; Hutter, J; Parrinello, M. 
 MOLECULAR PHYSICS, 92 (3), 477-487 (1997). 
 A hybrid Gaussian and plane wave density functional scheme.
 http://dx.doi.org/10.1080/002689797170220


 Dudarev, SL; Manh, DN; Sutton, AP. 
 PHILOSOPHICAL MAGAZINE B, 75 (5), 613-628 (1997). 
 Effect of Mott-Hubbard correlations on the electronic
 structure and structural stability of uranium dioxide.
 http://dx.doi.org/10.1080/13642819708202343


 Perdew, JP; Burke, K; Ernzerhof, M. 
 PHYSICAL REVIEW LETTERS, 77 (18), 3865-3868 (1996). 
 Generalized gradient approximation made simple.
 http://dx.doi.org/10.1103/PhysRevLett.77.3865


 Goedecker, S; Teter, M; Hutter, J. 
 PHYSICAL REVIEW B, 54 (3), 1703-1710 (1996). 
 Separable dual-space Gaussian pseudopotentials.
 http://dx.doi.org/10.1103/PhysRevB.54.1703


 -------------------------------------------------------------------------------
 -                                                                             -
 -                                T I M I N G                                  -
 -                                                                             -
 -------------------------------------------------------------------------------
 SUBROUTINE                       CALLS  ASD         SELF TIME        TOTAL TIME
                                MAXIMUM       AVERAGE  MAXIMUM  AVERAGE  MAXIMUM
 CP2K                                 1  1.0    0.020    0.037 3467.180 3467.219
 cp_geo_opt                           1  2.0    0.000    0.001 3466.194 3466.233
 geoopt_bfgs                          1  3.0    0.026    0.030 3466.194 3466.233
 cp_eval_at                          10  4.0    0.001    0.002 3465.436 3465.477
 qs_energies                         10  5.9    0.002    0.003 3308.119 3308.173
 qs_forces                            9  5.0    0.002    0.002 3291.214 3291.251
 scf_env_do_scf                      10  6.9    0.003    0.005 3187.464 3187.503
 scf_env_do_scf_inner_loop          307  7.9    0.028    0.149 3072.511 3072.597
 qs_rho_update_rho                  317  9.0    0.005    0.005 2066.840 2066.966
 calculate_rho_elec                 634 10.0 1541.615 1669.117 2066.836 2066.962
 rebuild_ks_matrix                  316  9.9    0.003    0.003 1070.907 1071.268
 qs_ks_build_kohn_sham_matrix       316 10.9    0.075    0.084 1070.904 1071.265
 qs_ks_update_qs_env                317  8.9    0.005    0.007  931.629  931.961
 sum_up_and_integrate               118 11.7    4.638    4.684  749.868  749.948
 integrate_v_rspace                 236 12.7  564.795  624.703  745.229  745.339
 density_rs2pw                      634 11.0    0.052    0.055  484.963  576.159
 pw_transfer                       5744 12.6    0.700    0.740  361.946  363.507
 fft_wrap_pw1pw2                   5112 13.6    0.059    0.063  350.444  351.994
 rs_pw_transfer                    4369 12.7    0.058    0.064  252.525  342.975
 fft_wrap_pw1pw2_200               1632 14.3   43.035   44.809  326.805  330.758
 rs_pw_transfer_RS2PW_200           644 12.9   31.591   42.058  174.863  264.334
 fft3d_ps                          5112 15.6  144.559  147.523  249.520  252.873
 mp_waitany                       38660 14.7  156.727  243.781  156.727  243.781
 qs_vxc_create                      316 11.9    0.007    0.008  227.373  227.982
 qs_scf_new_mos                     307  8.9    0.004    0.006  211.410  212.057
 qs_scf_loop_do_ot                  307  9.9    0.009    0.019  211.406  212.054
 dbcsr_multiply_generic            7831 13.6    0.479    0.513  194.708  196.527
 ot_scf_mini                        307 10.9    0.045    0.056  188.194  188.737
 xc_rho_set_and_dset_create         316 13.9   17.230   17.381  158.242  160.064
 multiply_cannon                   7831 14.6    1.118    1.432  132.909  142.391
 qs_ks_update_qs_env_forces           9  6.0    0.000    0.000  140.918  140.947
 xc_vxc_pw_create                   118 12.7   37.680   38.702  128.653  129.262
 init_scf_loop                       10  7.9    0.001    0.002  114.711  114.713
 potential_pw2rs                    236 13.7    0.282    0.307  110.157  110.407
 rs_distribute_matrix               888 11.7    7.396   11.810   83.405  107.034
 mp_alltoall_d11v                  8332 15.6   73.484  102.232   73.484  102.232
 multiply_cannon_multrec          31324 15.6   94.089  100.975   94.162  101.041
 xc_exc_calc                        198 12.9    0.669    0.672   98.713   98.715
 pw_nn_compose_r                   3472 14.6   62.255   64.296   69.997   73.760
 init_scf_run                        10  6.9    0.000    0.001   71.275   71.277
 scf_env_initial_rho_setup           10  7.9    0.000    0.002   71.275   71.277
 xc_functional_eval                 316 14.9    0.005    0.006   67.894   69.389
 pbe_lsd_eval                       316 15.9   67.889   69.385   67.889   69.385
 -------------------------------------------------------------------------------

 The number of warnings for this run is : 1
 
 -------------------------------------------------------------------------------
  **** **** ******  **  PROGRAM ENDED AT                 2020-10-07 13:26:37.713
 ***** ** ***  *** **   PROGRAM RAN ON                                 irene6277
 **    ****   ******    PROGRAM RAN BY                                  marticar
 ***** **    ** ** **   PROGRAM PROCESS ID                                 41724
  **** **  *******  **  PROGRAM STOPPED IN /ccc/scratch/cont003/gen0609/marticar
                                           /684167
