30
Lattice="7.668573041968109 0.0 0.0 3.8342865209840546 6.641179065120891 0.0 0.0 0.0 34.174242446240996" Properties=species:S:1:pos:R:3:tags:I:1:forces:R:3 energy=-116.19752502441406 free_energy=-116.19752502441406 stress="0.00030294989119283855 3.963190806643979e-07 5.890270244890417e-07 3.963190806643979e-07 0.00030240052728913724 -2.762767223885021e-07 5.890270244890417e-07 -2.762767223885021e-07 7.133092367439531e-06" pbc="T T F"
Cu       1.27809551       0.73790879      15.00000000        3       0.00000170       0.00092173      -0.00936227
Cu       3.83428652       0.73790879      15.00000000        3       0.00002183       0.00005505      -0.01089627
Cu       6.39047753       0.73790879      15.00000000        3      -0.00000671      -0.00002660      -0.01111323
Cu       2.55619101       2.95163514      15.00000000        3      -0.00073090      -0.00033191      -0.00870589
Cu       5.11238203       2.95163514      15.00000000        3      -0.00012819       0.00008749      -0.01148515
Cu       7.66857304       2.95163514      15.00000000        3       0.00084939      -0.00036734      -0.00912584
Cu       3.83428652       5.16536150      15.00000000        3      -0.00004308      -0.00015177      -0.01159627
Cu       6.39047753       5.16536150      15.00000000        3      -0.00002294      -0.00006445      -0.01179670
Cu       8.94666855       5.16536150      15.00000000        3       0.00005902      -0.00012016      -0.01075208
Cu      -0.00000000       1.47581757      17.08712122        2       0.01711292       0.01100784       0.04244604
Cu       2.55619101       1.47581757      17.08712122        2      -0.01651534       0.01103718       0.04179037
Cu       5.11238203       1.47581757      17.08712122        2       0.00129778       0.00098186       0.01920741
Cu       1.27809551       3.68954393      17.08712122        2       0.00010485      -0.01954227       0.04431438
Cu       3.83428652       3.68954393      17.08712122        2      -0.00140360       0.00012644       0.01680463
Cu       6.39047753       3.68954393      17.08712122        2       0.00085319      -0.00059253       0.01965662
Cu       2.55619101       5.90327028      17.08712122        2      -0.00021362      -0.00001349       0.01736236
Cu       5.11238203       5.90327028      17.08712122        2      -0.00154556      -0.00027655       0.01446859
Cu       7.66857304       5.90327028      17.08712122        2       0.00137425      -0.00187935       0.01735728
Cu       0.00006342       0.00079737      19.17763954        1       0.00059958       0.00019188      -0.00487290
Cu       2.55608944      -0.00060732      19.17681531        1      -0.00014746       0.00228945      -0.00357283
Cu       5.11185060       0.00043209      19.17843930        1       0.00112318      -0.00002700      -0.00821247
Cu       1.27874527       2.21380861      19.20254142        1       0.00086453      -0.00006227      -0.04006016
Cu       3.83460244       2.21420002      19.17870120        1      -0.00129769      -0.00042912      -0.00675451
Cu       6.39185285       2.21396422      19.17918778        1      -0.00087707       0.00005645      -0.00724638
Cu       2.55593235       4.42806567      19.17921304        1      -0.00001222      -0.00134570      -0.00745554
Cu       5.11200487       4.42753139      19.17850985        1       0.00101837      -0.00011899      -0.00831297
Cu       7.66905923       4.42668777      19.17966364        1       0.00011046       0.00037687      -0.00812692
O        1.26467016       2.21811169      23.15246242        0       0.00304841       0.01695792      -0.04404187
H        1.49066285       3.12553958      23.41926048        0      -0.01441305       0.00639402       0.00153781
H        1.91351616       2.01075797      22.45713904        0       0.00891805      -0.02513465      -0.00145541
