30
Lattice="7.668573041968109 0.0 0.0 3.8342865209840546 6.641179065120891 0.0 0.0 0.0 34.174242446240996" Properties=species:S:1:pos:R:3:tags:I:1:forces:R:3 energy=-116.19752502441406 free_energy=-116.19752502441406 stress="0.0003029530926141888 3.960355172694108e-07 5.8729614238473e-07 3.960355172694108e-07 0.00030240422347560525 -2.747482312770444e-07 5.8729614238473e-07 -2.747482312770444e-07 7.138692581065698e-06" pbc="T T F"
Cu       1.27809551       0.73790879      15.00000000        3      -0.00000570      -0.00002653      -0.01111288
Cu       3.83428652       0.73790879      15.00000000        3       0.00000243       0.00092180      -0.00936177
Cu       6.39047753       0.73790879      15.00000000        3       0.00002009       0.00005460      -0.01089625
Cu       2.55619101       2.95163514      15.00000000        3       0.00084877      -0.00036759      -0.00912490
Cu       5.11238203       2.95163514      15.00000000        3      -0.00073092      -0.00033145      -0.00870522
Cu       7.66857304       2.95163514      15.00000000        3      -0.00012756       0.00008766      -0.01148555
Cu       3.83428652       5.16536150      15.00000000        3       0.00006023      -0.00012056      -0.01075144
Cu       6.39047753       5.16536150      15.00000000        3      -0.00004499      -0.00015187      -0.01159626
Cu       8.94666855       5.16536150      15.00000000        3      -0.00002224      -0.00006392      -0.01179624
Cu      -0.00000000       1.47581757      17.08712122        2       0.00129830       0.00098161       0.01920848
Cu       2.55619101       1.47581757      17.08712122        2       0.01711614       0.01100887       0.04245394
Cu       5.11238203       1.47581757      17.08712122        2      -0.01651897       0.01103786       0.04179930
Cu       1.27809551       3.68954393      17.08712122        2       0.00085538      -0.00059178       0.01965907
Cu       3.83428652       3.68954393      17.08712122        2       0.00010526      -0.01954570       0.04432415
Cu       6.39047753       3.68954393      17.08712122        2      -0.00140659       0.00012783       0.01680796
Cu       2.55619101       5.90327028      17.08712122        2       0.00137236      -0.00188018       0.01736165
Cu       5.11238203       5.90327028      17.08712122        2      -0.00021182      -0.00001480       0.01736737
Cu       7.66857304       5.90327028      17.08712122        2      -0.00154518      -0.00027459       0.01447317
Cu      -0.00053123       0.00043209      19.17843947        1       0.00112350      -0.00002713      -0.00821275
Cu       2.55625428       0.00079749      19.17764064        1       0.00059980       0.00019217      -0.00488063
Cu       5.11228031      -0.00060766      19.17681682        1      -0.00014773       0.00229214      -0.00358010
Cu       1.27947122       2.21396415      19.17918846        1      -0.00087730       0.00005739      -0.00724646
Cu       3.83493609       2.21380862      19.20254767        1       0.00086664      -0.00006255      -0.04007931
Cu       6.39079371       2.21420018      19.17870179        1      -0.00129998      -0.00042967      -0.00675475
Cu       2.55667735       4.42668763      19.17966452        1       0.00011053       0.00037626      -0.00813406
Cu       5.11212320       4.42806591      19.17921391        1      -0.00001225      -0.00134666      -0.00746299
Cu       7.66819565       4.42753155      19.17851122        1       0.00101846      -0.00012011      -0.00831278
O        3.82085943       2.21811236      23.15246015        0       0.00315803       0.01699141      -0.04412317
H        4.04685315       3.12554138      23.41926084        0      -0.01442226       0.00631233       0.00150316
H        4.46970948       2.01075535      22.45713733        0       0.00881749      -0.02508681      -0.00134095
