30
Lattice="7.668573041968109 0.0 0.0 3.8342865209840546 6.641179065120891 0.0 0.0 0.0 34.174242446240996" Properties=species:S:1:pos:R:3:tags:I:1:forces:R:3 energy=-116.19752502441406 free_energy=-116.19752502441406 stress="0.0003029502113349736 3.963045003274601e-07 5.89313572163519e-07 3.963045003274601e-07 0.00030240064370445907 -2.7638688493425434e-07 5.89313572163519e-07 -2.7638688493425434e-07 7.133811777748633e-06" pbc="T T F"
Cu       1.27809551       0.73790879      15.00000000        3      -0.00004401      -0.00015232      -0.01159589
Cu       3.83428652       0.73790879      15.00000000        3      -0.00002108      -0.00006482      -0.01179627
Cu       6.39047753       0.73790879      15.00000000        3       0.00005842      -0.00012125      -0.01075168
Cu       2.55619101       2.95163514      15.00000000        3       0.00000216       0.00092156      -0.00936218
Cu       5.11238203       2.95163514      15.00000000        3       0.00002152       0.00005510      -0.01089600
Cu       7.66857304       2.95163514      15.00000000        3      -0.00000453      -0.00002629      -0.01111329
Cu       3.83428652       5.16536150      15.00000000        3      -0.00073060      -0.00033118      -0.00870594
Cu       6.39047753       5.16536150      15.00000000        3      -0.00012969       0.00008792      -0.01148526
Cu       8.94666855       5.16536150      15.00000000        3       0.00084780      -0.00036654      -0.00912551
Cu      -0.00000000       1.47581757      17.08712122        2      -0.00021333      -0.00001473       0.01736342
Cu       2.55619101       1.47581757      17.08712122        2      -0.00154582      -0.00027697       0.01446852
Cu       5.11238203       1.47581757      17.08712122        2       0.00137375      -0.00188167       0.01735895
Cu       1.27809551       3.68954393      17.08712122        2       0.01711358       0.01100824       0.04244756
Cu       3.83428652       3.68954393      17.08712122        2      -0.01651595       0.01103699       0.04179322
Cu       6.39047753       3.68954393      17.08712122        2       0.00129674       0.00098135       0.01920795
Cu       2.55619101       5.90327028      17.08712122        2       0.00010386      -0.01954139       0.04431820
Cu       5.11238203       5.90327028      17.08712122        2      -0.00140352       0.00012777       0.01680434
Cu       7.66857304       5.90327028      17.08712122        2       0.00085625      -0.00059044       0.01965878
Cu      -0.00025858       0.00061291      19.17921340        1      -0.00001339      -0.00134387      -0.00745498
Cu       2.55581367       0.00007881      19.17850999        1       0.00101893      -0.00012033      -0.00831276
Cu       5.11286837      -0.00076481      19.17966381        1       0.00011087       0.00037572      -0.00813413
Cu       1.27815889       2.21452380      19.17763972        1       0.00059820       0.00019264      -0.00487348
Cu       3.83418482       2.21311887      19.17681594        1      -0.00014776       0.00229133      -0.00357277
Cu       6.38994622       2.21415842      19.17843928        1       0.00112503      -0.00002766      -0.00821300
Cu       2.55684089       4.42753515      19.20254386        1       0.00086421      -0.00006283      -0.04006623
Cu       5.11269796       4.42792650      19.17870179        1      -0.00129794      -0.00043062      -0.00675505
Cu       7.66994843       4.42769034      19.17918822        1      -0.00087719       0.00005735      -0.00724599
O        2.54276499       4.43183837      23.15245990        0       0.00303242       0.01695329      -0.04403019
H        2.76875837       5.33926557      23.41925911        0      -0.01441119       0.00640307       0.00154041
H        3.19161215       4.22448425      22.45713993        0       0.00893223      -0.02513942      -0.00147083
