30
Lattice="7.668573041968109 0.0 0.0 3.8342865209840546 6.641179065120891 0.0 0.0 0.0 34.174242446240996" Properties=species:S:1:pos:R:3:tags:I:1:forces:R:3 energy=-116.19752502441406 free_energy=-116.19752502441406 stress="0.00030295157921500504 3.9628471881769656e-07 5.886324743187288e-07 3.9628471881769656e-07 0.000302402040688321 -2.7606597541307565e-07 5.886324743187288e-07 -2.7606597541307565e-07 7.136290605558315e-06" pbc="T T F"
Cu       1.27809551       0.73790879      15.00000000        3      -0.00073151      -0.00033189      -0.00870518
Cu       3.83428652       0.73790879      15.00000000        3      -0.00012782       0.00008731      -0.01148520
Cu       6.39047753       0.73790879      15.00000000        3       0.00084732      -0.00036762      -0.00912528
Cu       2.55619101       2.95163514      15.00000000        3      -0.00004348      -0.00015232      -0.01159588
Cu       5.11238203       2.95163514      15.00000000        3      -0.00002125      -0.00006458      -0.01179595
Cu       7.66857304       2.95163514      15.00000000        3       0.00006055      -0.00012079      -0.01075154
Cu       3.83428652       5.16536150      15.00000000        3       0.00000254       0.00092228      -0.00936179
Cu       6.39047753       5.16536150      15.00000000        3       0.00001991       0.00005528      -0.01089612
Cu       8.94666855       5.16536150      15.00000000        3      -0.00000622      -0.00002551      -0.01111326
Cu      -0.00000000       1.47581757      17.08712122        2       0.00010530      -0.01954485       0.04432496
Cu       2.55619101       1.47581757      17.08712122        2      -0.00140545       0.00012825       0.01680752
Cu       5.11238203       1.47581757      17.08712122        2       0.00085546      -0.00059123       0.01965860
Cu       1.27809551       3.68954393      17.08712122        2      -0.00021355      -0.00001648       0.01736530
Cu       3.83428652       3.68954393      17.08712122        2      -0.00154400      -0.00027712       0.01447045
Cu       6.39047753       3.68954393      17.08712122        2       0.00137077      -0.00188131       0.01736112
Cu       2.55619101       5.90327028      17.08712122        2       0.01711664       0.01101087       0.04245134
Cu       5.11238203       5.90327028      17.08712122        2      -0.01651851       0.01103797       0.04179923
Cu       7.66857304       5.90327028      17.08712122        2       0.00129830       0.00098249       0.01920910
Cu       0.00064971       0.00008224      19.20254682        1       0.00086569      -0.00006115      -0.04007944
Cu       2.55650719       0.00047390      19.17870226        1      -0.00129832      -0.00043046      -0.00675478
Cu       5.11375790       0.00023766      19.17918834        1      -0.00087950       0.00005875      -0.00724589
Cu       1.27783674       2.21433947      19.17921357        1      -0.00001324      -0.00134645      -0.00746319
Cu       3.83390911       2.21380518      19.17851067        1       0.00101933      -0.00012015      -0.00831289
Cu       6.39096368       2.21296134      19.17966423        1       0.00011172       0.00037562      -0.00813380
Cu       2.55625427       4.42825012      19.17763975        1       0.00060011       0.00019042      -0.00487304
Cu       5.11228045       4.42684495      19.17681629        1      -0.00014726       0.00229175      -0.00358013
Cu       7.66804171       4.42788481      19.17843993        1       0.00112290      -0.00002607      -0.00821289
O       -0.01342762       0.00438628      23.15245797        0       0.00307466       0.01696193      -0.04406393
H        0.21256702       0.91181329      23.41925860        0      -0.01441667       0.00638381       0.00153528
H        0.63542288      -0.20296968      22.45713934        0       0.00889556      -0.02512881      -0.00143272
