30
Lattice="7.668573041968109 0.0 0.0 3.8342865209840546 6.641179065120891 0.0 0.0 0.0 34.174242446240996" Properties=species:S:1:pos:R:3:tags:I:1:forces:R:3 energy=-116.19752502441406 free_energy=-116.19752502441406 stress="0.0003029505314771086 3.9658124251218396e-07 5.887628162781766e-07 3.9658124251218396e-07 0.00030240154592320323 -2.761470625500806e-07 5.887628162781766e-07 -2.761470625500806e-07 7.1339909482048824e-06" pbc="T T F"
Cu       1.27809551       0.73790879      15.00000000        3       0.00002108       0.00005480      -0.01089624
Cu       3.83428652       0.73790879      15.00000000        3      -0.00000487      -0.00002646      -0.01111303
Cu       6.39047753       0.73790879      15.00000000        3       0.00000059       0.00092168      -0.00936262
Cu       2.55619101       2.95163514      15.00000000        3      -0.00012811       0.00008735      -0.01148507
Cu       5.11238203       2.95163514      15.00000000        3       0.00084875      -0.00036725      -0.00912524
Cu       7.66857304       2.95163514      15.00000000        3      -0.00073035      -0.00033145      -0.00870614
Cu       3.83428652       5.16536150      15.00000000        3      -0.00002108      -0.00006450      -0.01179659
Cu       6.39047753       5.16536150      15.00000000        3       0.00005841      -0.00012063      -0.01075199
Cu       8.94666855       5.16536150      15.00000000        3      -0.00004446      -0.00015147      -0.01159640
Cu      -0.00000000       1.47581757      17.08712122        2      -0.01651615       0.01103763       0.04179303
Cu       2.55619101       1.47581757      17.08712122        2       0.00129792       0.00098179       0.01920743
Cu       5.11238203       1.47581757      17.08712122        2       0.01711382       0.01100892       0.04244752
Cu       1.27809551       3.68954393      17.08712122        2      -0.00140409       0.00012673       0.01680461
Cu       3.83428652       3.68954393      17.08712122        2       0.00085466      -0.00059316       0.01965646
Cu       6.39047753       3.68954393      17.08712122        2       0.00010356      -0.01954382       0.04431622
Cu       2.55619101       5.90327028      17.08712122        2      -0.00154569      -0.00027618       0.01446900
Cu       5.11238203       5.90327028      17.08712122        2       0.00137422      -0.00187975       0.01735754
Cu       7.66857304       5.90327028      17.08712122        2      -0.00021297      -0.00001336       0.01736282
Cu      -0.00010160      -0.00060730      19.17681597        1      -0.00014725       0.00228977      -0.00357276
Cu       2.55565990       0.00043216      19.17843928        1       0.00112155      -0.00002739      -0.00821295
Cu       5.11244537       0.00079755      19.17763966        1       0.00059998       0.00019040      -0.00487328
Cu       1.27841167       2.21420008      19.17870167        1      -0.00129834      -0.00042885      -0.00675426
Cu       3.83566209       2.21396408      19.17918792        1      -0.00087787       0.00005812      -0.00724610
Cu       6.39112711       2.21380852      19.20254390        1       0.00086538      -0.00006171      -0.04006661
Cu       2.55581375       4.42753147      19.17851028        1       0.00101857      -0.00011903      -0.00831293
Cu       5.11286833       4.42668757      19.17966361        1       0.00011058       0.00037708      -0.00812685
Cu       7.66831409       4.42806571      19.17921345        1      -0.00001141      -0.00134622      -0.00745506
O        6.37704946       2.21811199      23.15245859        0       0.00308649       0.01699112      -0.04405931
H        6.60304523       3.12553923      23.41925804        0      -0.01442898       0.00636543       0.00153693
H        7.02590022       2.01075780      22.45713976        0       0.00889602      -0.02513959      -0.00143829
