30
Lattice="7.668573041968109 0.0 0.0 3.8342865209840546 6.641179065120891 0.0 0.0 0.0 34.174242446240996" Properties=species:S:1:pos:R:3:tags:I:1:forces:R:3 energy=-116.19752502441406 free_energy=-116.19752502441406 stress="0.0003029515501111746 3.966167128055531e-07 5.891627665732813e-07 3.966167128055531e-07 0.0003024028555955738 -2.761918267424335e-07 5.891627665732813e-07 -2.761918267424335e-07 7.136796284612501e-06" pbc="T T F"
Cu       1.27809551       0.73790879      15.00000000        3      -0.00012867       0.00008735      -0.01148502
Cu       3.83428652       0.73790879      15.00000000        3       0.00084922      -0.00036746      -0.00912479
Cu       6.39047753       0.73790879      15.00000000        3      -0.00073243      -0.00033207      -0.00870530
Cu       2.55619101       2.95163514      15.00000000        3      -0.00002143      -0.00006495      -0.01179601
Cu       5.11238203       2.95163514      15.00000000        3       0.00005992      -0.00012081      -0.01075125
Cu       7.66857304       2.95163514      15.00000000        3      -0.00004278      -0.00015221      -0.01159617
Cu       3.83428652       5.16536150      15.00000000        3       0.00002172       0.00005538      -0.01089603
Cu       6.39047753       5.16536150      15.00000000        3      -0.00000679      -0.00002587      -0.01111306
Cu       8.94666855       5.16536150      15.00000000        3       0.00000137       0.00092279      -0.00936184
Cu      -0.00000000       1.47581757      17.08712122        2      -0.00140503       0.00012780       0.01680773
Cu       2.55619101       1.47581757      17.08712122        2       0.00085562      -0.00059140       0.01965922
Cu       5.11238203       1.47581757      17.08712122        2       0.00010493      -0.01954629       0.04432625
Cu       1.27809551       3.68954393      17.08712122        2      -0.00154624      -0.00027599       0.01447297
Cu       3.83428652       3.68954393      17.08712122        2       0.00137273      -0.00188196       0.01736205
Cu       6.39047753       3.68954393      17.08712122        2      -0.00021325      -0.00001543       0.01736763
Cu       2.55619101       5.90327028      17.08712122        2      -0.01651987       0.01103927       0.04180115
Cu       5.11238203       5.90327028      17.08712122        2       0.00129805       0.00098221       0.01920904
Cu       7.66857304       5.90327028      17.08712122        2       0.01711822       0.01101039       0.04245565
Cu       0.00031606       0.00047392      19.17870206        1      -0.00129881      -0.00043126      -0.00675499
Cu       2.55756683       0.00023772      19.17918825        1      -0.00087765       0.00005716      -0.00724622
Cu       5.11303196       0.00008224      19.20254862        1       0.00086508      -0.00006206      -0.04008517
Cu       1.27771826       2.21380499      19.17851018        1       0.00101844      -0.00011862      -0.00831320
Cu       3.83477302       2.21296117      19.17966452        1       0.00011059       0.00037638      -0.00813428
Cu       6.39021855       2.21433936      19.17921409        1      -0.00001215      -0.00134522      -0.00746269
Cu       2.55608932       4.42684529      19.17681662        1      -0.00014743       0.00229145      -0.00357988
Cu       5.11185079       4.42788471      19.17844000        1       0.00112288      -0.00002599      -0.00821324
Cu       7.66863618       4.42825053      19.17764035        1       0.00060010       0.00019081      -0.00488028
O        5.09895204       0.00438689      23.15245320        0       0.00306109       0.01699498      -0.04403569
H        5.32494916       0.91181254      23.41925561        0      -0.01442664       0.00636511       0.00153445
H        5.74780689      -0.20296973      22.45714057        0       0.00891921      -0.02514343      -0.00146110
