30
Lattice="7.668573041968109 0.0 0.0 3.8342865209840546 6.641179065120891 0.0 0.0 0.0 34.174242446240996" Properties=species:S:1:pos:R:3:tags:I:1:forces:R:3 energy=-116.19752502441406 free_energy=-116.19752502441406 stress="0.0003029514045920223 3.9666105067226454e-07 5.891969294680166e-07 3.9666105067226454e-07 0.0003024028555955738 -2.76273283361661e-07 5.891969294680166e-07 -2.76273283361661e-07 7.1366980591847096e-06" pbc="T T F"
Cu       1.27809551       0.73790879      15.00000000        3       0.00005942      -0.00012109      -0.01075099
Cu       3.83428652       0.73790879      15.00000000        3      -0.00004323      -0.00015228      -0.01159585
Cu       6.39047753       0.73790879      15.00000000        3      -0.00002269      -0.00006498      -0.01179621
Cu       2.55619101       2.95163514      15.00000000        3      -0.00000521      -0.00002680      -0.01111288
Cu       5.11238203       2.95163514      15.00000000        3       0.00000227       0.00092200      -0.00936167
Cu       7.66857304       2.95163514      15.00000000        3       0.00002196       0.00005492      -0.01089612
Cu       3.83428652       5.16536150      15.00000000        3       0.00084925      -0.00036681      -0.00912490
Cu       6.39047753       5.16536150      15.00000000        3      -0.00073249      -0.00033120      -0.00870537
Cu       8.94666855       5.16536150      15.00000000        3      -0.00012926       0.00008850      -0.01148556
Cu      -0.00000000       1.47581757      17.08712122        2       0.00137245      -0.00188143       0.01736285
Cu       2.55619101       1.47581757      17.08712122        2      -0.00021212      -0.00001518       0.01736752
Cu       5.11238203       1.47581757      17.08712122        2      -0.00154605      -0.00027555       0.01447330
Cu       1.27809551       3.68954393      17.08712122        2       0.00129772       0.00098113       0.01920880
Cu       3.83428652       3.68954393      17.08712122        2       0.01711793       0.01100877       0.04245562
Cu       6.39047753       3.68954393      17.08712122        2      -0.01652164       0.01103795       0.04180118
Cu       2.55619101       5.90327028      17.08712122        2       0.00085581      -0.00059029       0.01965961
Cu       5.11238203       5.90327028      17.08712122        2       0.00010509      -0.01954569       0.04432611
Cu       7.66857304       5.90327028      17.08712122        2      -0.00140479       0.00012904       0.01680767
Cu       0.00048651      -0.00076506      19.17966396        1       0.00010959       0.00037649      -0.00813459
Cu       2.55593214       0.00061297      19.17921404        1      -0.00001148      -0.00134471      -0.00746284
Cu       5.11200469       0.00007874      19.17851019        1       0.00101865      -0.00011871      -0.00831341
Cu       1.27756437       2.21415840      19.17843938        1       0.00112250      -0.00002650      -0.00821368
Cu       3.83434981       2.21452397      19.17764000        1       0.00059973       0.00019069      -0.00488027
Cu       6.39037570       2.21311901      19.17681672        1      -0.00014580       0.00228974      -0.00358036
Cu       2.55756673       4.42769058      19.17918839        1      -0.00087628       0.00005774      -0.00724626
Cu       5.11303200       4.42753511      19.20254829        1       0.00086452      -0.00006228      -0.04008557
Cu       7.66888900       4.42792652      19.17870181        1      -0.00129899      -0.00043027      -0.00675442
O        5.09895277       4.43183916      23.15245359        0       0.00305882       0.01699317      -0.04403381
H        5.32494927       5.33926557      23.41925613        0      -0.01442668       0.00636868       0.00153641
H        5.74780613       4.22448315      22.45714084        0       0.00892098      -0.02514495      -0.00146436
