30
Lattice="7.668573041968109 0.0 0.0 3.8342865209840546 6.641179065120891 0.0 0.0 0.0 34.174242446240996" Properties=species:S:1:pos:R:3:tags:I:1:forces:R:3 energy=-116.19752502441406 free_energy=-116.19752502441406 stress="0.0003029510553460568 3.96683930148356e-07 5.892226795367606e-07 3.96683930148356e-07 0.00030240262276493013 -2.761966015896178e-07 5.892226795367606e-07 -2.761966015896178e-07 7.135850410122657e-06" pbc="T T F"
Cu       1.27809551       0.73790879      15.00000000        3       0.00084835      -0.00036750      -0.00912480
Cu       3.83428652       0.73790879      15.00000000        3      -0.00073074      -0.00033183      -0.00870521
Cu       6.39047753       0.73790879      15.00000000        3      -0.00012956       0.00008724      -0.01148544
Cu       2.55619101       2.95163514      15.00000000        3       0.00005986      -0.00012127      -0.01075134
Cu       5.11238203       2.95163514      15.00000000        3      -0.00004330      -0.00015199      -0.01159587
Cu       7.66857304       2.95163514      15.00000000        3      -0.00002086      -0.00006460      -0.01179606
Cu       3.83428652       5.16536150      15.00000000        3      -0.00000485      -0.00002588      -0.01111331
Cu       6.39047753       5.16536150      15.00000000        3       0.00000064       0.00092225      -0.00936203
Cu       8.94666855       5.16536150      15.00000000        3       0.00002045       0.00005566      -0.01089618
Cu      -0.00000000       1.47581757      17.08712122        2       0.00085589      -0.00059156       0.01965925
Cu       2.55619101       1.47581757      17.08712122        2       0.00010490      -0.01954488       0.04432420
Cu       5.11238203       1.47581757      17.08712122        2      -0.00140542       0.00012821       0.01680753
Cu       1.27809551       3.68954393      17.08712122        2       0.00137152      -0.00188141       0.01736248
Cu       3.83428652       3.68954393      17.08712122        2      -0.00021267      -0.00001684       0.01736489
Cu       6.39047753       3.68954393      17.08712122        2      -0.00154577      -0.00027674       0.01447027
Cu       2.55619101       5.90327028      17.08712122        2       0.00129802       0.00098258       0.01920917
Cu       5.11238203       5.90327028      17.08712122        2       0.01711686       0.01101061       0.04245121
Cu       7.66857304       5.90327028      17.08712122        2      -0.01651843       0.01103846       0.04179959
Cu       0.00137606       0.00023765      19.17918856        1      -0.00087942       0.00005913      -0.00724604
Cu       2.55684084       0.00008219      19.20254734        1       0.00086528      -0.00006155      -0.04007917
Cu       5.11269801       0.00047390      19.17870221        1      -0.00129837      -0.00043088      -0.00675480
Cu       1.27858195       2.21296128      19.17966427        1       0.00010907       0.00037754      -0.00813440
Cu       3.83402761       2.21433938      19.17921364        1      -0.00001206      -0.00134632      -0.00746272
Cu       6.39010017       2.21380513      19.17851024        1       0.00102023      -0.00012012      -0.00831316
Cu       2.55566004       4.42788482      19.17843996        1       0.00112110      -0.00002595      -0.00821288
Cu       5.11244544       4.42825042      19.17763987        1       0.00060023       0.00019043      -0.00487310
Cu       7.66847094       4.42684514      19.17681643        1      -0.00014415       0.00229031      -0.00358047
O        2.54276168       0.00438623      23.15245513        0       0.00306591       0.01700708      -0.04403366
H        2.76875834       0.91181289      23.41925663        0      -0.01443119       0.00635634       0.00153440
H        3.19161508      -0.20296938      22.45714028        0       0.00891842      -0.02514660      -0.00146237
