30
Lattice="7.668573041968109 0.0 0.0 3.8342865209840546 6.641179065120891 0.0 0.0 0.0 34.174242446240996" Properties=species:S:1:pos:R:3:tags:I:1:forces:R:3 energy=-116.19752502441406 free_energy=-116.19752502441406 stress="0.0003029512008652091 3.967369366364437e-07 5.893365937481576e-07 3.967369366364437e-07 0.00030240241903811693 -2.7639651989375125e-07 5.893365937481576e-07 -2.7639651989375125e-07 7.135703981475672e-06" pbc="T T F"
Cu       1.27809551       0.73790879      15.00000000        3      -0.00002190      -0.00006488      -0.01179583
Cu       3.83428652       0.73790879      15.00000000        3       0.00006011      -0.00012106      -0.01075140
Cu       6.39047753       0.73790879      15.00000000        3      -0.00004483      -0.00015239      -0.01159640
Cu       2.55619101       2.95163514      15.00000000        3       0.00002136       0.00005464      -0.01089602
Cu       5.11238203       2.95163514      15.00000000        3      -0.00000514      -0.00002625      -0.01111303
Cu       7.66857304       2.95163514      15.00000000        3       0.00000291       0.00092195      -0.00936192
Cu       3.83428652       5.16536150      15.00000000        3      -0.00012784       0.00008797      -0.01148534
Cu       6.39047753       5.16536150      15.00000000        3       0.00084740      -0.00036688      -0.00912521
Cu       8.94666855       5.16536150      15.00000000        3      -0.00073200      -0.00033096      -0.00870559
Cu      -0.00000000       1.47581757      17.08712122        2      -0.00154553      -0.00027579       0.01447342
Cu       2.55619101       1.47581757      17.08712122        2       0.00137203      -0.00188110       0.01736247
Cu       5.11238203       1.47581757      17.08712122        2      -0.00021191      -0.00001354       0.01736484
Cu       1.27809551       3.68954393      17.08712122        2      -0.01651897       0.01103721       0.04179909
Cu       3.83428652       3.68954393      17.08712122        2       0.00129841       0.00098081       0.01920845
Cu       6.39047753       3.68954393      17.08712122        2       0.01711501       0.01100856       0.04245371
Cu       2.55619101       5.90327028      17.08712122        2      -0.00140392       0.00012812       0.01680557
Cu       5.11238203       5.90327028      17.08712122        2       0.00085584      -0.00059086       0.01965898
Cu       7.66857304       5.90327028      17.08712122        2       0.00010416      -0.01954448       0.04432230
Cu      -0.00037737       0.00007863      19.17851009        1       0.00101852      -0.00011910      -0.00831319
Cu       2.55667738      -0.00076507      19.17966422        1       0.00011082       0.00037660      -0.00813446
Cu       5.11212317       0.00061302      19.17921318        1      -0.00001185      -0.00134609      -0.00745531
Cu       1.27799370       2.21311886      19.17681651        1      -0.00014647       0.00229094      -0.00358041
Cu       3.83375549       2.21415838      19.17843938        1       0.00112084      -0.00002622      -0.00821314
Cu       6.39054083       2.21452399      19.17764009        1       0.00060107       0.00019107      -0.00488049
Cu       2.55650721       4.42792674      19.17870175        1      -0.00129906      -0.00043029      -0.00675461
Cu       5.11375773       4.42769056      19.17918796        1      -0.00087650       0.00005749      -0.00724611
Cu       7.66922294       4.42753515      19.20254719        1       0.00086419      -0.00006246      -0.04007875
O        7.65514372       4.43183903      23.15245478        0       0.00305912       0.01700474      -0.04402888
H        7.88114060       5.33926512      23.41925601        0      -0.01443151       0.00636497       0.00153889
H        8.30399697       4.22448379      22.45714076        0       0.00892571      -0.02515258      -0.00147184
