30
Lattice="7.668573041968109 0.0 0.0 3.8342865209840546 6.641179065120891 0.0 0.0 0.0 34.174242446240996" Properties=species:S:1:pos:R:3:tags:I:1:forces:R:3 energy=-116.70051574707031 free_energy=-116.70051574707031 stress="0.00029725400963798165 -1.2859569551437744e-06 -2.6779428026202368e-06 -1.2859569551437744e-06 0.00029854109743610024 -9.409419590156176e-07 -2.6779428026202368e-06 -9.409419590156176e-07 -8.314958904520608e-06" pbc="T T F"
Cu       1.27809551       0.73790879      15.00000000        3       0.00333978      -0.00170912      -0.00423568
Cu       3.83428652       0.73790879      15.00000000        3      -0.00324601      -0.00185167      -0.00478639
Cu       6.39047753       0.73790879      15.00000000        3      -0.00016477       0.00093774      -0.01751843
Cu       2.55619101       2.95163514      15.00000000        3      -0.00006352       0.00328448      -0.01532108
Cu       5.11238203       2.95163514      15.00000000        3       0.00068626      -0.00048444      -0.01704935
Cu       7.66857304       2.95163514      15.00000000        3      -0.00060787      -0.00040140      -0.01756396
Cu       3.83428652       5.16536150      15.00000000        3      -0.00286620      -0.00180389      -0.01482604
Cu       6.39047753       5.16536150      15.00000000        3       0.00003702       0.00370634      -0.00403955
Cu       8.94666855       5.16536150      15.00000000        3       0.00282229      -0.00170293      -0.01563837
Cu      -0.00000000       1.47581757      17.08712122        2      -0.00894357       0.00197714      -0.05378595
Cu       2.55619101       1.47581757      17.08712122        2      -0.00179271      -0.13504550       0.14009738
Cu       5.11238203       1.47581757      17.08712122        2      -0.00491702      -0.00210494      -0.04532938
Cu       1.27809551       3.68954393      17.08712122        2       0.01964232       0.01387232      -0.07176796
Cu       3.83428652       3.68954393      17.08712122        2      -0.02500183       0.01086808      -0.05996773
Cu       6.39047753       3.68954393      17.08712122        2      -0.00652936      -0.00517217      -0.04944988
Cu       2.55619101       5.90327028      17.08712122        2      -0.00880013      -0.02870305      -0.06641749
Cu       5.11238203       5.90327028      17.08712122        2       0.11673298       0.06342593       0.14533256
Cu       7.66857304       5.90327028      17.08712122        2      -0.11892884       0.06496330       0.14381345
Cu      -0.01492231      -0.00272392      19.14937820        1      -0.00810823       0.01258420       0.00014703
Cu       2.55155287       0.00144419      19.35553687        1      -0.00380352      -0.01376603      -0.01516207
Cu       5.11521150      -0.00285794      19.15195940        1       0.00207866       0.00149534      -0.00107918
Cu       1.26729309       2.22018445      19.14896382        1       0.00068506      -0.00670957       0.02922721
Cu       3.83197821       2.21940701      19.15251584        1       0.01184447       0.00461883      -0.00910804
Cu       6.38209419       2.21037423      19.16992014        1       0.01076504       0.00001121       0.00779392
Cu       2.55013886       4.42483330      19.17155416        1       0.00186025       0.00468881       0.00327575
Cu       5.10247645       4.41662228      19.15393688        1       0.00814017       0.00395256       0.01214974
Cu       7.66648918       4.41522157      19.14961599        1       0.00951323       0.00734562       0.00052593
O        2.51192672      -0.02692978      21.51147625        0       0.00366539       0.00810742      -0.00059339
H        1.78605778       0.57656963      21.76218263        0       0.00429410      -0.00578022      -0.00682244
H        2.19136429      -0.92109912      21.73903031        0      -0.00233346      -0.00060426       0.00809941
