26
Properties=species:S:1:pos:R:3 pbc="F F F"
C        2.23780000      -0.17420000      -2.21790000
C        1.57980000      -0.62990000      -0.90920000
H        3.13630000      -0.76880000      -2.41190000
O        2.66210000       1.18610000      -2.06990000
H        1.56040000      -0.25510000      -3.07300000
C        0.20880000       0.04260000      -0.68950000
C       -0.33240000      -0.17100000       0.75230000
O       -0.68820000      -0.47060000      -1.68810000
H        0.29500000       1.12350000      -0.85380000
C       -1.73040000       0.45570000       0.93360000
H        0.36350000       0.26500000       1.47790000
O       -0.45670000      -1.57860000       1.03810000
C       -2.18400000       0.45800000       2.39730000
O       -2.67150000      -0.30030000       0.15150000
H       -1.72290000       1.48600000       0.56010000
H       -2.16400000      -0.55160000       2.82180000
O       -1.35400000       1.30890000       3.17870000
H       -3.21640000       0.81810000       2.46680000
H        2.99850000       1.46430000      -2.94100000
H       -1.60230000      -0.30970000      -1.37240000
H        0.45750000      -1.90990000       1.13360000
H       -2.48430000      -1.23610000       0.38650000
H       -1.69200000       1.27000000       4.09070000
O        2.47050000      -0.33180000       0.17360000
H        1.45090000      -1.71760000      -0.95270000
H        2.87820000       0.52690000      -0.06890000
