 DBCSR| Multiplication driver                                               XSMM
 DBCSR| Multrec recursion limit                                              512
 DBCSR| Multiplication stack size                                           1000
 DBCSR| Maximum elements for images                                    UNLIMITED
 DBCSR| Multiplicative factor virtual images                                   1
 DBCSR| Multiplication size stacks                                             3
 DBCSR| Number of 3D layers                                               SINGLE
 DBCSR| Use MPI memory allocation                                              T
 DBCSR| Use RMA algorithm                                                      F
 DBCSR| Use Communication thread                                               T
 DBCSR| Communication thread load                                             87


  **** **** ******  **  PROGRAM STARTED AT               2020-09-22 09:33:01.584
 ***** ** ***  *** **   PROGRAM STARTED ON                             irene4196
 **    ****   ******    PROGRAM STARTED BY                              marticar
 ***** **    ** ** **   PROGRAM PROCESS ID                                  4035
  **** **  *******  **  PROGRAM STARTED IN /ccc/scratch/cont003/gen0609/marticar
                                           /618227

 CP2K| version string:                                          CP2K version 6.1
 CP2K| source code revision number:                                    svn:18464
 CP2K| cp2kflags: libint fftw3 parallel mpi3 scalapack xsmm mkl                 
 CP2K| is freely available from                            https://www.cp2k.org/
 CP2K| Program compiled at                          Thu Dec 12 15:40:57 CET 2019
 CP2K| Program compiled on                                             cobalt175
 CP2K| Program compiled for                                   Linux-x86-64-iomkl
 CP2K| Data directory path          /tmp/cp2k/6.1/iomkl-195281.401/cp2k-6.1/data
 CP2K| Input file name                                              molecule.inp
 
 GLOBAL| Force Environment number                                              1
 GLOBAL| Basis set file name            /ccc/work/cont003/gen0609/marticar/data/
 GLOBAL| Potential file name            /ccc/work/cont003/gen0609/marticar/data/
 GLOBAL| MM Potential file name                                     MM_POTENTIAL
 GLOBAL| Coordinate file name                                      __STD_INPUT__
 GLOBAL| Method name                                                        CP2K
 GLOBAL| Project name                                              surf_molecule
 GLOBAL| Preferred FFT library                                             FFTW3
 GLOBAL| Preferred diagonalization lib.                                       SL
 GLOBAL| Run type                                                        GEO_OPT
 GLOBAL| All-to-all communication in single precision                          F
 GLOBAL| FFTs using library dependent lengths                                  F
 GLOBAL| Global print level                                                  LOW
 GLOBAL| Total number of message passing processes                             8
 GLOBAL| Number of threads for this process                                    1
 GLOBAL| This output is from process                                           0
 GLOBAL| CPU model name :  AMD EPYC 7H12 64-Core Processor

 MEMORY| system memory details [Kb]
 MEMORY|                        rank 0           min           max       average
 MEMORY| MemTotal            263246948     263246948     263246948     263246948
 MEMORY| MemFree             180221748     180221748     180221748     180221748
 MEMORY| Buffers                     0             0             0             0
 MEMORY| Cached                5716116       5716116       5716116       5716116
 MEMORY| Slab                  3873076       3873076       3873076       3873076
 MEMORY| SReclaimable          1508296       1508296       1508296       1508296
 MEMORY| MemLikelyFree       187446160     187446160     187446160     187446160

 
 GENERATE|  Preliminary Number of Bonds generated:                             0
 GENERATE|  Achieved consistency in connectivity generation.

 *******************************************************************************
 *******************************************************************************
 **                                                                           **
 **     #####                         ##              ##                      **
 **    ##   ##            ##          ##              ##                      **
 **   ##     ##                       ##            ######                    **
 **   ##     ##  ##   ##  ##   #####  ##  ##   ####   ##    #####    #####    **
 **   ##     ##  ##   ##  ##  ##      ## ##   ##      ##   ##   ##  ##   ##   **
 **   ##  ## ##  ##   ##  ##  ##      ####     ###    ##   ######   ######    **
 **    ##  ###   ##   ##  ##  ##      ## ##      ##   ##   ##       ##        **
 **     #######   #####   ##   #####  ##  ##  ####    ##    #####   ##        **
 **           ##                                                    ##        **
 **                                                                           **
 **                                                ... make the atoms dance   **
 **                                                                           **
 **            Copyright (C) by CP2K developers group (2000 - 2018)           **
 **                                                                           **
 *******************************************************************************


 TOTAL NUMBERS AND MAXIMUM NUMBERS

  Total number of            - Atomic kinds:                                   3
                             - Atoms:                                         26
                             - Shell sets:                                    26
                             - Shells:                                       102
                             - Primitive Cartesian functions:                182
                             - Cartesian basis functions:                    238
                             - Spherical basis functions:                    226

  Maximum angular momentum of- Orbital basis functions:                        2
                             - Local part of the GTH pseudopotential:          2
                             - Non-local part of the GTH pseudopotential:      0


 SCF PARAMETERS         Density guess:                                   RESTART
                        --------------------------------------------------------
                        max_scf:                                             500
                        max_scf_history:                                       0
                        max_diis:                                              4
                        --------------------------------------------------------
                        eps_scf:                                        1.00E-07
                        eps_scf_history:                                0.00E+00
                        eps_diis:                                       1.00E-01
                        eps_eigval:                                     1.00E-05
                        --------------------------------------------------------
                        level_shift [a.u.]:                                 0.00
                        --------------------------------------------------------
                        Outer loop SCF in use 
                        No variables optimised in outer loop
                        eps_scf                                         1.00E-07
                        max_scf                                               10
                        No outer loop optimization
                        step_size                                       5.00E-01

 BFGS| Use rational function optimization for step estimation:                NO
 BFGS| Use model Hessian for initial guess:                                  YES
 BFGS| Restart Hessian:                                                       NO
 BFGS| Trust radius:                                                       0.472

 *******************************************************************************
 ***                     STARTING GEOMETRY OPTIMIZATION                      ***
 ***                                   BFGS                                  ***
 *******************************************************************************

 Spin 1

 Number of electrons:                                                         37
 Number of occupied orbitals:                                                 37
 Number of molecular orbitals:                                                37

 Spin 2

 Number of electrons:                                                         37
 Number of occupied orbitals:                                                 37
 Number of molecular orbitals:                                                37

 Number of orbital functions:                                                226
 Number of independent orbital functions:                                    226

 Extrapolation method: initial_guess

 *** WARNING in qs_initial_guess.F:263 :: User requested to restart the    ***
 *** wavefunction from the file named: surf_molecule-RESTART.wfn. This     ***
 *** file does not exist. Please check the existence of the file or change ***
 *** properly the value of the keyword WFN_RESTART_FILE_NAME. Calculation  ***
 *** continues using ATOMIC GUESS.                                         ***



 SCF WAVEFUNCTION OPTIMIZATION

  ----------------------------------- OT ---------------------------------------
  Minimizer      : CG                  : conjugate gradient
  Preconditioner : FULL_ALL            : diagonalization, state selective
  Precond_solver : DEFAULT
  Line search    : 3PNT                : 3 energies
  stepsize       :    0.15000000                  energy_gap     :    0.08000000
  eps_taylor     :   0.10000E-15                  max_taylor     :             4
  ----------------------------------- OT ---------------------------------------

  Step     Update method      Time    Convergence         Total energy    Change
  ------------------------------------------------------------------------------
     1 OT CG       0.12E+00    4.3     0.04543464      -130.2902210679 -1.30E+02
     2 OT LS       0.17E+00    3.9                     -133.7128475102
     3 OT LS       0.29E+00    3.9                     -134.5812390279
     4 OT CG       0.23E+00    6.8     0.03832027      -135.3280203301 -5.04E+00
     5 OT LS       0.12E+00    3.8                     -134.9692234504
     6 OT LS       0.11E+00    3.8                     -136.3532819161
     7 OT CG       0.86E-01    6.6     0.02319082      -136.3765848672 -1.05E+00
     8 OT LS       0.12E+00    3.8                     -136.9475252634
     9 OT LS       0.18E+00    3.7                     -137.0761274247
    10 OT CG       0.14E+00    6.5     0.01453980      -137.1661424216 -7.90E-01
    11 OT LS       0.20E+00    3.7                     -137.5321524989
    12 OT LS       0.24E+00    3.7                     -137.5881850990
    13 OT CG       0.19E+00    6.5     0.01203732      -137.5954249650 -4.29E-01
    14 OT LS       0.26E+00    3.6                     -137.8890228067
    15 OT LS       0.24E+00    3.6                     -137.8994052826
    16 OT CG       0.19E+00    6.3     0.01075391      -137.9036045663 -3.08E-01
    17 OT LS       0.27E+00    3.6                     -138.1685033407
    18 OT LS       0.31E+00    3.6                     -138.2067986528
    19 OT CG       0.24E+00    6.3     0.00909144      -138.2095372298 -3.06E-01
    20 OT LS       0.34E+00    3.6                     -138.3926724600
    21 OT LS       0.26E+00    3.6                     -138.3750354859
    22 OT CG       0.21E+00    6.3     0.00663502      -138.3935993185 -1.84E-01
    23 OT LS       0.29E+00    3.6                     -138.4945625630
    24 OT LS       0.30E+00    3.6                     -138.5052525545
    25 OT CG       0.24E+00    6.3     0.00381097      -138.5054076172 -1.12E-01
    26 OT LS       0.34E+00    3.6                     -138.5381346275
    27 OT LS       0.27E+00    3.6                     -138.5363623196
    28 OT CG       0.22E+00    6.3     0.00258360      -138.5385068373 -3.31E-02
    29 OT LS       0.30E+00    3.5                     -138.5523105066
    30 OT LS       0.25E+00    3.5                     -138.5521074749
    31 OT CG       0.20E+00    6.3     0.00153015      -138.5526209065 -1.41E-02
    32 OT LS       0.28E+00    3.5                     -138.5580057692
    33 OT LS       0.32E+00    3.5                     -138.5587291157
    34 OT CG       0.25E+00    6.2     0.00099594      -138.5587899330 -6.17E-03
    35 OT LS       0.35E+00    3.5                     -138.5611707032
    36 OT LS       0.29E+00    3.5                     -138.5611119974
    37 OT CG       0.23E+00    6.2     0.00071272      -138.5612165747 -2.43E-03
    38 OT LS       0.33E+00    3.4                     -138.5625430105
    39 OT LS       0.35E+00    3.4                     -138.5627026276
    40 OT CG       0.28E+00    6.2     0.00055873      -138.5627093282 -1.49E-03
    41 OT LS       0.39E+00    3.4                     -138.5635800962
    42 OT LS       0.35E+00    3.4                     -138.5635960954
    43 OT CG       0.28E+00    6.2     0.00044116      -138.5636124465 -9.03E-04
    44 OT LS       0.39E+00    3.4                     -138.5641777055
    45 OT LS       0.37E+00    3.4                     -138.5642146414
    46 OT CG       0.30E+00    6.3     0.00033327      -138.5642160074 -6.04E-04
    47 OT LS       0.42E+00    3.4                     -138.5645434170
    48 OT LS       0.37E+00    3.4                     -138.5645493269
    49 OT CG       0.29E+00    6.3     0.00024160      -138.5645555510 -3.40E-04
    50 OT LS       0.41E+00    3.4                     -138.5647160980
    51 OT LS       0.33E+00    3.4                     -138.5647103027
    52 OT CG       0.27E+00    6.3     0.00019328      -138.5647186226 -1.63E-04
    53 OT LS       0.37E+00    3.5                     -138.5648143638
    54 OT LS       0.31E+00    3.5                     -138.5648128310
    55 OT CG       0.25E+00    6.5     0.00014836      -138.5648164908 -9.79E-05
    56 OT LS       0.35E+00    3.5                     -138.5648781375
    57 OT LS       0.38E+00    3.5                     -138.5648855918
    58 OT CG       0.30E+00    6.4     0.00012598      -138.5648859161 -6.94E-05
    59 OT LS       0.42E+00    3.5                     -138.5649313592
    60 OT LS       0.35E+00    3.5                     -138.5649302149
    61 OT CG       0.28E+00    6.4     0.00010349      -138.5649322244 -4.63E-05
    62 OT LS       0.39E+00    3.5                     -138.5649612030
    63 OT LS       0.33E+00    3.5                     -138.5649609733
    64 OT CG       0.27E+00    6.4     0.00007962      -138.5649619373 -2.97E-05
    65 OT LS       0.37E+00    3.5                     -138.5649792678
    66 OT LS       0.35E+00    3.5                     -138.5649801567
    67 OT CG       0.28E+00    6.4     0.00005867      -138.5649802580 -1.83E-05
    68 OT LS       0.39E+00    3.5                     -138.5649896639
    69 OT LS       0.34E+00    3.5                     -138.5649897761
    70 OT CG       0.27E+00    6.4     0.00004264      -138.5649899839 -9.73E-06
    71 OT LS       0.38E+00    3.5                     -138.5649951766
    72 OT LS       0.37E+00    3.5                     -138.5649955607
    73 OT CG       0.29E+00    6.4     0.00003341      -138.5649955658 -5.58E-06
    74 OT LS       0.41E+00    3.5                     -138.5649989695
    75 OT LS       0.39E+00    3.5                     -138.5649991660
    76 OT CG       0.31E+00    6.3     0.00002891      -138.5649991799 -3.61E-06
    77 OT LS       0.43E+00    3.5                     -138.5650019377
    78 OT LS       0.43E+00    3.5                     -138.5650021607
    79 OT CG       0.34E+00    6.3     0.00002890      -138.5650021615 -2.98E-06
    80 OT LS       0.48E+00    3.5                     -138.5650048035
    81 OT LS       0.38E+00    3.5                     -138.5650046686
    82 OT CG       0.31E+00    6.3     0.00002738      -138.5650048346 -2.67E-06
    83 OT LS       0.43E+00    3.5                     -138.5650072020
    84 OT LS       0.40E+00    3.6                     -138.5650073262
    85 OT CG       0.32E+00    6.2     0.00002260      -138.5650073392 -2.50E-06
    86 OT LS       0.45E+00    3.6                     -138.5650087560
    87 OT LS       0.33E+00    3.6                     -138.5650085870
    88 OT CG       0.27E+00    6.2     0.00001778      -138.5650087580 -1.42E-06
    89 OT LS       0.37E+00    3.5                     -138.5650095165
    90 OT LS       0.29E+00    3.5                     -138.5650094579
    91 OT CG       0.23E+00    6.2     0.00001156      -138.5650095214 -7.63E-07
    92 OT LS       0.32E+00    3.5                     -138.5650098670
    93 OT LS       0.35E+00    3.5                     -138.5650099098
    94 OT CG       0.28E+00    6.2     0.00000871      -138.5650099120 -3.91E-07
    95 OT LS       0.39E+00    3.5                     -138.5650101250
    96 OT LS       0.35E+00    3.6                     -138.5650101306
    97 OT CG       0.28E+00    6.4     0.00000721      -138.5650101338 -2.22E-07
    98 OT LS       0.39E+00    3.5                     -138.5650102987
    99 OT LS       0.43E+00    3.5                     -138.5650103209
   100 OT CG       0.35E+00    6.4     0.00000669      -138.5650103228 -1.89E-07
   101 OT LS       0.49E+00    3.4                     -138.5650104783
   102 OT LS       0.43E+00    3.4                     -138.5650104818
   103 OT CG       0.35E+00    6.4     0.00000672      -138.5650104844 -1.62E-07
   104 OT LS       0.48E+00    3.4                     -138.5650106400
   105 OT LS       0.43E+00    3.4                     -138.5650106432
   106 OT CG       0.34E+00    6.4     0.00000630      -138.5650106460 -1.62E-07
   107 OT LS       0.48E+00    3.4                     -138.5650107913
   108 OT LS       0.47E+00    3.4                     -138.5650108034
   109 OT CG       0.38E+00    6.4     0.00000661      -138.5650108034 -1.57E-07
   110 OT LS       0.53E+00    3.4                     -138.5650109452
   111 OT LS       0.39E+00    3.4                     -138.5650109262
   112 OT CG       0.31E+00    6.3     0.00000674      -138.5650109453 -1.42E-07
   113 OT LS       0.44E+00    3.4                     -138.5650110982
   114 OT LS       0.44E+00    3.4                     -138.5650111128
   115 OT CG       0.35E+00    6.3     0.00000696      -138.5650111128 -1.67E-07
   116 OT LS       0.49E+00    3.4                     -138.5650112907
   117 OT LS       0.47E+00    3.4                     -138.5650113014
   118 OT CG       0.37E+00    6.2     0.00000734      -138.5650113020 -1.89E-07
   119 OT LS       0.52E+00    3.4                     -138.5650114997
   120 OT LS       0.45E+00    3.4                     -138.5650115010
   121 OT CG       0.36E+00    6.2     0.00000727      -138.5650115060 -2.04E-07
   122 OT LS       0.51E+00    3.4                     -138.5650116943
   123 OT LS       0.44E+00    3.5                     -138.5650116955
   124 OT CG       0.35E+00    6.1     0.00000706      -138.5650117002 -1.94E-07
   125 OT LS       0.49E+00    3.4                     -138.5650118807
   126 OT LS       0.46E+00    3.5                     -138.5650118900
   127 OT CG       0.37E+00    6.1     0.00000716      -138.5650118910 -1.91E-07
   128 OT LS       0.51E+00    3.4                     -138.5650120729
   129 OT LS       0.44E+00    3.5                     -138.5650120715
   130 OT CG       0.35E+00    6.1     0.00000768      -138.5650120775 -1.87E-07
   131 OT LS       0.49E+00    3.4                     -138.5650123043
   132 OT LS       0.51E+00    3.4                     -138.5650123298
   133 OT CG       0.41E+00    6.1     0.00000818      -138.5650123304 -2.53E-07
   134 OT LS       0.57E+00    3.4                     -138.5650126037
   135 OT LS       0.51E+00    3.5                     -138.5650126087
   136 OT CG       0.40E+00    6.1     0.00000852      -138.5650126138 -2.83E-07
   137 OT LS       0.57E+00    3.5                     -138.5650128348
   138 OT LS       0.37E+00    3.4                     -138.5650127722
   139 OT CG       0.29E+00    6.1     0.00000786      -138.5650128370 -2.23E-07
   140 OT LS       0.41E+00    3.8                     -138.5650130067
   141 OT LS       0.33E+00    3.4                     -138.5650129988
   142 OT CG       0.27E+00    6.3     0.00000604      -138.5650130089 -1.72E-07
   143 OT LS       0.37E+00    3.5                     -138.5650131095
   144 OT LS       0.35E+00    3.5                     -138.5650131153
   145 OT CG       0.28E+00    6.5     0.00000480      -138.5650131157 -1.07E-07
   146 OT LS       0.39E+00    3.8                     -138.5650131815
   147 OT LS       0.36E+00    3.9                     -138.5650131842
   148 OT CG       0.29E+00    6.6     0.00000355      -138.5650131848 -6.91E-08
   149 OT LS       0.40E+00    3.4                     -138.5650132198
   150 OT LS       0.34E+00    3.4                     -138.5650132197
   151 OT CG       0.27E+00    6.3     0.00000269      -138.5650132208 -3.59E-08
   152 OT LS       0.38E+00    3.6                     -138.5650132392
   153 OT LS       0.31E+00    3.5                     -138.5650132384
   154 OT CG       0.25E+00    6.3     0.00000182      -138.5650132395 -1.87E-08
   155 OT LS       0.35E+00    3.4                     -138.5650132482
   156 OT LS       0.34E+00    3.6                     -138.5650132489
   157 OT CG       0.27E+00    6.4     0.00000124      -138.5650132489 -9.39E-09
   158 OT LS       0.38E+00    3.5                     -138.5650132530
   159 OT LS       0.33E+00    3.7                     -138.5650132531
   160 OT CG       0.26E+00    6.0     0.00000093      -138.5650132532 -4.29E-09
   161 OT LS       0.37E+00    3.8                     -138.5650132554
   162 OT LS       0.33E+00    3.5                     -138.5650132555
   163 OT CG       0.26E+00    6.1     0.00000066      -138.5650132555 -2.35E-09
   164 OT LS       0.36E+00    3.7                     -138.5650132566
   165 OT LS       0.31E+00    3.4                     -138.5650132566
   166 OT CG       0.25E+00    6.3     0.00000051      -138.5650132567 -1.15E-09
   167 OT LS       0.35E+00    3.6                     -138.5650132573
   168 OT LS       0.31E+00    3.5                     -138.5650132573
   169 OT CG       0.24E+00    6.3     0.00000035      -138.5650132573 -6.70E-10
   170 OT LS       0.34E+00    3.7                     -138.5650132576
   171 OT LS       0.32E+00    3.4                     -138.5650132577
   172 OT CG       0.26E+00    6.3     0.00000025      -138.5650132577 -3.27E-10
   173 OT LS       0.36E+00    3.7                     -138.5650132578
   174 OT LS       0.28E+00    3.6                     -138.5650132578
   175 OT CG       0.22E+00    6.4     0.00000016      -138.5650132578 -1.45E-10
   176 OT LS       0.31E+00    3.4                     -138.5650132579
   177 OT LS       0.33E+00    3.6                     -138.5650132579
   178 OT CG       0.26E+00    6.3     0.00000009      -138.5650132579 -6.84E-11

  *** SCF run converged in   178 steps ***


  Electronic density on regular grids:        -73.9999999258        0.0000000742
  Core density on regular grids:               73.9999999652       -0.0000000348
  Total charge density on r-space grids:        0.0000000395
  Total charge density g-space grids:           0.0000000395

  Overlap energy of the core charge distribution:               0.00000189227511
  Self energy of the core charge distribution:               -348.91392545875595
  Core Hamiltonian energy:                                    103.37168995585041
  Hartree energy:                                             143.57224657703767
  Exchange-correlation energy:                                -36.57929918260805
  Dispersion energy:                                           -0.01572704166907

  Total energy:                                              -138.56501325786988

  outer SCF iter =    1 RMS gradient =   0.95E-07 energy =       -138.5650132579
  outer SCF loop converged in   1 iterations or  178 steps


  Integrated absolute spin density  :                               0.0000000000
  Ideal and single determinant S**2 :                    0.000000      -0.000000

 ENERGY| Total FORCE_EVAL ( QS ) energy (a.u.):             -138.565013257892616


 --------  Informations at step =     0 ------------
  Optimization Method        =                 BFGS
  Total Energy               =      -138.5650132579
  Used time                  =              804.456
 ---------------------------------------------------

 --------------------------
 OPTIMIZATION STEP:      1
 --------------------------

 Spin 1

 Number of electrons:                                                         37
 Number of occupied orbitals:                                                 37
 Number of molecular orbitals:                                                37

 Spin 2

 Number of electrons:                                                         37
 Number of occupied orbitals:                                                 37
 Number of molecular orbitals:                                                37

 Number of orbital functions:                                                226
 Number of independent orbital functions:                                    226

 Extrapolation method: PS Nth order


 SCF WAVEFUNCTION OPTIMIZATION

  ----------------------------------- OT ---------------------------------------
  Minimizer      : CG                  : conjugate gradient
  Preconditioner : FULL_ALL            : diagonalization, state selective
  Precond_solver : DEFAULT
  Line search    : 3PNT                : 3 energies
  stepsize       :    0.15000000                  energy_gap     :    0.08000000
  eps_taylor     :   0.10000E-15                  max_taylor     :             4
  ----------------------------------- OT ---------------------------------------

  Step     Update method      Time    Convergence         Total energy    Change
  ------------------------------------------------------------------------------
     1 OT CG       0.12E+00    4.4     0.00001007      -138.5650136513 -1.39E+02
     2 OT LS       0.17E+00    3.5                     -138.5650138289
     3 OT LS       0.47E+00    3.7                     -138.5650138856
     4 OT CG       0.38E+00    6.9     0.00000238      -138.5650140528 -4.01E-07
     5 OT LS       0.53E+00    3.5                     -138.5650140546
     6 OT LS       0.20E+00    3.7                     -138.5650140363
     7 OT CG       0.16E+00    6.8     0.00000054      -138.5650140622 -9.42E-09
     8 OT LS       0.22E+00    3.5                     -138.5650140627
     9 OT LS       0.25E+00    3.7                     -138.5650140628
    10 OT CG       0.20E+00    6.9     0.00000015      -138.5650140628 -6.12E-10
    11 OT LS       0.28E+00    3.4                     -138.5650140629
    12 OT LS       0.27E+00    3.7                     -138.5650140629
    13 OT CG       0.21E+00    6.9     0.00000004      -138.5650140629 -5.15E-11

  *** SCF run converged in    13 steps ***


  Electronic density on regular grids:        -73.9999999258        0.0000000742
  Core density on regular grids:               73.9999999652       -0.0000000348
  Total charge density on r-space grids:        0.0000000394
  Total charge density g-space grids:           0.0000000394

  Overlap energy of the core charge distribution:               0.00000188916645
  Self energy of the core charge distribution:               -348.91392545875595
  Core Hamiltonian energy:                                    103.36997095944783
  Hartree energy:                                             143.57346883143404
  Exchange-correlation energy:                                -36.57880224434273
  Dispersion energy:                                           -0.01572803981486

  Total energy:                                              -138.56501406286520

  outer SCF iter =    1 RMS gradient =   0.39E-07 energy =       -138.5650140629
  outer SCF loop converged in   1 iterations or   13 steps


  Integrated absolute spin density  :                               0.0000000000
  Ideal and single determinant S**2 :                    0.000000       0.000000

 ENERGY| Total FORCE_EVAL ( QS ) energy (a.u.):             -138.565014062868698


 --------  Informations at step =     1 ------------
  Optimization Method        =                 BFGS
  Total Energy               =      -138.5650140629
  Real energy change         =        -0.0000008050
  Predicted change in energy =        -0.0000006344
  Scaling factor             =         0.0000000000
  Step size                  =         0.0010789959
  Trust radius               =         0.4724315332
  Decrease in energy         =                  YES
  Used time                  =               72.151

  Convergence check :
  Max. step size             =         0.0010789959
  Conv. limit for step size  =         0.0030000000
  Convergence in step size   =                  YES
  RMS step size              =         0.0003560380
  Conv. limit for RMS step   =         0.0015000000
  Convergence in RMS step    =                  YES
  Max. gradient              =         0.0001178138
  Conv. limit for gradients  =         0.0004500000
  Conv. in gradients         =                  YES
  RMS gradient               =         0.0000430772
  Conv. limit for RMS grad.  =         0.0003000000
  Conv. in RMS gradients     =                  YES
 ---------------------------------------------------

 *******************************************************************************
 ***                    GEOMETRY OPTIMIZATION COMPLETED                      ***
 *******************************************************************************

                    Reevaluating energy at the minimum

 Spin 1

 Number of electrons:                                                         37
 Number of occupied orbitals:                                                 37
 Number of molecular orbitals:                                                37

 Spin 2

 Number of electrons:                                                         37
 Number of occupied orbitals:                                                 37
 Number of molecular orbitals:                                                37

 Number of orbital functions:                                                226
 Number of independent orbital functions:                                    226

 Extrapolation method: PS Nth order


 SCF WAVEFUNCTION OPTIMIZATION

  ----------------------------------- OT ---------------------------------------
  Minimizer      : CG                  : conjugate gradient
  Preconditioner : FULL_ALL            : diagonalization, state selective
  Precond_solver : DEFAULT
  Line search    : 3PNT                : 3 energies
  stepsize       :    0.15000000                  energy_gap     :    0.08000000
  eps_taylor     :   0.10000E-15                  max_taylor     :             4
  ----------------------------------- OT ---------------------------------------

  Step     Update method      Time    Convergence         Total energy    Change
  ------------------------------------------------------------------------------
     1 OT CG       0.12E+00    4.3     0.00001007      -138.5650136513 -1.39E+02
     2 OT LS       0.17E+00    3.6                     -138.5650138290
     3 OT LS       0.47E+00    3.5                     -138.5650138856
     4 OT CG       0.38E+00    7.2     0.00000238      -138.5650140528 -4.01E-07
     5 OT LS       0.53E+00    3.5                     -138.5650140546
     6 OT LS       0.20E+00    3.6                     -138.5650140363
     7 OT CG       0.16E+00    6.8     0.00000054      -138.5650140622 -9.42E-09
     8 OT LS       0.22E+00    3.3                     -138.5650140627
     9 OT LS       0.25E+00    3.7                     -138.5650140628
    10 OT CG       0.20E+00    6.9     0.00000015      -138.5650140628 -6.06E-10
    11 OT LS       0.28E+00    3.5                     -138.5650140629
    12 OT LS       0.27E+00    3.7                     -138.5650140629
    13 OT CG       0.21E+00    6.9     0.00000004      -138.5650140629 -5.20E-11

  *** SCF run converged in    13 steps ***


  Electronic density on regular grids:        -73.9999999258        0.0000000742
  Core density on regular grids:               73.9999999652       -0.0000000348
  Total charge density on r-space grids:        0.0000000394
  Total charge density g-space grids:           0.0000000394

  Overlap energy of the core charge distribution:               0.00000188916645
  Self energy of the core charge distribution:               -348.91392545875595
  Core Hamiltonian energy:                                    103.36997658192971
  Hartree energy:                                             143.57346440309442
  Exchange-correlation energy:                                -36.57880343848494
  Dispersion energy:                                           -0.01572803981486

  Total energy:                                              -138.56501406286515

  outer SCF iter =    1 RMS gradient =   0.39E-07 energy =       -138.5650140629
  outer SCF loop converged in   1 iterations or   13 steps


  Integrated absolute spin density  :                               0.0000000000
  Ideal and single determinant S**2 :                    0.000000       0.000000

 ENERGY| Total FORCE_EVAL ( QS ) energy (a.u.):             -138.565014062865146


 -------------------------------------------------------------------------------
 -                                                                             -
 -                                DBCSR STATISTICS                             -
 -                                                                             -
 -------------------------------------------------------------------------------
 COUNTER                                    TOTAL       BLAS       SMM       ACC
 flops     5 x     5 x    43              1793100       0.0%    100.0%      0.0%
 flops    13 x    32 x    32              1916928       0.0%    100.0%      0.0%
 flops     5 x     5 x    46              1918200       0.0%    100.0%      0.0%
 flops    32 x     5 x     5              2496000       0.0%    100.0%      0.0%
 flops     5 x     5 x    62              2585400       0.0%    100.0%      0.0%
 flops   108 x     5 x     5              6674400       0.0%    100.0%      0.0%
 flops   118 x     5 x     5              7292400       0.0%    100.0%      0.0%
 flops     5 x    32 x    43             11475840       0.0%    100.0%      0.0%
 flops    32 x     5 x    43             11475840       0.0%    100.0%      0.0%
 flops     5 x    32 x    46             12276480       0.0%    100.0%      0.0%
 flops    32 x     5 x    46             12276480       0.0%    100.0%      0.0%
 flops   108 x     5 x    43             13560480       0.0%    100.0%      0.0%
 flops   108 x     5 x    46             14506560       0.0%    100.0%      0.0%
 flops   118 x     5 x    43             14816080       0.0%    100.0%      0.0%
 flops   118 x     5 x    46             15849760       0.0%    100.0%      0.0%
 flops    32 x    32 x     5             15974400       0.0%    100.0%      0.0%
 flops    32 x     5 x    32             15974400       0.0%    100.0%      0.0%
 flops     5 x    32 x    62             16546560       0.0%    100.0%      0.0%
 flops    32 x     5 x    62             16546560       0.0%    100.0%      0.0%
 flops     5 x    32 x    32             16834560       0.0%    100.0%      0.0%
 flops   108 x     5 x    62             19552320       0.0%    100.0%      0.0%
 flops   118 x     5 x    62             21362720       0.0%    100.0%      0.0%
 flops     5 x    13 x     5             22279400       0.0%    100.0%      0.0%
 flops     5 x     5 x     5             40636500       0.0%    100.0%      0.0%
 flops   108 x     5 x    32             42716160       0.0%    100.0%      0.0%
 flops   108 x    32 x     5             42716160       0.0%    100.0%      0.0%
 flops   118 x    32 x     5             46671360       0.0%    100.0%      0.0%
 flops   118 x     5 x    32             46671360       0.0%    100.0%      0.0%
 flops    13 x    13 x     5             55100760       0.0%    100.0%      0.0%
 flops     5 x     5 x    13             65192400       0.0%    100.0%      0.0%
 flops     5 x     5 x    32             72720000       0.0%    100.0%      0.0%
 flops    32 x    32 x    43             73445376       0.0%    100.0%      0.0%
 flops    32 x    32 x    46             78569472       0.0%    100.0%      0.0%
 flops   108 x    32 x    43             86787072       0.0%    100.0%      0.0%
 flops    13 x     5 x     5             88605400       0.0%    100.0%      0.0%
 flops   108 x    32 x    46             92841984       0.0%    100.0%      0.0%
 flops   118 x    32 x    43             94822912       0.0%    100.0%      0.0%
 flops   118 x    32 x    46            101438464       0.0%    100.0%      0.0%
 flops    32 x    32 x    32            102236160       0.0%    100.0%      0.0%
 flops    32 x    32 x    62            105897984       0.0%    100.0%      0.0%
 flops   108 x    32 x    62            125134848       0.0%    100.0%      0.0%
 flops   118 x    32 x    62            136721408       0.0%    100.0%      0.0%
 flops     5 x    13 x    32            142588160       0.0%    100.0%      0.0%
 flops    13 x     5 x    13            145285920       0.0%    100.0%      0.0%
 flops    13 x     5 x    32            149543680       0.0%    100.0%      0.0%
 flops     5 x    32 x     5            189715200       0.0%    100.0%      0.0%
 flops   108 x    32 x    32            273383424       0.0%    100.0%      0.0%
 flops   118 x    32 x    32            298696704       0.0%    100.0%      0.0%
 flops    13 x    13 x    32            352644864       0.0%    100.0%      0.0%
 flops    13 x    32 x     5            417231360       0.0%    100.0%      0.0%
 flops     5 x    32 x    13            417231360       0.0%    100.0%      0.0%
 flops    13 x    32 x    13            929829888       0.0%    100.0%      0.0%
 flops inhomo. stacks                   537517500     100.0%      0.0%      0.0%
 flops total                         5.628579E+09       9.5%     90.5%      0.0%
 flops max/rank                      2.489229E+09      11.8%     88.2%      0.0%
 matmuls inhomo. stacks                      4504     100.0%      0.0%      0.0%
 matmuls total                            1141276       0.4%     99.6%      0.0%
 number of processed stacks                105392       4.3%     95.7%      0.0%
 average stack size                                     1.0      11.3       0.0
 marketing flops                     6.386442E+09
 -------------------------------------------------------------------------------
 # multiplications                           4949
 max memory usage/rank               1.231774E+09
 # max total images/rank                        2
 # max 3D layers                                1
 # MPI messages exchanged                  356328
 MPI messages size (bytes):
  total size                         2.163225E+09
  min size                           0.000000E+00
  max size                          70.800000E+03
  average size                       6.070880E+03
 MPI breakdown and total messages size (bytes):
             size <=      128              191364                        0
       128 < size <=     8192               97968                268972992
      8192 < size <=    32768               45660                804487680
     32768 < size <=   131072               21336               1089757536
    131072 < size <=  4194304                   0                        0
   4194304 < size <= 16777216                   0                        0
  16777216 < size                               0                        0
 -------------------------------------------------------------------------------

 *** WARNING in dbcsr/mm/dbcsr_mm.F:268 :: Using a non-square number of ***
 *** MPI ranks might lead to poor performance.                          ***
 *** Used ranks: 8                                                      ***
 *** Suggested: 9 16                                                    ***

 -------------------------------------------------------------------------------
 
 MEMORY| Estimated peak process memory [MiB]                                1175

 -------------------------------------------------------------------------------
 -                                                                             -
 -                         MESSAGE PASSING PERFORMANCE                         -
 -                                                                             -
 -------------------------------------------------------------------------------

 ROUTINE             CALLS      AVE VOLUME [Bytes]
 MP_Group              469
 MP_Bcast            23603                   9549.
 MP_Allreduce        85552                    122.
 MP_Sync               381
 MP_Alltoall         23483                5290260.
 MP_SendRecv          4504                 546092.
 MP_ISendRecv        11718                 202240.
 MP_Wait            264396
 MP_comm_split         376
 MP_ISend           125462                 196093.
 MP_IRecv           125454                 195521.
 MP_Recv                69                  17837.
 MP_Memory          289914
 -------------------------------------------------------------------------------


 -------------------------------------------------------------------------------
 -                                                                             -
 -                           R E F E R E N C E S                               -
 -                                                                             -
 -------------------------------------------------------------------------------
 
 CP2K version 6.1, the CP2K developers group (2018).
 CP2K is freely available from https://www.cp2k.org/ .

 Schuett, Ole; Messmer, Peter; Hutter, Juerg; VandeVondele, Joost. 
 Electronic Structure Calculations on Graphics Processing Units, John Wiley & Sons, Ltd, 173-190 (2016). 
 GPU-Accelerated Sparse Matrix-Matrix Multiplication for Linear Scaling Density Functional Theory.
 http://dx.doi.org/10.1002/9781118670712.ch8


 Borstnik, U; VandeVondele, J; Weber, V; Hutter, J. 
 PARALLEL COMPUTING, 40 (5-6), 47-58 (2014). 
 Sparse matrix multiplication: The distributed block-compressed sparse
 row library.
 http://dx.doi.org/10.1016/j.parco.2014.03.012


 Hutter, J; Iannuzzi, M; Schiffmann, F; VandeVondele, J. 
 WILEY INTERDISCIPLINARY REVIEWS-COMPUTATIONAL MOLECULAR SCIENCE, 4 (1), 15-25 (2014). 
 CP2K: atomistic simulations of condensed matter systems.
 http://dx.doi.org/10.1002/wcms.1159


 Grimme, S; Ehrlich, S; Goerigk, L. 
 JOURNAL OF COMPUTATIONAL CHEMISTRY, 32, 1456 (2011). 
 Effect of the damping function in dispersion corrected density functional theory.
 http://dx.doi.org/10.1002/jcc.21759


 Grimme, S; Antony, J; Ehrlich, S; Krieg, H. 
 JOURNAL OF CHEMICAL PHYSICS, 132 (15), 154104 (2010). 
 A consistent and accurate ab initio parametrization of density
 functional dispersion correction (DFT-D) for the 94 elements H-Pu.
 http://dx.doi.org/10.1063/1.3382344


 VandeVondele, J; Hutter, J. 
 JOURNAL OF CHEMICAL PHYSICS, 127 (11), 114105 (2007). 
 Gaussian basis sets for accurate calculations on molecular systems in
 gas and condensed phases.
 http://dx.doi.org/10.1063/1.2770708


 Krack, M. 
 THEORETICAL CHEMISTRY ACCOUNTS, 114 (1-3), 145-152 (2005). 
 Pseudopotentials for H to Kr optimized for gradient-corrected
 exchange-correlation functionals.
 http://dx.doi.org/10.1007/s00214-005-0655-y


 VandeVondele, J; Krack, M; Mohamed, F; Parrinello, M; Chassaing, T;
 Hutter, J. COMPUTER PHYSICS COMMUNICATIONS, 167 (2), 103-128 (2005). 
 QUICKSTEP: Fast and accurate density functional calculations using a
 mixed Gaussian and plane waves approach.
 http://dx.doi.org/10.1016/j.cpc.2004.12.014


 Frigo, M; Johnson, SG. 
 PROCEEDINGS OF THE IEEE, 93 (2), 216-231 (2005). 
 The design and implementation of FFTW3.
 http://dx.doi.org/10.1109/JPROC.2004.840301


 VandeVondele, J; Hutter, J. 
 JOURNAL OF CHEMICAL PHYSICS, 118 (10), 4365-4369 (2003). 
 An efficient orbital transformation method for electronic structure
 calculations.
 http://dx.doi.org/10.1063/1.1543154


 Hartwigsen, C; Goedecker, S; Hutter, J. 
 PHYSICAL REVIEW B, 58 (7), 3641-3662 (1998). 
 Relativistic separable dual-space Gaussian pseudopotentials from H to Rn.
 http://dx.doi.org/10.1103/PhysRevB.58.3641


 Lippert, G; Hutter, J; Parrinello, M. 
 MOLECULAR PHYSICS, 92 (3), 477-487 (1997). 
 A hybrid Gaussian and plane wave density functional scheme.
 http://dx.doi.org/10.1080/002689797170220


 Perdew, JP; Burke, K; Ernzerhof, M. 
 PHYSICAL REVIEW LETTERS, 77 (18), 3865-3868 (1996). 
 Generalized gradient approximation made simple.
 http://dx.doi.org/10.1103/PhysRevLett.77.3865


 Goedecker, S; Teter, M; Hutter, J. 
 PHYSICAL REVIEW B, 54 (3), 1703-1710 (1996). 
 Separable dual-space Gaussian pseudopotentials.
 http://dx.doi.org/10.1103/PhysRevB.54.1703


 -------------------------------------------------------------------------------
 -                                                                             -
 -                                T I M I N G                                  -
 -                                                                             -
 -------------------------------------------------------------------------------
 SUBROUTINE                       CALLS  ASD         SELF TIME        TOTAL TIME
                                MAXIMUM       AVERAGE  MAXIMUM  AVERAGE  MAXIMUM
 CP2K                                 1  1.0    0.046    0.070  943.901  943.905
 cp_geo_opt                           1  2.0    0.003    0.003  942.720  942.723
 geoopt_bfgs                          1  3.0    0.005    0.006  942.717  942.721
 cp_eval_at                           3  4.0    0.002    0.002  942.652  942.657
 qs_energies                          3  5.7    0.002    0.002  930.853  930.857
 scf_env_do_scf                       3  6.7    0.000    0.000  920.641  920.644
 scf_env_do_scf_inner_loop          204  7.9    0.015    0.053  907.742  907.745
 qs_forces                            2  5.0    0.002    0.002  876.560  876.563
 qs_rho_update_rho                  207  8.9    0.003    0.004  520.998  521.001
 calculate_rho_elec                 414  9.9   85.359   90.891  520.995  520.998
 density_rs2pw                      414 10.9    0.041    0.044  421.189  423.854
 rebuild_ks_matrix                  206  9.9    0.001    0.001  414.427  414.431
 qs_ks_build_kohn_sham_matrix       206 10.9    0.046    0.047  414.426  414.430
 pw_transfer                       3691 12.6    0.461    0.501  410.246  411.670
 qs_ks_update_qs_env                207  8.9    0.003    0.003  402.778  402.787
 fft_wrap_pw1pw2                   3279 13.6    0.043    0.046  397.136  398.513
 fft_wrap_pw1pw2_200               1047 14.3   48.229   49.445  365.688  366.710
 fft3d_ps                          3279 15.6  167.044  167.613  275.856  278.324
 qs_vxc_create                      206 11.9    0.005    0.006  202.469  202.635
 xc_rho_set_and_dset_create         206 13.9   20.041   20.117  149.210  153.878
 sum_up_and_integrate                72 11.8    5.185    5.195  125.511  125.532
 rs_pw_transfer                    2795 12.7    0.043    0.050  120.002  123.254
 integrate_v_rspace                 144 12.8   25.391   27.500  120.325  120.355
 xc_vxc_pw_create                    72 12.8   22.647   24.038  103.664  103.831
 xc_exc_calc                        134 12.9    0.831    0.833   98.799   98.801
 potential_pw2rs                    144 13.8    0.256    0.263   92.750   92.784
 rs_pw_transfer_RS2PW_200           417 12.9   55.741   57.195   70.030   73.318
 xc_functional_eval                 206 14.9    0.004    0.004   61.862   66.570
 pbe_lsd_eval                       206 15.9   61.858   66.567   61.858   66.567
 pw_nn_compose_r                   2224 14.6   50.847   51.055   55.655   59.635
 yz_to_x                           2217 16.1   39.650   39.854   53.553   55.686
 x_to_yz                           1062 17.5   44.159   44.270   55.127   55.324
 pw_poisson_solve                   206 11.9   27.088   27.115   40.466   40.466
 pw_gather_p                       2217 15.1   36.390   37.000   36.390   37.000
 pw_axpy                           2917 12.2   32.275   33.540   32.275   33.540
 pw_scatter_p                      1062 16.5   31.672   32.229   31.672   32.229
 fft_wrap_pw1pw2_70                 558 14.7    4.191    4.277   27.076   29.874
 mp_waitany                       12326 14.7   20.925   27.552   20.925   27.552
 mp_alltoall_z22v                  3279 17.6   24.871   27.132   24.871   27.132
 rs_pw_transfer_PW2RS_200           146 15.8   18.214   18.581   25.460   27.096
 pw_zero                           2242 14.3   24.575   24.719   24.575   24.719
 pw_copy                           1347 14.1   21.613   21.810   21.613   21.810
 -------------------------------------------------------------------------------

 The number of warnings for this run is : 2
 
 -------------------------------------------------------------------------------
  **** **** ******  **  PROGRAM ENDED AT                 2020-09-22 09:48:47.656
 ***** ** ***  *** **   PROGRAM RAN ON                                 irene4196
 **    ****   ******    PROGRAM RAN BY                                  marticar
 ***** **    ** ** **   PROGRAM PROCESS ID                                  4035
  **** **  *******  **  PROGRAM STOPPED IN /ccc/scratch/cont003/gen0609/marticar
                                           /618227
