 DBCSR| Multiplication driver                                               XSMM
 DBCSR| Multrec recursion limit                                              512
 DBCSR| Multiplication stack size                                           1000
 DBCSR| Maximum elements for images                                    UNLIMITED
 DBCSR| Multiplicative factor virtual images                                   1
 DBCSR| Multiplication size stacks                                             3
 DBCSR| Number of 3D layers                                               SINGLE
 DBCSR| Use MPI memory allocation                                              T
 DBCSR| Use RMA algorithm                                                      F
 DBCSR| Use Communication thread                                               T
 DBCSR| Communication thread load                                             87


  **** **** ******  **  PROGRAM STARTED AT               2020-10-29 15:31:23.316
 ***** ** ***  *** **   PROGRAM STARTED ON                             irene3819
 **    ****   ******    PROGRAM STARTED BY                              marticar
 ***** **    ** ** **   PROGRAM PROCESS ID                                 68677
  **** **  *******  **  PROGRAM STARTED IN /ccc/scratch/cont003/gen0609/marticar
                                           /5720123

 CP2K| version string:                                          CP2K version 6.1
 CP2K| source code revision number:                                    svn:18464
 CP2K| cp2kflags: libint fftw3 parallel mpi3 scalapack xsmm mkl                 
 CP2K| is freely available from                            https://www.cp2k.org/
 CP2K| Program compiled at                          Mon Dec 24 15:18:38 CET 2018
 CP2K| Program compiled on                                             cobalt170
 CP2K| Program compiled for                                   Linux-x86-64-iomkl
 CP2K| Data directory path          /tmp/cp2k/6.1/iomkl-174196.202/cp2k-6.1/data
 CP2K| Input file name                                             screening.inp
 
 GLOBAL| Force Environment number                                              1
 GLOBAL| Basis set file name            /ccc/work/cont003/gen0609/marticar/data/
 GLOBAL| Potential file name            /ccc/work/cont003/gen0609/marticar/data/
 GLOBAL| MM Potential file name                                     MM_POTENTIAL
 GLOBAL| Coordinate file name                                          coord.xyz
 GLOBAL| Method name                                                        CP2K
 GLOBAL| Project name                                         sorbitol_screening
 GLOBAL| Preferred FFT library                                             FFTW3
 GLOBAL| Preferred diagonalization lib.                                       SL
 GLOBAL| Run type                                                        GEO_OPT
 GLOBAL| All-to-all communication in single precision                          F
 GLOBAL| FFTs using library dependent lengths                                  F
 GLOBAL| Global print level                                                  LOW
 GLOBAL| Total number of message passing processes                            64
 GLOBAL| Number of threads for this process                                    1
 GLOBAL| This output is from process                                           0
 GLOBAL| CPU model name :  Intel(R) Xeon Phi(TM) CPU 7250 @ 1.40GHz

 MEMORY| system memory details [Kb]
 MEMORY|                        rank 0           min           max       average
 MEMORY| MemTotal             98253756      98253756      98253756      98253756
 MEMORY| MemFree              70061468      70061468      70061468      70061468
 MEMORY| Buffers                     0             0             0             0
 MEMORY| Cached                1267536       1267536       1267536       1267536
 MEMORY| Slab                   911828        911828        911828        911828
 MEMORY| SReclaimable           109248        109248        109248        109248
 MEMORY| MemLikelyFree        71438252      71438252      71438252      71438252

 
 GENERATE|  Preliminary Number of Bonds generated:                             0
 GENERATE|  Achieved consistency in connectivity generation.

 *******************************************************************************
 *******************************************************************************
 **                                                                           **
 **     #####                         ##              ##                      **
 **    ##   ##            ##          ##              ##                      **
 **   ##     ##                       ##            ######                    **
 **   ##     ##  ##   ##  ##   #####  ##  ##   ####   ##    #####    #####    **
 **   ##     ##  ##   ##  ##  ##      ## ##   ##      ##   ##   ##  ##   ##   **
 **   ##  ## ##  ##   ##  ##  ##      ####     ###    ##   ######   ######    **
 **    ##  ###   ##   ##  ##  ##      ## ##      ##   ##   ##       ##        **
 **     #######   #####   ##   #####  ##  ##  ####    ##    #####   ##        **
 **           ##                                                    ##        **
 **                                                                           **
 **                                                ... make the atoms dance   **
 **                                                                           **
 **            Copyright (C) by CP2K developers group (2000 - 2018)           **
 **                                                                           **
 *******************************************************************************


 TOTAL NUMBERS AND MAXIMUM NUMBERS

  Total number of            - Atomic kinds:                                   6
                             - Atoms:                                        161
                             - Shell sets:                                   161
                             - Shells:                                       939
                             - Primitive Cartesian functions:               1073
                             - Cartesian basis functions:                   3046
                             - Spherical basis functions:                   2683

  Maximum angular momentum of- Orbital basis functions:                        3
                             - Local part of the GTH pseudopotential:          2
                             - Non-local part of the GTH pseudopotential:      3


 SCF PARAMETERS         Density guess:                                   RESTART
                        --------------------------------------------------------
                        max_scf:                                             500
                        max_scf_history:                                       0
                        max_diis:                                              4
                        --------------------------------------------------------
                        eps_scf:                                        1.00E-05
                        eps_scf_history:                                0.00E+00
                        eps_diis:                                       1.00E-01
                        eps_eigval:                                     1.00E-05
                        --------------------------------------------------------
                        level_shift [a.u.]:                                 0.00
                        --------------------------------------------------------
                        Outer loop SCF in use 
                        No variables optimised in outer loop
                        eps_scf                                         1.00E-05
                        max_scf                                               10
                        No outer loop optimization
                        step_size                                       5.00E-01

 BFGS| Use rational function optimization for step estimation:                NO
 BFGS| Use model Hessian for initial guess:                                  YES
 BFGS| Restart Hessian:                                                       NO
 BFGS| Trust radius:                                                       0.472

 *******************************************************************************
 ***                     STARTING GEOMETRY OPTIMIZATION                      ***
 ***                                   BFGS                                  ***
 *******************************************************************************

 Spin 1

 Number of electrons:                                                        712
 Number of occupied orbitals:                                                712
 Number of molecular orbitals:                                               712

 Spin 2

 Number of electrons:                                                        712
 Number of occupied orbitals:                                                712
 Number of molecular orbitals:                                               712

 Number of orbital functions:                                               2683
 Number of independent orbital functions:                                   2683

 Extrapolation method: initial_guess

 *** WARNING in qs_initial_guess.F:263 :: User requested to restart the  ***
 *** wavefunction from the file named: sorbitol_screening-RESTART.wfn.   ***
 *** This file does not exist. Please check the existence of the file or ***
 *** change properly the value of the keyword WFN_RESTART_FILE_NAME.     ***
 *** Calculation continues using ATOMIC GUESS.                           ***



 SCF WAVEFUNCTION OPTIMIZATION

  ----------------------------------- OT ---------------------------------------
  Minimizer      : CG                  : conjugate gradient
  Preconditioner : FULL_ALL            : diagonalization, state selective
  Precond_solver : DEFAULT
  Line search    : 3PNT                : 3 energies
  stepsize       :    0.15000000                  energy_gap     :    0.08000000
  eps_taylor     :   0.10000E-15                  max_taylor     :             4
  ----------------------------------- OT ---------------------------------------

  Step     Update method      Time    Convergence         Total energy    Change
  ------------------------------------------------------------------------------
     1 OT CG       0.12E+00   22.0     0.01846516     -7996.9108533350 -8.00E+03
     2 OT LS       0.17E+00    9.7                    -8078.3141192768
     3 OT LS       0.14E+00    9.7                    -8077.4480128373
     4 OT CG       0.11E+00   18.4     0.00463578     -8079.0516081230 -8.21E+01
     5 OT LS       0.16E+00    9.7                    -8086.6365896673
     6 OT LS       0.32E+00    9.7                    -8088.7500064426
     7 OT CG       0.25E+00   18.4     0.00302964     -8091.9724909356 -1.29E+01

 *** WARNING in dft_plus_u.F:2007 :: DFT+U energy contibution is negative ***
 *** possibly due to unphysical Mulliken charges. Check your input, if    ***
 *** this warning persists or try a different method!                     ***

     8 OT LS       0.36E+00    9.7                    -8097.2693225725

 *** WARNING in dft_plus_u.F:2007 :: DFT+U energy contibution is negative ***
 *** possibly due to unphysical Mulliken charges. Check your input, if    ***
 *** this warning persists or try a different method!                     ***

     9 OT LS       0.31E+00    9.7                    -8097.3722494740

 *** WARNING in dft_plus_u.F:2007 :: DFT+U energy contibution is negative ***
 *** possibly due to unphysical Mulliken charges. Check your input, if    ***
 *** this warning persists or try a different method!                     ***

    10 OT CG       0.25E+00   18.4     0.00251345     -8097.4680240145 -5.50E+00
    11 OT LS       0.35E+00    9.7                    -8098.7874068873
    12 OT LS       0.16E+00    9.7                    -8096.6444629311
    13 OT CG       0.13E+00   18.4     0.00208213     -8099.4109981980 -1.94E+00
    14 OT LS       0.18E+00    9.7                    -8100.9779317628
    15 OT LS       0.24E+00    9.7                    -8101.2879821747
    16 OT CG       0.19E+00   18.4     0.00173953     -8101.4206360154 -2.01E+00
    17 OT LS       0.27E+00    9.7                    -8102.3001450543
    18 OT LS       0.16E+00    9.7                    -8101.8820394024
    19 OT CG       0.13E+00   18.4     0.00127585     -8102.3439412348 -9.23E-01
    20 OT LS       0.18E+00    9.7                    -8102.8818932329
    21 OT LS       0.20E+00    9.7                    -8102.9526179422
    22 OT CG       0.16E+00   18.4     0.00107616     -8102.9576360307 -6.14E-01
    23 OT LS       0.22E+00    9.7                    -8103.3260698090
    24 OT LS       0.17E+00    9.7                    -8103.2892985692
    25 OT CG       0.13E+00   18.4     0.00083503     -8103.3273260609 -3.70E-01
    26 OT LS       0.19E+00    9.7                    -8103.5670099103
    27 OT LS       0.20E+00    9.7                    -8103.5976438268
    28 OT CG       0.16E+00   18.4     0.00077839     -8103.5995059176 -2.72E-01
    29 OT LS       0.23E+00    9.7                    -8103.8174958699
    30 OT LS       0.19E+00    9.7                    -8103.8152536557
    31 OT CG       0.15E+00   18.4     0.00064482     -8103.8228609520 -2.23E-01
    32 OT LS       0.22E+00    9.7                    -8103.9676661566
    33 OT LS       0.19E+00    9.7                    -8103.9692922353
    34 OT CG       0.15E+00   18.4     0.00055776     -8103.9725609221 -1.50E-01
    35 OT LS       0.21E+00    9.7                    -8104.0824144620
    36 OT LS       0.19E+00    9.7                    -8104.0875754164
    37 OT CG       0.16E+00   18.4     0.00046890     -8104.0883768928 -1.16E-01
    38 OT LS       0.22E+00    9.7                    -8104.1648352546
    39 OT LS       0.19E+00    9.7                    -8104.1649448653
    40 OT CG       0.15E+00   18.4     0.00039686     -8104.1670753647 -7.87E-02
    41 OT LS       0.21E+00    9.7                    -8104.2250120458
    42 OT LS       0.21E+00    9.7                    -8104.2301106897
    43 OT CG       0.17E+00   18.4     0.00036372     -8104.2301110645 -6.30E-02
    44 OT LS       0.23E+00    9.7                    -8104.2792356105
    45 OT LS       0.20E+00    9.7                    -8104.2788837238
    46 OT CG       0.16E+00   18.4     0.00031714     -8104.2805057180 -5.04E-02
    47 OT LS       0.22E+00    9.7                    -8104.3179263363
    48 OT LS       0.20E+00    9.7                    -8104.3194773035
    49 OT CG       0.16E+00   18.4     0.00029485     -8104.3198259988 -3.93E-02
    50 OT LS       0.23E+00    9.7                    -8104.3528086019
    51 OT LS       0.21E+00    9.7                    -8104.3539982545
    52 OT CG       0.17E+00   18.4     0.00027135     -8104.3543755459 -3.45E-02
    53 OT LS       0.23E+00    9.7                    -8104.3819677345
    54 OT LS       0.20E+00    9.7                    -8104.3822438858
    55 OT CG       0.16E+00   18.4     0.00024984     -8104.3828917630 -2.85E-02
    56 OT LS       0.23E+00    9.7                    -8104.4062667412
    57 OT LS       0.20E+00    9.7                    -8104.4070790134
    58 OT CG       0.16E+00   18.4     0.00022910     -8104.4073567907 -2.45E-02
    59 OT LS       0.23E+00    9.7                    -8104.4264150832
    60 OT LS       0.19E+00    9.7                    -8104.4263257505
    61 OT CG       0.16E+00   18.4     0.00020316     -8104.4269259132 -1.96E-02
    62 OT LS       0.22E+00    9.7                    -8104.4418844409
    63 OT LS       0.20E+00    9.7                    -8104.4424789738
    64 OT CG       0.16E+00   18.4     0.00018235     -8104.4426247910 -1.57E-02
    65 OT LS       0.22E+00    9.7                    -8104.4546512892
    66 OT LS       0.20E+00    9.7                    -8104.4548753232
    67 OT CG       0.16E+00   18.4     0.00016031     -8104.4551007291 -1.25E-02
    68 OT LS       0.22E+00    9.7                    -8104.4643892994
    69 OT LS       0.20E+00    9.7                    -8104.4646650430
    70 OT CG       0.16E+00   18.4     0.00014194     -8104.4647923390 -9.69E-03
    71 OT LS       0.22E+00    9.7                    -8104.4720771394
    72 OT LS       0.20E+00    9.7                    -8104.4722624301
    73 OT CG       0.16E+00   18.4     0.00012445     -8104.4723757882 -7.58E-03
    74 OT LS       0.22E+00    9.7                    -8104.4779287630
    75 OT LS       0.19E+00    9.7                    -8104.4780380119
    76 OT CG       0.16E+00   18.4     0.00010948     -8104.4781391615 -5.76E-03
    77 OT LS       0.22E+00    9.7                    -8104.4824948492
    78 OT LS       0.20E+00    9.7                    -8104.4826801804
    79 OT CG       0.16E+00   18.4     0.00009807     -8104.4827179783 -4.58E-03
    80 OT LS       0.22E+00    9.7                    -8104.4862225177
    81 OT LS       0.20E+00    9.7                    -8104.4862944400
    82 OT CG       0.16E+00   18.4     0.00008667     -8104.4863568495 -3.64E-03
    83 OT LS       0.22E+00    9.7                    -8104.4891097385
    84 OT LS       0.20E+00    9.7                    -8104.4892054070
    85 OT CG       0.16E+00   18.4     0.00007818     -8104.4892373694 -2.88E-03
    86 OT LS       0.22E+00    9.7                    -8104.4914951904
    87 OT LS       0.20E+00    9.7                    -8104.4915622224
    88 OT CG       0.16E+00   18.4     0.00007067     -8104.4915931561 -2.36E-03
    89 OT LS       0.23E+00    9.7                    -8104.4934444710
    90 OT LS       0.20E+00    9.7                    -8104.4934970446
    91 OT CG       0.16E+00   18.4     0.00006362     -8104.4935234429 -1.93E-03
    92 OT LS       0.23E+00    9.7                    -8104.4950444625
    93 OT LS       0.21E+00    9.7                    -8104.4951026962
    94 OT CG       0.16E+00   18.4     0.00005826     -8104.4951182983 -1.59E-03
    95 OT LS       0.23E+00    9.7                    -8104.4963939979
    96 OT LS       0.20E+00    9.7                    -8104.4964206975
    97 OT CG       0.16E+00   18.4     0.00005339     -8104.4964432055 -1.32E-03
    98 OT LS       0.23E+00    9.7                    -8104.4975212734
    99 OT LS       0.21E+00    9.7                    -8104.4975593567
   100 OT CG       0.17E+00   18.4     0.00004860     -8104.4975716398 -1.13E-03
   101 OT LS       0.23E+00    9.7                    -8104.4984529098
   102 OT LS       0.20E+00    9.7                    -8104.4984610200
   103 OT CG       0.16E+00   18.4     0.00004420     -8104.4984817413 -9.10E-04
   104 OT LS       0.23E+00    9.7                    -8104.4992151655
   105 OT LS       0.21E+00    9.7                    -8104.4992449557
   106 OT CG       0.17E+00   18.4     0.00004056     -8104.4992518391 -7.70E-04
   107 OT LS       0.23E+00    9.7                    -8104.4998717760
   108 OT LS       0.20E+00    9.7                    -8104.4998857032
   109 OT CG       0.16E+00   18.4     0.00003652     -8104.4998961888 -6.44E-04
   110 OT LS       0.23E+00    9.7                    -8104.5003958893
   111 OT LS       0.20E+00    9.7                    -8104.5004075774
   112 OT CG       0.16E+00   18.4     0.00003339     -8104.5004158164 -5.20E-04
   113 OT LS       0.23E+00    9.7                    -8104.5008371020
   114 OT LS       0.21E+00    9.7                    -8104.5008523569
   115 OT CG       0.17E+00   18.4     0.00003070     -8104.5008570094 -4.41E-04
   116 OT LS       0.23E+00    9.7                    -8104.5012113033
   117 OT LS       0.20E+00    9.7                    -8104.5012173056
   118 OT CG       0.16E+00   18.4     0.00002805     -8104.5012242334 -3.67E-04
   119 OT LS       0.23E+00    9.7                    -8104.5015222517
   120 OT LS       0.21E+00    9.7                    -8104.5015336692
   121 OT CG       0.17E+00   18.4     0.00002633     -8104.5015367185 -3.12E-04
   122 OT LS       0.23E+00    9.7                    -8104.5018045913
   123 OT LS       0.21E+00    9.7                    -8104.5018151054
   124 OT CG       0.17E+00   18.4     0.00002483     -8104.5018177519 -2.81E-04
   125 OT LS       0.24E+00    9.7                    -8104.5020566040
   126 OT LS       0.21E+00    9.7                    -8104.5020619931
   127 OT CG       0.17E+00   18.4     0.00002362     -8104.5020660207 -2.48E-04
   128 OT LS       0.24E+00    9.7                    -8104.5022847454
   129 OT LS       0.22E+00    9.7                    -8104.5022933297
   130 OT CG       0.17E+00   18.4     0.00002272     -8104.5022954927 -2.29E-04
   131 OT LS       0.24E+00    9.7                    -8104.5024962717
   132 OT LS       0.21E+00    9.7                    -8104.5024988098
   133 OT CG       0.17E+00   18.4     0.00002160     -8104.5025031710 -2.08E-04
   134 OT LS       0.24E+00    9.7                    -8104.5026857960
   135 OT LS       0.22E+00    9.7                    -8104.5026929658
   136 OT CG       0.17E+00   18.4     0.00002081     -8104.5026947706 -1.92E-04
   137 OT LS       0.24E+00    9.7                    -8104.5028642335
   138 OT LS       0.21E+00    9.7                    -8104.5028675366
   139 OT CG       0.17E+00   18.4     0.00001963     -8104.5028706393 -1.76E-04
   140 OT LS       0.24E+00    9.7                    -8104.5030202083
   141 OT LS       0.21E+00    9.7                    -8104.5030235571
   142 OT CG       0.17E+00   18.4     0.00001854     -8104.5030260904 -1.55E-04
   143 OT LS       0.24E+00    9.7                    -8104.5031593735
   144 OT LS       0.21E+00    9.7                    -8104.5031630619
   145 OT CG       0.17E+00   18.4     0.00001760     -8104.5031650023 -1.39E-04
   146 OT LS       0.24E+00    9.7                    -8104.5032837632
   147 OT LS       0.21E+00    9.7                    -8104.5032856746
   148 OT CG       0.17E+00   18.4     0.00001648     -8104.5032880463 -1.23E-04
   149 OT LS       0.23E+00    9.7                    -8104.5033913493
   150 OT LS       0.21E+00    9.7                    -8104.5033938451
   151 OT CG       0.17E+00   18.4     0.00001539     -8104.5033955115 -1.07E-04
   152 OT LS       0.23E+00    9.7                    -8104.5034860349
   153 OT LS       0.21E+00    9.7                    -8104.5034889480
   154 OT CG       0.17E+00   18.4     0.00001436     -8104.5034900930 -9.46E-05
   155 OT LS       0.23E+00    9.7                    -8104.5035693099
   156 OT LS       0.21E+00    9.7                    -8104.5035715579
   157 OT CG       0.17E+00   18.4     0.00001341     -8104.5035726866 -8.26E-05
   158 OT LS       0.23E+00    9.7                    -8104.5036420221
   159 OT LS       0.21E+00    9.7                    -8104.5036441199
   160 OT CG       0.17E+00   18.4     0.00001253     -8104.5036450521 -7.24E-05
   161 OT LS       0.24E+00    9.7                    -8104.5037054176
   162 OT LS       0.21E+00    9.7                    -8104.5037067598
   163 OT CG       0.17E+00   18.4     0.00001170     -8104.5037077866 -6.27E-05
   164 OT LS       0.23E+00    9.7                    -8104.5037600834
   165 OT LS       0.21E+00    9.7                    -8104.5037612767
   166 OT CG       0.17E+00   18.4     0.00001096     -8104.5037621524 -5.44E-05
   167 OT LS       0.23E+00    9.7                    -8104.5038080273
   168 OT LS       0.21E+00    9.7                    -8104.5038093019
   169 OT CG       0.17E+00   18.4     0.00001017     -8104.5038099678 -4.78E-05
   170 OT LS       0.23E+00    9.7                    -8104.5038494804
   171 OT LS       0.21E+00    9.7                    -8104.5038505069
   172 OT CG       0.17E+00   18.4     0.00000953     -8104.5038511117 -4.11E-05

  *** SCF run converged in   172 steps ***


  Electronic density on regular grids:      -1423.9999923639        0.0000076361
  Core density on regular grids:             1423.9999996426       -0.0000003574
  Total charge density on r-space grids:        0.0000072788
  Total charge density g-space grids:           0.0000072788

  Overlap energy of the core charge distribution:               0.00000186245094
  Self energy of the core charge distribution:             -14544.97670297458353
  Core Hamiltonian energy:                                   4078.62624657975539
  Hartree energy:                                            3394.99147304634062
  Exchange-correlation energy:                              -1034.08281770104441
  Dispersion energy:                                           -0.55185189738824

  DFT+U energy:                                                 1.48979997277051

  Total energy:                                             -8104.50385111169908

  outer SCF iter =    1 RMS gradient =   0.95E-05 energy =      -8104.5038511117
  outer SCF loop converged in   1 iterations or  172 steps


  Integrated absolute spin density  :                             232.1662631339
  Ideal and single determinant S**2 :                    0.000000     127.229067

 ENERGY| Total FORCE_EVAL ( QS ) energy (a.u.):            -8104.503885826883561


 --------  Informations at step =     0 ------------
  Optimization Method        =                 BFGS
  Total Energy               =     -8104.5038858269
  Used time                  =             2229.578
 ---------------------------------------------------

 --------------------------
 OPTIMIZATION STEP:      1
 --------------------------

 Spin 1

 Number of electrons:                                                        712
 Number of occupied orbitals:                                                712
 Number of molecular orbitals:                                               712

 Spin 2

 Number of electrons:                                                        712
 Number of occupied orbitals:                                                712
 Number of molecular orbitals:                                               712

 Number of orbital functions:                                               2683
 Number of independent orbital functions:                                   2683

 Extrapolation method: PS Nth order


 SCF WAVEFUNCTION OPTIMIZATION

  ----------------------------------- OT ---------------------------------------
  Minimizer      : CG                  : conjugate gradient
  Preconditioner : FULL_ALL            : diagonalization, state selective
  Precond_solver : DEFAULT
  Line search    : 3PNT                : 3 energies
  stepsize       :    0.15000000                  energy_gap     :    0.08000000
  eps_taylor     :   0.10000E-15                  max_taylor     :             4
  ----------------------------------- OT ---------------------------------------

  Step     Update method      Time    Convergence         Total energy    Change
  ------------------------------------------------------------------------------
     1 OT CG       0.12E+00   20.4     0.00010429     -8104.5026854854 -8.10E+03
     2 OT LS       0.17E+00    8.8                    -8104.5064879282
     3 OT LS       0.25E+00    8.8                    -8104.5073451883
     4 OT CG       0.20E+00   17.6     0.00009155     -8104.5079317487 -5.25E-03
     5 OT LS       0.28E+00    8.8                    -8104.5104663954
     6 OT LS       0.17E+00    8.8                    -8104.5092812901
     7 OT CG       0.13E+00   17.5     0.00003519     -8104.5105898133 -2.66E-03
     8 OT LS       0.19E+00    8.7                    -8104.5107605177
     9 OT LS       0.91E-01    8.7                    -8104.5105714129
    10 OT CG       0.73E-01   17.4     0.00001577     -8104.5108057771 -2.16E-04
    11 OT LS       0.10E+00    8.7                    -8104.5108565782
    12 OT LS       0.14E+00    8.7                    -8104.5108665343
    13 OT CG       0.11E+00   17.4     0.00000826     -8104.5108706684 -6.49E-05

  *** SCF run converged in    13 steps ***


  Electronic density on regular grids:      -1423.9999923244        0.0000076756
  Core density on regular grids:             1423.9999996428       -0.0000003572
  Total charge density on r-space grids:        0.0000073184
  Total charge density g-space grids:           0.0000073184

  Overlap energy of the core charge distribution:               0.00000184965526
  Self energy of the core charge distribution:             -14544.97670297458353
  Core Hamiltonian energy:                                   4078.57534056216718
  Hartree energy:                                            3395.02340604073834
  Exchange-correlation energy:                              -1034.07131771878494
  Dispersion energy:                                           -0.55206629442698

  DFT+U energy:                                                 1.49046786682184

  Total energy:                                             -8104.51087066841228

  outer SCF iter =    1 RMS gradient =   0.83E-05 energy =      -8104.5108706684
  outer SCF loop converged in   1 iterations or   13 steps


  Integrated absolute spin density  :                             232.1646510920
  Ideal and single determinant S**2 :                    0.000000     127.235854

 ENERGY| Total FORCE_EVAL ( QS ) energy (a.u.):            -8104.510886123760429


 --------  Informations at step =     1 ------------
  Optimization Method        =                 BFGS
  Total Energy               =     -8104.5108861238
  Real energy change         =        -0.0070002969
  Predicted change in energy =        -0.0045258631
  Scaling factor             =         0.0000000000
  Step size                  =         0.1675478828
  Trust radius               =         0.4724315332
  Decrease in energy         =                  YES
  Used time                  =              210.289

  Convergence check :
  Max. step size             =         0.1675478828
  Conv. limit for step size  =         1.0000000000
  Convergence in step size   =                  YES
  RMS step size              =         0.0129276317
  Conv. limit for RMS step   =         1.0000000000
  Convergence in RMS step    =                  YES
  Max. gradient              =         0.0133675322
  Conv. limit for gradients  =         0.0100000000
  Conv. for gradients        =                   NO
  RMS gradient               =         0.0012953278
  Conv. limit for RMS grad.  =         1.0000000000
  Conv. in RMS gradients     =                  YES
 ---------------------------------------------------

 --------------------------
 OPTIMIZATION STEP:      2
 --------------------------

 Spin 1

 Number of electrons:                                                        712
 Number of occupied orbitals:                                                712
 Number of molecular orbitals:                                               712

 Spin 2

 Number of electrons:                                                        712
 Number of occupied orbitals:                                                712
 Number of molecular orbitals:                                               712

 Number of orbital functions:                                               2683
 Number of independent orbital functions:                                   2683

 Extrapolation method: PS Nth order


 SCF WAVEFUNCTION OPTIMIZATION

  ----------------------------------- OT ---------------------------------------
  Minimizer      : CG                  : conjugate gradient
  Preconditioner : FULL_ALL            : diagonalization, state selective
  Precond_solver : DEFAULT
  Line search    : 3PNT                : 3 energies
  stepsize       :    0.15000000                  energy_gap     :    0.08000000
  eps_taylor     :   0.10000E-15                  max_taylor     :             4
  ----------------------------------- OT ---------------------------------------

  Step     Update method      Time    Convergence         Total energy    Change
  ------------------------------------------------------------------------------
     1 OT CG       0.12E+00   20.3     0.00011477     -8104.5029064971 -8.10E+03
     2 OT LS       0.17E+00    8.8                    -8104.5078345090
     3 OT LS       0.33E+00    8.8                    -8104.5091908991
     4 OT CG       0.26E+00   17.5     0.00009811     -8104.5112319003 -8.33E-03
     5 OT LS       0.13E+00    8.8                    -8104.5105881364
     6 OT LS       0.12E+00    8.8                    -8104.5135743787
     7 OT CG       0.99E-01   17.5     0.00003545     -8104.5135814628 -2.35E-03
     8 OT LS       0.14E+00    8.8                    -8104.5138890726
     9 OT LS       0.14E+00    8.7                    -8104.5139157472
    10 OT CG       0.11E+00   17.4     0.00001539     -8104.5139157539 -3.34E-04
    11 OT LS       0.15E+00    8.8                    -8104.5139605226
    12 OT LS       0.10E+00    8.7                    -8104.5139475614
    13 OT CG       0.80E-01   17.5     0.00000748     -8104.5139610109 -4.53E-05

  *** SCF run converged in    13 steps ***


  Electronic density on regular grids:      -1423.9999923365        0.0000076635
  Core density on regular grids:             1423.9999996433       -0.0000003567
  Total charge density on r-space grids:        0.0000073068
  Total charge density g-space grids:           0.0000073068

  Overlap energy of the core charge distribution:               0.00000180000310
  Self energy of the core charge distribution:             -14544.97670297458353
  Core Hamiltonian energy:                                   4078.34272138703182
  Hartree energy:                                            3395.18888422127930
  Exchange-correlation energy:                              -1034.01218448567988
  Dispersion energy:                                           -0.55201143139384

  DFT+U energy:                                                 1.49533047243786

  Total energy:                                             -8104.51396101090540

  outer SCF iter =    1 RMS gradient =   0.75E-05 energy =      -8104.5139610109
  outer SCF loop converged in   1 iterations or   13 steps


  Integrated absolute spin density  :                             232.1925248969
  Ideal and single determinant S**2 :                    0.000000     127.259255

 ENERGY| Total FORCE_EVAL ( QS ) energy (a.u.):            -8104.513973496089420


 --------  Informations at step =     2 ------------
  Optimization Method        =                 BFGS
  Total Energy               =     -8104.5139734961
  Real energy change         =        -0.0030873723
  Predicted change in energy =        -0.0063599954
  Scaling factor             =         0.0000000000
  Step size                  =         0.4012828738
  Trust radius               =         0.4724315332
  Decrease in energy         =                  YES
  Used time                  =              210.653

  Convergence check :
  Max. step size             =         0.4012828738
  Conv. limit for step size  =         1.0000000000
  Convergence in step size   =                  YES
  RMS step size              =         0.0276095777
  Conv. limit for RMS step   =         1.0000000000
  Convergence in RMS step    =                  YES
  Max. gradient              =         0.0153133264
  Conv. limit for gradients  =         0.0100000000
  Conv. for gradients        =                   NO
  RMS gradient               =         0.0025851933
  Conv. limit for RMS grad.  =         1.0000000000
  Conv. in RMS gradients     =                  YES
 ---------------------------------------------------

 --------------------------
 OPTIMIZATION STEP:      3
 --------------------------

 Spin 1

 Number of electrons:                                                        712
 Number of occupied orbitals:                                                712
 Number of molecular orbitals:                                               712

 Spin 2

 Number of electrons:                                                        712
 Number of occupied orbitals:                                                712
 Number of molecular orbitals:                                               712

 Number of orbital functions:                                               2683
 Number of independent orbital functions:                                   2683

 Extrapolation method: PS Nth order


 SCF WAVEFUNCTION OPTIMIZATION

  ----------------------------------- OT ---------------------------------------
  Minimizer      : CG                  : conjugate gradient
  Preconditioner : FULL_ALL            : diagonalization, state selective
  Precond_solver : DEFAULT
  Line search    : 3PNT                : 3 energies
  stepsize       :    0.15000000                  energy_gap     :    0.08000000
  eps_taylor     :   0.10000E-15                  max_taylor     :             4
  ----------------------------------- OT ---------------------------------------

  Step     Update method      Time    Convergence         Total energy    Change
  ------------------------------------------------------------------------------
     1 OT CG       0.12E+00   20.3     0.00037016     -8104.4315725424 -8.10E+03
     2 OT LS       0.17E+00    8.8                    -8104.4718522099
     3 OT LS       0.17E+00    8.7                    -8104.4760237047
     4 OT CG       0.14E+00   17.5     0.00027868     -8104.4760915152 -4.45E-02
     5 OT LS       0.19E+00    8.7                    -8104.5058021751
     6 OT LS       0.24E+00    8.7                    -8104.5108066629
     7 OT CG       0.19E+00   17.9     0.00011832     -8104.5118629253 -3.58E-02
     8 OT LS       0.27E+00    9.2                    -8104.5132583523
     9 OT LS       0.11E+00    9.2                    -8104.5090540062
    10 OT CG       0.88E-01   17.9     0.00006640     -8104.5147501509 -2.89E-03
    11 OT LS       0.12E+00    9.2                    -8104.5157245031
    12 OT LS       0.13E+00    9.2                    -8104.5158286733
    13 OT CG       0.10E+00   17.9     0.00003591     -8104.5158302692 -1.08E-03
    14 OT LS       0.14E+00    9.2                    -8104.5161497993
    15 OT LS       0.14E+00    9.2                    -8104.5161729399
    16 OT CG       0.11E+00   17.9     0.00001940     -8104.5161733200 -3.43E-04
    17 OT LS       0.16E+00    9.2                    -8104.5162807899
    18 OT LS       0.17E+00    9.2                    -8104.5162941357
    19 OT CG       0.14E+00   17.9     0.00001215     -8104.5162948291 -1.22E-04
    20 OT LS       0.19E+00    9.2                    -8104.5163403083
    21 OT LS       0.17E+00    9.2                    -8104.5163413650
    22 OT CG       0.13E+00   17.9     0.00000814     -8104.5163421164 -4.73E-05

  *** SCF run converged in    22 steps ***


  Electronic density on regular grids:      -1423.9999923213        0.0000076787
  Core density on regular grids:             1423.9999996423       -0.0000003577
  Total charge density on r-space grids:        0.0000073210
  Total charge density g-space grids:           0.0000073210

  Overlap energy of the core charge distribution:               0.00000180036192
  Self energy of the core charge distribution:             -14544.97670297458353
  Core Hamiltonian energy:                                   4078.40920165652915
  Hartree energy:                                            3395.13604668046537
  Exchange-correlation energy:                              -1034.02624684189027
  Dispersion energy:                                           -0.55248631670272

  DFT+U energy:                                                 1.49384387938483

  Total energy:                                             -8104.51634211643704

  outer SCF iter =    1 RMS gradient =   0.81E-05 energy =      -8104.5163421164
  outer SCF loop converged in   1 iterations or   22 steps


  Integrated absolute spin density  :                             232.1923416872
  Ideal and single determinant S**2 :                    0.000000     127.254936

 ENERGY| Total FORCE_EVAL ( QS ) energy (a.u.):            -8104.516358661147933


 --------  Informations at step =     3 ------------
  Optimization Method        =                 BFGS
  Total Energy               =     -8104.5163586611
  Real energy change         =        -0.0023851651
  Predicted change in energy =        -0.0046800325
  Scaling factor             =         0.0000000000
  Step size                  =         0.0745138908
  Trust radius               =         0.4724315332
  Decrease in energy         =                  YES
  Used time                  =              322.372

  Convergence check :
  Max. step size             =         0.0745138908
  Conv. limit for step size  =         1.0000000000
  Convergence in step size   =                  YES
  RMS step size              =         0.0094808033
  Conv. limit for RMS step   =         1.0000000000
  Convergence in RMS step    =                  YES
  Max. gradient              =         0.0092776416
  Conv. limit for gradients  =         0.0100000000
  Conv. in gradients         =                  YES
  RMS gradient               =         0.0013583637
  Conv. limit for RMS grad.  =         1.0000000000
  Conv. in RMS gradients     =                  YES
 ---------------------------------------------------

 *******************************************************************************
 ***                    GEOMETRY OPTIMIZATION COMPLETED                      ***
 *******************************************************************************

                    Reevaluating energy at the minimum

 Spin 1

 Number of electrons:                                                        712
 Number of occupied orbitals:                                                712
 Number of molecular orbitals:                                               712

 Spin 2

 Number of electrons:                                                        712
 Number of occupied orbitals:                                                712
 Number of molecular orbitals:                                               712

 Number of orbital functions:                                               2683
 Number of independent orbital functions:                                   2683

 Extrapolation method: PS Nth order


 SCF WAVEFUNCTION OPTIMIZATION

  ----------------------------------- OT ---------------------------------------
  Minimizer      : CG                  : conjugate gradient
  Preconditioner : FULL_ALL            : diagonalization, state selective
  Precond_solver : DEFAULT
  Line search    : 3PNT                : 3 energies
  stepsize       :    0.15000000                  energy_gap     :    0.08000000
  eps_taylor     :   0.10000E-15                  max_taylor     :             4
  ----------------------------------- OT ---------------------------------------

  Step     Update method      Time    Convergence         Total energy    Change
  ------------------------------------------------------------------------------
     1 OT CG       0.12E+00   20.2     0.00026496     -8104.4662545687 -8.10E+03
     2 OT LS       0.17E+00    8.8                    -8104.4900768629
     3 OT LS       0.23E+00    8.8                    -8104.4949016301
     4 OT CG       0.18E+00   17.9     0.00022721     -8104.4971280710 -3.09E-02
     5 OT LS       0.26E+00    9.2                    -8104.5140625000
     6 OT LS       0.17E+00    9.2                    -8104.5101493229
     7 OT CG       0.14E+00   17.9     0.00009333     -8104.5141253145 -1.70E-02
     8 OT LS       0.19E+00    9.2                    -8104.5155320157
     9 OT LS       0.10E+00    9.2                    -8104.5142786411
    10 OT CG       0.80E-01   17.8     0.00004351     -8104.5157891256 -1.66E-03
    11 OT LS       0.11E+00    9.2                    -8104.5161814617
    12 OT LS       0.12E+00    9.2                    -8104.5162345695
    13 OT CG       0.99E-01   17.9     0.00002031     -8104.5162392194 -4.50E-04
    14 OT LS       0.14E+00    9.2                    -8104.5163333540
    15 OT LS       0.12E+00    9.2                    -8104.5163359779
    16 OT CG       0.10E+00   17.9     0.00000837     -8104.5163373409 -9.81E-05

  *** SCF run converged in    16 steps ***


  Electronic density on regular grids:      -1423.9999923212        0.0000076788
  Core density on regular grids:             1423.9999996423       -0.0000003577
  Total charge density on r-space grids:        0.0000073210
  Total charge density g-space grids:           0.0000073210

  Overlap energy of the core charge distribution:               0.00000180036192
  Self energy of the core charge distribution:             -14544.97670297458353
  Core Hamiltonian energy:                                   4078.42697144049180
  Hartree energy:                                            3395.12080826517240
  Exchange-correlation energy:                              -1034.02857972737547
  Dispersion energy:                                           -0.55248631670272

  DFT+U energy:                                                 1.49365017178234

  Total energy:                                             -8104.51633734085317

  outer SCF iter =    1 RMS gradient =   0.84E-05 energy =      -8104.5163373409
  outer SCF loop converged in   1 iterations or   16 steps


  Integrated absolute spin density  :                             232.1897743274
  Ideal and single determinant S**2 :                    0.000000     127.255414

 ENERGY| Total FORCE_EVAL ( QS ) energy (a.u.):            -8104.516337340853170


 -------------------------------------------------------------------------------
 -                                                                             -
 -                                DBCSR STATISTICS                             -
 -                                                                             -
 -------------------------------------------------------------------------------
 COUNTER                                    TOTAL       BLAS       SMM       ACC
 flops     5 x     8 x     8                89600       0.0%    100.0%      0.0%
 flops    13 x     8 x     8              1547520       0.0%    100.0%      0.0%
 flops    26 x     8 x     8              1797120       0.0%    100.0%      0.0%
 flops     5 x    32 x    32             31539200       0.0%    100.0%      0.0%
 flops     5 x     8 x     5             56683200       0.0%    100.0%      0.0%
 flops     5 x     5 x    64            164640000       0.0%    100.0%      0.0%
 flops     5 x     5 x    72            185220000       0.0%    100.0%      0.0%
 flops    13 x    32 x    32            544727040       0.0%    100.0%      0.0%
 flops    26 x    32 x    32            632586240       0.0%    100.0%      0.0%
 flops     5 x     8 x    13            978999840       0.0%    100.0%      0.0%
 flops    13 x     8 x     5            978999840       0.0%    100.0%      0.0%
 flops    64 x    64 x    64           1010302976       0.0%    100.0%      0.0%
 flops    64 x    64 x    72           1136590848       0.0%    100.0%      0.0%
 flops    64 x    72 x    64           1136590848       0.0%    100.0%      0.0%
 flops    72 x    64 x    64           1136590848       0.0%    100.0%      0.0%
 flops     5 x     8 x    26           1136903040       0.0%    100.0%      0.0%
 flops    26 x     8 x     5           1136903040       0.0%    100.0%      0.0%
 flops    64 x    72 x    72           1278664704       0.0%    100.0%      0.0%
 flops    72 x    64 x    72           1278664704       0.0%    100.0%      0.0%
 flops    72 x    72 x    64           1278664704       0.0%    100.0%      0.0%
 flops    72 x    72 x    72           1438497792       0.0%    100.0%      0.0%
 flops     5 x     5 x    96           1481760000       0.0%    100.0%      0.0%
 flops     5 x    13 x    64           2637689600       0.0%    100.0%      0.0%
 flops    13 x     5 x    64           2670304000       0.0%    100.0%      0.0%
 flops    64 x    64 x   338           2696904704       0.0%    100.0%      0.0%
 flops     5 x    13 x    72           2967400800       0.0%    100.0%      0.0%
 flops    13 x     5 x    72           3004092000       0.0%    100.0%      0.0%
 flops    64 x    72 x   338           3034017792       0.0%    100.0%      0.0%
 flops    72 x    64 x   338           3034017792       0.0%    100.0%      0.0%
 flops    26 x     5 x    64           3049446400       0.0%    100.0%      0.0%
 flops     5 x    26 x    64           3114675200       0.0%    100.0%      0.0%
 flops    72 x    72 x   338           3413270016       0.0%    100.0%      0.0%
 flops    26 x     5 x    72           3430627200       0.0%    100.0%      0.0%
 flops     5 x    26 x    72           3504009600       0.0%    100.0%      0.0%
 flops   338 x    64 x    64           3976134656       0.0%    100.0%      0.0%
 flops   338 x    64 x    72           4473151488       0.0%    100.0%      0.0%
 flops   338 x    72 x    64           4473151488       0.0%    100.0%      0.0%
 flops     5 x    32 x     5           4988121600       0.0%    100.0%      0.0%
 flops   338 x    72 x    72           5032295424       0.0%    100.0%      0.0%
 flops   338 x    64 x   338           5088884736     100.0%      0.0%      0.0%
 flops   338 x    72 x   338           5724995328     100.0%      0.0%      0.0%
 flops    64 x    64 x    96           9092726784       0.0%    100.0%      0.0%
 flops    64 x    96 x    64           9092726784       0.0%    100.0%      0.0%
 flops    96 x    64 x    64           9092726784       0.0%    100.0%      0.0%
 flops    64 x    72 x    96          10229317632       0.0%    100.0%      0.0%
 flops    64 x    96 x    72          10229317632       0.0%    100.0%      0.0%
 flops    72 x    64 x    96          10229317632       0.0%    100.0%      0.0%
 flops    72 x    96 x    64          10229317632       0.0%    100.0%      0.0%
 flops    96 x    64 x    72          10229317632       0.0%    100.0%      0.0%
 flops    96 x    72 x    64          10229317632       0.0%    100.0%      0.0%
 flops    72 x    72 x    96          11507982336       0.0%    100.0%      0.0%
 flops    72 x    96 x    72          11507982336       0.0%    100.0%      0.0%
 flops    96 x    72 x    72          11507982336       0.0%    100.0%      0.0%
 flops    13 x     8 x    13          16799246256       0.0%    100.0%      0.0%
 flops    64 x    64 x   335          18710773760       0.0%    100.0%      0.0%
 flops    26 x     8 x    13          19585109856       0.0%    100.0%      0.0%
 flops    13 x     8 x    26          19585109856       0.0%    100.0%      0.0%
 flops    64 x    72 x   335          21049620480       0.0%    100.0%      0.0%
 flops    72 x    64 x   335          21049620480       0.0%    100.0%      0.0%
 flops    26 x     8 x    26          22803026688       0.0%    100.0%      0.0%
 flops    72 x    72 x   335          23680823040       0.0%    100.0%      0.0%
 flops     5 x    13 x    96          23739206400       0.0%    100.0%      0.0%
 flops    13 x     5 x    96          24032736000       0.0%    100.0%      0.0%
 flops    64 x    96 x   338          24272142336       0.0%    100.0%      0.0%
 flops    96 x    64 x   338          24272142336       0.0%    100.0%      0.0%
 flops    72 x    96 x   338          27306160128     100.0%      0.0%      0.0%
 flops    96 x    72 x   338          27306160128     100.0%      0.0%      0.0%
 flops    26 x     5 x    96          27445017600       0.0%    100.0%      0.0%
 flops   335 x    64 x    64          27585904640       0.0%    100.0%      0.0%
 flops     5 x    26 x    96          28032076800       0.0%    100.0%      0.0%
 flops   335 x    64 x    72          31034142720       0.0%    100.0%      0.0%
 flops   335 x    72 x    64          31034142720       0.0%    100.0%      0.0%
 flops   335 x    72 x    72          34913410560       0.0%    100.0%      0.0%
 flops   335 x    64 x   338          35306019840     100.0%      0.0%      0.0%
 flops   338 x    64 x   335          35306019840     100.0%      0.0%      0.0%
 flops   338 x    64 x    96          35785211904       0.0%    100.0%      0.0%
 flops   338 x    96 x    64          35785211904       0.0%    100.0%      0.0%
 flops   335 x    72 x   338          39719272320     100.0%      0.0%      0.0%
 flops   338 x    72 x   335          39719272320     100.0%      0.0%      0.0%
 flops   338 x    72 x    96          40258363392     100.0%      0.0%      0.0%
 flops   338 x    96 x    72          40258363392     100.0%      0.0%      0.0%
 flops   338 x    96 x   338          45799962624     100.0%      0.0%      0.0%
 flops    13 x    13 x    64          46034410240       0.0%    100.0%      0.0%
 flops    13 x    13 x    72          51788711520       0.0%    100.0%      0.0%
 flops    13 x    26 x    64          53061998080       0.0%    100.0%      0.0%
 flops    26 x    13 x    64          53125596160       0.0%    100.0%      0.0%
 flops    13 x    26 x    72          59694747840       0.0%    100.0%      0.0%
 flops    26 x    13 x    72          59766295680       0.0%    100.0%      0.0%
 flops    26 x    26 x    64          62962099200       0.0%    100.0%      0.0%
 flops    26 x    26 x    72          70832361600       0.0%    100.0%      0.0%
 flops    96 x    96 x    64          81834541056       0.0%    100.0%      0.0%
 flops    64 x    96 x    96          81834541056       0.0%    100.0%      0.0%
 flops    96 x    64 x    96          81834541056       0.0%    100.0%      0.0%
 flops     5 x    32 x    13          86151985920       0.0%    100.0%      0.0%
 flops    13 x    32 x     5          86151985920       0.0%    100.0%      0.0%
 flops    96 x    96 x    72          92063858688       0.0%    100.0%      0.0%
 flops    72 x    96 x    96          92063858688       0.0%    100.0%      0.0%
 flops    96 x    72 x    96          92063858688       0.0%    100.0%      0.0%
 flops     5 x    32 x    26         100047467520       0.0%    100.0%      0.0%
 flops    26 x    32 x     5         100047467520       0.0%    100.0%      0.0%
 flops    64 x    96 x   335         168396963840       0.0%    100.0%      0.0%
 flops    96 x    64 x   335         168396963840       0.0%    100.0%      0.0%
 flops    72 x    96 x   335         189446584320     100.0%      0.0%      0.0%
 flops    96 x    72 x   335         189446584320     100.0%      0.0%      0.0%
 flops    96 x    96 x   338         218449281024     100.0%      0.0%      0.0%
 flops   335 x    64 x   335         244948569600     100.0%      0.0%      0.0%
 flops   335 x    96 x    64         248273141760       0.0%    100.0%      0.0%
 flops   335 x    64 x    96         248273141760       0.0%    100.0%      0.0%
 flops   335 x    72 x   335         275567140800     100.0%      0.0%      0.0%
 flops   335 x    96 x    72         279307284480     100.0%      0.0%      0.0%
 flops   335 x    72 x    96         279307284480     100.0%      0.0%      0.0%
 flops   335 x    96 x   338         317754178560     100.0%      0.0%      0.0%
 flops   338 x    96 x   335         317754178560     100.0%      0.0%      0.0%
 flops   338 x    96 x    96         322066907136     100.0%      0.0%      0.0%
 flops    13 x    13 x    96         414309692160       0.0%    100.0%      0.0%
 flops    13 x    26 x    96         477557982720       0.0%    100.0%      0.0%
 flops    26 x    13 x    96         478130365440       0.0%    100.0%      0.0%
 flops    26 x    26 x    96         566658892800       0.0%    100.0%      0.0%
 flops    96 x    96 x    96         736510869504       0.0%    100.0%      0.0%
 flops    13 x    32 x    13        1478333670528       0.0%    100.0%      0.0%
 flops    96 x    96 x   335        1515572674560     100.0%      0.0%      0.0%
 flops    26 x    32 x    13        1723489667328       0.0%    100.0%      0.0%
 flops    13 x    32 x    26        1723489667328       0.0%    100.0%      0.0%
 flops    26 x    32 x    26        2006666348544       0.0%    100.0%      0.0%
 flops   335 x    96 x   335        2204537126400     100.0%      0.0%      0.0%
 flops   335 x    96 x    96        2234458275840     100.0%      0.0%      0.0%
 flops inhomo. stacks                           0       0.0%      0.0%      0.0%
 flops total                        21.431156E+12      41.7%     58.3%      0.0%
 flops max/rank                    388.623225E+09      43.5%     56.5%      0.0%
 matmuls inhomo. stacks                         0       0.0%      0.0%      0.0%
 matmuls total                          483072481       0.2%     99.8%      0.0%
 number of processed stacks               7916673      13.9%     86.1%      0.0%
 average stack size                                     1.0      70.7       0.0
 marketing flops                    24.001854E+12
 -------------------------------------------------------------------------------
 # multiplications                           5918
 max memory usage/rank             793.264128E+06
 # max total images/rank                        1
 # max 3D layers                                1
 # MPI messages exchanged                 5302528
 MPI messages size (bytes):
  total size                         1.163546E+12
  min size                           0.000000E+00
  max size                         913.952000E+03
  average size                     219.432250E+03
 MPI breakdown and total messages size (bytes):
             size <=      128               12880                        0
       128 < size <=     8192                   0                        0
      8192 < size <=    32768               37590               1226050560
     32768 < size <=   131072             2332890             148963691520
    131072 < size <=  4194304             2919168            1013485045608
   4194304 < size <= 16777216                   0                        0
  16777216 < size                               0                        0
 -------------------------------------------------------------------------------
 
 MEMORY| Estimated peak process memory [MiB]                                 757

 -------------------------------------------------------------------------------
 -                                                                             -
 -                         MESSAGE PASSING PERFORMANCE                         -
 -                                                                             -
 -------------------------------------------------------------------------------

 ROUTINE             CALLS      AVE VOLUME [Bytes]
 MP_Group              526
 MP_Bcast            23862                  47313.
 MP_Allreduce        92336                    419.
 MP_Sync               412
 MP_Alltoall         27601                 785098.
 MP_SendRecv          6224                 463871.
 MP_ISendRecv       123606                  29184.
 MP_Wait            698428
 MP_comm_split         407
 MP_ISend           284142                 124651.
 MP_IRecv           284142                 123542.
 MP_Recv                45                 123648.
 MP_Memory          238940
 -------------------------------------------------------------------------------


 -------------------------------------------------------------------------------
 -                                                                             -
 -                           R E F E R E N C E S                               -
 -                                                                             -
 -------------------------------------------------------------------------------
 
 CP2K version 6.1, the CP2K developers group (2018).
 CP2K is freely available from https://www.cp2k.org/ .

 Schuett, Ole; Messmer, Peter; Hutter, Juerg; VandeVondele, Joost. 
 Electronic Structure Calculations on Graphics Processing Units, John Wiley & Sons, Ltd, 173-190 (2016). 
 GPU-Accelerated Sparse Matrix-Matrix Multiplication for Linear Scaling Density Functional Theory.
 http://dx.doi.org/10.1002/9781118670712.ch8


 Borstnik, U; VandeVondele, J; Weber, V; Hutter, J. 
 PARALLEL COMPUTING, 40 (5-6), 47-58 (2014). 
 Sparse matrix multiplication: The distributed block-compressed sparse
 row library.
 http://dx.doi.org/10.1016/j.parco.2014.03.012


 Hutter, J; Iannuzzi, M; Schiffmann, F; VandeVondele, J. 
 WILEY INTERDISCIPLINARY REVIEWS-COMPUTATIONAL MOLECULAR SCIENCE, 4 (1), 15-25 (2014). 
 CP2K: atomistic simulations of condensed matter systems.
 http://dx.doi.org/10.1002/wcms.1159


 Grimme, S; Ehrlich, S; Goerigk, L. 
 JOURNAL OF COMPUTATIONAL CHEMISTRY, 32, 1456 (2011). 
 Effect of the damping function in dispersion corrected density functional theory.
 http://dx.doi.org/10.1002/jcc.21759


 Grimme, S; Antony, J; Ehrlich, S; Krieg, H. 
 JOURNAL OF CHEMICAL PHYSICS, 132 (15), 154104 (2010). 
 A consistent and accurate ab initio parametrization of density
 functional dispersion correction (DFT-D) for the 94 elements H-Pu.
 http://dx.doi.org/10.1063/1.3382344


 VandeVondele, J; Hutter, J. 
 JOURNAL OF CHEMICAL PHYSICS, 127 (11), 114105 (2007). 
 Gaussian basis sets for accurate calculations on molecular systems in
 gas and condensed phases.
 http://dx.doi.org/10.1063/1.2770708


 Krack, M. 
 THEORETICAL CHEMISTRY ACCOUNTS, 114 (1-3), 145-152 (2005). 
 Pseudopotentials for H to Kr optimized for gradient-corrected
 exchange-correlation functionals.
 http://dx.doi.org/10.1007/s00214-005-0655-y


 VandeVondele, J; Krack, M; Mohamed, F; Parrinello, M; Chassaing, T;
 Hutter, J. COMPUTER PHYSICS COMMUNICATIONS, 167 (2), 103-128 (2005). 
 QUICKSTEP: Fast and accurate density functional calculations using a
 mixed Gaussian and plane waves approach.
 http://dx.doi.org/10.1016/j.cpc.2004.12.014


 Frigo, M; Johnson, SG. 
 PROCEEDINGS OF THE IEEE, 93 (2), 216-231 (2005). 
 The design and implementation of FFTW3.
 http://dx.doi.org/10.1109/JPROC.2004.840301


 VandeVondele, J; Hutter, J. 
 JOURNAL OF CHEMICAL PHYSICS, 118 (10), 4365-4369 (2003). 
 An efficient orbital transformation method for electronic structure
 calculations.
 http://dx.doi.org/10.1063/1.1543154


 Hartwigsen, C; Goedecker, S; Hutter, J. 
 PHYSICAL REVIEW B, 58 (7), 3641-3662 (1998). 
 Relativistic separable dual-space Gaussian pseudopotentials from H to Rn.
 http://dx.doi.org/10.1103/PhysRevB.58.3641


 Dudarev, SL; Botton, GA; Savrasov, SY; Humphreys, CJ; Sutton, AP. 
 PHYSICAL REVIEW B, 57 (3), 1505-1509 (1998). 
 Electron-energy-loss spectra and the structural stability of
 nickel oxide: An LSDA+U study.
 http://dx.doi.org/10.1103/PhysRevB.57.1505


 Lippert, G; Hutter, J; Parrinello, M. 
 MOLECULAR PHYSICS, 92 (3), 477-487 (1997). 
 A hybrid Gaussian and plane wave density functional scheme.
 http://dx.doi.org/10.1080/002689797170220


 Dudarev, SL; Manh, DN; Sutton, AP. 
 PHILOSOPHICAL MAGAZINE B, 75 (5), 613-628 (1997). 
 Effect of Mott-Hubbard correlations on the electronic
 structure and structural stability of uranium dioxide.
 http://dx.doi.org/10.1080/13642819708202343


 Perdew, JP; Burke, K; Ernzerhof, M. 
 PHYSICAL REVIEW LETTERS, 77 (18), 3865-3868 (1996). 
 Generalized gradient approximation made simple.
 http://dx.doi.org/10.1103/PhysRevLett.77.3865


 Goedecker, S; Teter, M; Hutter, J. 
 PHYSICAL REVIEW B, 54 (3), 1703-1710 (1996). 
 Separable dual-space Gaussian pseudopotentials.
 http://dx.doi.org/10.1103/PhysRevB.54.1703


 -------------------------------------------------------------------------------
 -                                                                             -
 -                                T I M I N G                                  -
 -                                                                             -
 -------------------------------------------------------------------------------
 SUBROUTINE                       CALLS  ASD         SELF TIME        TOTAL TIME
                                MAXIMUM       AVERAGE  MAXIMUM  AVERAGE  MAXIMUM
 CP2K                                 1  1.0    0.199    0.262 3194.996 3195.058
 cp_geo_opt                           1  2.0    0.011    0.012 3191.577 3191.639
 geoopt_bfgs                          1  3.0    0.100    0.150 3191.566 3191.628
 cp_eval_at                           5  4.0    0.011    0.014 3189.900 3189.967
 qs_energies                          5  5.8    0.011    0.013 3083.540 3083.606
 scf_env_do_scf                       5  6.8    0.005    0.007 3008.693 3008.752
 qs_forces                            4  5.0    0.012    0.013 2971.259 2971.317
 scf_env_do_scf_inner_loop          236  7.9    0.037    0.094 2910.217 2910.274
 qs_rho_update_rho                  241  8.9    0.010    0.012 1851.229 1851.278
 calculate_rho_elec                 482  9.9 1556.309 1719.852 1851.219 1851.267
 rebuild_ks_matrix                  240  9.9    0.010    0.012  975.962  976.022
 qs_ks_build_kohn_sham_matrix       240 10.9    0.126    0.135  975.952  976.012
 qs_ks_update_qs_env                241  8.9    0.015    0.018  879.931  879.987
 sum_up_and_integrate                86 11.8    0.940    0.946  713.562  713.677
 integrate_v_rspace                 172 12.8  578.939  663.946  712.620  712.735
 density_rs2pw                      482 10.9    0.089    0.093  282.813  471.024
 rs_pw_transfer                    3279 12.7    0.122    0.133  275.299  463.563
 rs_pw_transfer_RS2PW_200           487 12.9   23.145   26.798  198.122  384.904
 mp_waitany                       94806 14.7  193.180  383.880  193.180  383.880
 qs_scf_new_mos                     236  8.9    0.006    0.006  263.131  263.434
 qs_scf_loop_do_ot                  236  9.9    0.006    0.007  263.125  263.429
 ot_scf_mini                        236 10.9    0.051    0.053  253.015  253.448
 qs_vxc_create                      240 11.9    0.013    0.016  246.896  246.914
 xc_rho_set_and_dset_create         240 13.9    6.998    7.027  197.512  201.133
 cp_fm_syevd                        407 14.6    0.013    0.019  197.416  197.526
 cp_fm_redistribute_end             407 15.6  143.042  195.247  143.412  195.389
 cp_fm_syevd_base                   407 15.5   51.811  193.445   51.811  193.445
 qs_ot_get_p                        482 11.9    0.016    0.017  184.422  185.329
 rs_distribute_matrix               662 11.7    2.229    4.287   93.810  181.652
 mp_alltoall_d11v                  5902 16.0   91.135  179.860   91.135  179.860
 qs_ot_p2m_diag                     373 13.0    1.390    1.641  169.817  170.164
 cp_dbcsr_syevd                     393 13.8    0.161    0.175  170.096  170.117
 pw_nn_compose_r                   2608 14.6  129.081  130.091  133.404  134.586
 xc_exc_calc                        154 12.9    0.586    0.588  129.131  129.137
 xc_vxc_pw_create                    86 12.8    7.891    7.937  117.752  117.767
 dbcsr_multiply_generic            5918 13.6    1.314    1.345  101.893  103.422
 init_scf_loop                        5  7.8    0.003    0.004   98.405   98.406
 qs_ks_update_qs_env_forces           4  6.0    0.000    0.000   96.430   96.434
 xc_functional_eval                 240 14.9    0.005    0.006   90.045   93.084
 pbe_lsd_eval                       240 15.9   90.039   93.079   90.039   93.079
 multiply_cannon                   5918 14.6    4.912    5.110   67.710   72.348
 -------------------------------------------------------------------------------

 The number of warnings for this run is : 4
 
 -------------------------------------------------------------------------------
  **** **** ******  **  PROGRAM ENDED AT                 2020-10-29 16:25:10.536
 ***** ** ***  *** **   PROGRAM RAN ON                                 irene3819
 **    ****   ******    PROGRAM RAN BY                                  marticar
 ***** **    ** ** **   PROGRAM PROCESS ID                                 68677
  **** **  *******  **  PROGRAM STOPPED IN /ccc/scratch/cont003/gen0609/marticar
                                           /5720123
