     161
 i =        1, E =     -8104.5108861238
 Fe         5.0938794100       11.8196869300        0.3885799900
 Fe         7.6575796300        7.3792284900        0.3885799900
 Fe        10.2212798400        2.9387700600        0.3885799900
 Fe        -0.0335205200       11.8196869300        0.3885799900
 Fe         2.5301797000        7.3792284900        0.3885799900
 Fe         5.0938799200        2.9387700600        0.3885799900
 Fe        -5.1609204400       11.8196869300        0.3885799900
 Fe        -2.5972202200        7.3792284900        0.3885799900
 Fe        -0.0335200000        2.9387700600        0.3885799900
  O         8.4519195100        8.9577468800        1.1642700400
  O        11.0156197300        4.5172884400        1.1642700400
  O        13.5793199500        0.0768300000        1.1642700400
  O         3.3245195900        8.9577468800        1.1642700400
  O         5.8882198100        4.5172884400        1.1642700400
  O         8.4519200300        0.0768300000        1.1642700400
  O        -1.8028803300        8.9577468800        1.1642700400
  O         0.7608198900        4.5172884400        1.1642700400
  O         3.3245201100        0.0768300000        1.1642700400
  O         8.4568493000       11.7183869300        1.1650400200
  O        11.0205495200        7.2779284900        1.1650400200
  O        13.5842497300        2.8374700500        1.1650400200
  O         3.3294493700       11.7183869300        1.1650400200
  O         5.8931495900        7.2779284900        1.1650400200
  O         8.4568498100        2.8374700500        1.1650400200
  O        -1.7979505500       11.7183869300        1.1650400200
  O         0.7657496700        7.2779284900        1.1650400200
  O         3.3294498900        2.8374700500        1.1650400200
  O         6.0627194200       10.3425368500        1.1660399400
  O         8.6264196400        5.9020784100        1.1660399400
  O        11.1901198600        1.4616199700        1.1660399400
  O         0.9353195000       10.3425368500        1.1660399400
  O         3.4990197200        5.9020784100        1.1660399400
  O         6.0627199400        1.4616199700        1.1660399400
  O        -4.1920804200       10.3425368500        1.1660399400
  O        -1.6283802000        5.9020784100        1.1660399400
  O         0.9353200200        1.4616199700        1.1660399400
 Fe         7.6576695000       13.2997167500        1.9292099500
 Fe        10.2213697200        8.8592583200        1.9292099500
 Fe        12.7850699400        4.4187998800        1.9292099500
 Fe         2.5302695800       13.2997167500        1.9292099500
 Fe         5.0939698000        8.8592583200        1.9292099500
 Fe         7.6576700200        4.4187998800        1.9292099500
 Fe        -2.5971303400       13.2997167500        1.9292099500
 Fe        -0.0334301200        8.8592583200        1.9292099500
 Fe         2.5302701000        4.4187998800        1.9292099500
 Fe         7.6573893600       10.3392168700        2.7128999200
 Fe        10.2210895800        5.8987584300        2.7128999200
 Fe        12.7847898000        1.4582999900        2.7128999200
 Fe         2.5299894400       10.3392168700        2.7128999200
 Fe         5.0936896600        5.8987584300        2.7128999200
 Fe         7.6573898800        1.4582999900        2.7128999200
 Fe        -2.5974104800       10.3392168700        2.7128999200
 Fe        -0.0337102600        5.8987584300        2.7128999200
 Fe         2.5299899600        1.4582999900        2.7128999200
  O         4.1328560580       13.3040617386        3.4991632299
  O         6.6949039989        8.8659112804        3.4971551326
  O         9.2621321215        4.4233528502        3.4995479471
  O        -0.9944306068       13.3043225968        3.5000883147
  O         1.5689688693        8.8641693564        3.4982786086
  O         4.1326072276        4.4217273571        3.4968874483
  O        -6.1220915476       13.3037032411        3.4988405716
  O        -3.5588196797        8.8632550065        3.4993591997
  O        -0.9948919291        4.4229019310        3.4986191995
  O         6.8605815546       11.9103944597        3.5002533783
  O         9.4252052353        7.4694901999        3.5011236856
  O        11.9880665342        3.0289117346        3.5004346034
  O         1.7330567373       11.9105478120        3.5003084822
  O         4.2974668853        7.4708602988        3.4987187437
  O         6.8608864549        3.0284494356        3.5001690746
  O        -3.3940784095       11.9110314235        3.5004556346
  O        -0.8306557144        7.4699676212        3.4998920766
  O         1.7344938651        3.0272251497        3.5015395320
  O         9.4158306590       10.2445106666        3.5011947926
  O        11.9790097366        5.8044255264        3.5012848644
  O        14.5428713561        1.3641433756        3.5012248393
  O         4.2889123962       10.2448112041        3.5006627209
  O         6.8509407251        5.8040889852        3.5013789063
  O         9.4155722850        1.3643920888        3.5014354956
  O        -0.8396360003       10.2450903026        3.5010360320
  O         1.7242790884        5.8039633662        3.4991400154
  O         4.2881869733        1.3629904930        3.5005503679
 Fe         5.0943218998       11.8189212932        4.4866453939
 Fe         7.6551274273        7.3824385102        4.4802507384
 Fe        10.2231634783        2.9381940625        4.4862992512
 Fe        -0.0332174041       11.8184543858        4.4862308699
 Fe         2.5297640977        7.3801971233        4.4841203367
 Fe         5.0930022065        2.9370706903        4.4829047149
 Fe        -5.1607373344       11.8193905844        4.4865407421
 Fe        -2.5959600372        7.3785813259        4.4863737040
 Fe        -0.0323892179        2.9387353374        4.4857198740
 Fe         7.6588404413       13.2991179746        4.8225363146
 Fe        10.2220539042        8.8587085071        4.8241275319
 Fe        12.7874148825        4.4181791592        4.8220599535
 Fe         2.5322692344       13.2990736003        4.8220241340
 Fe         5.0961710096        8.8575271142        4.8235607411
 Fe         7.6609687688        4.4200957367        4.8165235063
 Fe        -2.5952452840       13.3006719281        4.8233415708
 Fe        -0.0315729507        8.8589943532        4.8220646030
 Fe         2.5303389775        4.4154619910        4.8212016523
  O         5.8671810454       10.3888726286        5.7270149030
  O         8.4287485463        5.9550170592        5.7193470973
  O        10.9928909140        1.5074553031        5.7277365948
  O         0.7385518895       10.3890998296        5.7271291786
  O         3.2913790211        5.9486701946        5.7058623632
  O         5.8654582213        1.5104135125        5.7330053507
  O        -4.3882744956       10.3892239792        5.7255737373
  O        -1.8247136180        5.9477997095        5.7266357614
  O         0.7378356480        1.5078263054        5.7271467383
  O         5.9481168367       13.2035568369        5.7279295366
  O         8.5099195557        8.7607841122        5.7258656651
  O        11.0770911193        4.3225450870        5.7257449167
  O         0.8224753026       13.2005744018        5.7284822366
  O         3.3848298225        8.7641524913        5.7249749375
  O         5.9401477510        4.3383715698        5.7000864219
  O        -4.3058561383       13.2037355145        5.7280330370
  O        -1.7425039249        8.7633343080        5.7267873852
  O         0.8196019927        4.3216761235        5.7275556329
  O         3.4692225915       11.8657926722        5.7300614449
  O         6.0248285407        7.4090037470        5.7136313873
  O         8.5917441693        2.9789381963        5.7148923437
  O        -1.6582896274       11.8660486731        5.7298417652
  O         0.9048153068        7.4257163950        5.7289381721
  O         3.4715845856        2.9834398767        5.7304506946
  O        -6.7859010574       11.8651198962        5.7292257416
  O        -4.2212987190        7.4236854969        5.7277304454
  O        -1.6573085534        2.9844314425        5.7291641150
 Fe         7.6586594190       10.3377147619        5.9842640429
 Fe        10.2225551623        5.8976498971        5.9714841805
 Fe        12.7849717804        1.4584973723        5.9796388575
 Fe         2.5304934413       10.3384801360        5.9809921302
 Fe         5.0656751611        5.8985199972        6.0543915609
 Fe         7.6588118342        1.4541570896        5.9744778561
 Fe        -2.5971950114       10.3388548365        5.9818417894
 Fe        -0.0326636381        5.8986912946        5.9819272526
 Fe         2.5297334083        1.4583985078        5.9786448444
  C         8.5690968195        3.9576786318       11.4598803312
  C         7.8215865980        2.9680233178       10.5577868983
  H         9.1186527187        3.3717164974       12.2204126250
  O         9.5137450552        4.7746046165       10.7576692483
  H         7.8397597092        4.5911977840       11.9917094305
  C         6.6938691535        3.5483984696        9.6855624493
  C         7.0994506813        4.4420842295        8.4718940448
  O         5.7355049171        4.2440764565       10.5181058358
  H         6.1899887886        2.6628675364        9.2591574666
  C         6.5501668583        5.8874146006        8.4752732307
  H         6.6577098915        3.9799926512        7.5735106964
  O         8.5434922045        4.4838849796        8.3005884656
  C         7.0837823783        6.8477052529        9.5464802617
  O         5.1177189802        5.9025751409        8.4500044589
  H         6.8428376473        6.3326398584        7.5052183275
  H         6.8464218410        6.4612070615       10.5484947712
  O         8.5082388244        7.0252555481        9.3873721504
  H         6.5901935354        7.8220521803        9.4138064938
  H         9.4210445623        4.5156808845        9.8048741655
  H         5.4521643467        3.5881540050       11.1847682686
  H         8.7367603462        5.4479843218        8.2052335707
  H         4.8186922852        5.4048316763        9.2455178756
  H         8.9410692414        6.4729198605       10.0796361042
  O         7.1123068681        2.0137876223       11.3834658596
  H         8.5445125753        2.4545111551        9.8965473951
  H         7.7529318653        1.6059019939       11.9917991722
     161
 i =        2, E =     -8104.5139734961
 Fe         5.0938794100       11.8196869300        0.3885799900
 Fe         7.6575796300        7.3792284900        0.3885799900
 Fe        10.2212798400        2.9387700600        0.3885799900
 Fe        -0.0335205200       11.8196869300        0.3885799900
 Fe         2.5301797000        7.3792284900        0.3885799900
 Fe         5.0938799200        2.9387700600        0.3885799900
 Fe        -5.1609204400       11.8196869300        0.3885799900
 Fe        -2.5972202200        7.3792284900        0.3885799900
 Fe        -0.0335200000        2.9387700600        0.3885799900
  O         8.4519195100        8.9577468800        1.1642700400
  O        11.0156197300        4.5172884400        1.1642700400
  O        13.5793199500        0.0768300000        1.1642700400
  O         3.3245195900        8.9577468800        1.1642700400
  O         5.8882198100        4.5172884400        1.1642700400
  O         8.4519200300        0.0768300000        1.1642700400
  O        -1.8028803300        8.9577468800        1.1642700400
  O         0.7608198900        4.5172884400        1.1642700400
  O         3.3245201100        0.0768300000        1.1642700400
  O         8.4568493000       11.7183869300        1.1650400200
  O        11.0205495200        7.2779284900        1.1650400200
  O        13.5842497300        2.8374700500        1.1650400200
  O         3.3294493700       11.7183869300        1.1650400200
  O         5.8931495900        7.2779284900        1.1650400200
  O         8.4568498100        2.8374700500        1.1650400200
  O        -1.7979505500       11.7183869300        1.1650400200
  O         0.7657496700        7.2779284900        1.1650400200
  O         3.3294498900        2.8374700500        1.1650400200
  O         6.0627194200       10.3425368500        1.1660399400
  O         8.6264196400        5.9020784100        1.1660399400
  O        11.1901198600        1.4616199700        1.1660399400
  O         0.9353195000       10.3425368500        1.1660399400
  O         3.4990197200        5.9020784100        1.1660399400
  O         6.0627199400        1.4616199700        1.1660399400
  O        -4.1920804200       10.3425368500        1.1660399400
  O        -1.6283802000        5.9020784100        1.1660399400
  O         0.9353200200        1.4616199700        1.1660399400
 Fe         7.6576695000       13.2997167500        1.9292099500
 Fe        10.2213697200        8.8592583200        1.9292099500
 Fe        12.7850699400        4.4187998800        1.9292099500
 Fe         2.5302695800       13.2997167500        1.9292099500
 Fe         5.0939698000        8.8592583200        1.9292099500
 Fe         7.6576700200        4.4187998800        1.9292099500
 Fe        -2.5971303400       13.2997167500        1.9292099500
 Fe        -0.0334301200        8.8592583200        1.9292099500
 Fe         2.5302701000        4.4187998800        1.9292099500
 Fe         7.6573893600       10.3392168700        2.7128999200
 Fe        10.2210895800        5.8987584300        2.7128999200
 Fe        12.7847898000        1.4582999900        2.7128999200
 Fe         2.5299894400       10.3392168700        2.7128999200
 Fe         5.0936896600        5.8987584300        2.7128999200
 Fe         7.6573898800        1.4582999900        2.7128999200
 Fe        -2.5974104800       10.3392168700        2.7128999200
 Fe        -0.0337102600        5.8987584300        2.7128999200
 Fe         2.5299899600        1.4582999900        2.7128999200
  O         4.1356222345       13.2997160082        3.4987888222
  O         6.6983596412        8.8641088447        3.4961622737
  O         9.2683639479        4.4203144966        3.5011299760
  O        -0.9916697728       13.3024341113        3.5046082817
  O         1.5709693367        8.8604774373        3.4971927227
  O         4.1273002827        4.4080256772        3.4749936011
  O        -6.1199622485       13.2997635766        3.4986461558
  O        -3.5581963209        8.8588655583        3.4984448923
  O        -0.9932360972        4.4174318138        3.4962462923
  O         6.8578675077       11.9127620449        3.4982528713
  O         9.4182064176        7.4705237244        3.5017967897
  O        11.9850457754        3.0296543422        3.4997008796
  O         1.7299124680       11.9127339534        3.4986644442
  O         4.2902356669        7.4807276264        3.4805350883
  O         6.8561875446        3.0251614030        3.4949771515
  O        -3.3962326766       11.9145985112        3.4993801683
  O        -0.8339295160        7.4718082107        3.4977634577
  O         1.7305475030        3.0235224493        3.5037032791
  O         9.4202237200       10.2459081862        3.4995574824
  O        11.9823037768        5.8071366242        3.5001018735
  O        14.5466584501        1.3669601024        3.4992787742
  O         4.2925005830       10.2485596539        3.5015275970
  O         6.8678096570        5.8092936601        3.4714789581
  O         9.4204844617        1.3656623009        3.4981732862
  O        -0.8363345471       10.2486326966        3.4988959756
  O         1.7241788379        5.8056206334        3.4913786435
  O         4.2940957330        1.3682938760        3.5015634706
 Fe         5.0962155315       11.8169465918        4.4988959947
 Fe         7.6412595538        7.3786141859        4.4882123607
 Fe        10.2248424825        2.9358078749        4.4972057315
 Fe        -0.0322360581       11.8159540893        4.4976283314
 Fe         2.5326614992        7.3783992523        4.4896659361
 Fe         5.0913441663        2.9476959686        4.4910790745
 Fe        -5.1602749508       11.8189428420        4.4972278167
 Fe        -2.5938137340        7.3785986263        4.4966838133
 Fe        -0.0327131390        2.9385640548        4.4981377865
 Fe         7.6590380875       13.2990429546        4.8186565248
 Fe        10.2206558752        8.8584799127        4.8244299995
 Fe        12.7905146502        4.4188961342        4.8174117290
 Fe         2.5346515583       13.2986412590        4.8171228752
 Fe         5.0969852953        8.8480587577        4.8206770271
 Fe         7.6532488027        4.4294465291        4.7906372611
 Fe        -2.5931921240       13.3041640919        4.8237395056
 Fe        -0.0304038482        8.8595855006        4.8173828310
 Fe         2.5317292442        4.4142007823        4.8092301889
  O         5.8695732529       10.3805337744        5.7335357056
  O         8.4281659323        5.9558471375        5.7191021507
  O        10.9925778746        1.5031378589        5.7361185013
  O         0.7393964205       10.3854401685        5.7339576180
  O         3.2720678670        5.9464270368        5.6785628867
  O         5.8637480285        1.5160727685        5.7517429426
  O        -4.3868051392       10.3868416702        5.7303083560
  O        -1.8224904525        5.9442687802        5.7319127598
  O         0.7377345119        1.5033625863        5.7343265932
  O         5.9504172231       13.2068625617        5.7338667914
  O         8.5052162016        8.7582272742        5.7262058540
  O        11.0811702669        4.3248248343        5.7270393394
  O         0.8281771956       13.1984321463        5.7369217316
  O         3.3869323392        8.7675044376        5.7284322298
  O         5.9243878187        4.3786605596        5.6660499733
  O        -4.3028031884       13.2074446175        5.7346207701
  O        -1.7398137490        8.7666900754        5.7310593770
  O         0.8225910332        4.3232627342        5.7317793542
  O         3.4660605088       11.8679044494        5.7382102401
  O         5.9963579100        7.3749462636        5.6984918457
  O         8.5714962482        2.9758957741        5.6909924486
  O        -1.6613966312       11.8686772603        5.7386589836
  O         0.9001093258        7.4290866318        5.7335693816
  O         3.4694115971        2.9863794175        5.7420165659
  O        -6.7896856144       11.8667357540        5.7355719611
  O        -4.2236083175        7.4230930641        5.7316509440
  O        -1.6617236684        2.9859011793        5.7364327989
 Fe         7.6605990796       10.3363654854        6.0043526297
 Fe        10.2261180075        5.8965113436        5.9782013584
 Fe        12.7842653693        1.4590555647        5.9973725258
 Fe         2.5309305158       10.3379482606        5.9981773394
 Fe         5.0048742341        5.8983171451        6.2667413119
 Fe         7.6597443781        1.4476795479        5.9839945443
 Fe        -2.5972820419       10.3390107334        6.0004003939
 Fe        -0.0305760829        5.8992548969        5.9994010822
 Fe         2.5286227201        1.4597469462        5.9944553178
  C         8.5711124218        3.9569904895       11.4602252222
  C         7.8150712058        2.9716020428       10.5588748075
  H         9.1188986967        3.3700231095       12.2222513824
  O         9.5209777200        4.7706958124       10.7660381516
  H         7.8378912338        4.5895848949       11.9893752745
  C         6.6906417616        3.5380354064        9.6807623685
  C         7.1103753464        4.4520526550        8.5044732988
  O         5.7371419905        4.2489866879       10.5119886372
  H         6.1774291845        2.6567542768        9.2588633066
  C         6.5860139489        5.8984879649        8.4897361313
  H         6.6973781212        3.9914052249        7.5853052953
  O         8.5564391621        4.4837266758        8.3733765924
  C         7.1029794927        6.8449697043        9.5662265987
  O         5.1363205717        5.9022730409        8.3830280615
  H         6.9345272251        6.3350097653        7.5334151706
  H         6.8436474774        6.4731799884       10.5671378030
  O         8.5199992310        7.0419609831        9.3991740892
  H         6.5942363706        7.8090564827        9.4017430205
  H         9.4078762807        4.5222811437        9.8066759500
  H         5.4442537840        3.5966497202       11.1790316150
  H         8.7031119961        5.4515378529        8.2092567631
  H         4.7925988845        5.3838867783        9.1579417857
  H         8.9370621333        6.4678754176       10.0829087384
  O         7.1129165693        2.0151106930       11.3907146083
  H         8.5383438287        2.4535154560        9.9003506054
  H         7.7559466263        1.6007491770       11.9914256391
     161
 i =        3, E =     -8104.5163586611
 Fe         5.0938794100       11.8196869300        0.3885799900
 Fe         7.6575796300        7.3792284900        0.3885799900
 Fe        10.2212798400        2.9387700600        0.3885799900
 Fe        -0.0335205200       11.8196869300        0.3885799900
 Fe         2.5301797000        7.3792284900        0.3885799900
 Fe         5.0938799200        2.9387700600        0.3885799900
 Fe        -5.1609204400       11.8196869300        0.3885799900
 Fe        -2.5972202200        7.3792284900        0.3885799900
 Fe        -0.0335200000        2.9387700600        0.3885799900
  O         8.4519195100        8.9577468800        1.1642700400
  O        11.0156197300        4.5172884400        1.1642700400
  O        13.5793199500        0.0768300000        1.1642700400
  O         3.3245195900        8.9577468800        1.1642700400
  O         5.8882198100        4.5172884400        1.1642700400
  O         8.4519200300        0.0768300000        1.1642700400
  O        -1.8028803300        8.9577468800        1.1642700400
  O         0.7608198900        4.5172884400        1.1642700400
  O         3.3245201100        0.0768300000        1.1642700400
  O         8.4568493000       11.7183869300        1.1650400200
  O        11.0205495200        7.2779284900        1.1650400200
  O        13.5842497300        2.8374700500        1.1650400200
  O         3.3294493700       11.7183869300        1.1650400200
  O         5.8931495900        7.2779284900        1.1650400200
  O         8.4568498100        2.8374700500        1.1650400200
  O        -1.7979505500       11.7183869300        1.1650400200
  O         0.7657496700        7.2779284900        1.1650400200
  O         3.3294498900        2.8374700500        1.1650400200
  O         6.0627194200       10.3425368500        1.1660399400
  O         8.6264196400        5.9020784100        1.1660399400
  O        11.1901198600        1.4616199700        1.1660399400
  O         0.9353195000       10.3425368500        1.1660399400
  O         3.4990197200        5.9020784100        1.1660399400
  O         6.0627199400        1.4616199700        1.1660399400
  O        -4.1920804200       10.3425368500        1.1660399400
  O        -1.6283802000        5.9020784100        1.1660399400
  O         0.9353200200        1.4616199700        1.1660399400
 Fe         7.6576695000       13.2997167500        1.9292099500
 Fe        10.2213697200        8.8592583200        1.9292099500
 Fe        12.7850699400        4.4187998800        1.9292099500
 Fe         2.5302695800       13.2997167500        1.9292099500
 Fe         5.0939698000        8.8592583200        1.9292099500
 Fe         7.6576700200        4.4187998800        1.9292099500
 Fe        -2.5971303400       13.2997167500        1.9292099500
 Fe        -0.0334301200        8.8592583200        1.9292099500
 Fe         2.5302701000        4.4187998800        1.9292099500
 Fe         7.6573893600       10.3392168700        2.7128999200
 Fe        10.2210895800        5.8987584300        2.7128999200
 Fe        12.7847898000        1.4582999900        2.7128999200
 Fe         2.5299894400       10.3392168700        2.7128999200
 Fe         5.0936896600        5.8987584300        2.7128999200
 Fe         7.6573898800        1.4582999900        2.7128999200
 Fe        -2.5974104800       10.3392168700        2.7128999200
 Fe        -0.0337102600        5.8987584300        2.7128999200
 Fe         2.5299899600        1.4582999900        2.7128999200
  O         4.1357116683       13.3016233767        3.5012890945
  O         6.7013328256        8.8666655071        3.5039187382
  O         9.2857587950        4.4330231444        3.5405610287
  O        -0.9924212742       13.3053698887        3.5079237349
  O         1.5705721116        8.8616178937        3.4995671208
  O         4.1305080252        4.4115676573        3.4827675527
  O        -6.1204857652       13.3018860786        3.5008042297
  O        -3.5594836200        8.8615252606        3.5002273274
  O        -0.9943278717        4.4191816051        3.4977075976
  O         6.8606100371       11.9125624741        3.4999020736
  O         9.4181149347        7.4696934885        3.5033940371
  O        11.9876355162        3.0289730805        3.5012370575
  O         1.7326928444       11.9114904834        3.5010424472
  O         4.2893442741        7.4809603273        3.4780215325
  O         6.8551175880        3.0022476884        3.5304712902
  O        -3.3927708498       11.9149937233        3.5009689071
  O        -0.8319925768        7.4713919264        3.4992752592
  O         1.7301514372        3.0126574612        3.5208204605
  O         9.4193386395       10.2445911638        3.5007656127
  O        11.9810730123        5.8056532171        3.5018358647
  O        14.5451223157        1.3647862069        3.5009014722
  O         4.2878653024       10.2485538550        3.5097028792
  O         6.8550401186        5.8202252179        3.4971061045
  O         9.4200269096        1.3620102856        3.4981909996
  O        -0.8374827162       10.2474339433        3.5007594798
  O         1.7121793813        5.8097974513        3.5070539412
  O         4.2937171544        1.3686517356        3.5045886355
 Fe         5.0974908685       11.8162497386        4.4944342390
 Fe         7.6395767267        7.3805659181        4.4949456991
 Fe        10.2282778186        2.9279616303        4.4972734958
 Fe        -0.0317614907       11.8159989431        4.4925542112
 Fe         2.5367316237        7.3781663039        4.4883966681
 Fe         5.0841590423        2.9525554802        4.4968958145
 Fe        -5.1593408732       11.8188516014        4.4915325905
 Fe        -2.5938892223        7.3792143828        4.4909789027
 Fe        -0.0372017078        2.9378660028        4.4959764142
 Fe         7.6590976257       13.2989318774        4.8173179719
 Fe        10.2190360278        8.8574722060        4.8230928241
 Fe        12.7902059144        4.4192296897        4.8156570805
 Fe         2.5347001452       13.2974947109        4.8153503142
 Fe         5.0959409655        8.8415648800        4.8207051374
 Fe         7.6435048603        4.4319264223        4.8076034384
 Fe        -2.5930383482       13.3056238293        4.8242021957
 Fe        -0.0304591923        8.8591968833        4.8160438042
 Fe         2.5328924742        4.4178211227        4.8099632922
  O         5.8671079235       10.3777238295        5.7330846886
  O         8.4275008625        5.9575371919        5.7290380820
  O        10.9918280282        1.5007219763        5.7388057380
  O         0.7380998289       10.3863909532        5.7335470913
  O         3.2699107592        5.9483788063        5.6896516112
  O         5.8617759447        1.5190416017        5.7548181637
  O        -4.3887984336       10.3869211250        5.7301790993
  O        -1.8234781205        5.9456844582        5.7309399572
  O         0.7367993006        1.5040580472        5.7344641974
  O         5.9499976305       13.2050323188        5.7332413189
  O         8.5047529530        8.7586425636        5.7300279683
  O        11.0800869010        4.3221025466        5.7275061143
  O         0.8277655091       13.1969765722        5.7372147723
  O         3.3866589219        8.7651448964        5.7325483909
  O         5.9138266297        4.3789585506        5.6800542854
  O        -4.3036604242       13.2056820143        5.7346191371
  O        -1.7408764065        8.7652743256        5.7307467586
  O         0.8221563344        4.3212966776        5.7309774360
  O         3.4685945263       11.8684511693        5.7384365717
  O         5.9931176123        7.3734329029        5.7085683327
  O         8.5736681876        2.9766588436        5.6939191348
  O        -1.6593702322       11.8695636292        5.7390044573
  O         0.9016902865        7.4297482010        5.7336531410
  O         3.4665056241        2.9908710961        5.7484629895
  O        -6.7874544630       11.8672227772        5.7349671812
  O        -4.2214377337        7.4244452497        5.7324768401
  O        -1.6622309367        2.9870829102        5.7376448863
 Fe         7.6594014749       10.3378167034        5.9930863745
 Fe        10.2280756411        5.8967608942        5.9713403053
 Fe        12.7846886751        1.4585553657        5.9876358740
 Fe         2.5310724843       10.3383818965        5.9867031661
 Fe         4.9983066954        5.8994204037        6.2541453923
 Fe         7.6593736682        1.4477941821        5.9760172556
 Fe        -2.5975749087       10.3395565345        5.9900673541
 Fe        -0.0303509038        5.8991506632        5.9878578556
 Fe         2.5289040095        1.4598304587        5.9838479703
  C         8.5693083100        3.9581132664       11.4614310820
  C         7.8173330045        2.9669127276       10.5607505029
  H         9.1159401982        3.3682983234       12.2220615606
  O         9.5229241015        4.7703980045       10.7713690673
  H         7.8372967632        4.5906450564       11.9919106360
  C         6.6889288438        3.5394345085        9.6900923484
  C         7.1118145054        4.4389685384        8.5058559583
  O         5.7259738908        4.2517919042       10.5095775433
  H         6.1783544842        2.6593525339        9.2594937122
  C         6.6022699843        5.8902245521        8.4906107303
  H         6.7068708571        3.9906663950        7.5776868200
  O         8.5553451739        4.4927384113        8.3695683354
  C         7.0933050990        6.8497159432        9.5688258132
  O         5.1496269139        5.9103262793        8.3813290846
  H         6.9544062380        6.3313170653        7.5364633422
  H         6.8494259709        6.4788758003       10.5736370931
  O         8.5113652303        7.0400709749        9.4123808997
  H         6.5927867575        7.8170987871        9.4040617575
  H         9.4049697834        4.5278033770        9.8094031257
  H         5.4392072536        3.6005294523       11.1798197617
  H         8.7229685108        5.4520307290        8.2062530814
  H         4.7887972134        5.3754810551        9.1387445512
  H         8.9473345151        6.4661979339       10.0849994182
  O         7.1107793553        2.0148314389       11.3933445959
  H         8.5384514826        2.4500716997        9.8991906680
  H         7.7564994030        1.5997217340       11.9909366675
     161
 i =        4, E =     -8104.5163373409
 Fe         5.0938794100       11.8196869300        0.3885799900
 Fe         7.6575796300        7.3792284900        0.3885799900
 Fe        10.2212798400        2.9387700600        0.3885799900
 Fe        -0.0335205200       11.8196869300        0.3885799900
 Fe         2.5301797000        7.3792284900        0.3885799900
 Fe         5.0938799200        2.9387700600        0.3885799900
 Fe        -5.1609204400       11.8196869300        0.3885799900
 Fe        -2.5972202200        7.3792284900        0.3885799900
 Fe        -0.0335200000        2.9387700600        0.3885799900
  O         8.4519195100        8.9577468800        1.1642700400
  O        11.0156197300        4.5172884400        1.1642700400
  O        13.5793199500        0.0768300000        1.1642700400
  O         3.3245195900        8.9577468800        1.1642700400
  O         5.8882198100        4.5172884400        1.1642700400
  O         8.4519200300        0.0768300000        1.1642700400
  O        -1.8028803300        8.9577468800        1.1642700400
  O         0.7608198900        4.5172884400        1.1642700400
  O         3.3245201100        0.0768300000        1.1642700400
  O         8.4568493000       11.7183869300        1.1650400200
  O        11.0205495200        7.2779284900        1.1650400200
  O        13.5842497300        2.8374700500        1.1650400200
  O         3.3294493700       11.7183869300        1.1650400200
  O         5.8931495900        7.2779284900        1.1650400200
  O         8.4568498100        2.8374700500        1.1650400200
  O        -1.7979505500       11.7183869300        1.1650400200
  O         0.7657496700        7.2779284900        1.1650400200
  O         3.3294498900        2.8374700500        1.1650400200
  O         6.0627194200       10.3425368500        1.1660399400
  O         8.6264196400        5.9020784100        1.1660399400
  O        11.1901198600        1.4616199700        1.1660399400
  O         0.9353195000       10.3425368500        1.1660399400
  O         3.4990197200        5.9020784100        1.1660399400
  O         6.0627199400        1.4616199700        1.1660399400
  O        -4.1920804200       10.3425368500        1.1660399400
  O        -1.6283802000        5.9020784100        1.1660399400
  O         0.9353200200        1.4616199700        1.1660399400
 Fe         7.6576695000       13.2997167500        1.9292099500
 Fe        10.2213697200        8.8592583200        1.9292099500
 Fe        12.7850699400        4.4187998800        1.9292099500
 Fe         2.5302695800       13.2997167500        1.9292099500
 Fe         5.0939698000        8.8592583200        1.9292099500
 Fe         7.6576700200        4.4187998800        1.9292099500
 Fe        -2.5971303400       13.2997167500        1.9292099500
 Fe        -0.0334301200        8.8592583200        1.9292099500
 Fe         2.5302701000        4.4187998800        1.9292099500
 Fe         7.6573893600       10.3392168700        2.7128999200
 Fe        10.2210895800        5.8987584300        2.7128999200
 Fe        12.7847898000        1.4582999900        2.7128999200
 Fe         2.5299894400       10.3392168700        2.7128999200
 Fe         5.0936896600        5.8987584300        2.7128999200
 Fe         7.6573898800        1.4582999900        2.7128999200
 Fe        -2.5974104800       10.3392168700        2.7128999200
 Fe        -0.0337102600        5.8987584300        2.7128999200
 Fe         2.5299899600        1.4582999900        2.7128999200
  O         4.1357116683       13.3016233767        3.5012890945
  O         6.7013328256        8.8666655071        3.5039187382
  O         9.2857587950        4.4330231444        3.5405610287
  O        -0.9924212742       13.3053698887        3.5079237349
  O         1.5705721116        8.8616178937        3.4995671208
  O         4.1305080252        4.4115676573        3.4827675527
  O        -6.1204857652       13.3018860786        3.5008042297
  O        -3.5594836200        8.8615252606        3.5002273274
  O        -0.9943278717        4.4191816051        3.4977075976
  O         6.8606100371       11.9125624741        3.4999020736
  O         9.4181149347        7.4696934885        3.5033940371
  O        11.9876355162        3.0289730805        3.5012370575
  O         1.7326928444       11.9114904834        3.5010424472
  O         4.2893442741        7.4809603273        3.4780215325
  O         6.8551175880        3.0022476884        3.5304712902
  O        -3.3927708498       11.9149937233        3.5009689071
  O        -0.8319925768        7.4713919264        3.4992752592
  O         1.7301514372        3.0126574612        3.5208204605
  O         9.4193386395       10.2445911638        3.5007656127
  O        11.9810730123        5.8056532171        3.5018358647
  O        14.5451223157        1.3647862069        3.5009014722
  O         4.2878653024       10.2485538550        3.5097028792
  O         6.8550401186        5.8202252179        3.4971061045
  O         9.4200269096        1.3620102856        3.4981909996
  O        -0.8374827162       10.2474339433        3.5007594798
  O         1.7121793813        5.8097974513        3.5070539412
  O         4.2937171544        1.3686517356        3.5045886355
 Fe         5.0974908685       11.8162497386        4.4944342390
 Fe         7.6395767267        7.3805659181        4.4949456991
 Fe        10.2282778186        2.9279616303        4.4972734958
 Fe        -0.0317614907       11.8159989431        4.4925542112
 Fe         2.5367316237        7.3781663039        4.4883966681
 Fe         5.0841590423        2.9525554802        4.4968958145
 Fe        -5.1593408732       11.8188516014        4.4915325905
 Fe        -2.5938892223        7.3792143828        4.4909789027
 Fe        -0.0372017078        2.9378660028        4.4959764142
 Fe         7.6590976257       13.2989318774        4.8173179719
 Fe        10.2190360278        8.8574722060        4.8230928241
 Fe        12.7902059144        4.4192296897        4.8156570805
 Fe         2.5347001452       13.2974947109        4.8153503142
 Fe         5.0959409655        8.8415648800        4.8207051374
 Fe         7.6435048603        4.4319264223        4.8076034384
 Fe        -2.5930383482       13.3056238293        4.8242021957
 Fe        -0.0304591923        8.8591968833        4.8160438042
 Fe         2.5328924742        4.4178211227        4.8099632922
  O         5.8671079235       10.3777238295        5.7330846886
  O         8.4275008625        5.9575371919        5.7290380820
  O        10.9918280282        1.5007219763        5.7388057380
  O         0.7380998289       10.3863909532        5.7335470913
  O         3.2699107592        5.9483788063        5.6896516112
  O         5.8617759447        1.5190416017        5.7548181637
  O        -4.3887984336       10.3869211250        5.7301790993
  O        -1.8234781205        5.9456844582        5.7309399572
  O         0.7367993006        1.5040580472        5.7344641974
  O         5.9499976305       13.2050323188        5.7332413189
  O         8.5047529530        8.7586425636        5.7300279683
  O        11.0800869010        4.3221025466        5.7275061143
  O         0.8277655091       13.1969765722        5.7372147723
  O         3.3866589219        8.7651448964        5.7325483909
  O         5.9138266297        4.3789585506        5.6800542854
  O        -4.3036604242       13.2056820143        5.7346191371
  O        -1.7408764065        8.7652743256        5.7307467586
  O         0.8221563344        4.3212966776        5.7309774360
  O         3.4685945263       11.8684511693        5.7384365717
  O         5.9931176123        7.3734329029        5.7085683327
  O         8.5736681876        2.9766588436        5.6939191348
  O        -1.6593702322       11.8695636292        5.7390044573
  O         0.9016902865        7.4297482010        5.7336531410
  O         3.4665056241        2.9908710961        5.7484629895
  O        -6.7874544630       11.8672227772        5.7349671812
  O        -4.2214377337        7.4244452497        5.7324768401
  O        -1.6622309367        2.9870829102        5.7376448863
 Fe         7.6594014749       10.3378167034        5.9930863745
 Fe        10.2280756411        5.8967608942        5.9713403053
 Fe        12.7846886751        1.4585553657        5.9876358740
 Fe         2.5310724843       10.3383818965        5.9867031661
 Fe         4.9983066954        5.8994204037        6.2541453923
 Fe         7.6593736682        1.4477941821        5.9760172556
 Fe        -2.5975749087       10.3395565345        5.9900673541
 Fe        -0.0303509038        5.8991506632        5.9878578556
 Fe         2.5289040095        1.4598304587        5.9838479703
  C         8.5693083100        3.9581132664       11.4614310820
  C         7.8173330045        2.9669127276       10.5607505029
  H         9.1159401982        3.3682983234       12.2220615606
  O         9.5229241015        4.7703980045       10.7713690673
  H         7.8372967632        4.5906450564       11.9919106360
  C         6.6889288438        3.5394345085        9.6900923484
  C         7.1118145054        4.4389685384        8.5058559583
  O         5.7259738908        4.2517919042       10.5095775433
  H         6.1783544842        2.6593525339        9.2594937122
  C         6.6022699843        5.8902245521        8.4906107303
  H         6.7068708571        3.9906663950        7.5776868200
  O         8.5553451739        4.4927384113        8.3695683354
  C         7.0933050990        6.8497159432        9.5688258132
  O         5.1496269139        5.9103262793        8.3813290846
  H         6.9544062380        6.3313170653        7.5364633422
  H         6.8494259709        6.4788758003       10.5736370931
  O         8.5113652303        7.0400709749        9.4123808997
  H         6.5927867575        7.8170987871        9.4040617575
  H         9.4049697834        4.5278033770        9.8094031257
  H         5.4392072536        3.6005294523       11.1798197617
  H         8.7229685108        5.4520307290        8.2062530814
  H         4.7887972134        5.3754810551        9.1387445512
  H         8.9473345151        6.4661979339       10.0849994182
  O         7.1107793553        2.0148314389       11.3933445959
  H         8.5384514826        2.4500716997        9.8991906680
  H         7.7564994030        1.5997217340       11.9909366675
