     161
 i =        1, E =     -8104.4846245975
 Fe         5.0938794100       11.8196869300        0.3885799900
 Fe         7.6575796300        7.3792284900        0.3885799900
 Fe        10.2212798400        2.9387700600        0.3885799900
 Fe        -0.0335205200       11.8196869300        0.3885799900
 Fe         2.5301797000        7.3792284900        0.3885799900
 Fe         5.0938799200        2.9387700600        0.3885799900
 Fe        -5.1609204400       11.8196869300        0.3885799900
 Fe        -2.5972202200        7.3792284900        0.3885799900
 Fe        -0.0335200000        2.9387700600        0.3885799900
  O         8.4519195100        8.9577468800        1.1642700400
  O        11.0156197300        4.5172884400        1.1642700400
  O        13.5793199500        0.0768300000        1.1642700400
  O         3.3245195900        8.9577468800        1.1642700400
  O         5.8882198100        4.5172884400        1.1642700400
  O         8.4519200300        0.0768300000        1.1642700400
  O        -1.8028803300        8.9577468800        1.1642700400
  O         0.7608198900        4.5172884400        1.1642700400
  O         3.3245201100        0.0768300000        1.1642700400
  O         8.4568493000       11.7183869300        1.1650400200
  O        11.0205495200        7.2779284900        1.1650400200
  O        13.5842497300        2.8374700500        1.1650400200
  O         3.3294493700       11.7183869300        1.1650400200
  O         5.8931495900        7.2779284900        1.1650400200
  O         8.4568498100        2.8374700500        1.1650400200
  O        -1.7979505500       11.7183869300        1.1650400200
  O         0.7657496700        7.2779284900        1.1650400200
  O         3.3294498900        2.8374700500        1.1650400200
  O         6.0627194200       10.3425368500        1.1660399400
  O         8.6264196400        5.9020784100        1.1660399400
  O        11.1901198600        1.4616199700        1.1660399400
  O         0.9353195000       10.3425368500        1.1660399400
  O         3.4990197200        5.9020784100        1.1660399400
  O         6.0627199400        1.4616199700        1.1660399400
  O        -4.1920804200       10.3425368500        1.1660399400
  O        -1.6283802000        5.9020784100        1.1660399400
  O         0.9353200200        1.4616199700        1.1660399400
 Fe         7.6576695000       13.2997167500        1.9292099500
 Fe        10.2213697200        8.8592583200        1.9292099500
 Fe        12.7850699400        4.4187998800        1.9292099500
 Fe         2.5302695800       13.2997167500        1.9292099500
 Fe         5.0939698000        8.8592583200        1.9292099500
 Fe         7.6576700200        4.4187998800        1.9292099500
 Fe        -2.5971303400       13.2997167500        1.9292099500
 Fe        -0.0334301200        8.8592583200        1.9292099500
 Fe         2.5302701000        4.4187998800        1.9292099500
 Fe         7.6573893600       10.3392168700        2.7128999200
 Fe        10.2210895800        5.8987584300        2.7128999200
 Fe        12.7847898000        1.4582999900        2.7128999200
 Fe         2.5299894400       10.3392168700        2.7128999200
 Fe         5.0936896600        5.8987584300        2.7128999200
 Fe         7.6573898800        1.4582999900        2.7128999200
 Fe        -2.5974104800       10.3392168700        2.7128999200
 Fe        -0.0337102600        5.8987584300        2.7128999200
 Fe         2.5299899600        1.4582999900        2.7128999200
  O         4.1325678664       13.3043743468        3.5016189531
  O         6.6968101859        8.8639926783        3.5000694176
  O         9.2581506391        4.4223695982        3.4990403513
  O        -0.9946748381       13.3034047208        3.5000373821
  O         1.5689746898        8.8690649069        3.4950324251
  O         4.1294653487        4.4220889769        3.5054311334
  O        -6.1226787312       13.3020162606        3.4984450044
  O        -3.5533025659        8.8610302742        3.5074400327
  O        -1.0069086336        4.4040965144        3.4688568716
  O         6.8602544285       11.9092423237        3.5019857871
  O         9.4225790687        7.4715691038        3.5009898744
  O        11.9896619949        3.0306687713        3.5088640268
  O         1.7331496449       11.9119383162        3.5006332897
  O         4.2930673629        7.4695935983        3.5064216562
  O         6.8613592571        3.0285356976        3.5002637309
  O        -3.3931999034       11.9086573998        3.5042572280
  O        -0.8404118225        7.4904372511        3.4714330912
  O         1.7383514138        3.0261070329        3.4965236832
  O         9.4152749261       10.2461327161        3.5023340557
  O        11.9753704547        5.8020573896        3.4955465919
  O        14.5435664265        1.3684751006        3.5076699995
  O         4.2909133474       10.2435416237        3.5024976431
  O         6.8528217841        5.8046640183        3.5012008113
  O         9.4152850057        1.3635471398        3.5023852050
  O        -0.8385577371       10.2426741433        3.5120383572
  O         1.7457031744        5.8031474047        3.4702471188
  O         4.2906117868        1.3640636742        3.5005399686
 Fe         5.0935459516       11.8197697032        4.4860904519
 Fe         7.6554860130        7.3776817788        4.4883476190
 Fe        10.2207810207        2.9391444323        4.4861762519
 Fe        -0.0314884683       11.8210734272        4.4871793872
 Fe         2.5155924657        7.3767260124        4.4878255002
 Fe         5.0960079622        2.9390527492        4.4884386278
 Fe        -5.1607831199       11.8204704550        4.4865167066
 Fe        -2.5866642414        7.3648716167        4.4918248262
 Fe        -0.0269237257        2.9539344070        4.4904696589
 Fe         7.6589292062       13.2990339705        4.8213881552
 Fe        10.2231868216        8.8591830418        4.8207990425
 Fe        12.7959309696        4.4296118177        4.8251123959
 Fe         2.5326353614       13.2992334664        4.8221236699
 Fe         5.0989940061        8.8529487244        4.8272240117
 Fe         7.6569200163        4.4197070938        4.8228590620
 Fe        -2.5974190340       13.2986001972        4.8219079290
 Fe        -0.0279553947        8.8456837243        4.8231112046
 Fe         2.5171592393        4.4196645595        4.8232865982
  O         5.8646873314       10.3898250145        5.7245638379
  O         8.4313601819        5.9481665441        5.7274967553
  O        10.9916710551        1.5075651036        5.7262177988
  O         0.7364769970       10.3896325322        5.7239641485
  O         3.2968242439        5.9488236534        5.7021989501
  O         5.8657138032        1.5043080732        5.7254648026
  O        -4.3903195177       10.3884448397        5.7253863898
  O        -1.8539244782        5.9499990552        5.7282429620
  O         0.7372279184        1.5041530137        5.7239670674
  O         5.9493133637       13.2022640750        5.7272247026
  O         8.5139201359        8.7628438554        5.7246756296
  O        11.0742688595        4.3199072352        5.7232425649
  O         0.8225443684       13.2042269534        5.7276565471
  O         3.3879333433        8.7636357779        5.7269642134
  O         5.9454030973        4.3310677258        5.7128661162
  O        -4.3076518396       13.2046074872        5.7267451772
  O        -1.7429389522        8.7671055532        5.7224520465
  O         0.8355228696        4.2960227492        5.7309332318
  O         3.4681048471       11.8643275415        5.7293323403
  O         6.0267341781        7.4060127737        5.7235374095
  O         8.5966130506        2.9854026335        5.7277585822
  O        -1.6569288106       11.8666169343        5.7287352381
  O         0.9215821937        7.4536895698        5.7251555546
  O         3.4710149058        2.9833815949        5.7223499159
  O        -6.7870468015       11.8639069869        5.7286106599
  O        -4.2247434193        7.4283261042        5.7265125051
  O        -1.6603063264        2.9818050074        5.7249436897
 Fe         7.6561287420       10.3363943446        5.9863323981
 Fe        10.2249803557        5.8982630407        5.9834632148
 Fe        12.7842706241        1.4572726177        5.9833317214
 Fe         2.5285471248       10.3362769056        5.9817985641
 Fe         5.0735096319        5.8898827638        6.0587273273
 Fe         7.6571214656        1.4593025699        5.9823745759
 Fe        -2.5976242675       10.3403994687        5.9834896510
 Fe        -0.0323583850        5.9000390369        6.0060518991
 Fe         2.5289036079        1.4613270111        5.9830373279
  C        -0.2315321142        7.8343487360       10.8430949807
  C         1.2636256548        7.5803450303       10.5698181963
  H        -0.7728722054        6.9017215593       10.6177219258
  O        -0.5471285725        8.1620924474       12.1972142421
  H        -0.5939822304        8.5991226898       10.1325440700
  C         2.0965299856        8.8720812075       10.5643599293
  C         3.6320707072        8.7398179048       10.5623277667
  O         1.7491119331        9.7215517227       11.6978763913
  H         1.7999525633        9.4593742155        9.6793851480
  C         4.2732343710        8.0329934890        9.3397201992
  H         3.9400142998        8.2182747801       11.4970062553
  O         4.1742908185       10.0736626432       10.5816759580
  C         4.4749504263        6.5378632563        9.5719194813
  O         5.5944726349        8.5442238714        9.1020107217
  H         3.6378564946        8.1639787391        8.4459888465
  H         5.1152516099        6.4117124727       10.4698942008
  O         5.1159335257        5.9148744356        8.4485211702
  H         3.5219767835        6.0283064794        9.7475223119
  H        -0.2133305820        9.0691123819       12.3280213750
  H         2.0121660762        9.2319648435       12.5030257416
  H         3.5713407245       10.6043451342       11.1398027070
  H         5.5521664946        9.5023860056        9.2905941956
  H         5.9050230584        6.4667964060        8.2661515646
  O         1.4198045657        7.0266202178        9.2575190014
  H         1.6558926477        6.8916403822       11.3477331984
  H         0.9676564962        6.1637476106        9.2165011990
     161
 i =        2, E =     -8104.4881621472
 Fe         5.0938794100       11.8196869300        0.3885799900
 Fe         7.6575796300        7.3792284900        0.3885799900
 Fe        10.2212798400        2.9387700600        0.3885799900
 Fe        -0.0335205200       11.8196869300        0.3885799900
 Fe         2.5301797000        7.3792284900        0.3885799900
 Fe         5.0938799200        2.9387700600        0.3885799900
 Fe        -5.1609204400       11.8196869300        0.3885799900
 Fe        -2.5972202200        7.3792284900        0.3885799900
 Fe        -0.0335200000        2.9387700600        0.3885799900
  O         8.4519195100        8.9577468800        1.1642700400
  O        11.0156197300        4.5172884400        1.1642700400
  O        13.5793199500        0.0768300000        1.1642700400
  O         3.3245195900        8.9577468800        1.1642700400
  O         5.8882198100        4.5172884400        1.1642700400
  O         8.4519200300        0.0768300000        1.1642700400
  O        -1.8028803300        8.9577468800        1.1642700400
  O         0.7608198900        4.5172884400        1.1642700400
  O         3.3245201100        0.0768300000        1.1642700400
  O         8.4568493000       11.7183869300        1.1650400200
  O        11.0205495200        7.2779284900        1.1650400200
  O        13.5842497300        2.8374700500        1.1650400200
  O         3.3294493700       11.7183869300        1.1650400200
  O         5.8931495900        7.2779284900        1.1650400200
  O         8.4568498100        2.8374700500        1.1650400200
  O        -1.7979505500       11.7183869300        1.1650400200
  O         0.7657496700        7.2779284900        1.1650400200
  O         3.3294498900        2.8374700500        1.1650400200
  O         6.0627194200       10.3425368500        1.1660399400
  O         8.6264196400        5.9020784100        1.1660399400
  O        11.1901198600        1.4616199700        1.1660399400
  O         0.9353195000       10.3425368500        1.1660399400
  O         3.4990197200        5.9020784100        1.1660399400
  O         6.0627199400        1.4616199700        1.1660399400
  O        -4.1920804200       10.3425368500        1.1660399400
  O        -1.6283802000        5.9020784100        1.1660399400
  O         0.9353200200        1.4616199700        1.1660399400
 Fe         7.6576695000       13.2997167500        1.9292099500
 Fe        10.2213697200        8.8592583200        1.9292099500
 Fe        12.7850699400        4.4187998800        1.9292099500
 Fe         2.5302695800       13.2997167500        1.9292099500
 Fe         5.0939698000        8.8592583200        1.9292099500
 Fe         7.6576700200        4.4187998800        1.9292099500
 Fe        -2.5971303400       13.2997167500        1.9292099500
 Fe        -0.0334301200        8.8592583200        1.9292099500
 Fe         2.5302701000        4.4187998800        1.9292099500
 Fe         7.6573893600       10.3392168700        2.7128999200
 Fe        10.2210895800        5.8987584300        2.7128999200
 Fe        12.7847898000        1.4582999900        2.7128999200
 Fe         2.5299894400       10.3392168700        2.7128999200
 Fe         5.0936896600        5.8987584300        2.7128999200
 Fe         7.6573898800        1.4582999900        2.7128999200
 Fe        -2.5974104800       10.3392168700        2.7128999200
 Fe        -0.0337102600        5.8987584300        2.7128999200
 Fe         2.5299899600        1.4582999900        2.7128999200
  O         4.1356149251       13.3002695722        3.5080225179
  O         6.6996467928        8.8613167610        3.5055785116
  O         9.2555220350        4.4166888363        3.4985420270
  O        -0.9908400939       13.2981407141        3.5024180648
  O         1.5912677906        8.8821863321        3.5205096251
  O         4.1562590143        4.4234179743        3.5515679055
  O        -6.1218487145       13.2932710203        3.4951059938
  O        -3.5503397066        8.8580859979        3.5130711204
  O        -0.9956866341        4.3966813581        3.4830678207
  O         6.8560721029       11.9099715857        3.5028379457
  O         9.4148350789        7.4761955475        3.4979867113
  O        11.9821474284        3.0048210243        3.5592068733
  O         1.7309399237       11.9173839396        3.4996202777
  O         4.2887381469        7.4794426875        3.5004508146
  O         6.8601627948        3.0258538279        3.5023694630
  O        -3.3959781823       11.9085753831        3.5104423927
  O        -0.8511958443        7.4911929344        3.4772313522
  O         1.7365852877        2.9891141917        3.5387674016
  O         9.4195069607       10.2509362304        3.5012659468
  O        11.9511140730        5.8157541769        3.5265907435
  O        14.5463641841        1.3697964170        3.5115154778
  O         4.2999226695       10.2432268182        3.5019302315
  O         6.8640636163        5.8060422338        3.4884392528
  O         9.4186467304        1.3671197208        3.5041357107
  O        -0.8517672346       10.2609590450        3.5557391588
  O         1.7397543881        5.8201898136        3.4890770862
  O         4.2986449043        1.3645159870        3.4975114338
 Fe         5.0932309318       11.8159763346        4.4978370080
 Fe         7.6479046874        7.3689733599        4.5001340024
 Fe        10.2114810726        2.9412574493        4.5053583077
 Fe        -0.0255396357       11.8273294959        4.5051208930
 Fe         2.5129888919        7.3777284966        4.5113656704
 Fe         5.1025171045        2.9359560318        4.5072988578
 Fe        -5.1618954326       11.8212860141        4.4984327076
 Fe        -2.5785613110        7.3577254585        4.5168665784
 Fe        -0.0280457842        2.9609953774        4.5190973333
 Fe         7.6570843958       13.3012938774        4.8123056866
 Fe        10.2262617929        8.8601898404        4.8109215552
 Fe        12.8077134224        4.4442940983        4.8420576606
 Fe         2.5354314083       13.3000221060        4.8171632376
 Fe         5.1033530329        8.8358479356        4.8317067990
 Fe         7.6469795394        4.4272717251        4.8181918807
 Fe        -2.5988625765       13.2976784708        4.8158736001
 Fe        -0.0227449462        8.8318242870        4.8344558981
 Fe         2.5018504195        4.4224560751        4.8368987603
  O         5.8643970058       10.3803334791        5.7269906562
  O         8.4343553524        5.9433697612        5.7361232312
  O        10.9902511436        1.5018644929        5.7325235132
  O         0.7363638917       10.3944823193        5.7277422993
  O         3.2877413905        5.9481719353        5.6778234772
  O         5.8666769478        1.4942756149        5.7290607554
  O        -4.3918329867       10.3851411370        5.7298641727
  O        -1.9034535240        5.9552832821        5.7180595699
  O         0.7387107282        1.4863451314        5.7297245034
  O         5.9526993262       13.2018796608        5.7313065421
  O         8.5187966434        8.7618801984        5.7213589791
  O        11.0696162393        4.3180205403        5.7232185392
  O         0.8297086602       13.2100823674        5.7330139793
  O         3.4028422684        8.7721893242        5.7425914033
  O         5.9383980546        4.3513823380        5.6966217022
  O        -4.3066179625       13.2101669402        5.7281237530
  O        -1.7403123877        8.7728755958        5.7291464874
  O         0.8585632814        4.2506335706        5.7216636886
  O         3.4618846874       11.8643991518        5.7340375799
  O         6.0087496253        7.3686676886        5.7205794913
  O         8.5851167971        2.9930839196        5.7315180114
  O        -1.6601407377       11.8729068539        5.7366131713
  O         0.9503729815        7.5005923203        5.7028886789
  O         3.4751896131        2.9805888032        5.7198805945
  O        -6.7967015763       11.8662916530        5.7311824286
  O        -4.2395070258        7.4363306818        5.7309050794
  O        -1.6673552940        2.9817859134        5.7333613168
 Fe         7.6562014111       10.3313384355        6.0039166166
 Fe        10.2295401714        5.8975383975        5.9998500760
 Fe        12.7845537010        1.4569483365        5.9940075746
 Fe         2.5256027463       10.3328079348        5.9946537969
 Fe         5.0331257751        5.8743607542        6.2449113080
 Fe         7.6568669784        1.4615978347        5.9967557507
 Fe        -2.5971312887       10.3417574690        5.9931493973
 Fe        -0.0305493911        5.9036052341        6.0496583300
 Fe         2.5284806684        1.4677036864        5.9983460803
  C        -0.2312455758        7.8306543611       10.8382018533
  C         1.2645343061        7.5745108770       10.5714442001
  H        -0.7767385748        6.9008391685       10.6154973140
  O        -0.5445303178        8.1640457516       12.1949244189
  H        -0.5969194341        8.5971972149       10.1323582425
  C         2.0917345189        8.8711780823       10.5602768546
  C         3.6268624130        8.7394275211       10.5564845766
  O         1.7532397645        9.7220590604       11.6982351934
  H         1.7936887397        9.4579821496        9.6760570496
  C         4.2612750054        8.0301315246        9.3289907258
  H         3.9384361014        8.2142119260       11.4896314144
  O         4.1786836512       10.0692336313       10.5832872186
  C         4.4684153907        6.5356181168        9.5417630251
  O         5.5885557909        8.5372560203        9.1214246143
  H         3.6448814257        8.1768616429        8.4236142321
  H         5.1210394179        6.3982619902       10.4282707407
  O         5.1570010429        5.9580101920        8.3935363594
  H         3.5179397434        6.0230531496        9.7079444847
  H        -0.2133191500        9.0717399905       12.3251442212
  H         2.0135992909        9.2290600795       12.5017127923
  H         3.5677719855       10.6034685069       11.1300674329
  H         5.5513904616        9.5034884382        9.2730226029
  H         5.9913469551        6.5079915799        8.3451560542
  O         1.4374223142        7.0239806749        9.2650296638
  H         1.6533545272        6.8940601253       11.3599078375
  H         0.9603669657        6.1734279003        9.1907900755
     161
 i =        3, E =     -8104.4942589228
 Fe         5.0938794100       11.8196869300        0.3885799900
 Fe         7.6575796300        7.3792284900        0.3885799900
 Fe        10.2212798400        2.9387700600        0.3885799900
 Fe        -0.0335205200       11.8196869300        0.3885799900
 Fe         2.5301797000        7.3792284900        0.3885799900
 Fe         5.0938799200        2.9387700600        0.3885799900
 Fe        -5.1609204400       11.8196869300        0.3885799900
 Fe        -2.5972202200        7.3792284900        0.3885799900
 Fe        -0.0335200000        2.9387700600        0.3885799900
  O         8.4519195100        8.9577468800        1.1642700400
  O        11.0156197300        4.5172884400        1.1642700400
  O        13.5793199500        0.0768300000        1.1642700400
  O         3.3245195900        8.9577468800        1.1642700400
  O         5.8882198100        4.5172884400        1.1642700400
  O         8.4519200300        0.0768300000        1.1642700400
  O        -1.8028803300        8.9577468800        1.1642700400
  O         0.7608198900        4.5172884400        1.1642700400
  O         3.3245201100        0.0768300000        1.1642700400
  O         8.4568493000       11.7183869300        1.1650400200
  O        11.0205495200        7.2779284900        1.1650400200
  O        13.5842497300        2.8374700500        1.1650400200
  O         3.3294493700       11.7183869300        1.1650400200
  O         5.8931495900        7.2779284900        1.1650400200
  O         8.4568498100        2.8374700500        1.1650400200
  O        -1.7979505500       11.7183869300        1.1650400200
  O         0.7657496700        7.2779284900        1.1650400200
  O         3.3294498900        2.8374700500        1.1650400200
  O         6.0627194200       10.3425368500        1.1660399400
  O         8.6264196400        5.9020784100        1.1660399400
  O        11.1901198600        1.4616199700        1.1660399400
  O         0.9353195000       10.3425368500        1.1660399400
  O         3.4990197200        5.9020784100        1.1660399400
  O         6.0627199400        1.4616199700        1.1660399400
  O        -4.1920804200       10.3425368500        1.1660399400
  O        -1.6283802000        5.9020784100        1.1660399400
  O         0.9353200200        1.4616199700        1.1660399400
 Fe         7.6576695000       13.2997167500        1.9292099500
 Fe        10.2213697200        8.8592583200        1.9292099500
 Fe        12.7850699400        4.4187998800        1.9292099500
 Fe         2.5302695800       13.2997167500        1.9292099500
 Fe         5.0939698000        8.8592583200        1.9292099500
 Fe         7.6576700200        4.4187998800        1.9292099500
 Fe        -2.5971303400       13.2997167500        1.9292099500
 Fe        -0.0334301200        8.8592583200        1.9292099500
 Fe         2.5302701000        4.4187998800        1.9292099500
 Fe         7.6573893600       10.3392168700        2.7128999200
 Fe        10.2210895800        5.8987584300        2.7128999200
 Fe        12.7847898000        1.4582999900        2.7128999200
 Fe         2.5299894400       10.3392168700        2.7128999200
 Fe         5.0936896600        5.8987584300        2.7128999200
 Fe         7.6573898800        1.4582999900        2.7128999200
 Fe        -2.5974104800       10.3392168700        2.7128999200
 Fe        -0.0337102600        5.8987584300        2.7128999200
 Fe         2.5299899600        1.4582999900        2.7128999200
  O         4.1348671688       13.2991594876        3.5061437025
  O         6.6980814768        8.8618507043        3.5066157905
  O         9.2544506010        4.4190147476        3.5020617491
  O        -0.9918879179       13.3003034095        3.5024134479
  O         1.5814860911        8.8780124824        3.5090848241
  O         4.1400544808        4.4157249378        3.5182566041
  O        -6.1241398217       13.2940179690        3.4928752257
  O        -3.5570296082        8.8627221901        3.5088206408
  O        -1.0031907589        4.4049752149        3.4878886129
  O         6.8578329694       11.9110764646        3.5003842696
  O         9.4156187856        7.4761108344        3.4958651005
  O        11.9835293921        3.0143376747        3.5381431364
  O         1.7329514981       11.9185797193        3.4986837703
  O         4.2939472895        7.4851513906        3.4908771369
  O         6.8617477742        3.0226909479        3.5074281944
  O        -3.3957987761       11.9109195935        3.5074737576
  O        -0.8417583659        7.4914704493        3.4820675885
  O         1.7366274760        3.0048794997        3.5197907873
  O         9.4195845380       10.2486953395        3.4992939152
  O        11.9615291384        5.8081130413        3.5125166412
  O        14.5451815214        1.3635573146        3.5091233628
  O         4.2978060585       10.2403750924        3.5021025160
  O         6.8672711327        5.8047496608        3.4825824894
  O         9.4178194078        1.3652940469        3.5042218742
  O        -0.8448442473       10.2561764661        3.5353657132
  O         1.7378133348        5.8073101766        3.4865462411
  O         4.2989773954        1.3626873339        3.4971234913
 Fe         5.0942412259       11.8122922463        4.4902143457
 Fe         7.6452091540        7.3664620728        4.4931052599
 Fe        10.2187168495        2.9415999431        4.4954250140
 Fe        -0.0295484044       11.8210246204        4.4945640226
 Fe         2.5189671695        7.3744940173        4.4976661505
 Fe         5.0952750136        2.9487903627        4.4957328373
 Fe        -5.1627400884       11.8209381382        4.4901975409
 Fe        -2.5828063981        7.3606098029        4.5045694583
 Fe        -0.0266818502        2.9576641849        4.5080522077
 Fe         7.6559699159       13.3012127959        4.8104223870
 Fe        10.2244704469        8.8594363638        4.8089324676
 Fe        12.8006369133        4.4365947196        4.8457085583
 Fe         2.5356812713       13.3006411516        4.8160165931
 Fe         5.1002467543        8.8315869497        4.8313329198
 Fe         7.6401393443        4.4291300839        4.8192144884
 Fe        -2.5978723958       13.2983584560        4.8148252032
 Fe        -0.0258657554        8.8400178713        4.8380177101
 Fe         2.5123127486        4.4236198855        4.8382447723
  O         5.8621026468       10.3776519559        5.7291700461
  O         8.4304335205        5.9450558302        5.7375665972
  O        10.9853989464        1.5027402921        5.7390919379
  O         0.7359773518       10.4013747851        5.7351781384
  O         3.2847564772        5.9538084006        5.7025864764
  O         5.8630255203        1.5038916336        5.7265054821
  O        -4.3938227058       10.3875093220        5.7303113148
  O        -1.8973676812        5.9573866936        5.7214168869
  O         0.7338597862        1.4865019387        5.7353810041
  O         5.9496465029       13.1986106389        5.7313421883
  O         8.5145055320        8.7580273679        5.7223015186
  O        11.0643290733        4.3143612545        5.7322636056
  O         0.8264813811       13.2050409054        5.7311578444
  O         3.4020304251        8.7656374541        5.7497304537
  O         5.9365599712        4.3451244167        5.7146654658
  O        -4.3072806750       13.2061711451        5.7275308521
  O        -1.7434086787        8.7636374278        5.7385584786
  O         0.8554142085        4.2547679404        5.7266436569
  O         3.4661130148       11.8658699906        5.7336626798
  O         6.0114762353        7.3725738885        5.7275748528
  O         8.5885622932        2.9945826231        5.7296546224
  O        -1.6577274761       11.8763999389        5.7424661825
  O         0.9524968861        7.4931418660        5.7073499754
  O         3.4802700529        2.9809954522        5.7323753627
  O        -6.7935080506       11.8674873285        5.7303935144
  O        -4.2367415947        7.4394888505        5.7350671527
  O        -1.6576163515        2.9839775361        5.7428239574
 Fe         7.6564806509       10.3326841324        5.9866638081
 Fe        10.2279297873        5.8997874715        5.9816333895
 Fe        12.7834772329        1.4581462153        5.9761752511
 Fe         2.5279616823       10.3330797372        5.9784880465
 Fe         5.0362068088        5.8751471908        6.2032892772
 Fe         7.6568333213        1.4612943971        5.9822186586
 Fe        -2.5960600623       10.3415794195        5.9754888925
 Fe        -0.0297846365        5.9039486508        6.0526455885
 Fe         2.5271310894        1.4657094434        5.9803136181
  C        -0.2312274188        7.8307093906       10.8375940344
  C         1.2645635377        7.5755044964       10.5694034098
  H        -0.7771575360        6.9002628790       10.6166870711
  O        -0.5440494618        8.1624776765       12.1940749453
  H        -0.5957378457        8.5970672102       10.1308970799
  C         2.0910191878        8.8725230605       10.5618119187
  C         3.6247123944        8.7372870958       10.5562518958
  O         1.7500326550        9.7218403284       11.6988058002
  H         1.7915240755        9.4571844776        9.6765712486
  C         4.2662402383        8.0392280501        9.3268860866
  H         3.9372475601        8.2095984076       11.4869335940
  O         4.1754147208       10.0670136413       10.5797798944
  C         4.4649823561        6.5467504666        9.5501979536
  O         5.5963065445        8.5352654154        9.1167556889
  H         3.6455399806        8.1832146536        8.4233952996
  H         5.1215991440        6.3935825202       10.4282768495
  O         5.1743400251        5.9673737634        8.4147628065
  H         3.5195377590        6.0118869253        9.6869152796
  H        -0.2137533467        9.0710730150       12.3232433159
  H         2.0137125821        9.2293887821       12.5018085768
  H         3.5670754982       10.6025198166       11.1278511955
  H         5.5490816337        9.5002478772        9.2699882253
  H         5.9964340096        6.5089308260        8.3370566397
  O         1.4398379578        7.0225205006        9.2627890896
  H         1.6513009250        6.8956094391       11.3596595292
  H         0.9569683403        6.1764588146        9.1929295690
     161
 i =        4, E =     -8104.4942180658
 Fe         5.0938794100       11.8196869300        0.3885799900
 Fe         7.6575796300        7.3792284900        0.3885799900
 Fe        10.2212798400        2.9387700600        0.3885799900
 Fe        -0.0335205200       11.8196869300        0.3885799900
 Fe         2.5301797000        7.3792284900        0.3885799900
 Fe         5.0938799200        2.9387700600        0.3885799900
 Fe        -5.1609204400       11.8196869300        0.3885799900
 Fe        -2.5972202200        7.3792284900        0.3885799900
 Fe        -0.0335200000        2.9387700600        0.3885799900
  O         8.4519195100        8.9577468800        1.1642700400
  O        11.0156197300        4.5172884400        1.1642700400
  O        13.5793199500        0.0768300000        1.1642700400
  O         3.3245195900        8.9577468800        1.1642700400
  O         5.8882198100        4.5172884400        1.1642700400
  O         8.4519200300        0.0768300000        1.1642700400
  O        -1.8028803300        8.9577468800        1.1642700400
  O         0.7608198900        4.5172884400        1.1642700400
  O         3.3245201100        0.0768300000        1.1642700400
  O         8.4568493000       11.7183869300        1.1650400200
  O        11.0205495200        7.2779284900        1.1650400200
  O        13.5842497300        2.8374700500        1.1650400200
  O         3.3294493700       11.7183869300        1.1650400200
  O         5.8931495900        7.2779284900        1.1650400200
  O         8.4568498100        2.8374700500        1.1650400200
  O        -1.7979505500       11.7183869300        1.1650400200
  O         0.7657496700        7.2779284900        1.1650400200
  O         3.3294498900        2.8374700500        1.1650400200
  O         6.0627194200       10.3425368500        1.1660399400
  O         8.6264196400        5.9020784100        1.1660399400
  O        11.1901198600        1.4616199700        1.1660399400
  O         0.9353195000       10.3425368500        1.1660399400
  O         3.4990197200        5.9020784100        1.1660399400
  O         6.0627199400        1.4616199700        1.1660399400
  O        -4.1920804200       10.3425368500        1.1660399400
  O        -1.6283802000        5.9020784100        1.1660399400
  O         0.9353200200        1.4616199700        1.1660399400
 Fe         7.6576695000       13.2997167500        1.9292099500
 Fe        10.2213697200        8.8592583200        1.9292099500
 Fe        12.7850699400        4.4187998800        1.9292099500
 Fe         2.5302695800       13.2997167500        1.9292099500
 Fe         5.0939698000        8.8592583200        1.9292099500
 Fe         7.6576700200        4.4187998800        1.9292099500
 Fe        -2.5971303400       13.2997167500        1.9292099500
 Fe        -0.0334301200        8.8592583200        1.9292099500
 Fe         2.5302701000        4.4187998800        1.9292099500
 Fe         7.6573893600       10.3392168700        2.7128999200
 Fe        10.2210895800        5.8987584300        2.7128999200
 Fe        12.7847898000        1.4582999900        2.7128999200
 Fe         2.5299894400       10.3392168700        2.7128999200
 Fe         5.0936896600        5.8987584300        2.7128999200
 Fe         7.6573898800        1.4582999900        2.7128999200
 Fe        -2.5974104800       10.3392168700        2.7128999200
 Fe        -0.0337102600        5.8987584300        2.7128999200
 Fe         2.5299899600        1.4582999900        2.7128999200
  O         4.1348671688       13.2991594876        3.5061437025
  O         6.6980814768        8.8618507043        3.5066157905
  O         9.2544506010        4.4190147476        3.5020617491
  O        -0.9918879179       13.3003034095        3.5024134479
  O         1.5814860911        8.8780124824        3.5090848241
  O         4.1400544808        4.4157249378        3.5182566041
  O        -6.1241398217       13.2940179690        3.4928752257
  O        -3.5570296082        8.8627221901        3.5088206408
  O        -1.0031907589        4.4049752149        3.4878886129
  O         6.8578329694       11.9110764646        3.5003842696
  O         9.4156187856        7.4761108344        3.4958651005
  O        11.9835293921        3.0143376747        3.5381431364
  O         1.7329514981       11.9185797193        3.4986837703
  O         4.2939472895        7.4851513906        3.4908771369
  O         6.8617477742        3.0226909479        3.5074281944
  O        -3.3957987761       11.9109195935        3.5074737576
  O        -0.8417583659        7.4914704493        3.4820675885
  O         1.7366274760        3.0048794997        3.5197907873
  O         9.4195845380       10.2486953395        3.4992939152
  O        11.9615291384        5.8081130413        3.5125166412
  O        14.5451815214        1.3635573146        3.5091233628
  O         4.2978060585       10.2403750924        3.5021025160
  O         6.8672711327        5.8047496608        3.4825824894
  O         9.4178194078        1.3652940469        3.5042218742
  O        -0.8448442473       10.2561764661        3.5353657132
  O         1.7378133348        5.8073101766        3.4865462411
  O         4.2989773954        1.3626873339        3.4971234913
 Fe         5.0942412259       11.8122922463        4.4902143457
 Fe         7.6452091540        7.3664620728        4.4931052599
 Fe        10.2187168495        2.9415999431        4.4954250140
 Fe        -0.0295484044       11.8210246204        4.4945640226
 Fe         2.5189671695        7.3744940173        4.4976661505
 Fe         5.0952750136        2.9487903627        4.4957328373
 Fe        -5.1627400884       11.8209381382        4.4901975409
 Fe        -2.5828063981        7.3606098029        4.5045694583
 Fe        -0.0266818502        2.9576641849        4.5080522077
 Fe         7.6559699159       13.3012127959        4.8104223870
 Fe        10.2244704469        8.8594363638        4.8089324676
 Fe        12.8006369133        4.4365947196        4.8457085583
 Fe         2.5356812713       13.3006411516        4.8160165931
 Fe         5.1002467543        8.8315869497        4.8313329198
 Fe         7.6401393443        4.4291300839        4.8192144884
 Fe        -2.5978723958       13.2983584560        4.8148252032
 Fe        -0.0258657554        8.8400178713        4.8380177101
 Fe         2.5123127486        4.4236198855        4.8382447723
  O         5.8621026468       10.3776519559        5.7291700461
  O         8.4304335205        5.9450558302        5.7375665972
  O        10.9853989464        1.5027402921        5.7390919379
  O         0.7359773518       10.4013747851        5.7351781384
  O         3.2847564772        5.9538084006        5.7025864764
  O         5.8630255203        1.5038916336        5.7265054821
  O        -4.3938227058       10.3875093220        5.7303113148
  O        -1.8973676812        5.9573866936        5.7214168869
  O         0.7338597862        1.4865019387        5.7353810041
  O         5.9496465029       13.1986106389        5.7313421883
  O         8.5145055320        8.7580273679        5.7223015186
  O        11.0643290733        4.3143612545        5.7322636056
  O         0.8264813811       13.2050409054        5.7311578444
  O         3.4020304251        8.7656374541        5.7497304537
  O         5.9365599712        4.3451244167        5.7146654658
  O        -4.3072806750       13.2061711451        5.7275308521
  O        -1.7434086787        8.7636374278        5.7385584786
  O         0.8554142085        4.2547679404        5.7266436569
  O         3.4661130148       11.8658699906        5.7336626798
  O         6.0114762353        7.3725738885        5.7275748528
  O         8.5885622932        2.9945826231        5.7296546224
  O        -1.6577274761       11.8763999389        5.7424661825
  O         0.9524968861        7.4931418660        5.7073499754
  O         3.4802700529        2.9809954522        5.7323753627
  O        -6.7935080506       11.8674873285        5.7303935144
  O        -4.2367415947        7.4394888505        5.7350671527
  O        -1.6576163515        2.9839775361        5.7428239574
 Fe         7.6564806509       10.3326841324        5.9866638081
 Fe        10.2279297873        5.8997874715        5.9816333895
 Fe        12.7834772329        1.4581462153        5.9761752511
 Fe         2.5279616823       10.3330797372        5.9784880465
 Fe         5.0362068088        5.8751471908        6.2032892772
 Fe         7.6568333213        1.4612943971        5.9822186586
 Fe        -2.5960600623       10.3415794195        5.9754888925
 Fe        -0.0297846365        5.9039486508        6.0526455885
 Fe         2.5271310894        1.4657094434        5.9803136181
  C        -0.2312274188        7.8307093906       10.8375940344
  C         1.2645635377        7.5755044964       10.5694034098
  H        -0.7771575360        6.9002628790       10.6166870711
  O        -0.5440494618        8.1624776765       12.1940749453
  H        -0.5957378457        8.5970672102       10.1308970799
  C         2.0910191878        8.8725230605       10.5618119187
  C         3.6247123944        8.7372870958       10.5562518958
  O         1.7500326550        9.7218403284       11.6988058002
  H         1.7915240755        9.4571844776        9.6765712486
  C         4.2662402383        8.0392280501        9.3268860866
  H         3.9372475601        8.2095984076       11.4869335940
  O         4.1754147208       10.0670136413       10.5797798944
  C         4.4649823561        6.5467504666        9.5501979536
  O         5.5963065445        8.5352654154        9.1167556889
  H         3.6455399806        8.1832146536        8.4233952996
  H         5.1215991440        6.3935825202       10.4282768495
  O         5.1743400251        5.9673737634        8.4147628065
  H         3.5195377590        6.0118869253        9.6869152796
  H        -0.2137533467        9.0710730150       12.3232433159
  H         2.0137125821        9.2293887821       12.5018085768
  H         3.5670754982       10.6025198166       11.1278511955
  H         5.5490816337        9.5002478772        9.2699882253
  H         5.9964340096        6.5089308260        8.3370566397
  O         1.4398379578        7.0225205006        9.2627890896
  H         1.6513009250        6.8956094391       11.3596595292
  H         0.9569683403        6.1764588146        9.1929295690
