     161
 i =        1, E =     -8104.4630739392
 Fe         5.0938794100       11.8196869300        0.3885799900
 Fe         7.6575796300        7.3792284900        0.3885799900
 Fe        10.2212798400        2.9387700600        0.3885799900
 Fe        -0.0335205200       11.8196869300        0.3885799900
 Fe         2.5301797000        7.3792284900        0.3885799900
 Fe         5.0938799200        2.9387700600        0.3885799900
 Fe        -5.1609204400       11.8196869300        0.3885799900
 Fe        -2.5972202200        7.3792284900        0.3885799900
 Fe        -0.0335200000        2.9387700600        0.3885799900
  O         8.4519195100        8.9577468800        1.1642700400
  O        11.0156197300        4.5172884400        1.1642700400
  O        13.5793199500        0.0768300000        1.1642700400
  O         3.3245195900        8.9577468800        1.1642700400
  O         5.8882198100        4.5172884400        1.1642700400
  O         8.4519200300        0.0768300000        1.1642700400
  O        -1.8028803300        8.9577468800        1.1642700400
  O         0.7608198900        4.5172884400        1.1642700400
  O         3.3245201100        0.0768300000        1.1642700400
  O         8.4568493000       11.7183869300        1.1650400200
  O        11.0205495200        7.2779284900        1.1650400200
  O        13.5842497300        2.8374700500        1.1650400200
  O         3.3294493700       11.7183869300        1.1650400200
  O         5.8931495900        7.2779284900        1.1650400200
  O         8.4568498100        2.8374700500        1.1650400200
  O        -1.7979505500       11.7183869300        1.1650400200
  O         0.7657496700        7.2779284900        1.1650400200
  O         3.3294498900        2.8374700500        1.1650400200
  O         6.0627194200       10.3425368500        1.1660399400
  O         8.6264196400        5.9020784100        1.1660399400
  O        11.1901198600        1.4616199700        1.1660399400
  O         0.9353195000       10.3425368500        1.1660399400
  O         3.4990197200        5.9020784100        1.1660399400
  O         6.0627199400        1.4616199700        1.1660399400
  O        -4.1920804200       10.3425368500        1.1660399400
  O        -1.6283802000        5.9020784100        1.1660399400
  O         0.9353200200        1.4616199700        1.1660399400
 Fe         7.6576695000       13.2997167500        1.9292099500
 Fe        10.2213697200        8.8592583200        1.9292099500
 Fe        12.7850699400        4.4187998800        1.9292099500
 Fe         2.5302695800       13.2997167500        1.9292099500
 Fe         5.0939698000        8.8592583200        1.9292099500
 Fe         7.6576700200        4.4187998800        1.9292099500
 Fe        -2.5971303400       13.2997167500        1.9292099500
 Fe        -0.0334301200        8.8592583200        1.9292099500
 Fe         2.5302701000        4.4187998800        1.9292099500
 Fe         7.6573893600       10.3392168700        2.7128999200
 Fe        10.2210895800        5.8987584300        2.7128999200
 Fe        12.7847898000        1.4582999900        2.7128999200
 Fe         2.5299894400       10.3392168700        2.7128999200
 Fe         5.0936896600        5.8987584300        2.7128999200
 Fe         7.6573898800        1.4582999900        2.7128999200
 Fe        -2.5974104800       10.3392168700        2.7128999200
 Fe        -0.0337102600        5.8987584300        2.7128999200
 Fe         2.5299899600        1.4582999900        2.7128999200
  O         4.1303791373       13.3071479109        3.4975336933
  O         6.7112630604        8.8601771759        3.4889986826
  O         9.2628837475        4.4232632077        3.4981019094
  O        -0.9952433444       13.3036427973        3.4983338844
  O         1.5691975032        8.8681391347        3.5022903661
  O         4.1310865730        4.4212510533        3.4953672223
  O        -6.1220266047       13.3035896979        3.4996202652
  O        -3.5571515647        8.8635207129        3.4990784542
  O        -0.9945414352        4.4233494463        3.4998756074
  O         6.8613618028       11.9108453310        3.4999210390
  O         9.4550187224        7.4811259400        3.4811857093
  O        11.9883546357        3.0288341526        3.5009057195
  O         1.7336854708       11.9088928837        3.5030201372
  O         4.2873046743        7.4669940239        3.4883919879
  O         6.8611202824        3.0288292708        3.4994168766
  O        -3.3941445528       11.9096488042        3.5015475740
  O        -0.8307378232        7.4694765518        3.5007710229
  O         1.7333739893        3.0272002641        3.5006818855
  O         9.4169752834       10.2455945678        3.4993694969
  O        11.9805252565        5.8048595383        3.5009304379
  O        14.5435582082        1.3637106911        3.5013832655
  O         4.2789457064       10.2569109919        3.4970065363
  O         6.8560786127        5.8015603348        3.4924024429
  O         9.4165124183        1.3639245595        3.5004274738
  O        -0.8386633235       10.2452571299        3.5020285199
  O         1.7241560469        5.8053721392        3.5015543709
  O         4.2877125401        1.3621111667        3.4995749268
 Fe         5.0912337752       11.8274663231        4.4768397922
 Fe         7.6980509413        7.3749181169        4.4478462326
 Fe        10.2216876544        2.9392631718        4.4861257646
 Fe        -0.0339956736       11.8211032724        4.4860185498
 Fe         2.5301500507        7.3857443229        4.4829716739
 Fe         5.0925323550        2.9358592937        4.4829583310
 Fe        -5.1622501550       11.8188985606        4.4880096688
 Fe        -2.5970550324        7.3792352923        4.4870496699
 Fe        -0.0321474457        2.9381846016        4.4858635338
 Fe         7.6600372763       13.2972191323        4.8245311491
 Fe        10.2230455944        8.8572211899        4.8217469849
 Fe        12.7862415808        4.4179050619        4.8226528604
 Fe         2.5319130708       13.3000335517        4.8221501415
 Fe         5.0992176558        8.8668633675        4.7659135382
 Fe         7.6638403099        4.4194359919        4.8201415610
 Fe        -2.5963107445       13.2997347785        4.8222614856
 Fe        -0.0323857996        8.8575580869        4.8206757176
 Fe         2.5297106824        4.4133771303        4.8206338781
  O         5.8577719842       10.3941607568        5.6901333856
  O         8.4286183230        5.9526321749        5.7246126780
  O        10.9936285355        1.5077786409        5.7266463719
  O         0.7353086646       10.3875520395        5.7315195662
  O         3.2633628835        5.9563271493        5.7148408455
  O         5.8661337543        1.5064585669        5.7259990974
  O        -4.3899352729       10.3859078162        5.7245690195
  O        -1.8249723614        5.9481727207        5.7287478843
  O         0.7379178079        1.5078703729        5.7277780671
  O         5.9464387347       13.2017949907        5.7261706798
  O         8.5106073095        8.7633590775        5.7188507133
  O        11.0760850341        4.3231870668        5.7279173032
  O         0.8218111477       13.2034741793        5.7279928899
  O         3.4155214406        8.7680470983        5.7436259775
  O         5.9601694540        4.2960257473        5.7189560380
  O        -4.3064155410       13.2024625561        5.7277552291
  O        -1.7402542747        8.7638121324        5.7296764812
  O         0.8194988951        4.3214543377        5.7302607346
  O         3.4697410647       11.8647376173        5.7329017852
  O         5.9981522452        7.3419938924        5.5434401957
  O         8.5987629541        2.9830612347        5.7285495048
  O        -1.6581672962       11.8651182860        5.7302119871
  O         0.9082051204        7.4281383458        5.7327464766
  O         3.4694529793        2.9823397677        5.7285839607
  O        -6.7928984773       11.8540737451        5.7296718387
  O        -4.2207205312        7.4238641046        5.7304730426
  O        -1.6568152206        2.9845398005        5.7304125553
 Fe         7.6445247432       10.3294531099        6.0020161410
 Fe        10.2189652550        5.8985414314        5.9822367631
 Fe        12.7854689147        1.4578160003        5.9776817620
 Fe         2.5280998456       10.3389564354        5.9711956038
 Fe         5.0544010091        5.8456206806        5.9256582686
 Fe         7.6572457381        1.4589993107        5.9827046020
 Fe        -2.5991802924       10.3390083093        5.9746313063
 Fe        -0.0320270122        5.8996151609        5.9730408516
 Fe         2.5303943762        1.4574214155        5.9805607014
  C         5.6313774755        8.2513713690        8.9487646486
  C         4.6446908949        7.0984414637        9.1446868925
  H         5.2708163841        9.2045252970        9.3654364913
  O         5.8173978220        8.4874645280        7.5495730588
  H         6.6522612706        7.9776358655        9.2581903173
  C         4.5293435430        6.7603741002       10.6306570987
  C         3.7616991546        7.8207069500       11.4539764800
  O         5.8357783062        6.6082262138       11.1949632995
  H         3.9757830898        5.8023024865       10.6918314042
  C         2.2932402587        8.1028189654       11.0737286997
  H         4.3026907978        8.7791257423       11.4024700473
  O         3.8312111519        7.4204788648       12.8394344670
  C         1.4530704261        6.8425943002       10.8376966034
  O         2.2783201523        8.9299112146        9.8955359747
  H         1.8692972564        8.6537520094       11.9333638944
  H         0.4131073138        7.1367495678       10.6060809236
  O         1.4965622630        6.0514578707       12.0455752426
  H         1.8539667874        6.2863849886        9.9747803992
  H         4.9652730517        8.7677981176        7.1325638414
  H         5.6819988080        6.6294232362       12.1610168346
  H         3.1671261824        6.7041371464       12.9416538632
  H         1.4060445871        9.3575060785        9.8346606669
  H         1.1333501948        5.1704555065       11.8518276267
  O         5.0673019940        5.8921113549        8.4749831550
  H         3.6551459440        7.3861022735        8.7454551802
  H         5.5815794563        6.2478588994        7.6977664800
     161
 i =        2, E =     -8104.4735824616
 Fe         5.0938794100       11.8196869300        0.3885799900
 Fe         7.6575796300        7.3792284900        0.3885799900
 Fe        10.2212798400        2.9387700600        0.3885799900
 Fe        -0.0335205200       11.8196869300        0.3885799900
 Fe         2.5301797000        7.3792284900        0.3885799900
 Fe         5.0938799200        2.9387700600        0.3885799900
 Fe        -5.1609204400       11.8196869300        0.3885799900
 Fe        -2.5972202200        7.3792284900        0.3885799900
 Fe        -0.0335200000        2.9387700600        0.3885799900
  O         8.4519195100        8.9577468800        1.1642700400
  O        11.0156197300        4.5172884400        1.1642700400
  O        13.5793199500        0.0768300000        1.1642700400
  O         3.3245195900        8.9577468800        1.1642700400
  O         5.8882198100        4.5172884400        1.1642700400
  O         8.4519200300        0.0768300000        1.1642700400
  O        -1.8028803300        8.9577468800        1.1642700400
  O         0.7608198900        4.5172884400        1.1642700400
  O         3.3245201100        0.0768300000        1.1642700400
  O         8.4568493000       11.7183869300        1.1650400200
  O        11.0205495200        7.2779284900        1.1650400200
  O        13.5842497300        2.8374700500        1.1650400200
  O         3.3294493700       11.7183869300        1.1650400200
  O         5.8931495900        7.2779284900        1.1650400200
  O         8.4568498100        2.8374700500        1.1650400200
  O        -1.7979505500       11.7183869300        1.1650400200
  O         0.7657496700        7.2779284900        1.1650400200
  O         3.3294498900        2.8374700500        1.1650400200
  O         6.0627194200       10.3425368500        1.1660399400
  O         8.6264196400        5.9020784100        1.1660399400
  O        11.1901198600        1.4616199700        1.1660399400
  O         0.9353195000       10.3425368500        1.1660399400
  O         3.4990197200        5.9020784100        1.1660399400
  O         6.0627199400        1.4616199700        1.1660399400
  O        -4.1920804200       10.3425368500        1.1660399400
  O        -1.6283802000        5.9020784100        1.1660399400
  O         0.9353200200        1.4616199700        1.1660399400
 Fe         7.6576695000       13.2997167500        1.9292099500
 Fe        10.2213697200        8.8592583200        1.9292099500
 Fe        12.7850699400        4.4187998800        1.9292099500
 Fe         2.5302695800       13.2997167500        1.9292099500
 Fe         5.0939698000        8.8592583200        1.9292099500
 Fe         7.6576700200        4.4187998800        1.9292099500
 Fe        -2.5971303400       13.2997167500        1.9292099500
 Fe        -0.0334301200        8.8592583200        1.9292099500
 Fe         2.5302701000        4.4187998800        1.9292099500
 Fe         7.6573893600       10.3392168700        2.7128999200
 Fe        10.2210895800        5.8987584300        2.7128999200
 Fe        12.7847898000        1.4582999900        2.7128999200
 Fe         2.5299894400       10.3392168700        2.7128999200
 Fe         5.0936896600        5.8987584300        2.7128999200
 Fe         7.6573898800        1.4582999900        2.7128999200
 Fe        -2.5974104800       10.3392168700        2.7128999200
 Fe        -0.0337102600        5.8987584300        2.7128999200
 Fe         2.5299899600        1.4582999900        2.7128999200
  O         4.1290320127       13.3066275822        3.4960064632
  O         6.7418497858        8.8743041835        3.5139873999
  O         9.2693230687        4.4253533189        3.5058904244
  O        -0.9938090385       13.3015053050        3.4990613968
  O         1.5749123980        8.8689712428        3.5107471768
  O         4.1352168595        4.4217405816        3.5053140985
  O        -6.1217910052       13.3043333454        3.5014817197
  O        -3.5191762791        8.8779210969        3.5557878106
  O        -0.9926646573        4.4217419290        3.5013466768
  O         6.8580696730       11.9171099325        3.4906080533
  O         9.4444909198        7.4431752419        3.5388257786
  O        11.9895135652        3.0288317262        3.5023541491
  O         1.7325901313       11.9076078406        3.5063282803
  O         4.2564449897        7.4483234081        3.5014460174
  O         6.8626024968        3.0245703868        3.4998948904
  O        -3.3953037723       11.9081588525        3.5033055701
  O        -0.8296439062        7.4702129643        3.5016663484
  O         1.7304642255        3.0246552116        3.5011262904
  O         9.3923868403       10.2668362410        3.5473018823
  O        11.9829413776        5.8038940672        3.4994365686
  O        14.5449997064        1.3636770780        3.5022478530
  O         4.2528361380       10.2732412426        3.5468805483
  O         6.8745942405        5.7829387093        3.4556525203
  O         9.4183530337        1.3647852803        3.4993053259
  O        -0.8373419294       10.2470492222        3.5018651002
  O         1.7227805027        5.8073095233        3.4970694134
  O         4.2891107928        1.3626628404        3.4982065648
 Fe         5.0959521856       11.8470344838        4.4870487237
 Fe         7.6784423478        7.3529514914        4.4439212372
 Fe        10.2235636217        2.9378628318        4.4912719825
 Fe        -0.0349739227       11.8215079101        4.4921023405
 Fe         2.5167503136        7.3849125547        4.4997452080
 Fe         5.0967646979        2.9278295793        4.4889491649
 Fe        -5.1613204570       11.8289452200        4.5014491650
 Fe        -2.5894024063        7.3662822738        4.5004993272
 Fe        -0.0328637453        2.9357015710        4.4919431712
 Fe         7.6624753036       13.2924568946        4.8244124724
 Fe        10.2253974649        8.8615040649        4.8401782313
 Fe        12.7865487641        4.4177061126        4.8202152930
 Fe         2.5303702507       13.3022162956        4.8201427718
 Fe         5.1138419335        8.8565367129        4.7501200442
 Fe         7.6638980239        4.4187695856        4.8158371642
 Fe        -2.5971105387       13.2980841943        4.8187819783
 Fe        -0.0352883026        8.8602712979        4.8161460054
 Fe         2.5195557248        4.4093773280        4.8138499552
  O         5.8539566107       10.4041659862        5.6528802105
  O         8.4355243559        5.9499519415        5.7188432774
  O        10.9942691134        1.5052958771        5.7301047574
  O         0.7362089190       10.3841810513        5.7394101409
  O         3.2297787177        5.9559515439        5.7039058541
  O         5.8677405613        1.4963062730        5.7294287145
  O        -4.3879151817       10.3920752157        5.7329932627
  O        -1.8209670668        5.9406932968        5.7366728019
  O         0.7387635324        1.5038259838        5.7319444659
  O         5.9523251448       13.2099637185        5.7350355675
  O         8.5020046881        8.7549698416        5.7013966044
  O        11.0783819924        4.3239178827        5.7296737488
  O         0.8216573012       13.2053289788        5.7307039160
  O         3.4430298076        8.7722915869        5.7670565048
  O         5.9654804733        4.2791122390        5.7092252965
  O        -4.3037595279       13.2062813800        5.7335785911
  O        -1.7383500844        8.7642254851        5.7350404676
  O         0.8148455564        4.3200857660        5.7351191497
  O         3.4645390926       11.8667239293        5.7387104645
  O         5.9712660371        7.2698926410        5.4396852785
  O         8.6004737535        2.9836739056        5.7293216941
  O        -1.6593897110       11.8662026490        5.7355415379
  O         0.8989152094        7.4376772694        5.7441466142
  O         3.4659925179        2.9845875090        5.7259569231
  O        -6.8051460542       11.8389304412        5.7331465005
  O        -4.2195011326        7.4217002017        5.7342971179
  O        -1.6588220930        2.9866804125        5.7346666724
 Fe         7.6311473266       10.3127560327        6.0262740189
 Fe        10.2219091939        5.8971834246        5.9960244117
 Fe        12.7846274345        1.4607401114        5.9886649311
 Fe         2.5283754066       10.3386937643        5.9790692831
 Fe         5.0164923913        5.8039455485        5.8812934676
 Fe         7.6577178796        1.4617856424        5.9923048684
 Fe        -2.5984867710       10.3393352835        5.9832386152
 Fe        -0.0291208415        5.9007700955        5.9795571661
 Fe         2.5312090669        1.4591763405        5.9900104628
  C         5.6276491714        8.2747280670        8.9562947570
  C         4.6457611211        7.1257977908        9.1824069542
  H         5.2673639593        9.1770180908        9.4696492271
  O         5.8518247838        8.5519879761        7.5888020587
  H         6.6148712010        7.9864501599        9.3326751715
  C         4.5036965182        6.7502586440       10.6509584117
  C         3.7536068276        7.8217195781       11.4706096961
  O         5.8211717708        6.6012721071       11.1921459559
  H         3.9695976029        5.7833312496       10.7084918208
  C         2.2917465029        8.1063749146       11.0701558145
  H         4.3030272361        8.7740036064       11.3982409144
  O         3.8316088435        7.4218420023       12.8556217740
  C         1.4529208326        6.8448304525       10.8354900417
  O         2.2806909952        8.9344547792        9.8941076990
  H         1.8701876496        8.6515648046       11.9344907827
  H         0.4127838863        7.1368810576       10.6041605704
  O         1.4938793089        6.0519766103       12.0439092171
  H         1.8527386232        6.2851738163        9.9744108745
  H         4.9589345467        8.7646897693        7.1961062076
  H         5.6833900034        6.6283781007       12.1603017246
  H         3.1660704107        6.7040794483       12.9369992087
  H         1.4046231917        9.3540897728        9.8278541379
  H         1.1340776881        5.1696710584       11.8495156774
  O         5.0654717992        5.9365629833        8.4610181868
  H         3.6647972881        7.3925328946        8.7497029022
  H         5.7347082020        6.3019967043        7.7672091255
     161
 i =        3, E =     -8104.4736313740
 Fe         5.0938794100       11.8196869300        0.3885799900
 Fe         7.6575796300        7.3792284900        0.3885799900
 Fe        10.2212798400        2.9387700600        0.3885799900
 Fe        -0.0335205200       11.8196869300        0.3885799900
 Fe         2.5301797000        7.3792284900        0.3885799900
 Fe         5.0938799200        2.9387700600        0.3885799900
 Fe        -5.1609204400       11.8196869300        0.3885799900
 Fe        -2.5972202200        7.3792284900        0.3885799900
 Fe        -0.0335200000        2.9387700600        0.3885799900
  O         8.4519195100        8.9577468800        1.1642700400
  O        11.0156197300        4.5172884400        1.1642700400
  O        13.5793199500        0.0768300000        1.1642700400
  O         3.3245195900        8.9577468800        1.1642700400
  O         5.8882198100        4.5172884400        1.1642700400
  O         8.4519200300        0.0768300000        1.1642700400
  O        -1.8028803300        8.9577468800        1.1642700400
  O         0.7608198900        4.5172884400        1.1642700400
  O         3.3245201100        0.0768300000        1.1642700400
  O         8.4568493000       11.7183869300        1.1650400200
  O        11.0205495200        7.2779284900        1.1650400200
  O        13.5842497300        2.8374700500        1.1650400200
  O         3.3294493700       11.7183869300        1.1650400200
  O         5.8931495900        7.2779284900        1.1650400200
  O         8.4568498100        2.8374700500        1.1650400200
  O        -1.7979505500       11.7183869300        1.1650400200
  O         0.7657496700        7.2779284900        1.1650400200
  O         3.3294498900        2.8374700500        1.1650400200
  O         6.0627194200       10.3425368500        1.1660399400
  O         8.6264196400        5.9020784100        1.1660399400
  O        11.1901198600        1.4616199700        1.1660399400
  O         0.9353195000       10.3425368500        1.1660399400
  O         3.4990197200        5.9020784100        1.1660399400
  O         6.0627199400        1.4616199700        1.1660399400
  O        -4.1920804200       10.3425368500        1.1660399400
  O        -1.6283802000        5.9020784100        1.1660399400
  O         0.9353200200        1.4616199700        1.1660399400
 Fe         7.6576695000       13.2997167500        1.9292099500
 Fe        10.2213697200        8.8592583200        1.9292099500
 Fe        12.7850699400        4.4187998800        1.9292099500
 Fe         2.5302695800       13.2997167500        1.9292099500
 Fe         5.0939698000        8.8592583200        1.9292099500
 Fe         7.6576700200        4.4187998800        1.9292099500
 Fe        -2.5971303400       13.2997167500        1.9292099500
 Fe        -0.0334301200        8.8592583200        1.9292099500
 Fe         2.5302701000        4.4187998800        1.9292099500
 Fe         7.6573893600       10.3392168700        2.7128999200
 Fe        10.2210895800        5.8987584300        2.7128999200
 Fe        12.7847898000        1.4582999900        2.7128999200
 Fe         2.5299894400       10.3392168700        2.7128999200
 Fe         5.0936896600        5.8987584300        2.7128999200
 Fe         7.6573898800        1.4582999900        2.7128999200
 Fe        -2.5974104800       10.3392168700        2.7128999200
 Fe        -0.0337102600        5.8987584300        2.7128999200
 Fe         2.5299899600        1.4582999900        2.7128999200
  O         4.1283874339       13.3061664453        3.4976104203
  O         6.7430486456        8.8792493176        3.5041258927
  O         9.3323420577        4.4491659442        3.6046912302
  O        -0.9940516753       13.2991793772        3.4982445971
  O         1.5787129208        8.8700916886        3.5205887541
  O         4.1405654930        4.4271269226        3.5200625401
  O        -6.1214573698       13.3074412766        3.5074458436
  O        -3.5071513752        8.8879195320        3.5831400059
  O        -0.9913299749        4.4215976509        3.5030875760
  O         6.8521258104       11.9283622516        3.4766881256
  O         9.4309438111        7.4299900795        3.5643976128
  O        11.9935268485        3.0296598565        3.5013646163
  O         1.7327506617       11.9067338568        3.5083544320
  O         4.2255257564        7.4562008916        3.4736415279
  O         6.8600086431        2.9560223730        3.5949585783
  O        -3.3968577958       11.9073901581        3.5048934305
  O        -0.8247740176        7.4718983573        3.5035631020
  O         1.7264760001        3.0234644937        3.4980907622
  O         9.3904943501       10.2698618015        3.5574525264
  O        11.9873314752        5.8025411751        3.4974607163
  O        14.5442672255        1.3612516203        3.5051616439
  O         4.2484732944       10.2714226309        3.5590501156
  O         6.8461189104        5.7953402045        3.5107663243
  O         9.4193498804        1.3623466898        3.4971882995
  O        -0.8324471818       10.2487877754        3.4973200433
  O         1.7161838971        5.8051078358        3.4925053885
  O         4.2893483474        1.3580806112        3.4959476742
 Fe         5.0958681235       11.8519885852        4.4925246609
 Fe         7.6617402053        7.3615800986        4.4529914892
 Fe        10.2402806728        2.9157765820        4.5066960245
 Fe        -0.0345395677       11.8220166186        4.4932112805
 Fe         2.5134987916        7.3815418531        4.5026930899
 Fe         5.0790300608        2.9143921763        4.5051721092
 Fe        -5.1678524078       11.8258702999        4.5033261440
 Fe        -2.5876470812        7.3647422204        4.5017789916
 Fe        -0.0353573444        2.9315145791        4.4925239634
 Fe         7.6637650304       13.2858283895        4.8261205416
 Fe        10.2257731306        8.8670465156        4.8657456522
 Fe        12.7871602156        4.4171717660        4.8170182200
 Fe         2.5260145232       13.3021524092        4.8167415776
 Fe         5.1259953902        8.8395567274        4.7414473209
 Fe         7.6638842808        4.4146218442        4.8506319916
 Fe        -2.5985126367       13.2939625717        4.8149472103
 Fe        -0.0394182166        8.8655948395        4.8134864568
 Fe         2.5043775952        4.4063995045        4.8020548533
  O         5.8545525289       10.4092874720        5.6241167761
  O         8.4357585590        5.9558592229        5.7215253485
  O        10.9975623368        1.4929686519        5.7399355751
  O         0.7408163818       10.3837541576        5.7471918429
  O         3.1962536171        5.9531867837        5.6994961296
  O         5.8672890885        1.4852662084        5.7330318905
  O        -4.3876337665       10.4030704686        5.7533837523
  O        -1.8191099953        5.9397808222        5.7395780420
  O         0.7398517486        1.5010851047        5.7356889175
  O         5.9530449210       13.2137137092        5.7397133407
  O         8.4959782550        8.7480820704        5.7072355342
  O        11.0811973988        4.3226795222        5.7328292286
  O         0.8193056746       13.2057903379        5.7334758246
  O         3.4660157103        8.7658545814        5.8015190893
  O         5.9553497337        4.2669236856        5.7049644769
  O        -4.3072490731       13.2041041768        5.7338829854
  O        -1.7351167633        8.7586667750        5.7475594424
  O         0.8076544367        4.3157858163        5.7389162861
  O         3.4595833727       11.8756139774        5.7500971619
  O         5.9558556910        7.2144839105        5.3949030753
  O         8.6126341499        2.9763603348        5.7351875156
  O        -1.6571183091       11.8673250444        5.7402236455
  O         0.8959458608        7.4458554104        5.7506778738
  O         3.4537783264        2.9922317924        5.7289037990
  O        -6.8161355869       11.8270017540        5.7412218384
  O        -4.2134821923        7.4191879005        5.7477419756
  O        -1.6580571393        2.9898393755        5.7394680088
 Fe         7.6208276840       10.2981734629        6.0546665469
 Fe        10.2218889080        5.8955976521        5.9937969501
 Fe        12.7867567897        1.4641849148        5.9932938454
 Fe         2.5356938367       10.3374742850        5.9762171582
 Fe         4.9772092427        5.7742577062        5.8667800591
 Fe         7.6571067441        1.4632342879        5.9932968776
 Fe        -2.5948482356       10.3375124627        5.9805841098
 Fe        -0.0263352836        5.9024131973        5.9836338755
 Fe         2.5325975900        1.4596554896        5.9918833964
  C         5.6321024832        8.2937996953        8.9875915578
  C         4.6400953162        7.1428094696        9.1806436174
  H         5.2649234140        9.1527075165        9.5811787249
  O         5.8543175577        8.6006854914        7.6421427638
  H         6.5887397497        7.9953617399        9.4298237445
  C         4.4949271078        6.7554094151       10.6421906562
  C         3.7489075320        7.8111834214       11.4779394198
  O         5.8041225862        6.5863866504       11.1981160441
  H         3.9661770269        5.7853869753       10.7231848046
  C         2.2898263337        8.1080472080       11.0762131734
  H         4.3011194700        8.7617516329       11.3989925590
  O         3.8172654753        7.4303622138       12.8684501319
  C         1.4514659068        6.8475100567       10.8320872688
  O         2.2839247755        8.9354535803        9.9008121071
  H         1.8638874074        8.6538813727       11.9370028265
  H         0.4114927526        7.1377180667       10.6006723182
  O         1.4930116793        6.0541979248       12.0416671191
  H         1.8516752380        6.2847642082        9.9732585147
  H         4.9602093850        8.7773964913        7.2336404208
  H         5.6855927757        6.6260774269       12.1683662059
  H         3.1638479338        6.7009307136       12.9427794322
  H         1.4052371796        9.3484743524        9.8195338321
  H         1.1357028261        5.1710132965       11.8459367687
  O         5.1290725559        5.9770751782        8.4430008588
  H         3.6585303576        7.4181122827        8.7657306701
  H         5.8833199458        6.3559296312        7.8317492914
     161
 i =        4, E =     -8104.4868936214
 Fe         5.0938794100       11.8196869300        0.3885799900
 Fe         7.6575796300        7.3792284900        0.3885799900
 Fe        10.2212798400        2.9387700600        0.3885799900
 Fe        -0.0335205200       11.8196869300        0.3885799900
 Fe         2.5301797000        7.3792284900        0.3885799900
 Fe         5.0938799200        2.9387700600        0.3885799900
 Fe        -5.1609204400       11.8196869300        0.3885799900
 Fe        -2.5972202200        7.3792284900        0.3885799900
 Fe        -0.0335200000        2.9387700600        0.3885799900
  O         8.4519195100        8.9577468800        1.1642700400
  O        11.0156197300        4.5172884400        1.1642700400
  O        13.5793199500        0.0768300000        1.1642700400
  O         3.3245195900        8.9577468800        1.1642700400
  O         5.8882198100        4.5172884400        1.1642700400
  O         8.4519200300        0.0768300000        1.1642700400
  O        -1.8028803300        8.9577468800        1.1642700400
  O         0.7608198900        4.5172884400        1.1642700400
  O         3.3245201100        0.0768300000        1.1642700400
  O         8.4568493000       11.7183869300        1.1650400200
  O        11.0205495200        7.2779284900        1.1650400200
  O        13.5842497300        2.8374700500        1.1650400200
  O         3.3294493700       11.7183869300        1.1650400200
  O         5.8931495900        7.2779284900        1.1650400200
  O         8.4568498100        2.8374700500        1.1650400200
  O        -1.7979505500       11.7183869300        1.1650400200
  O         0.7657496700        7.2779284900        1.1650400200
  O         3.3294498900        2.8374700500        1.1650400200
  O         6.0627194200       10.3425368500        1.1660399400
  O         8.6264196400        5.9020784100        1.1660399400
  O        11.1901198600        1.4616199700        1.1660399400
  O         0.9353195000       10.3425368500        1.1660399400
  O         3.4990197200        5.9020784100        1.1660399400
  O         6.0627199400        1.4616199700        1.1660399400
  O        -4.1920804200       10.3425368500        1.1660399400
  O        -1.6283802000        5.9020784100        1.1660399400
  O         0.9353200200        1.4616199700        1.1660399400
 Fe         7.6576695000       13.2997167500        1.9292099500
 Fe        10.2213697200        8.8592583200        1.9292099500
 Fe        12.7850699400        4.4187998800        1.9292099500
 Fe         2.5302695800       13.2997167500        1.9292099500
 Fe         5.0939698000        8.8592583200        1.9292099500
 Fe         7.6576700200        4.4187998800        1.9292099500
 Fe        -2.5971303400       13.2997167500        1.9292099500
 Fe        -0.0334301200        8.8592583200        1.9292099500
 Fe         2.5302701000        4.4187998800        1.9292099500
 Fe         7.6573893600       10.3392168700        2.7128999200
 Fe        10.2210895800        5.8987584300        2.7128999200
 Fe        12.7847898000        1.4582999900        2.7128999200
 Fe         2.5299894400       10.3392168700        2.7128999200
 Fe         5.0936896600        5.8987584300        2.7128999200
 Fe         7.6573898800        1.4582999900        2.7128999200
 Fe        -2.5974104800       10.3392168700        2.7128999200
 Fe        -0.0337102600        5.8987584300        2.7128999200
 Fe         2.5299899600        1.4582999900        2.7128999200
  O         4.1284256566       13.3063670065        3.5006323428
  O         6.7193635118        8.8654077614        3.4798712006
  O         9.3209204960        4.4420085846        3.5859180582
  O        -0.9960377946       13.2947253524        3.4931797803
  O         1.5759659894        8.8726229816        3.5222043979
  O         4.1413741448        4.4304722653        3.5257203287
  O        -6.1192196795       13.3088856305        3.5141487318
  O        -3.5282440138        8.8816889228        3.5574160257
  O        -0.9914832411        4.4222592392        3.5020978124
  O         6.8522426518       11.9313914174        3.4751437637
  O         9.4247737959        7.4499566088        3.5374361587
  O        11.9968606072        3.0284306349        3.5027798136
  O         1.7319644721       11.9088774969        3.5045736728
  O         4.2256371161        7.4781318599        3.4414772248
  O         6.8661391560        2.9647132073        3.5804822945
  O        -3.3974885713       11.9070168914        3.5046955495
  O        -0.8210160841        7.4740766086        3.5036054062
  O         1.7252891862        3.0264722345        3.4933702485
  O         9.4092643289       10.2547332798        3.5264834161
  O        11.9929227550        5.8056449719        3.4941636463
  O        14.5408057294        1.3610960549        3.5094232862
  O         4.2636346465       10.2555511028        3.5270121762
  O         6.8696967088        5.7713942174        3.4771359372
  O         9.4224859005        1.3616492127        3.4974371661
  O        -0.8297364966       10.2470111774        3.4949661823
  O         1.7141629746        5.8005178190        3.4884484489
  O         4.2871109223        1.3542339915        3.4982748389
 Fe         5.0921037415       11.8367793242        4.4863029165
 Fe         7.6505706871        7.3525460681        4.4563513191
 Fe        10.2376642072        2.9264384081        4.5005112676
 Fe        -0.0333891262       11.8221014459        4.4889898883
 Fe         2.5203055327        7.3805281849        4.4891867242
 Fe         5.0907692150        2.9104760170        4.4971448285
 Fe        -5.1738890372       11.8129360913        4.4949693372
 Fe        -2.5917786224        7.3751938954        4.4939438007
 Fe        -0.0382429877        2.9299236697        4.4882227598
 Fe         7.6614226618       13.2829485278        4.8291965633
 Fe        10.2205346169        8.8663357928        4.8726929132
 Fe        12.7877632334        4.4180423348        4.8162487029
 Fe         2.5244597231       13.2992400421        4.8184316300
 Fe         5.1177471201        8.8347107082        4.7481335786
 Fe         7.6656115517        4.4086616508        4.8685439862
 Fe        -2.5983222925       13.2894012799        4.8150185112
 Fe        -0.0397862480        8.8679280268        4.8160356105
 Fe         2.4979997526        4.4059818378        4.8000754313
  O         5.8602903957       10.4019664962        5.6315377271
  O         8.4243148080        5.9546944648        5.7484775803
  O        10.9962956574        1.4982875683        5.7348579599
  O         0.7452014920       10.3868523725        5.7459126680
  O         3.1949944061        5.9530867034        5.7067006246
  O         5.8560163683        1.4809068649        5.7434242490
  O        -4.3927082795       10.4052045744        5.7666662150
  O        -1.8203962096        5.9458559549        5.7351248237
  O         0.7381617242        1.5014562283        5.7358310618
  O         5.9470680161       13.2065864089        5.7370186763
  O         8.4865492843        8.7407638703        5.7218132338
  O        11.0900052266        4.3169242192        5.7463728011
  O         0.8163316842       13.2046310420        5.7332846235
  O         3.4617098615        8.7547255981        5.8170356724
  O         5.9459717926        4.2696683882        5.7203491960
  O        -4.3138558463       13.1995490376        5.7296197609
  O        -1.7325782122        8.7552697422        5.7546397291
  O         0.8019755490        4.3120715198        5.7384668768
  O         3.4626184489       11.8789213810        5.7552526788
  O         5.9599479594        7.2407223752        5.4589446171
  O         8.6226666759        2.9712586175        5.7540054785
  O        -1.6538182378       11.8640662859        5.7393940070
  O         0.9014825035        7.4445546969        5.7461503499
  O         3.4587129778        2.9923217790        5.7247180722
  O        -6.8171489778       11.8280901285        5.7462596361
  O        -4.2098456469        7.4202576238        5.7585704802
  O        -1.6566037320        2.9893070190        5.7410657656
 Fe         7.6228280363       10.2977362637        6.0678568581
 Fe        10.2199732040        5.8917219344        5.9699233678
 Fe        12.7870607426        1.4626035895        5.9874545369
 Fe         2.5424990009       10.3353640815        5.9686712650
 Fe         4.9771266074        5.7861244733        5.8886078779
 Fe         7.6505297642        1.4621743013        5.9788657119
 Fe        -2.5950319795       10.3346243408        5.9734671927
 Fe        -0.0266335234        5.9036109334        5.9810886819
 Fe         2.5319395817        1.4598011089        5.9863860447
  C         5.6289902451        8.2982658719        9.0275829982
  C         4.6465516741        7.1286952894        9.1671748506
  H         5.2616590235        9.1679422372        9.5947954195
  O         5.8358853072        8.6126971015        7.6770932942
  H         6.5949888545        7.9943900142        9.4477696330
  C         4.5072481015        6.7581160600       10.6369954188
  C         3.7489742000        7.8110520639       11.4672362344
  O         5.8118632341        6.5818545706       11.2035456887
  H         3.9592881319        5.7970310345       10.7125151348
  C         2.2847461584        8.1064802317       11.0816201695
  H         4.3014477776        8.7620091837       11.4067940777
  O         3.8064370264        7.4293985396       12.8576663999
  C         1.4477541284        6.8464529516       10.8323637489
  O         2.2870744200        8.9347191229        9.9065906576
  H         1.8573357121        8.6564033084       11.9389054040
  H         0.4091248201        7.1387362451       10.5981560601
  O         1.4935242886        6.0540537295       12.0422313989
  H         1.8521411854        6.2876888484        9.9726027063
  H         4.9726719397        8.7941661890        7.2216519232
  H         5.6795961372        6.6251843391       12.1710641868
  H         3.1606078371        6.6968485934       12.9564562839
  H         1.4075512652        9.3443411886        9.8166114031
  H         1.1361655679        5.1715442528       11.8441627411
  O         5.2032314570        5.9824313640        8.4391709289
  H         3.6624577740        7.4247784574        8.7691586292
  H         5.8821138625        6.3651238600        7.8359217277
     161
 i =        5, E =     -8104.4944007113
 Fe         5.0938794100       11.8196869300        0.3885799900
 Fe         7.6575796300        7.3792284900        0.3885799900
 Fe        10.2212798400        2.9387700600        0.3885799900
 Fe        -0.0335205200       11.8196869300        0.3885799900
 Fe         2.5301797000        7.3792284900        0.3885799900
 Fe         5.0938799200        2.9387700600        0.3885799900
 Fe        -5.1609204400       11.8196869300        0.3885799900
 Fe        -2.5972202200        7.3792284900        0.3885799900
 Fe        -0.0335200000        2.9387700600        0.3885799900
  O         8.4519195100        8.9577468800        1.1642700400
  O        11.0156197300        4.5172884400        1.1642700400
  O        13.5793199500        0.0768300000        1.1642700400
  O         3.3245195900        8.9577468800        1.1642700400
  O         5.8882198100        4.5172884400        1.1642700400
  O         8.4519200300        0.0768300000        1.1642700400
  O        -1.8028803300        8.9577468800        1.1642700400
  O         0.7608198900        4.5172884400        1.1642700400
  O         3.3245201100        0.0768300000        1.1642700400
  O         8.4568493000       11.7183869300        1.1650400200
  O        11.0205495200        7.2779284900        1.1650400200
  O        13.5842497300        2.8374700500        1.1650400200
  O         3.3294493700       11.7183869300        1.1650400200
  O         5.8931495900        7.2779284900        1.1650400200
  O         8.4568498100        2.8374700500        1.1650400200
  O        -1.7979505500       11.7183869300        1.1650400200
  O         0.7657496700        7.2779284900        1.1650400200
  O         3.3294498900        2.8374700500        1.1650400200
  O         6.0627194200       10.3425368500        1.1660399400
  O         8.6264196400        5.9020784100        1.1660399400
  O        11.1901198600        1.4616199700        1.1660399400
  O         0.9353195000       10.3425368500        1.1660399400
  O         3.4990197200        5.9020784100        1.1660399400
  O         6.0627199400        1.4616199700        1.1660399400
  O        -4.1920804200       10.3425368500        1.1660399400
  O        -1.6283802000        5.9020784100        1.1660399400
  O         0.9353200200        1.4616199700        1.1660399400
 Fe         7.6576695000       13.2997167500        1.9292099500
 Fe        10.2213697200        8.8592583200        1.9292099500
 Fe        12.7850699400        4.4187998800        1.9292099500
 Fe         2.5302695800       13.2997167500        1.9292099500
 Fe         5.0939698000        8.8592583200        1.9292099500
 Fe         7.6576700200        4.4187998800        1.9292099500
 Fe        -2.5971303400       13.2997167500        1.9292099500
 Fe        -0.0334301200        8.8592583200        1.9292099500
 Fe         2.5302701000        4.4187998800        1.9292099500
 Fe         7.6573893600       10.3392168700        2.7128999200
 Fe        10.2210895800        5.8987584300        2.7128999200
 Fe        12.7847898000        1.4582999900        2.7128999200
 Fe         2.5299894400       10.3392168700        2.7128999200
 Fe         5.0936896600        5.8987584300        2.7128999200
 Fe         7.6573898800        1.4582999900        2.7128999200
 Fe        -2.5974104800       10.3392168700        2.7128999200
 Fe        -0.0337102600        5.8987584300        2.7128999200
 Fe         2.5299899600        1.4582999900        2.7128999200
  O         4.1293223878       13.3055783571        3.5028574532
  O         6.7234654512        8.8583363190        3.5090572215
  O         9.3059041279        4.4312251426        3.5569702869
  O        -0.9970031895       13.2915868460        3.4937671207
  O         1.5740753905        8.8770918196        3.5240060751
  O         4.1430061504        4.4370204540        3.5301014902
  O        -6.1178916668       13.3081791899        3.5194248244
  O        -3.5611065449        8.8695475675        3.5120881619
  O        -0.9899457411        4.4227412587        3.5024258102
  O         6.8584770479       11.9341246938        3.4741171509
  O         9.4294414085        7.4809298527        3.4868026074
  O        11.9995640962        3.0272472165        3.5065441283
  O         1.7329881814       11.9099405272        3.5037823872
  O         4.2337947294        7.4583463913        3.4812995963
  O         6.8721923753        2.9760753726        3.5585421893
  O        -3.3991245580       11.9015040692        3.5091272150
  O        -0.8187823238        7.4768647658        3.5039600382
  O         1.7232494217        3.0296791216        3.4892778494
  O         9.4359124449       10.2324362494        3.4791593763
  O        11.9941480959        5.8105397518        3.4985760371
  O        14.5385638151        1.3609410287        3.5118933748
  O         4.2514101049       10.2589534719        3.5434314836
  O         6.8904978935        5.7476496337        3.4480055145
  O         9.4235563897        1.3604683734        3.5007163091
  O        -0.8309789541       10.2429257985        3.4988424705
  O         1.7129163081        5.7944529329        3.4851959951
  O         4.2851801224        1.3532146796        3.5029144885
 Fe         5.0977306663       11.8319983774        4.4869293703
 Fe         7.6631380623        7.3316781114        4.4673985986
 Fe        10.2323355226        2.9387176870        4.4945049133
 Fe        -0.0311582059       11.8213581758        4.4864045874
 Fe         2.5110563811        7.3790933608        4.4854513489
 Fe         5.1041886902        2.9103431233        4.4892368970
 Fe        -5.1831658736       11.7959826093        4.4862303641
 Fe        -2.5988600488        7.3908269588        4.4860841377
 Fe        -0.0434909835        2.9262604491        4.4869498404
 Fe         7.6583385076       13.2786895690        4.8336567912
 Fe        10.2095186174        8.8607637623        4.8642280212
 Fe        12.7903988568        4.4199072323        4.8176517158
 Fe         2.5251053557       13.2962536917        4.8218803448
 Fe         5.1040864959        8.8329372619        4.7792854701
 Fe         7.6668313686        4.4009471120        4.8791174778
 Fe        -2.6009987095       13.2818177121        4.8173770440
 Fe        -0.0384408862        8.8699192798        4.8196297734
 Fe         2.4931982142        4.4039477333        4.7983850703
  O         5.8678768176       10.3947670110        5.6421652477
  O         8.4095480706        5.9410984650        5.7844653960
  O        10.9958487762        1.5051420926        5.7270517895
  O         0.7512587406       10.3899288590        5.7416918082
  O         3.2000623606        5.9528252977        5.7137040631
  O         5.8442641718        1.4757201103        5.7514480729
  O        -4.4026095324       10.3954359441        5.7716130647
  O        -1.8208720569        5.9553217284        5.7270853190
  O         0.7360326006        1.4994031348        5.7349746859
  O         5.9443416515       13.2012456177        5.7391913300
  O         8.4784841824        8.7376272655        5.7372771528
  O        11.0993889076        4.3147290326        5.7573458995
  O         0.8129624053       13.2057365403        5.7293326256
  O         3.4510112063        8.7429250964        5.8328098096
  O         5.9402927684        4.2790854999        5.7360246641
  O        -4.3230855136       13.1929619107        5.7247723599
  O        -1.7300828344        8.7571928051        5.7576697340
  O         0.7974098708        4.3091547157        5.7349752191
  O         3.4669702368       11.8768986421        5.7539356171
  O         5.9655750412        7.2638802364        5.5252621845
  O         8.6257890989        2.9692797363        5.7729874191
  O        -1.6516713229       11.8562244289        5.7359090324
  O         0.9001376255        7.4421375477        5.7440547016
  O         3.4625958386        2.9891946855        5.7196551516
  O        -6.8218078720       11.8243428072        5.7475009840
  O        -4.2152931593        7.4215789456        5.7605975025
  O        -1.6566058230        2.9873195827        5.7420889171
 Fe         7.6222960798       10.2964161625        6.0869349874
 Fe        10.2152672513        5.8873875499        5.9550737048
 Fe        12.7868420299        1.4602008788        5.9814606915
 Fe         2.5486184895       10.3316362434        5.9656521431
 Fe         4.9781771500        5.7966503393        5.9674494140
 Fe         7.6428850996        1.4611341788        5.9718161027
 Fe        -2.6009270857       10.3316524211        5.9713349280
 Fe        -0.0283851216        5.9032089267        5.9796067477
 Fe         2.5301040079        1.4574387642        5.9818328042
  C         5.6215848006        8.3194628237        9.0673851693
  C         4.6785188909        7.1194149347        9.1702899722
  H         5.2480508016        9.1935380088        9.6184732506
  O         5.8495528655        8.6628051154        7.7147111106
  H         6.5981215043        7.9984836623        9.4588272740
  C         4.5114673792        6.7468732432       10.6420477094
  C         3.7486119117        7.8097755554       11.4657922929
  O         5.8171429101        6.5801744183       11.2111606714
  H         3.9450344134        5.7959473456       10.6982816721
  C         2.2840158609        8.1066007110       11.0801882352
  H         4.2973199100        8.7630033864       11.4174943049
  O         3.8057908968        7.4221731845       12.8543855204
  C         1.4445623504        6.8484348038       10.8345068307
  O         2.2892884195        8.9374053479        9.9070573320
  H         1.8527599615        8.6540071250       11.9385601060
  H         0.4056939656        7.1377527789       10.5960464735
  O         1.4893655564        6.0517871330       12.0409515449
  H         1.8516656023        6.2934526101        9.9731976407
  H         4.9900736624        8.8101307777        7.2363494277
  H         5.6693056553        6.6235126994       12.1756343656
  H         3.1553164909        6.6955081939       12.9650357862
  H         1.4076277745        9.3397870931        9.8097033339
  H         1.1351911999        5.1684582551       11.8424013160
  O         5.2080399142        5.9872069201        8.4081465877
  H         3.6914370789        7.4031871932        8.7580667253
  H         5.9424054224        6.4069286264        7.8794819952
     161
 i =        6, E =     -8104.5003515656
 Fe         5.0938794100       11.8196869300        0.3885799900
 Fe         7.6575796300        7.3792284900        0.3885799900
 Fe        10.2212798400        2.9387700600        0.3885799900
 Fe        -0.0335205200       11.8196869300        0.3885799900
 Fe         2.5301797000        7.3792284900        0.3885799900
 Fe         5.0938799200        2.9387700600        0.3885799900
 Fe        -5.1609204400       11.8196869300        0.3885799900
 Fe        -2.5972202200        7.3792284900        0.3885799900
 Fe        -0.0335200000        2.9387700600        0.3885799900
  O         8.4519195100        8.9577468800        1.1642700400
  O        11.0156197300        4.5172884400        1.1642700400
  O        13.5793199500        0.0768300000        1.1642700400
  O         3.3245195900        8.9577468800        1.1642700400
  O         5.8882198100        4.5172884400        1.1642700400
  O         8.4519200300        0.0768300000        1.1642700400
  O        -1.8028803300        8.9577468800        1.1642700400
  O         0.7608198900        4.5172884400        1.1642700400
  O         3.3245201100        0.0768300000        1.1642700400
  O         8.4568493000       11.7183869300        1.1650400200
  O        11.0205495200        7.2779284900        1.1650400200
  O        13.5842497300        2.8374700500        1.1650400200
  O         3.3294493700       11.7183869300        1.1650400200
  O         5.8931495900        7.2779284900        1.1650400200
  O         8.4568498100        2.8374700500        1.1650400200
  O        -1.7979505500       11.7183869300        1.1650400200
  O         0.7657496700        7.2779284900        1.1650400200
  O         3.3294498900        2.8374700500        1.1650400200
  O         6.0627194200       10.3425368500        1.1660399400
  O         8.6264196400        5.9020784100        1.1660399400
  O        11.1901198600        1.4616199700        1.1660399400
  O         0.9353195000       10.3425368500        1.1660399400
  O         3.4990197200        5.9020784100        1.1660399400
  O         6.0627199400        1.4616199700        1.1660399400
  O        -4.1920804200       10.3425368500        1.1660399400
  O        -1.6283802000        5.9020784100        1.1660399400
  O         0.9353200200        1.4616199700        1.1660399400
 Fe         7.6576695000       13.2997167500        1.9292099500
 Fe        10.2213697200        8.8592583200        1.9292099500
 Fe        12.7850699400        4.4187998800        1.9292099500
 Fe         2.5302695800       13.2997167500        1.9292099500
 Fe         5.0939698000        8.8592583200        1.9292099500
 Fe         7.6576700200        4.4187998800        1.9292099500
 Fe        -2.5971303400       13.2997167500        1.9292099500
 Fe        -0.0334301200        8.8592583200        1.9292099500
 Fe         2.5302701000        4.4187998800        1.9292099500
 Fe         7.6573893600       10.3392168700        2.7128999200
 Fe        10.2210895800        5.8987584300        2.7128999200
 Fe        12.7847898000        1.4582999900        2.7128999200
 Fe         2.5299894400       10.3392168700        2.7128999200
 Fe         5.0936896600        5.8987584300        2.7128999200
 Fe         7.6573898800        1.4582999900        2.7128999200
 Fe        -2.5974104800       10.3392168700        2.7128999200
 Fe        -0.0337102600        5.8987584300        2.7128999200
 Fe         2.5299899600        1.4582999900        2.7128999200
  O         4.1309589742       13.3030613237        3.5025073719
  O         6.7043880500        8.8458723059        3.4924426503
  O         9.2961482082        4.4245128624        3.5390690811
  O        -0.9998107090       13.2909059630        3.4967191103
  O         1.5799190384        8.8749041396        3.5297129656
  O         4.1452255270        4.4379168206        3.5250592648
  O        -6.1188022438       13.3028604566        3.5185363751
  O        -3.5714372770        8.8636702024        3.4960711334
  O        -0.9899449156        4.4215692819        3.5002817711
  O         6.8647234214       11.9357988007        3.4749980401
  O         9.4286861930        7.4808586700        3.4786402816
  O        12.0006089962        3.0301635546        3.5071542759
  O         1.7329137956       11.9116323360        3.5034774844
  O         4.2432467806        7.4656729259        3.4781571121
  O         6.8732247831        2.9840885606        3.5387379209
  O        -3.4005533310       11.8939750642        3.5133847039
  O        -0.8191385976        7.4809349667        3.5034578480
  O         1.7227280340        3.0300242280        3.4901620234
  O         9.4441693421       10.2254015788        3.4650059559
  O        11.9899896034        5.8125343343        3.5057146065
  O        14.5381983555        1.3599783366        3.5138719450
  O         4.2567981775       10.2448166479        3.5296363901
  O         6.9054818983        5.7324929336        3.4305287601
  O         9.4228349829        1.3590930274        3.5030295286
  O        -0.8336372449       10.2390939203        3.5048804542
  O         1.7118509360        5.7932520098        3.4870476705
  O         4.2880562148        1.3551451843        3.5024283329
 Fe         5.0973320174       11.8206601975        4.4821409300
 Fe         7.6537751185        7.3296744823        4.4776914090
 Fe        10.2289650321        2.9433723813        4.4921884474
 Fe        -0.0297870313       11.8218142027        4.4876284751
 Fe         2.5189499254        7.3752407934        4.4880438381
 Fe         5.1106743135        2.9132648123        4.4890040943
 Fe        -5.1881242642       11.7909633157        4.4872284613
 Fe        -2.6022551858        7.3949235784        4.4862238050
 Fe        -0.0495799072        2.9225957530        4.4894115652
 Fe         7.6567623509       13.2722825415        4.8422087144
 Fe        10.1978850431        8.8546478447        4.8493286957
 Fe        12.7942690245        4.4233189408        4.8187503452
 Fe         2.5275136643       13.2949790327        4.8250674305
 Fe         5.1001594171        8.8240941389        4.7883644757
 Fe         7.6618486048        4.3955272546        4.8759536935
 Fe        -2.6070804879       13.2738114586        4.8185315895
 Fe        -0.0367323909        8.8709643584        4.8243771577
 Fe         2.4929775519        4.4000758100        4.7952805043
  O         5.8692846985       10.3850879161        5.6434671785
  O         8.4013074264        5.9320942785        5.7933651997
  O        10.9974232943        1.5085849535        5.7244351233
  O         0.7574871747       10.3921103349        5.7387667221
  O         3.2007058698        5.9466126473        5.7222366116
  O         5.8385520760        1.4689382465        5.7536239407
  O        -4.4127984911       10.3798933233        5.7646965754
  O        -1.8194660107        5.9606927402        5.7251521488
  O         0.7340815395        1.4966928325        5.7356057926
  O         5.9392411344       13.1927116519        5.7407233759
  O         8.4783944867        8.7350236285        5.7445073613
  O        11.1056751925        4.3159440424        5.7605855471
  O         0.8110457794       13.2082822012        5.7253507726
  O         3.4593381271        8.7409875891        5.8495981581
  O         5.9390952667        4.2908055796        5.7414436758
  O        -4.3277991971       13.1873254606        5.7268146680
  O        -1.7344170723        8.7638002207        5.7537472837
  O         0.7959861282        4.3084705984        5.7314688939
  O         3.4695523623       11.8747325331        5.7543202874
  O         5.9596604240        7.2660237395        5.5674292273
  O         8.6190343632        2.9722040702        5.7795323715
  O        -1.6527458674       11.8485021596        5.7333193360
  O         0.9020194497        7.4389806429        5.7397213183
  O         3.4605295943        2.9840971258        5.7186305755
  O        -6.8323216348       11.8054037052        5.7427398462
  O        -4.2270582155        7.4243233026        5.7520065995
  O        -1.6585816864        2.9867164882        5.7437288181
 Fe         7.6129225338       10.2833950547        6.1153352803
 Fe        10.2128678829        5.8843887399        5.9488595370
 Fe        12.7877230399        1.4574597778        5.9816857576
 Fe         2.5543783885       10.3278142644        5.9652590503
 Fe         4.9691339975        5.7963307507        6.0648269228
 Fe         7.6385782727        1.4604885286        5.9770311483
 Fe        -2.6110872238       10.3321397347        5.9785146362
 Fe        -0.0291281977        5.9032125170        5.9805511293
 Fe         2.5282241764        1.4520527051        5.9803445501
  C         5.6268255187        8.3377303197        9.0942561499
  C         4.6858845362        7.1452527034        9.1823422303
  H         5.2298734908        9.1874900853        9.6768267060
  O         5.8864153287        8.7454420414        7.7530722460
  H         6.5993995368        8.0252450515        9.5017030707
  C         4.5064650477        6.7337012960       10.6475339741
  C         3.7434465938        7.8023779142       11.4762726965
  O         5.8081893675        6.5667969519       11.2263686613
  H         3.9373629203        5.7844858857       10.6924985805
  C         2.2832453794        8.1060192447       11.0769223980
  H         4.2907931151        8.7559752982       11.4259293568
  O         3.8117009623        7.4129564158       12.8636689283
  C         1.4421707192        6.8492737975       10.8331997362
  O         2.2917233812        8.9391822007        9.9061084325
  H         1.8523341106        8.6510271945       11.9382493250
  H         0.4024146430        7.1373073513       10.5951388629
  O         1.4829201552        6.0508364051       12.0382702702
  H         1.8503232774        6.2973203408        9.9709051203
  H         5.0087823722        8.8327669744        7.2835871316
  H         5.6612617256        6.6192775276       12.1905676812
  H         3.1480805089        6.6968340078       12.9650869960
  H         1.4073570703        9.3329378262        9.7982403222
  H         1.1337573792        5.1658521631       11.8384075638
  O         5.2395095355        6.0446074680        8.3820025028
  H         3.7009845772        7.3839214820        8.7363884628
  H         6.0617129100        6.4575181499        7.9419800324
     161
 i =        7, E =     -8104.4921445892
 Fe         5.0938794100       11.8196869300        0.3885799900
 Fe         7.6575796300        7.3792284900        0.3885799900
 Fe        10.2212798400        2.9387700600        0.3885799900
 Fe        -0.0335205200       11.8196869300        0.3885799900
 Fe         2.5301797000        7.3792284900        0.3885799900
 Fe         5.0938799200        2.9387700600        0.3885799900
 Fe        -5.1609204400       11.8196869300        0.3885799900
 Fe        -2.5972202200        7.3792284900        0.3885799900
 Fe        -0.0335200000        2.9387700600        0.3885799900
  O         8.4519195100        8.9577468800        1.1642700400
  O        11.0156197300        4.5172884400        1.1642700400
  O        13.5793199500        0.0768300000        1.1642700400
  O         3.3245195900        8.9577468800        1.1642700400
  O         5.8882198100        4.5172884400        1.1642700400
  O         8.4519200300        0.0768300000        1.1642700400
  O        -1.8028803300        8.9577468800        1.1642700400
  O         0.7608198900        4.5172884400        1.1642700400
  O         3.3245201100        0.0768300000        1.1642700400
  O         8.4568493000       11.7183869300        1.1650400200
  O        11.0205495200        7.2779284900        1.1650400200
  O        13.5842497300        2.8374700500        1.1650400200
  O         3.3294493700       11.7183869300        1.1650400200
  O         5.8931495900        7.2779284900        1.1650400200
  O         8.4568498100        2.8374700500        1.1650400200
  O        -1.7979505500       11.7183869300        1.1650400200
  O         0.7657496700        7.2779284900        1.1650400200
  O         3.3294498900        2.8374700500        1.1650400200
  O         6.0627194200       10.3425368500        1.1660399400
  O         8.6264196400        5.9020784100        1.1660399400
  O        11.1901198600        1.4616199700        1.1660399400
  O         0.9353195000       10.3425368500        1.1660399400
  O         3.4990197200        5.9020784100        1.1660399400
  O         6.0627199400        1.4616199700        1.1660399400
  O        -4.1920804200       10.3425368500        1.1660399400
  O        -1.6283802000        5.9020784100        1.1660399400
  O         0.9353200200        1.4616199700        1.1660399400
 Fe         7.6576695000       13.2997167500        1.9292099500
 Fe        10.2213697200        8.8592583200        1.9292099500
 Fe        12.7850699400        4.4187998800        1.9292099500
 Fe         2.5302695800       13.2997167500        1.9292099500
 Fe         5.0939698000        8.8592583200        1.9292099500
 Fe         7.6576700200        4.4187998800        1.9292099500
 Fe        -2.5971303400       13.2997167500        1.9292099500
 Fe        -0.0334301200        8.8592583200        1.9292099500
 Fe         2.5302701000        4.4187998800        1.9292099500
 Fe         7.6573893600       10.3392168700        2.7128999200
 Fe        10.2210895800        5.8987584300        2.7128999200
 Fe        12.7847898000        1.4582999900        2.7128999200
 Fe         2.5299894400       10.3392168700        2.7128999200
 Fe         5.0936896600        5.8987584300        2.7128999200
 Fe         7.6573898800        1.4582999900        2.7128999200
 Fe        -2.5974104800       10.3392168700        2.7128999200
 Fe        -0.0337102600        5.8987584300        2.7128999200
 Fe         2.5299899600        1.4582999900        2.7128999200
  O         4.1347419477       13.2968021193        3.5009981540
  O         6.6688950619        8.8218158926        3.4577034994
  O         9.2823099783        4.4129248872        3.5125908071
  O        -1.0053406921       13.2911498063        3.5042815106
  O         1.5950975354        8.8693605224        3.5436669060
  O         4.1482599981        4.4380005635        3.5109379542
  O        -6.1217166257       13.2930473186        3.5160140962
  O        -3.5477182969        8.8708803169        3.5368987582
  O        -0.9905830915        4.4191471805        3.4965064755
  O         6.8762611601       11.9381268325        3.4763696522
  O         9.4218355291        7.4298587024        3.5393727531
  O        12.0027586519        3.0361461015        3.5086541134
  O         1.7328920453       11.9143208029        3.5046885454
  O         4.2607127327        7.4771863540        3.4732847034
  O         6.8723528841        2.9945933814        3.5074338436
  O        -3.4033193477       11.8790183294        3.5217091330
  O        -0.8193629564        7.4889633202        3.5020050885
  O         1.7227420356        3.0294978328        3.4945541564
  O         9.4185680998       10.2392901419        3.5137927677
  O        11.9800559133        5.8148814769        3.5201692931
  O        14.5378717005        1.3578053361        3.5183980851
  O         4.2640161021       10.2196922493        3.5073216407
  O         6.9260923267        5.7074406764        3.4076917127
  O         9.4207845241        1.3570036780        3.5076300556
  O        -0.8384692944       10.2317009738        3.5166506219
  O         1.7100356370        5.7918108745        3.4930519699
  O         4.2941560333        1.3593187582        3.5008256537
 Fe         5.0974586059       11.8003337580        4.4747255792
 Fe         7.6156482153        7.3264150503        4.5100244825
 Fe        10.2242766999        2.9485231200        4.4905036239
 Fe        -0.0279021337       11.8229873563        4.4919393529
 Fe         2.5357306710        7.3658117344        4.4976026927
 Fe         5.1174474596        2.9207631035        4.4914401736
 Fe        -5.1911392480       11.7993087892        4.5025800181
 Fe        -2.5983114103        7.3863705415        4.4989280457
 Fe        -0.0618336834        2.9149186707        4.4959550001
 Fe         7.6539714014       13.2569158211        4.8605090208
 Fe        10.1742159393        8.8420635367        4.8447936879
 Fe        12.8013103464        4.4294861017        4.8204561814
 Fe         2.5328796054       13.2932816186        4.8313939526
 Fe         5.0939237852        8.8047840355        4.7952440021
 Fe         7.6480011084        4.3872052370        4.8644533658
 Fe        -2.6186474877       13.2585825270        4.8199328410
 Fe        -0.0331016052        8.8724990682        4.8337420813
 Fe         2.4949850570        4.3917108809        4.7894395340
  O         5.8716549608       10.3633931252        5.6373134315
  O         8.3868421976        5.9137302848        5.8036331885
  O        11.0012734492        1.5130890005        5.7219376790
  O         0.7699764918       10.3953517356        5.7337778478
  O         3.2026576998        5.9325844808        5.7381386405
  O         5.8298910490        1.4565829696        5.7551931623
  O        -4.4315547990       10.3542780049        5.7503413911
  O        -1.8138720465        5.9630131170        5.7278788300
  O         0.7295874169        1.4892066310        5.7372674773
  O         5.9305088521       13.1763978454        5.7456558056
  O         8.4713408205        8.7302400541        5.7555350836
  O        11.1159813101        4.3202684993        5.7635428800
  O         0.8078288720       13.2137500134        5.7180361330
  O         3.4834174620        8.7397782284        5.8837572915
  O         5.9369174214        4.3136287305        5.7471798201
  O        -4.3308408425       13.1808120501        5.7376783028
  O        -1.7442025974        8.7777984777        5.7444914589
  O         0.7946221546        4.3078137993        5.7240332971
  O         3.4734897012       11.8687189944        5.7539518751
  O         5.9350019510        7.2615546001        5.6374104297
  O         8.6002436675        2.9803064780        5.7846966693
  O        -1.6567358121       11.8334767888        5.7289455257
  O         0.9056885847        7.4337604144        5.7330374592
  O         3.4534742835        2.9733018621        5.7192500513
  O        -6.8570978442       11.7606612814        5.7327540311
  O        -4.2470948622        7.4250920535        5.7339034205
  O        -1.6632831457        2.9858922964        5.7469124065
 Fe         7.5892977189       10.2539879661        6.1938795222
 Fe        10.2078548929        5.8787970889        5.9381366017
 Fe        12.7897059359        1.4519464910        5.9829692271
 Fe         2.5654709536       10.3188475385        5.9654829507
 Fe         4.9478442856        5.7892467601        6.2655974864
 Fe         7.6314591401        1.4594802104        5.9914433042
 Fe        -2.6317911734       10.3336718679        5.9938172931
 Fe        -0.0285474354        5.9031139494        5.9814900730
 Fe         2.5235534559        1.4411572901        5.9784303304
  C         5.6390315868        8.3862571872        9.1691516014
  C         4.7027491790        7.2007995126        9.1973441521
  H         5.1894390110        9.1834328225        9.8110983306
  O         5.9545412919        8.9158303628        7.8548382217
  H         6.6044062191        8.0834473660        9.6012339664
  C         4.4981851216        6.7124333379       10.6502052459
  C         3.7328433186        7.7860127750       11.4956572032
  O         5.7862226630        6.5338225385       11.2572918587
  H         3.9269273431        5.7643920769       10.6787931036
  C         2.2800640001        8.1031487947       11.0737363780
  H         4.2786536332        8.7395626620       11.4427626897
  O         3.8188042264        7.3937650786       12.8810062051
  C         1.4361738866        6.8499891416       10.8287583074
  O         2.2982928865        8.9399313711        9.9070617678
  H         1.8506743052        8.6465443961       11.9387389170
  H         0.3951141261        7.1371113553       10.5925278786
  O         1.4706234246        6.0495982818       12.0322687664
  H         1.8465676374        6.3038434100        9.9648137293
  H         5.0550034206        8.8915703461        7.3860124012
  H         5.6422194776        6.6096735338       12.2215661975
  H         3.1310849172        6.6973697319       12.9675054523
  H         1.4086401207        9.3163089001        9.7731834365
  H         1.1308032149        5.1616492134       11.8288602422
  O         5.3343115593        6.1639838292        8.3350516071
  H         3.7205360374        7.3504280601        8.6945271347
  H         6.3117129100        6.5643223924        8.0770895393
     161
 i =        8, E =     -8104.5084294335
 Fe         5.0938794100       11.8196869300        0.3885799900
 Fe         7.6575796300        7.3792284900        0.3885799900
 Fe        10.2212798400        2.9387700600        0.3885799900
 Fe        -0.0335205200       11.8196869300        0.3885799900
 Fe         2.5301797000        7.3792284900        0.3885799900
 Fe         5.0938799200        2.9387700600        0.3885799900
 Fe        -5.1609204400       11.8196869300        0.3885799900
 Fe        -2.5972202200        7.3792284900        0.3885799900
 Fe        -0.0335200000        2.9387700600        0.3885799900
  O         8.4519195100        8.9577468800        1.1642700400
  O        11.0156197300        4.5172884400        1.1642700400
  O        13.5793199500        0.0768300000        1.1642700400
  O         3.3245195900        8.9577468800        1.1642700400
  O         5.8882198100        4.5172884400        1.1642700400
  O         8.4519200300        0.0768300000        1.1642700400
  O        -1.8028803300        8.9577468800        1.1642700400
  O         0.7608198900        4.5172884400        1.1642700400
  O         3.3245201100        0.0768300000        1.1642700400
  O         8.4568493000       11.7183869300        1.1650400200
  O        11.0205495200        7.2779284900        1.1650400200
  O        13.5842497300        2.8374700500        1.1650400200
  O         3.3294493700       11.7183869300        1.1650400200
  O         5.8931495900        7.2779284900        1.1650400200
  O         8.4568498100        2.8374700500        1.1650400200
  O        -1.7979505500       11.7183869300        1.1650400200
  O         0.7657496700        7.2779284900        1.1650400200
  O         3.3294498900        2.8374700500        1.1650400200
  O         6.0627194200       10.3425368500        1.1660399400
  O         8.6264196400        5.9020784100        1.1660399400
  O        11.1901198600        1.4616199700        1.1660399400
  O         0.9353195000       10.3425368500        1.1660399400
  O         3.4990197200        5.9020784100        1.1660399400
  O         6.0627199400        1.4616199700        1.1660399400
  O        -4.1920804200       10.3425368500        1.1660399400
  O        -1.6283802000        5.9020784100        1.1660399400
  O         0.9353200200        1.4616199700        1.1660399400
 Fe         7.6576695000       13.2997167500        1.9292099500
 Fe        10.2213697200        8.8592583200        1.9292099500
 Fe        12.7850699400        4.4187998800        1.9292099500
 Fe         2.5302695800       13.2997167500        1.9292099500
 Fe         5.0939698000        8.8592583200        1.9292099500
 Fe         7.6576700200        4.4187998800        1.9292099500
 Fe        -2.5971303400       13.2997167500        1.9292099500
 Fe        -0.0334301200        8.8592583200        1.9292099500
 Fe         2.5302701000        4.4187998800        1.9292099500
 Fe         7.6573893600       10.3392168700        2.7128999200
 Fe        10.2210895800        5.8987584300        2.7128999200
 Fe        12.7847898000        1.4582999900        2.7128999200
 Fe         2.5299894400       10.3392168700        2.7128999200
 Fe         5.0936896600        5.8987584300        2.7128999200
 Fe         7.6573898800        1.4582999900        2.7128999200
 Fe        -2.5974104800       10.3392168700        2.7128999200
 Fe        -0.0337102600        5.8987584300        2.7128999200
 Fe         2.5299899600        1.4582999900        2.7128999200
  O         4.1340107553       13.2967823002        3.4990098663
  O         6.6905953667        8.8353081480        3.4860412634
  O         9.2911732217        4.4187052873        3.5336395744
  O        -1.0052413077       13.2913272252        3.5020460709
  O         1.5985623859        8.8659826502        3.5434865258
  O         4.1428637318        4.4330832678        3.5028456926
  O        -6.1205712181       13.2949992977        3.5158582826
  O        -3.5510235543        8.8687082805        3.5269467167
  O        -0.9939406093        4.4202847823        3.4977023733
  O         6.8706962519       11.9344733189        3.4736820642
  O         9.4203145558        7.4325281725        3.5375060149
  O        12.0003844082        3.0376684862        3.5053336244
  O         1.7343052888       11.9129721364        3.5066188180
  O         4.2583259077        7.4590532971        3.4978628398
  O         6.8676054330        2.9864494329        3.5263460361
  O        -3.4048631004       11.8838461463        3.5199883715
  O        -0.8203642531        7.4858961006        3.5033838633
  O         1.7269599721        3.0275186218        3.4998650034
  O         9.4177236480       10.2317541160        3.5069817402
  O        11.9790689108        5.8117587898        3.5182781510
  O        14.5380432763        1.3581309116        3.5167480400
  O         4.2509013947       10.2340862865        3.5390939457
  O         6.9022503711        5.7246332701        3.4390171094
  O         9.4193473284        1.3575151343        3.5058561997
  O        -0.8358175017       10.2334142138        3.5116781323
  O         1.7121103954        5.7941618174        3.4962551307
  O         4.2927852405        1.3586274654        3.5001548605
 Fe         5.1015683510       11.8128560243        4.4818459303
 Fe         7.6210571440        7.3293770199        4.5054226108
 Fe        10.2277111907        2.9388144435        4.4931709671
 Fe        -0.0294277949       11.8223054309        4.4926361637
 Fe         2.5314368707        7.3607694125        4.5074989389
 Fe         5.1035204201        2.9248557326        4.4939128024
 Fe        -5.1941262674       11.7960501977        4.4992939978
 Fe        -2.6006583004        7.3867361100        4.4949392584
 Fe        -0.0585642375        2.9162417479        4.4946145167
 Fe         7.6550914128       13.2563914135        4.8541294943
 Fe        10.1790643942        8.8436380554        4.8389066901
 Fe        12.7985765664        4.4285903057        4.8224742442
 Fe         2.5332098591       13.2951890456        4.8303057260
 Fe         5.0993528782        8.8033614168        4.7952031171
 Fe         7.6401076989        4.3955414027        4.8584746582
 Fe        -2.6164335380       13.2656965659        4.8210650056
 Fe        -0.0334349754        8.8712301545        4.8334388936
 Fe         2.5027477393        4.3951991358        4.7952875647
  O         5.8702148060       10.3664271629        5.6341372035
  O         8.3941848014        5.9185016644        5.7875891038
  O        11.0005810762        1.5082339580        5.7277648780
  O         0.7665939632       10.3935835178        5.7365599674
  O         3.2178496655        5.9308630332        5.7406737311
  O         5.8374594723        1.4669271848        5.7506380139
  O        -4.4291665969       10.3573741236        5.7489738515
  O        -1.8147941141        5.9633850170        5.7284641407
  O         0.7293574993        1.4863298941        5.7378523618
  O         5.9380998794       13.1826180153        5.7491186040
  O         8.4725405392        8.7335185007        5.7441071454
  O        11.1069102476        4.3208156449        5.7554226522
  O         0.8103978294       13.2113546018        5.7210463810
  O         3.4823791384        8.7452745744        5.8706838922
  O         5.9329476413        4.3101987111        5.7413214316
  O        -4.3303115612       13.1772851962        5.7372667890
  O        -1.7451840271        8.7738756804        5.7447970640
  O         0.7987635260        4.3080684657        5.7252930103
  O         3.4715161291       11.8658811257        5.7488543056
  O         5.9461545119        7.2627743583        5.6230338270
  O         8.5933768786        2.9840127530        5.7672833943
  O        -1.6592718100       11.8381603615        5.7313247606
  O         0.9033827749        7.4355827708        5.7404764754
  O         3.4511610307        2.9748722411        5.7272326689
  O        -6.8551562835       11.7652453946        5.7362341712
  O        -4.2447429740        7.4257970214        5.7325810498
  O        -1.6617890059        2.9852556522        5.7451089476
 Fe         7.5906374682       10.2580156082        6.1861158086
 Fe        10.2099228993        5.8823238491        5.9370263271
 Fe        12.7889578566        1.4526126769        5.9822795703
 Fe         2.5613217724       10.3190423348        5.9677638379
 Fe         4.9634315758        5.7938636630        6.2300672900
 Fe         7.6371904061        1.4593133303        5.9893731014
 Fe        -2.6300982503       10.3335151738        5.9846018208
 Fe        -0.0278236404        5.9012863920        5.9777164670
 Fe         2.5247022138        1.4406265763        5.9784062171
  C         5.6397958362        8.3971795747        9.1611837067
  C         4.7100188173        7.2025794444        9.1925936460
  H         5.1981381201        9.1910770873        9.8004467545
  O         5.9268927443        8.8648016430        7.8424114799
  H         6.5990508436        8.0863239022        9.6007734027
  C         4.4994074787        6.7243476999       10.6452685561
  C         3.7322576780        7.7906207189       11.4917709810
  O         5.7846982617        6.5266678927       11.2491445861
  H         3.9388339190        5.7692281535       10.6734291447
  C         2.2764458407        8.1008797109       11.0790927337
  H         4.2836259932        8.7405024944       11.4393017698
  O         3.8117428194        7.3921747351       12.8750516535
  C         1.4349900312        6.8476919208       10.8264801896
  O         2.3005527243        8.9336543204        9.9094451780
  H         1.8510367205        8.6493717086       11.9410406975
  H         0.3951171816        7.1385081219       10.5919758518
  O         1.4744797953        6.0501194225       12.0316003318
  H         1.8448498168        6.2995535763        9.9634947866
  H         5.0680988751        8.9192914022        7.3717399748
  H         5.6374763828        6.6095056097       12.2139809476
  H         3.1292823530        6.6929332540       12.9701527172
  H         1.4125954318        9.3137408434        9.7758956082
  H         1.1304761292        5.1636076545       11.8286306075
  O         5.4163628268        6.1637862046        8.3849205514
  H         3.7282155580        7.3670942417        8.7058544225
  H         6.2092428849        6.5266736426        8.0331512179
     161
 i =        9, E =     -8104.5093993452
 Fe         5.0938794100       11.8196869300        0.3885799900
 Fe         7.6575796300        7.3792284900        0.3885799900
 Fe        10.2212798400        2.9387700600        0.3885799900
 Fe        -0.0335205200       11.8196869300        0.3885799900
 Fe         2.5301797000        7.3792284900        0.3885799900
 Fe         5.0938799200        2.9387700600        0.3885799900
 Fe        -5.1609204400       11.8196869300        0.3885799900
 Fe        -2.5972202200        7.3792284900        0.3885799900
 Fe        -0.0335200000        2.9387700600        0.3885799900
  O         8.4519195100        8.9577468800        1.1642700400
  O        11.0156197300        4.5172884400        1.1642700400
  O        13.5793199500        0.0768300000        1.1642700400
  O         3.3245195900        8.9577468800        1.1642700400
  O         5.8882198100        4.5172884400        1.1642700400
  O         8.4519200300        0.0768300000        1.1642700400
  O        -1.8028803300        8.9577468800        1.1642700400
  O         0.7608198900        4.5172884400        1.1642700400
  O         3.3245201100        0.0768300000        1.1642700400
  O         8.4568493000       11.7183869300        1.1650400200
  O        11.0205495200        7.2779284900        1.1650400200
  O        13.5842497300        2.8374700500        1.1650400200
  O         3.3294493700       11.7183869300        1.1650400200
  O         5.8931495900        7.2779284900        1.1650400200
  O         8.4568498100        2.8374700500        1.1650400200
  O        -1.7979505500       11.7183869300        1.1650400200
  O         0.7657496700        7.2779284900        1.1650400200
  O         3.3294498900        2.8374700500        1.1650400200
  O         6.0627194200       10.3425368500        1.1660399400
  O         8.6264196400        5.9020784100        1.1660399400
  O        11.1901198600        1.4616199700        1.1660399400
  O         0.9353195000       10.3425368500        1.1660399400
  O         3.4990197200        5.9020784100        1.1660399400
  O         6.0627199400        1.4616199700        1.1660399400
  O        -4.1920804200       10.3425368500        1.1660399400
  O        -1.6283802000        5.9020784100        1.1660399400
  O         0.9353200200        1.4616199700        1.1660399400
 Fe         7.6576695000       13.2997167500        1.9292099500
 Fe        10.2213697200        8.8592583200        1.9292099500
 Fe        12.7850699400        4.4187998800        1.9292099500
 Fe         2.5302695800       13.2997167500        1.9292099500
 Fe         5.0939698000        8.8592583200        1.9292099500
 Fe         7.6576700200        4.4187998800        1.9292099500
 Fe        -2.5971303400       13.2997167500        1.9292099500
 Fe        -0.0334301200        8.8592583200        1.9292099500
 Fe         2.5302701000        4.4187998800        1.9292099500
 Fe         7.6573893600       10.3392168700        2.7128999200
 Fe        10.2210895800        5.8987584300        2.7128999200
 Fe        12.7847898000        1.4582999900        2.7128999200
 Fe         2.5299894400       10.3392168700        2.7128999200
 Fe         5.0936896600        5.8987584300        2.7128999200
 Fe         7.6573898800        1.4582999900        2.7128999200
 Fe        -2.5974104800       10.3392168700        2.7128999200
 Fe        -0.0337102600        5.8987584300        2.7128999200
 Fe         2.5299899600        1.4582999900        2.7128999200
  O         4.1325382803       13.2987244816        3.5004902155
  O         6.7006830890        8.8453542216        3.4881317163
  O         9.2976378246        4.4239191023        3.5537605657
  O        -1.0053569985       13.2881938855        3.4921608737
  O         1.5965241275        8.8653949935        3.5417033642
  O         4.1335922202        4.4253116597        3.4989243090
  O        -6.1181073646       13.3010154913        3.5210219410
  O        -3.5580694690        8.8676568335        3.5157947051
  O        -0.9988353726        4.4226570567        3.5001481734
  O         6.8559604783       11.9334803922        3.4649231753
  O         9.4124241115        7.4451016971        3.5300105688
  O        11.9990766127        3.0363261589        3.5013510636
  O         1.7342213026       11.9124758592        3.5048554394
  O         4.2448742403        7.4637255243        3.4782864185
  O         6.8637418341        2.9815532327        3.5473913121
  O        -3.4065163943       11.8950288857        3.5142705997
  O        -0.8175767017        7.4809106383        3.5056492091
  O         1.7294784960        3.0254183243        3.5009269012
  O         9.4219623923       10.2177513051        3.4906988566
  O        11.9860470191        5.8084545148        3.5065210653
  O        14.5365837185        1.3575746616        3.5161698253
  O         4.2522863427       10.2432205186        3.5442052911
  O         6.8826454967        5.7376301938        3.4593168739
  O         9.4212838899        1.3585075286        3.5009472638
  O        -0.8256950185       10.2370584863        3.4967714365
  O         1.7133808854        5.7960174532        3.4983162851
  O         4.2866989372        1.3506627797        3.5006345079
 Fe         5.1006399080       11.8191897344        4.4877611517
 Fe         7.6166096876        7.3328083237        4.4853588491
 Fe        10.2319710143        2.9311707105        4.4918776264
 Fe        -0.0317854308       11.8214173436        4.4901575615
 Fe         2.5327541563        7.3567335790        4.5047223202
 Fe         5.0895086299        2.9232074823        4.4896952378
 Fe        -5.1992346149       11.7862605120        4.4897947468
 Fe        -2.6030686907        7.3899016488        4.4854494924
 Fe        -0.0522467935        2.9180485044        4.4886665564
 Fe         7.6553838320       13.2556166391        4.8450055842
 Fe        10.1880045392        8.8496644826        4.8524912814
 Fe        12.7916974684        4.4253594561        4.8236364095
 Fe         2.5302871548       13.2958623096        4.8281535437
 Fe         5.1054710304        8.8022017061        4.7795044068
 Fe         7.6332820281        4.4063105127        4.8637248997
 Fe        -2.6097288986       13.2767922643        4.8212822683
 Fe        -0.0350448710        8.8698424723        4.8333449482
 Fe         2.5077082400        4.4003396200        4.8019580533
  O         5.8708615573       10.3714243376        5.6313416590
  O         8.3997100702        5.9353510045        5.7732935690
  O        10.9973749206        1.5032999042        5.7339702683
  O         0.7608685091       10.3915005096        5.7443695554
  O         3.2365933626        5.9307908301        5.7456978232
  O         5.8438305214        1.4811018807        5.7496321257
  O        -4.4218207188       10.3756838796        5.7633407466
  O        -1.8180725625        5.9627972037        5.7297925496
  O         0.7292771286        1.4835399095        5.7407574374
  O         5.9436284462       13.1890682640        5.7500332460
  O         8.4629806640        8.7305399684        5.7339948249
  O        11.0954232934        4.3155759469        5.7521153954
  O         0.8127441240       13.2053517445        5.7294512374
  O         3.4797927566        8.7445642916        5.8615183480
  O         5.9183305175        4.2988554178        5.7381584473
  O        -4.3313957811       13.1724734917        5.7344501043
  O        -1.7422201562        8.7612385521        5.7540114325
  O         0.8001804876        4.3057912559        5.7311827851
  O         3.4691852877       11.8684422970        5.7513617744
  O         5.9620952106        7.2717839231        5.6069068537
  O         8.5977369886        2.9820299205        5.7521079279
  O        -1.6598950932       11.8479546444        5.7367808425
  O         0.9083255214        7.4391193066        5.7522180251
  O         3.4538464490        2.9808802726        5.7355283659
  O        -6.8484367065       11.7800429746        5.7489553235
  O        -4.2286739899        7.4243910837        5.7465513843
  O        -1.6569840195        2.9849223571        5.7439812840
 Fe         7.5977087214       10.2670573083        6.1789364948
 Fe        10.2111417433        5.8862971614        5.9181607213
 Fe        12.7877282530        1.4544302663        5.9796282158
 Fe         2.5582423700       10.3197271058        5.9622536454
 Fe         4.9910801371        5.8066349474        6.1675455779
 Fe         7.6430281482        1.4591725292        5.9739937498
 Fe        -2.6208025856       10.3310987326        5.9649434474
 Fe        -0.0260691488        5.9004592815        5.9721778774
 Fe         2.5276367172        1.4441677344        5.9771509213
  C         5.6304505766        8.4136084451        9.1747343617
  C         4.7431589413        7.1612301785        9.1696191159
  H         5.2184767652        9.2226119721        9.7845839508
  O         5.8822916087        8.8121754298        7.8534904159
  H         6.5866252421        8.0858856856        9.6089278188
  C         4.5137318562        6.7475836690       10.6301270938
  C         3.7348330018        7.7947334293       11.4762396942
  O         5.7919196711        6.5207049204       11.2351009582
  H         3.9507860881        5.7919572779       10.6587826338
  C         2.2710085669        8.0988088043       11.0919807935
  H         4.2914773950        8.7422713521       11.4369122627
  O         3.7875005246        7.3962623096       12.8599493984
  C         1.4326382100        6.8459981615       10.8254595862
  O         2.3059949981        8.9241206144        9.9167716148
  H         1.8443280614        8.6553299685       11.9452550612
  H         0.3953701374        7.1405281777       10.5887736918
  O         1.4824291240        6.0499275394       12.0314652190
  H         1.8415520663        6.2941357706        9.9633808202
  H         5.0784044094        8.9414490863        7.3248387065
  H         5.6285402486        6.6090161502       12.1980433758
  H         3.1269741278        6.6818361404       12.9817656892
  H         1.4201892186        9.3089336996        9.7808684445
  H         1.1302955335        5.1665655151       11.8287294116
  O         5.3367340443        6.0906739490        8.3480831783
  H         3.7649070194        7.3996305853        8.7328698953
  H         6.2218821925        6.5304347322        8.0337436399
     161
 i =       10, E =     -8104.5173273848
 Fe         5.0938794100       11.8196869300        0.3885799900
 Fe         7.6575796300        7.3792284900        0.3885799900
 Fe        10.2212798400        2.9387700600        0.3885799900
 Fe        -0.0335205200       11.8196869300        0.3885799900
 Fe         2.5301797000        7.3792284900        0.3885799900
 Fe         5.0938799200        2.9387700600        0.3885799900
 Fe        -5.1609204400       11.8196869300        0.3885799900
 Fe        -2.5972202200        7.3792284900        0.3885799900
 Fe        -0.0335200000        2.9387700600        0.3885799900
  O         8.4519195100        8.9577468800        1.1642700400
  O        11.0156197300        4.5172884400        1.1642700400
  O        13.5793199500        0.0768300000        1.1642700400
  O         3.3245195900        8.9577468800        1.1642700400
  O         5.8882198100        4.5172884400        1.1642700400
  O         8.4519200300        0.0768300000        1.1642700400
  O        -1.8028803300        8.9577468800        1.1642700400
  O         0.7608198900        4.5172884400        1.1642700400
  O         3.3245201100        0.0768300000        1.1642700400
  O         8.4568493000       11.7183869300        1.1650400200
  O        11.0205495200        7.2779284900        1.1650400200
  O        13.5842497300        2.8374700500        1.1650400200
  O         3.3294493700       11.7183869300        1.1650400200
  O         5.8931495900        7.2779284900        1.1650400200
  O         8.4568498100        2.8374700500        1.1650400200
  O        -1.7979505500       11.7183869300        1.1650400200
  O         0.7657496700        7.2779284900        1.1650400200
  O         3.3294498900        2.8374700500        1.1650400200
  O         6.0627194200       10.3425368500        1.1660399400
  O         8.6264196400        5.9020784100        1.1660399400
  O        11.1901198600        1.4616199700        1.1660399400
  O         0.9353195000       10.3425368500        1.1660399400
  O         3.4990197200        5.9020784100        1.1660399400
  O         6.0627199400        1.4616199700        1.1660399400
  O        -4.1920804200       10.3425368500        1.1660399400
  O        -1.6283802000        5.9020784100        1.1660399400
  O         0.9353200200        1.4616199700        1.1660399400
 Fe         7.6576695000       13.2997167500        1.9292099500
 Fe        10.2213697200        8.8592583200        1.9292099500
 Fe        12.7850699400        4.4187998800        1.9292099500
 Fe         2.5302695800       13.2997167500        1.9292099500
 Fe         5.0939698000        8.8592583200        1.9292099500
 Fe         7.6576700200        4.4187998800        1.9292099500
 Fe        -2.5971303400       13.2997167500        1.9292099500
 Fe        -0.0334301200        8.8592583200        1.9292099500
 Fe         2.5302701000        4.4187998800        1.9292099500
 Fe         7.6573893600       10.3392168700        2.7128999200
 Fe        10.2210895800        5.8987584300        2.7128999200
 Fe        12.7847898000        1.4582999900        2.7128999200
 Fe         2.5299894400       10.3392168700        2.7128999200
 Fe         5.0936896600        5.8987584300        2.7128999200
 Fe         7.6573898800        1.4582999900        2.7128999200
 Fe        -2.5974104800       10.3392168700        2.7128999200
 Fe        -0.0337102600        5.8987584300        2.7128999200
 Fe         2.5299899600        1.4582999900        2.7128999200
  O         4.1340626868       13.2983903732        3.5031254244
  O         6.6905572132        8.8359467197        3.4791696303
  O         9.2904197163        4.4213447713        3.5413525991
  O        -1.0062559220       13.2894538557        3.4951142485
  O         1.5978841283        8.8668422056        3.5438510295
  O         4.1310071740        4.4232442099        3.4940080893
  O        -6.1201336394       13.2973191093        3.5207119379
  O        -3.5573059808        8.8679683755        3.5208018569
  O        -0.9979550692        4.4223974437        3.5011336933
  O         6.8594183216       11.9334510814        3.4668110796
  O         9.4151918888        7.4391581309        3.5347087689
  O        11.9986033075        3.0346882646        3.5044201120
  O         1.7344434290       11.9132045533        3.5042100969
  O         4.2547265304        7.4650423660        3.4828367693
  O         6.8615304730        2.9883791016        3.5358346794
  O        -3.4065547070       11.8906598634        3.5166415506
  O        -0.8167171987        7.4818773890        3.5061841885
  O         1.7285975513        3.0230889043        3.5029875175
  O         9.4197884270       10.2186806298        3.4959411736
  O        11.9838830425        5.8106051462        3.5102396849
  O        14.5363804093        1.3568261285        3.5171269736
  O         4.2544044356       10.2382976397        3.5352576761
  O         6.8838390663        5.7376182664        3.4591157269
  O         9.4211672269        1.3578777393        3.5025421281
  O        -0.8261532181       10.2339547961        3.5000647813
  O         1.7124166523        5.7956156662        3.5041026713
  O         4.2857494671        1.3508847580        3.5030825779
 Fe         5.1011843001       11.8103042703        4.4851294376
 Fe         7.6157448001        7.3342092597        4.4901703832
 Fe        10.2276980717        2.9347142363        4.4897932143
 Fe        -0.0307980816       11.8211433287        4.4897277324
 Fe         2.5362384955        7.3560003389        4.5010689068
 Fe         5.0900077203        2.9270835255        4.4889366937
 Fe        -5.1988626149       11.7870383982        4.4932620154
 Fe        -2.6018505925        7.3900966247        4.4887407466
 Fe        -0.0537018997        2.9158749963        4.4911822055
 Fe         7.6530368869       13.2525620156        4.8507624457
 Fe        10.1798637064        8.8449458291        4.8538780200
 Fe        12.7923223938        4.4257074351        4.8251816291
 Fe         2.5315284670       13.2937437407        4.8311389682
 Fe         5.0997800877        8.8035937960        4.7834357659
 Fe         7.6301897427        4.4049465553        4.8599835043
 Fe        -2.6126673719       13.2739686295        4.8222273471
 Fe        -0.0312803116        8.8674465311        4.8387077123
 Fe         2.5107195688        4.3975695160        4.8024472119
  O         5.8731271910       10.3667230389        5.6396998013
  O         8.3923221566        5.9319027257        5.7785528295
  O        10.9972440735        1.5053225121        5.7314484591
  O         0.7622059340       10.3920836645        5.7436565242
  O         3.2446671309        5.9281743695        5.7463165231
  O         5.8418290071        1.4801066150        5.7472932930
  O        -4.4250715311       10.3692822429        5.7595359817
  O        -1.8177421577        5.9621870757        5.7302202653
  O         0.7279741237        1.4806913021        5.7420195333
  O         5.9390514181       13.1832758347        5.7506183615
  O         8.4578329599        8.7314904888        5.7408545027
  O        11.0958438381        4.3151589654        5.7518769766
  O         0.8115730832       13.2062847049        5.7281206937
  O         3.4790042112        8.7410695963        5.8676392715
  O         5.9155331347        4.3069388463        5.7387636318
  O        -4.3323231557       13.1712092064        5.7379174508
  O        -1.7428413724        8.7650192284        5.7509828740
  O         0.8014800460        4.3064132415        5.7301258675
  O         3.4722423782       11.8660635112        5.7516075826
  O         5.9617582627        7.2829990273        5.6281429463
  O         8.5940325161        2.9823642490        5.7537620691
  O        -1.6604997595       11.8451617763        5.7342717684
  O         0.9137410695        7.4350345999        5.7537377717
  O         3.4537627259        2.9773646430        5.7359451211
  O        -6.8526425082       11.7723409899        5.7468322141
  O        -4.2303847423        7.4239322953        5.7446514195
  O        -1.6577645602        2.9836248426        5.7444764563
 Fe         7.5946129504       10.2641927573        6.2008015489
 Fe        10.2071849847        5.8853593961        5.9024281667
 Fe        12.7877138325        1.4523353584        5.9793905255
 Fe         2.5602794424       10.3167805213        5.9575996471
 Fe         4.9955539911        5.8144391682        6.2143386628
 Fe         7.6406956705        1.4588000288        5.9774575196
 Fe        -2.6245894454       10.3315273428        5.9679226818
 Fe        -0.0264994077        5.8998420920        5.9725046232
 Fe         2.5258067941        1.4420067088        5.9769662164
  C         5.6338005663        8.4183252443        9.1809385445
  C         4.7365594943        7.1866230612        9.1875960362
  H         5.2053616471        9.2142950517        9.8072512124
  O         5.9354252713        8.8990351331        7.8751740202
  H         6.5904154882        8.1163190886        9.6323568872
  C         4.5137697604        6.7241996165       10.6392159160
  C         3.7376905496        7.7833780313       11.4819915578
  O         5.7933416038        6.5194700082       11.2470536329
  H         3.9358455625        5.7781752877       10.6453831713
  C         2.2794480445        8.0992568054       11.0845233832
  H         4.2824992592        8.7381070966       11.4462296130
  O         3.7951798424        7.3865599928       12.8656018035
  C         1.4328410719        6.8504167710       10.8285300257
  O         2.3075234285        8.9273159802        9.9122103883
  H         1.8438720586        8.6480816117       11.9407802212
  H         0.3937660301        7.1382007539       10.5884238711
  O         1.4754523790        6.0456689126       12.0286125644
  H         1.8384667647        6.2987605782        9.9644689659
  H         5.0925022755        8.9486423776        7.3495629686
  H         5.6206383292        6.6026986734       12.2077538274
  H         3.1209261651        6.6822514441       12.9759449299
  H         1.4196333920        9.3044589999        9.7714072965
  H         1.1270199956        5.1607784331       11.8273536106
  O         5.3906529572        6.1426717103        8.3598396806
  H         3.7672938319        7.3978670349        8.7101779210
  H         6.2608694673        6.5426595883        8.0606570263
     161
 i =       11, E =     -8104.5195346225
 Fe         5.0938794100       11.8196869300        0.3885799900
 Fe         7.6575796300        7.3792284900        0.3885799900
 Fe        10.2212798400        2.9387700600        0.3885799900
 Fe        -0.0335205200       11.8196869300        0.3885799900
 Fe         2.5301797000        7.3792284900        0.3885799900
 Fe         5.0938799200        2.9387700600        0.3885799900
 Fe        -5.1609204400       11.8196869300        0.3885799900
 Fe        -2.5972202200        7.3792284900        0.3885799900
 Fe        -0.0335200000        2.9387700600        0.3885799900
  O         8.4519195100        8.9577468800        1.1642700400
  O        11.0156197300        4.5172884400        1.1642700400
  O        13.5793199500        0.0768300000        1.1642700400
  O         3.3245195900        8.9577468800        1.1642700400
  O         5.8882198100        4.5172884400        1.1642700400
  O         8.4519200300        0.0768300000        1.1642700400
  O        -1.8028803300        8.9577468800        1.1642700400
  O         0.7608198900        4.5172884400        1.1642700400
  O         3.3245201100        0.0768300000        1.1642700400
  O         8.4568493000       11.7183869300        1.1650400200
  O        11.0205495200        7.2779284900        1.1650400200
  O        13.5842497300        2.8374700500        1.1650400200
  O         3.3294493700       11.7183869300        1.1650400200
  O         5.8931495900        7.2779284900        1.1650400200
  O         8.4568498100        2.8374700500        1.1650400200
  O        -1.7979505500       11.7183869300        1.1650400200
  O         0.7657496700        7.2779284900        1.1650400200
  O         3.3294498900        2.8374700500        1.1650400200
  O         6.0627194200       10.3425368500        1.1660399400
  O         8.6264196400        5.9020784100        1.1660399400
  O        11.1901198600        1.4616199700        1.1660399400
  O         0.9353195000       10.3425368500        1.1660399400
  O         3.4990197200        5.9020784100        1.1660399400
  O         6.0627199400        1.4616199700        1.1660399400
  O        -4.1920804200       10.3425368500        1.1660399400
  O        -1.6283802000        5.9020784100        1.1660399400
  O         0.9353200200        1.4616199700        1.1660399400
 Fe         7.6576695000       13.2997167500        1.9292099500
 Fe        10.2213697200        8.8592583200        1.9292099500
 Fe        12.7850699400        4.4187998800        1.9292099500
 Fe         2.5302695800       13.2997167500        1.9292099500
 Fe         5.0939698000        8.8592583200        1.9292099500
 Fe         7.6576700200        4.4187998800        1.9292099500
 Fe        -2.5971303400       13.2997167500        1.9292099500
 Fe        -0.0334301200        8.8592583200        1.9292099500
 Fe         2.5302701000        4.4187998800        1.9292099500
 Fe         7.6573893600       10.3392168700        2.7128999200
 Fe        10.2210895800        5.8987584300        2.7128999200
 Fe        12.7847898000        1.4582999900        2.7128999200
 Fe         2.5299894400       10.3392168700        2.7128999200
 Fe         5.0936896600        5.8987584300        2.7128999200
 Fe         7.6573898800        1.4582999900        2.7128999200
 Fe        -2.5974104800       10.3392168700        2.7128999200
 Fe        -0.0337102600        5.8987584300        2.7128999200
 Fe         2.5299899600        1.4582999900        2.7128999200
  O         4.1345237687       13.2985788521        3.5046598780
  O         6.6801670872        8.8294601878        3.4702707524
  O         9.2789757549        4.4203533439        3.5275616513
  O        -1.0072724203       13.2911396689        3.4976709595
  O         1.6022411216        8.8662490258        3.5478364863
  O         4.1244861969        4.4173032521        3.4839282244
  O        -6.1226936793       13.2926912887        3.5195765757
  O        -3.5587758077        8.8667509810        3.5191332942
  O        -0.9986343188        4.4218486421        3.5008075229
  O         6.8619022061       11.9318467106        3.4692816759
  O         9.4154524064        7.4344598157        3.5375435315
  O        11.9964496456        3.0346714260        3.5051678169
  O         1.7351954283       11.9136862367        3.5044227279
  O         4.2641300136        7.4667692010        3.4872935941
  O         6.8572726278        3.0010340487        3.5182848965
  O        -3.4064511102       11.8862867666        3.5189489028
  O        -0.8148969373        7.4818856752        3.5088532390
  O         1.7281332828        3.0195945965        3.5063317720
  O         9.4196433630       10.2160788863        3.4949138583
  O        11.9809494538        5.8111466914        3.5141372719
  O        14.5365118871        1.3559530731        3.5175443508
  O         4.2569271663       10.2339160450        3.5301136951
  O         6.8841520475        5.7420400005        3.4583082271
  O         9.4206371630        1.3567200885        3.5035363721
  O        -0.8264818878       10.2304413308        3.5034983805
  O         1.7130546166        5.7972601811        3.5105694461
  O         4.2846234284        1.3515962015        3.5059967932
 Fe         5.1022792479       11.8042377983        4.4829072551
 Fe         7.6125215084        7.3386858431        4.4929446572
 Fe        10.2220383516        2.9368536165        4.4877864373
 Fe        -0.0304861375       11.8202978715        4.4894665024
 Fe         2.5417047854        7.3517034366        4.5013849305
 Fe         5.0890285109        2.9343322714        4.4892861859
 Fe        -5.1994570208       11.7863179647        4.4958798998
 Fe        -2.6019818513        7.3916850287        4.4914128926
 Fe        -0.0537251553        2.9143344448        4.4935475405
 Fe         7.6513616235       13.2489098562        4.8562911002
 Fe        10.1730174571        8.8410131920        4.8517098563
 Fe        12.7927048000        4.4250586641        4.8290585383
 Fe         2.5337681178       13.2917970536        4.8354850093
 Fe         5.0968910612        8.8042107395        4.7871395343
 Fe         7.6229977235        4.4061006119        4.8537777299
 Fe        -2.6157476498       13.2727553957        4.8238030633
 Fe        -0.0259234865        8.8641830564        4.8474392120
 Fe         2.5173746119        4.3958562493        4.8041878038
  O         5.8751837616       10.3641333570        5.6452641258
  O         8.3864840915        5.9298784565        5.7793125533
  O        10.9959349466        1.5068011320        5.7312791053
  O         0.7620979211       10.3927868793        5.7447838246
  O         3.2630833407        5.9224558427        5.7476305003
  O         5.8419256189        1.4813518424        5.7425260904
  O        -4.4280430240       10.3629428582        5.7557642861
  O        -1.8175074698        5.9617884709        5.7308848877
  O         0.7261169683        1.4769300582        5.7444082928
  O         5.9363812649       13.1785906952        5.7526344922
  O         8.4542673660        8.7355472516        5.7437456713
  O        11.0921034343        4.3157711639        5.7477016394
  O         0.8110478837       13.2064863222        5.7270573923
  O         3.4799811977        8.7381029750        5.8706665759
  O         5.9098567647        4.3190746134        5.7377365563
  O        -4.3333530638       13.1687044771        5.7420934118
  O        -1.7432547411        8.7681325568        5.7483600921
  O         0.8056548855        4.3067301871        5.7307248773
  O         3.4752883733       11.8618791812        5.7505758431
  O         5.9656997667        7.2971804166        5.6490397957
  O         8.5881137159        2.9833190359        5.7515145474
  O        -1.6619763893       11.8431894007        5.7323114190
  O         0.9200999878        7.4300996663        5.7587423927
  O         3.4532654937        2.9732061513        5.7373043427
  O        -6.8577664156       11.7630016822        5.7458500376
  O        -4.2331287079        7.4234442930        5.7426933869
  O        -1.6577467700        2.9812417805        5.7454239260
 Fe         7.5899802466       10.2613038847        6.2285528665
 Fe        10.2024162200        5.8854226899        5.8961180979
 Fe        12.7868909762        1.4498167577        5.9793200736
 Fe         2.5615255472       10.3122780032        5.9471693377
 Fe         5.0087516495        5.8291172698        6.2668502465
 Fe         7.6395133742        1.4580846741        5.9826181702
 Fe        -2.6281848353       10.3317681764        5.9727678750
 Fe        -0.0265717247        5.8977682308        5.9722195327
 Fe         2.5236356756        1.4390519359        5.9767552993
  C         5.6575216146        8.4532566871        9.2050561448
  C         4.7604851618        7.2227464488        9.1820514248
  H         5.1798868525        9.2232765919        9.8415704031
  O         5.9581288529        8.9483352341        7.9066398752
  H         6.6061369760        8.1506083438        9.6731589344
  C         4.5089871551        6.7295325329       10.6255502742
  C         3.7291810107        7.7741726817       11.4909113714
  O         5.7743413546        6.5044098686       11.2573237343
  H         3.9410968289        5.7774644835       10.6255314104
  C         2.2755736839        8.0905485935       11.0774869902
  H         4.2800737509        8.7251118950       11.4541856990
  O         3.8008383693        7.3693541597       12.8708137376
  C         1.4290052016        6.8418957089       10.8265739121
  O         2.3144381354        8.9262934072        9.9114387785
  H         1.8507730893        8.6436241448       11.9374151224
  H         0.3920594489        7.1413047681       10.5899358620
  O         1.4700481137        6.0431597466       12.0304502000
  H         1.8367223940        6.2998333535        9.9581064265
  H         5.1295276841        8.9989624600        7.3772552997
  H         5.6109010969        6.5921054469       12.2191075731
  H         3.1100935877        6.6782390105       12.9700769984
  H         1.4238225733        9.2936651361        9.7605994301
  H         1.1229549139        5.1593323930       11.8214150483
  O         5.4444617850        6.1874744865        8.3642624923
  H         3.7848244397        7.3939253486        8.6935450657
  H         6.3092645213        6.5612882466        8.0990326733
     161
 i =       12, E =     -8104.5195162607
 Fe         5.0938794100       11.8196869300        0.3885799900
 Fe         7.6575796300        7.3792284900        0.3885799900
 Fe        10.2212798400        2.9387700600        0.3885799900
 Fe        -0.0335205200       11.8196869300        0.3885799900
 Fe         2.5301797000        7.3792284900        0.3885799900
 Fe         5.0938799200        2.9387700600        0.3885799900
 Fe        -5.1609204400       11.8196869300        0.3885799900
 Fe        -2.5972202200        7.3792284900        0.3885799900
 Fe        -0.0335200000        2.9387700600        0.3885799900
  O         8.4519195100        8.9577468800        1.1642700400
  O        11.0156197300        4.5172884400        1.1642700400
  O        13.5793199500        0.0768300000        1.1642700400
  O         3.3245195900        8.9577468800        1.1642700400
  O         5.8882198100        4.5172884400        1.1642700400
  O         8.4519200300        0.0768300000        1.1642700400
  O        -1.8028803300        8.9577468800        1.1642700400
  O         0.7608198900        4.5172884400        1.1642700400
  O         3.3245201100        0.0768300000        1.1642700400
  O         8.4568493000       11.7183869300        1.1650400200
  O        11.0205495200        7.2779284900        1.1650400200
  O        13.5842497300        2.8374700500        1.1650400200
  O         3.3294493700       11.7183869300        1.1650400200
  O         5.8931495900        7.2779284900        1.1650400200
  O         8.4568498100        2.8374700500        1.1650400200
  O        -1.7979505500       11.7183869300        1.1650400200
  O         0.7657496700        7.2779284900        1.1650400200
  O         3.3294498900        2.8374700500        1.1650400200
  O         6.0627194200       10.3425368500        1.1660399400
  O         8.6264196400        5.9020784100        1.1660399400
  O        11.1901198600        1.4616199700        1.1660399400
  O         0.9353195000       10.3425368500        1.1660399400
  O         3.4990197200        5.9020784100        1.1660399400
  O         6.0627199400        1.4616199700        1.1660399400
  O        -4.1920804200       10.3425368500        1.1660399400
  O        -1.6283802000        5.9020784100        1.1660399400
  O         0.9353200200        1.4616199700        1.1660399400
 Fe         7.6576695000       13.2997167500        1.9292099500
 Fe        10.2213697200        8.8592583200        1.9292099500
 Fe        12.7850699400        4.4187998800        1.9292099500
 Fe         2.5302695800       13.2997167500        1.9292099500
 Fe         5.0939698000        8.8592583200        1.9292099500
 Fe         7.6576700200        4.4187998800        1.9292099500
 Fe        -2.5971303400       13.2997167500        1.9292099500
 Fe        -0.0334301200        8.8592583200        1.9292099500
 Fe         2.5302701000        4.4187998800        1.9292099500
 Fe         7.6573893600       10.3392168700        2.7128999200
 Fe        10.2210895800        5.8987584300        2.7128999200
 Fe        12.7847898000        1.4582999900        2.7128999200
 Fe         2.5299894400       10.3392168700        2.7128999200
 Fe         5.0936896600        5.8987584300        2.7128999200
 Fe         7.6573898800        1.4582999900        2.7128999200
 Fe        -2.5974104800       10.3392168700        2.7128999200
 Fe        -0.0337102600        5.8987584300        2.7128999200
 Fe         2.5299899600        1.4582999900        2.7128999200
  O         4.1345237687       13.2985788521        3.5046598780
  O         6.6801670872        8.8294601878        3.4702707524
  O         9.2789757549        4.4203533439        3.5275616513
  O        -1.0072724203       13.2911396689        3.4976709595
  O         1.6022411216        8.8662490258        3.5478364863
  O         4.1244861969        4.4173032521        3.4839282244
  O        -6.1226936793       13.2926912887        3.5195765757
  O        -3.5587758077        8.8667509810        3.5191332942
  O        -0.9986343188        4.4218486421        3.5008075229
  O         6.8619022061       11.9318467106        3.4692816759
  O         9.4154524064        7.4344598157        3.5375435315
  O        11.9964496456        3.0346714260        3.5051678169
  O         1.7351954283       11.9136862367        3.5044227279
  O         4.2641300136        7.4667692010        3.4872935941
  O         6.8572726278        3.0010340487        3.5182848965
  O        -3.4064511102       11.8862867666        3.5189489028
  O        -0.8148969373        7.4818856752        3.5088532390
  O         1.7281332828        3.0195945965        3.5063317720
  O         9.4196433630       10.2160788863        3.4949138583
  O        11.9809494538        5.8111466914        3.5141372719
  O        14.5365118871        1.3559530731        3.5175443508
  O         4.2569271663       10.2339160450        3.5301136951
  O         6.8841520475        5.7420400005        3.4583082271
  O         9.4206371630        1.3567200885        3.5035363721
  O        -0.8264818878       10.2304413308        3.5034983805
  O         1.7130546166        5.7972601811        3.5105694461
  O         4.2846234284        1.3515962015        3.5059967932
 Fe         5.1022792479       11.8042377983        4.4829072551
 Fe         7.6125215084        7.3386858431        4.4929446572
 Fe        10.2220383516        2.9368536165        4.4877864373
 Fe        -0.0304861375       11.8202978715        4.4894665024
 Fe         2.5417047854        7.3517034366        4.5013849305
 Fe         5.0890285109        2.9343322714        4.4892861859
 Fe        -5.1994570208       11.7863179647        4.4958798998
 Fe        -2.6019818513        7.3916850287        4.4914128926
 Fe        -0.0537251553        2.9143344448        4.4935475405
 Fe         7.6513616235       13.2489098562        4.8562911002
 Fe        10.1730174571        8.8410131920        4.8517098563
 Fe        12.7927048000        4.4250586641        4.8290585383
 Fe         2.5337681178       13.2917970536        4.8354850093
 Fe         5.0968910612        8.8042107395        4.7871395343
 Fe         7.6229977235        4.4061006119        4.8537777299
 Fe        -2.6157476498       13.2727553957        4.8238030633
 Fe        -0.0259234865        8.8641830564        4.8474392120
 Fe         2.5173746119        4.3958562493        4.8041878038
  O         5.8751837616       10.3641333570        5.6452641258
  O         8.3864840915        5.9298784565        5.7793125533
  O        10.9959349466        1.5068011320        5.7312791053
  O         0.7620979211       10.3927868793        5.7447838246
  O         3.2630833407        5.9224558427        5.7476305003
  O         5.8419256189        1.4813518424        5.7425260904
  O        -4.4280430240       10.3629428582        5.7557642861
  O        -1.8175074698        5.9617884709        5.7308848877
  O         0.7261169683        1.4769300582        5.7444082928
  O         5.9363812649       13.1785906952        5.7526344922
  O         8.4542673660        8.7355472516        5.7437456713
  O        11.0921034343        4.3157711639        5.7477016394
  O         0.8110478837       13.2064863222        5.7270573923
  O         3.4799811977        8.7381029750        5.8706665759
  O         5.9098567647        4.3190746134        5.7377365563
  O        -4.3333530638       13.1687044771        5.7420934118
  O        -1.7432547411        8.7681325568        5.7483600921
  O         0.8056548855        4.3067301871        5.7307248773
  O         3.4752883733       11.8618791812        5.7505758431
  O         5.9656997667        7.2971804166        5.6490397957
  O         8.5881137159        2.9833190359        5.7515145474
  O        -1.6619763893       11.8431894007        5.7323114190
  O         0.9200999878        7.4300996663        5.7587423927
  O         3.4532654937        2.9732061513        5.7373043427
  O        -6.8577664156       11.7630016822        5.7458500376
  O        -4.2331287079        7.4234442930        5.7426933869
  O        -1.6577467700        2.9812417805        5.7454239260
 Fe         7.5899802466       10.2613038847        6.2285528665
 Fe        10.2024162200        5.8854226899        5.8961180979
 Fe        12.7868909762        1.4498167577        5.9793200736
 Fe         2.5615255472       10.3122780032        5.9471693377
 Fe         5.0087516495        5.8291172698        6.2668502465
 Fe         7.6395133742        1.4580846741        5.9826181702
 Fe        -2.6281848353       10.3317681764        5.9727678750
 Fe        -0.0265717247        5.8977682308        5.9722195327
 Fe         2.5236356756        1.4390519359        5.9767552993
  C         5.6575216146        8.4532566871        9.2050561448
  C         4.7604851618        7.2227464488        9.1820514248
  H         5.1798868525        9.2232765919        9.8415704031
  O         5.9581288529        8.9483352341        7.9066398752
  H         6.6061369760        8.1506083438        9.6731589344
  C         4.5089871551        6.7295325329       10.6255502742
  C         3.7291810107        7.7741726817       11.4909113714
  O         5.7743413546        6.5044098686       11.2573237343
  H         3.9410968289        5.7774644835       10.6255314104
  C         2.2755736839        8.0905485935       11.0774869902
  H         4.2800737509        8.7251118950       11.4541856990
  O         3.8008383693        7.3693541597       12.8708137376
  C         1.4290052016        6.8418957089       10.8265739121
  O         2.3144381354        8.9262934072        9.9114387785
  H         1.8507730893        8.6436241448       11.9374151224
  H         0.3920594489        7.1413047681       10.5899358620
  O         1.4700481137        6.0431597466       12.0304502000
  H         1.8367223940        6.2998333535        9.9581064265
  H         5.1295276841        8.9989624600        7.3772552997
  H         5.6109010969        6.5921054469       12.2191075731
  H         3.1100935877        6.6782390105       12.9700769984
  H         1.4238225733        9.2936651361        9.7605994301
  H         1.1229549139        5.1593323930       11.8214150483
  O         5.4444617850        6.1874744865        8.3642624923
  H         3.7848244397        7.3939253486        8.6935450657
  H         6.3092645213        6.5612882466        8.0990326733
