      40
 i =        1, E =     -1284.4916489411
 Au        15.0703278538       14.8555998638       16.4450913393
 Au        17.2661148745       11.3874653035       14.3523989370
 Au        14.4335243726       12.0767320579       17.3863775887
 Au        18.0366173843       15.3112136868       17.1417498570
 Au        12.4488273170       14.0160703708       17.3192895702
 Au        11.2000288702       14.8110960896       14.9958442993
 Au        12.9635865519       18.0748139066       13.3645065807
 Au        15.3154651126       18.8396222613       14.5405849789
 Au        14.8875246292       15.9884387579       13.9282696886
 Au        14.2502494587       13.8663163030       19.4153443333
 Au        14.8930702595       12.3222393045       13.1604177733
 Au        12.8490084850       14.1600229772       12.8012055506
 Au        15.1793121335       14.2889491210       11.2856300143
 Au        16.8286203675       14.2073144373       14.4325749711
 Au        12.8537546105       12.5260953183       15.0152215360
 Au        14.7159951099       10.4574036334       15.2110833389
 Au        17.6813116521       16.8726992424       14.9088174566
 Au        19.6094789802       14.7404244144       14.7872870021
 Au        15.9798183554       17.5629917216       17.0405083514
 Au        18.9833500624       16.2171729776       12.5714890682
 Au        13.2973441096       17.9328925507       16.1908592341
 Au        16.8614004267       10.6904416866       17.0518254816
 Au        10.9666994966       16.2644267015       12.5736989439
 Au        15.2942464386       18.0889048105       11.8275722312
 Au        11.2204671962       16.4420307721       17.3869135519
 Au        10.7324635455       17.6737109015       14.9741531489
 Au        16.8592650596       13.1212369055       18.4380207466
 Au        15.5433866161       16.4425978294        9.5378299610
 Au        18.7211619983       12.6788090233       16.3393301934
 Au        16.4412785164       15.8397454988       19.2450811683
 Au        17.7715144688       14.9516870867       10.4419290534
 Au        14.4686419667       15.8959687881       21.2036145326
 Au        13.7493745730       16.6465274804       18.5673020614
 Au        13.2318820189       16.3258193657       11.0494751171
 Au        17.5236539783       12.8348938015       12.0604251874
 Au        17.7957674863       17.7756296228       10.5051670589
 Au        17.7527716417       18.8758887338       12.9992086387
 Au        17.6487410816       19.5369379480       15.7923698891
  C         9.1198543389       13.6017557788       14.9577100621
  O         8.1516057119       12.9970015127       14.9610566116
      40
 i =        2, E =     -1284.4993639343
 Au        15.0364015790       14.8459796264       16.4316515399
 Au        17.2877063876       11.3527486536       14.3618434816
 Au        14.4431162223       12.0599356937       17.3905310987
 Au        18.0717894743       15.3190917401       17.1652578620
 Au        12.4403292601       14.0289507010       17.3352161900
 Au        11.0825410767       14.7625142199       15.0018006351
 Au        12.9464901422       18.0788847422       13.3521313937
 Au        15.3204944377       18.8774186363       14.5487837752
 Au        14.8497512629       15.9961880964       13.9088999485
 Au        14.2552532864       13.8480047772       19.4677760789
 Au        14.9053792861       12.3021917916       13.1517572580
 Au        12.8366390112       14.1711425735       12.8010458200
 Au        15.1954269591       14.2994734253       11.2618185598
 Au        16.8409835476       14.1762829075       14.4318871070
 Au        12.8439600509       12.5095199991       15.0251634048
 Au        14.7188921433       10.4079525422       15.2020540656
 Au        17.6755483507       16.8766207035       14.8924233815
 Au        19.6345802279       14.7265036901       14.7797424260
 Au        15.9786247324       17.5705330001       17.0526173978
 Au        18.9876555271       16.2167862773       12.5522340101
 Au        13.2698297878       17.9433953785       16.2022517474
 Au        16.8709039688       10.6577228951       17.0583404960
 Au        10.9320591265       16.2672927344       12.5634836265
 Au        15.3094079281       18.0809903265       11.8191026366
 Au        11.1906336595       16.4531224159       17.4008904428
 Au        10.7159002570       17.6863752959       14.9715077818
 Au        16.8631324787       13.1200882879       18.4472242546
 Au        15.5534695736       16.4552940309        9.4981618523
 Au        18.7381708736       12.6653368327       16.3504650919
 Au        16.4645716605       15.8539084505       19.2867715671
 Au        17.7877348220       14.9535774679       10.4089961752
 Au        14.4630254785       15.9112985951       21.2216090491
 Au        13.7576631845       16.6604263310       18.6011109738
 Au        13.2107709916       16.3360073160       11.0079745255
 Au        17.5568041274       12.8213093519       12.0587037472
 Au        17.8006262186       17.7928885683       10.4816826784
 Au        17.7748556115       18.9083803731       12.9973594498
 Au        17.6666910846       19.5498643480       15.8119776500
  C         9.1282196867       13.6581349974       14.9313663259
  O         8.1886981959       12.9976837909       14.9730451474
      40
 i =        3, E =     -1284.5014436835
 Au        15.0004641246       14.8411409700       16.4007513045
 Au        17.3072613597       11.3162558833       14.3677489949
 Au        14.4554794459       12.0537586208       17.3955794116
 Au        18.1038331159       15.3316568631       17.1913103526
 Au        12.4431922738       14.0499077345       17.3424108231
 Au        10.8847136130       14.6606953893       15.0223614382
 Au        12.9427107648       18.0775843426       13.3401431243
 Au        15.3121027206       18.9058457126       14.5568977123
 Au        14.8313801213       15.9879915404       13.8967095019
 Au        14.2684993909       13.8246172309       19.5103722603
 Au        14.9187633320       12.2946166846       13.1456052653
 Au        12.8326286108       14.1868919154       12.8175861665
 Au        15.2114811366       14.3134556515       11.2496969643
 Au        16.8348477608       14.1673071524       14.4377605587
 Au        12.8486016532       12.5020355079       15.0322165281
 Au        14.7263550606       10.3667175671       15.1976944855
 Au        17.6570334960       16.8672684251       14.8781324201
 Au        19.6413892523       14.7127523377       14.7690025532
 Au        15.9710762258       17.5649727127       17.0561644128
 Au        18.9834952467       16.2139106044       12.5333604657
 Au        13.2495755863       17.9508938998       16.2176506151
 Au        16.8801019807       10.6291523862       17.0648532343
 Au        10.9099451860       16.2723007507       12.5582096641
 Au        15.3252925336       18.0583105280       11.8232025999
 Au        11.1673626301       16.4628269272       17.4061779050
 Au        10.7027628763       17.6844891486       14.9661484227
 Au        16.8616970272       13.1253403257       18.4441582928
 Au        15.5653939279       16.4715904384        9.4586272142
 Au        18.7495604258       12.6545855736       16.3674356833
 Au        16.4944016641       15.8618920883       19.3236883805
 Au        17.8038610934       14.9513575073       10.3726198945
 Au        14.4586002846       15.9293335892       21.2427921287
 Au        13.7663376426       16.6751283362       18.6269645432
 Au        13.1896136536       16.3456969596       10.9634792498
 Au        17.5922140532       12.8178956720       12.0615399893
 Au        17.8011901967       17.8133296301       10.4674183013
 Au        17.7960667834       18.9391173776       12.9940218873
 Au        17.6814307062       19.5459638734       15.8271243627
  C         9.1525399595       13.7656130030       14.8832596172
  O         8.2716320402       13.0073435728       14.9997605367
      40
 i =        4, E =     -1284.5048038090
 Au        15.0150944582       14.8457490294       16.4118190702
 Au        17.2946116001       11.3373767770       14.3641352899
 Au        14.4511227152       12.0640946525       17.3927910152
 Au        18.0858381499       15.3275791728       17.1791425995
 Au        12.4483687976       14.0456492873       17.3286839082
 Au        10.9881266976       14.7062385131       15.0294374808
 Au        12.9509878604       18.0713199744       13.3482571811
 Au        15.3110657578       18.8846820666       14.5526763724
 Au        14.8497644882       15.9895740758       13.9017623622
 Au        14.2680674347       13.8381402292       19.4816269910
 Au        14.9154132332       12.3063533143       13.1514587526
 Au        12.8374600647       14.1847831989       12.8208195048
 Au        15.2045308134       14.3111261557       11.2637867452
 Au        16.8343113088       14.1780634390       14.4372091746
 Au        12.8558937574       12.5149601557       15.0282566554
 Au        14.7274815270       10.3962904555       15.2035838321
 Au        17.6584127588       16.8657894067       14.8848243580
 Au        19.6219887167       14.7190527841       14.7727834455
 Au        15.9710256317       17.5580393018       17.0488920052
 Au        18.9774787051       16.2137600474       12.5429062750
 Au        13.2626462577       17.9439683527       16.2111562446
 Au        16.8749065178       10.6491666520       17.0595422908
 Au        10.9338029029       16.2706634836       12.5674068168
 Au        15.3189203958       18.0579301684       11.8292789103
 Au        11.1847898109       16.4559737335       17.3943009901
 Au        10.7155471583       17.6731456559       14.9659116546
 Au        16.8585716495       13.1278244938       18.4361430093
 Au        15.5613170501       16.4646502595        9.4830360644
 Au        18.7373422968       12.6622196810       16.3607774378
 Au        16.4794636950       15.8528915073       19.3017975378
 Au        17.7935475358       14.9527510707       10.3893827816
 Au        14.4631548153       15.9193348073       21.2283029313
 Au        13.7639422929       16.6654658135       18.6098639397
 Au        13.2028084501       16.3393241663       10.9858690574
 Au        17.5737272349       12.8282586137       12.0657772332
 Au        17.7964462343       17.8018234865       10.4824645425
 Au        17.7825157488       18.9194336958       12.9973685945
 Au        17.6697767242       19.5332905388       15.8139731051
  C         9.1262218245       13.7205512455       14.8957641859
  O         8.2299133101       13.0030175850       14.9868168000
      40
 i =        5, E =     -1284.5052076036
 Au        15.0150944582       14.8457490294       16.4118190702
 Au        17.2946116001       11.3373767770       14.3641352899
 Au        14.4511227152       12.0640946525       17.3927910152
 Au        18.0858381499       15.3275791728       17.1791425995
 Au        12.4483687976       14.0456492873       17.3286839082
 Au        10.9881266976       14.7062385131       15.0294374808
 Au        12.9509878604       18.0713199744       13.3482571811
 Au        15.3110657578       18.8846820666       14.5526763724
 Au        14.8497644882       15.9895740758       13.9017623622
 Au        14.2680674347       13.8381402292       19.4816269910
 Au        14.9154132332       12.3063533143       13.1514587526
 Au        12.8374600647       14.1847831989       12.8208195048
 Au        15.2045308134       14.3111261557       11.2637867452
 Au        16.8343113088       14.1780634390       14.4372091746
 Au        12.8558937574       12.5149601557       15.0282566554
 Au        14.7274815270       10.3962904555       15.2035838321
 Au        17.6584127588       16.8657894067       14.8848243580
 Au        19.6219887167       14.7190527841       14.7727834455
 Au        15.9710256317       17.5580393018       17.0488920052
 Au        18.9774787051       16.2137600474       12.5429062750
 Au        13.2626462577       17.9439683527       16.2111562446
 Au        16.8749065178       10.6491666520       17.0595422908
 Au        10.9338029029       16.2706634836       12.5674068168
 Au        15.3189203958       18.0579301684       11.8292789103
 Au        11.1847898109       16.4559737335       17.3943009901
 Au        10.7155471583       17.6731456559       14.9659116546
 Au        16.8585716495       13.1278244938       18.4361430093
 Au        15.5613170501       16.4646502595        9.4830360644
 Au        18.7373422968       12.6622196810       16.3607774378
 Au        16.4794636950       15.8528915073       19.3017975378
 Au        17.7935475358       14.9527510707       10.3893827816
 Au        14.4631548153       15.9193348073       21.2283029313
 Au        13.7639422929       16.6654658135       18.6098639397
 Au        13.2028084501       16.3393241663       10.9858690574
 Au        17.5737272349       12.8282586137       12.0657772332
 Au        17.7964462343       17.8018234865       10.4824645425
 Au        17.7825157488       18.9194336958       12.9973685945
 Au        17.6697767242       19.5332905388       15.8139731051
  C         9.1262218245       13.7205512455       14.8957641859
  O         8.2299133101       13.0030175850       14.9868168000
