     161
 i =        1, E =     -8104.5320667381
 Fe         5.0938794100       11.8196869300        0.3885799900
 Fe         7.6575796300        7.3792284900        0.3885799900
 Fe        10.2212798400        2.9387700600        0.3885799900
 Fe        -0.0335205200       11.8196869300        0.3885799900
 Fe         2.5301797000        7.3792284900        0.3885799900
 Fe         5.0938799200        2.9387700600        0.3885799900
 Fe        -5.1609204400       11.8196869300        0.3885799900
 Fe        -2.5972202200        7.3792284900        0.3885799900
 Fe        -0.0335200000        2.9387700600        0.3885799900
  O         8.4519195100        8.9577468800        1.1642700400
  O        11.0156197300        4.5172884400        1.1642700400
  O        13.5793199500        0.0768300000        1.1642700400
  O         3.3245195900        8.9577468800        1.1642700400
  O         5.8882198100        4.5172884400        1.1642700400
  O         8.4519200300        0.0768300000        1.1642700400
  O        -1.8028803300        8.9577468800        1.1642700400
  O         0.7608198900        4.5172884400        1.1642700400
  O         3.3245201100        0.0768300000        1.1642700400
  O         8.4568493000       11.7183869300        1.1650400200
  O        11.0205495200        7.2779284900        1.1650400200
  O        13.5842497300        2.8374700500        1.1650400200
  O         3.3294493700       11.7183869300        1.1650400200
  O         5.8931495900        7.2779284900        1.1650400200
  O         8.4568498100        2.8374700500        1.1650400200
  O        -1.7979505500       11.7183869300        1.1650400200
  O         0.7657496700        7.2779284900        1.1650400200
  O         3.3294498900        2.8374700500        1.1650400200
  O         6.0627194200       10.3425368500        1.1660399400
  O         8.6264196400        5.9020784100        1.1660399400
  O        11.1901198600        1.4616199700        1.1660399400
  O         0.9353195000       10.3425368500        1.1660399400
  O         3.4990197200        5.9020784100        1.1660399400
  O         6.0627199400        1.4616199700        1.1660399400
  O        -4.1920804200       10.3425368500        1.1660399400
  O        -1.6283802000        5.9020784100        1.1660399400
  O         0.9353200200        1.4616199700        1.1660399400
 Fe         7.6576695000       13.2997167500        1.9292099500
 Fe        10.2213697200        8.8592583200        1.9292099500
 Fe        12.7850699400        4.4187998800        1.9292099500
 Fe         2.5302695800       13.2997167500        1.9292099500
 Fe         5.0939698000        8.8592583200        1.9292099500
 Fe         7.6576700200        4.4187998800        1.9292099500
 Fe        -2.5971303400       13.2997167500        1.9292099500
 Fe        -0.0334301200        8.8592583200        1.9292099500
 Fe         2.5302701000        4.4187998800        1.9292099500
 Fe         7.6573893600       10.3392168700        2.7128999200
 Fe        10.2210895800        5.8987584300        2.7128999200
 Fe        12.7847898000        1.4582999900        2.7128999200
 Fe         2.5299894400       10.3392168700        2.7128999200
 Fe         5.0936896600        5.8987584300        2.7128999200
 Fe         7.6573898800        1.4582999900        2.7128999200
 Fe        -2.5974104800       10.3392168700        2.7128999200
 Fe        -0.0337102600        5.8987584300        2.7128999200
 Fe         2.5299899600        1.4582999900        2.7128999200
  O         4.1329467104       13.3024922605        3.5001187764
  O         6.6972064942        8.8649046006        3.4976217739
  O         9.2611455033        4.4245149353        3.4997223238
  O        -0.9947135847       13.3041107986        3.4993059679
  O         1.5703816602        8.8646354812        3.5008409783
  O         4.1320587969        4.4225674235        3.4973808908
  O        -6.1224693631       13.3030760847        3.4988429324
  O        -3.5571867592        8.8644673885        3.4987030328
  O        -0.9951862108        4.4228156091        3.4989874524
  O         6.8607807272       11.9091875306        3.5022477662
  O         9.4298141967        7.4707951213        3.4962980212
  O        11.9883647090        3.0287747714        3.5004898214
  O         1.7338338097       11.9096914599        3.5020095946
  O         4.2954504003        7.4702701831        3.4986347144
  O         6.8605191777        3.0276075682        3.4988486634
  O        -3.3939927834       11.9101207901        3.5005999598
  O        -0.8311894164        7.4697915890        3.5004553409
  O         1.7344936350        3.0290632484        3.5013281432
  O         9.4154025176       10.2456858190        3.5008776459
  O        11.9800379688        5.8044708860        3.4998927088
  O        14.5426790132        1.3636376297        3.5014813402
  O         4.2849443026       10.2486446514        3.5014959374
  O         6.8511586916        5.8044227056        3.4993539152
  O         9.4158961538        1.3639441049        3.5015149610
  O        -0.8389697306       10.2449889974        3.5012366219
  O         1.7244702842        5.8041030629        3.5002639121
  O         4.2882827999        1.3643934052        3.5010382950
 Fe         5.0958505465       11.8170732189        4.4880671626
 Fe         7.6657763971        7.3773109780        4.4700977063
 Fe        10.2216437619        2.9392021041        4.4865434676
 Fe        -0.0339086513       11.8197591424        4.4857151856
 Fe         2.5301650210        7.3795429108        4.4862513961
 Fe         5.0942857315        2.9384762015        4.4852653158
 Fe        -5.1603181189       11.8191479481        4.4868180984
 Fe        -2.5984494229        7.3788637160        4.4875152819
 Fe        -0.0324180662        2.9385515840        4.4858624767
 Fe         7.6586576865       13.2994431450        4.8230748859
 Fe        10.2257458816        8.8577902069        4.8197930867
 Fe        12.7854379266        4.4188191784        4.8236787801
 Fe         2.5313960129       13.2991916341        4.8231376551
 Fe         5.0925369296        8.8654371197        4.8096339492
 Fe         7.6605516615        4.4166478379        4.8166643931
 Fe        -2.5962982172       13.2993371331        4.8223968161
 Fe        -0.0324970141        8.8578672424        4.8217294362
 Fe         2.5318740309        4.4181188686        4.8236354014
  O         5.8655945292       10.3827151626        5.7437130695
  O         8.4368995628        5.9474158791        5.7149302378
  O        10.9931946483        1.5072371026        5.7275423856
  O         0.7361736644       10.3888356998        5.7277998110
  O         3.3030647317        5.9510914944        5.7102319201
  O         5.8656091592        1.5070782096        5.7279967545
  O        -4.3892987852       10.3878293951        5.7264234989
  O        -1.8237002178        5.9487380221        5.7256618214
  O         0.7382475446        1.5074627537        5.7267024112
  O         5.9467836389       13.2017093868        5.7283539675
  O         8.5114721756        8.7596255505        5.7091951078
  O        11.0729927252        4.3246655036        5.7216651092
  O         0.8209278593       13.2024570508        5.7290614642
  O         3.3922823270        8.7630668516        5.7371160787
  O         5.9542925270        4.3173104967        5.7133827541
  O        -4.3067474906       13.2034653371        5.7274886136
  O        -1.7421608685        8.7635943387        5.7275232590
  O         0.8198427042        4.3221877002        5.7264770548
  O         3.4708342821       11.8650669538        5.7333931590
  O         6.0144545069        7.3977387615        5.6671757580
  O         8.5966122117        2.9866603014        5.7334805605
  O        -1.6579286023       11.8654478865        5.7297345240
  O         0.9059177041        7.4261320571        5.7299838797
  O         3.4699350110        2.9830172842        5.7277222878
  O        -6.7875227279       11.8632834777        5.7293721615
  O        -4.2267978603        7.4207491699        5.7261788285
  O        -1.6573306494        2.9841969731        5.7289414055
 Fe         7.6635926405       10.3325720065        5.9885420581
 Fe        10.2251426398        5.8953071483        6.0453805585
 Fe        12.7853679004        1.4585600327        5.9804288733
 Fe         2.5278784398       10.3385556235        5.9706791788
 Fe         5.0822620099        5.8707251775        6.0373852104
 Fe         7.6575923372        1.4583844605        5.9763182172
 Fe        -2.5978015765       10.3388940145        5.9803420591
 Fe        -0.0324839300        5.8986505053        5.9822706224
 Fe         2.5300038816        1.4583750331        5.9812887044
  C         9.9087505627        4.7180191341       10.4259179124
  C         9.2857116040        5.9857771495        9.8519873189
  H         9.3294958206        4.3504950646       11.2905819376
  O        11.2336590598        4.9419509734       10.8983846325
  H         9.8828144417        3.9390022661        9.6387181171
  C         7.8169642957        5.7957400571        9.4278619427
  C         7.3449371233        6.9100809869        8.4626170474
  O         6.9551633966        5.7498233910       10.6006731760
  H         7.7295843579        4.8383105231        8.8808235247
  C         5.8186653883        7.1665823144        8.5085108223
  H         7.6151791889        6.5540132271        7.4540379110
  O         8.0642419510        8.1437735923        8.6557862350
  C         5.2682153554        8.0512423981        9.6295747604
  O         5.1038475986        5.9208660623        8.4508608641
  H         5.5773364244        7.6421785505        7.5415233517
  H         4.1719502494        8.0646864432        9.5289003530
  O         5.8353759042        9.3853182447        9.5622121890
  H         5.5691754910        7.6300077324       10.5939466051
  H        11.6768757807        5.4486383464       10.1896157115
  H         7.2970764811        5.0695470914       11.2072615513
  H         7.4716528600        8.7821373646        9.1163143580
  H         5.3253111557        5.4435828997        9.2817083733
  H         5.4508880581        9.8464257720        8.7922239979
  O        10.1244672213        6.3749034668        8.7456482356
  H         9.3064096575        6.7773531721       10.6258716571
  H         9.8545307753        7.2960215263        8.5318569402
     161
 i =        2, E =     -8104.5355527942
 Fe         5.0938794100       11.8196869300        0.3885799900
 Fe         7.6575796300        7.3792284900        0.3885799900
 Fe        10.2212798400        2.9387700600        0.3885799900
 Fe        -0.0335205200       11.8196869300        0.3885799900
 Fe         2.5301797000        7.3792284900        0.3885799900
 Fe         5.0938799200        2.9387700600        0.3885799900
 Fe        -5.1609204400       11.8196869300        0.3885799900
 Fe        -2.5972202200        7.3792284900        0.3885799900
 Fe        -0.0335200000        2.9387700600        0.3885799900
  O         8.4519195100        8.9577468800        1.1642700400
  O        11.0156197300        4.5172884400        1.1642700400
  O        13.5793199500        0.0768300000        1.1642700400
  O         3.3245195900        8.9577468800        1.1642700400
  O         5.8882198100        4.5172884400        1.1642700400
  O         8.4519200300        0.0768300000        1.1642700400
  O        -1.8028803300        8.9577468800        1.1642700400
  O         0.7608198900        4.5172884400        1.1642700400
  O         3.3245201100        0.0768300000        1.1642700400
  O         8.4568493000       11.7183869300        1.1650400200
  O        11.0205495200        7.2779284900        1.1650400200
  O        13.5842497300        2.8374700500        1.1650400200
  O         3.3294493700       11.7183869300        1.1650400200
  O         5.8931495900        7.2779284900        1.1650400200
  O         8.4568498100        2.8374700500        1.1650400200
  O        -1.7979505500       11.7183869300        1.1650400200
  O         0.7657496700        7.2779284900        1.1650400200
  O         3.3294498900        2.8374700500        1.1650400200
  O         6.0627194200       10.3425368500        1.1660399400
  O         8.6264196400        5.9020784100        1.1660399400
  O        11.1901198600        1.4616199700        1.1660399400
  O         0.9353195000       10.3425368500        1.1660399400
  O         3.4990197200        5.9020784100        1.1660399400
  O         6.0627199400        1.4616199700        1.1660399400
  O        -4.1920804200       10.3425368500        1.1660399400
  O        -1.6283802000        5.9020784100        1.1660399400
  O         0.9353200200        1.4616199700        1.1660399400
 Fe         7.6576695000       13.2997167500        1.9292099500
 Fe        10.2213697200        8.8592583200        1.9292099500
 Fe        12.7850699400        4.4187998800        1.9292099500
 Fe         2.5302695800       13.2997167500        1.9292099500
 Fe         5.0939698000        8.8592583200        1.9292099500
 Fe         7.6576700200        4.4187998800        1.9292099500
 Fe        -2.5971303400       13.2997167500        1.9292099500
 Fe        -0.0334301200        8.8592583200        1.9292099500
 Fe         2.5302701000        4.4187998800        1.9292099500
 Fe         7.6573893600       10.3392168700        2.7128999200
 Fe        10.2210895800        5.8987584300        2.7128999200
 Fe        12.7847898000        1.4582999900        2.7128999200
 Fe         2.5299894400       10.3392168700        2.7128999200
 Fe         5.0936896600        5.8987584300        2.7128999200
 Fe         7.6573898800        1.4582999900        2.7128999200
 Fe        -2.5974104800       10.3392168700        2.7128999200
 Fe        -0.0337102600        5.8987584300        2.7128999200
 Fe         2.5299899600        1.4582999900        2.7128999200
  O         4.1353967879       13.2945119034        3.5003974587
  O         6.7042428713        8.8654400488        3.4916191863
  O         9.2638486480        4.4141902982        3.4882462948
  O        -0.9915158052       13.2985886161        3.4992302898
  O         1.5787377010        8.8610215969        3.5079078315
  O         4.1313693562        4.4110660080        3.4838156065
  O        -6.1213050696       13.2970052364        3.4974190924
  O        -3.5489768625        8.8619053870        3.5008242798
  O        -0.9932895332        4.4162792772        3.4975115940
  O         6.8549714939       11.9078525731        3.5052548903
  O         9.4234944190        7.4768534125        3.4796613686
  O        11.9853518297        3.0279401653        3.5001449213
  O         1.7307807517       11.9100198427        3.5051604433
  O         4.2743612898        7.4836535702        3.4646908263
  O         6.8580339732        3.0224647458        3.4961736850
  O        -3.3977969863       11.9114880021        3.5000307398
  O        -0.8366310698        7.4723521096        3.4989595325
  O         1.7303441366        3.0284654913        3.5020900176
  O         9.4207220944       10.2528734995        3.4976474165
  O        11.9908460486        5.8064239671        3.4866221819
  O        14.5476894985        1.3656012307        3.4998861230
  O         4.2859106572       10.2598952674        3.5087461200
  O         6.8682462201        5.8032697732        3.4672296347
  O         9.4216220146        1.3684660759        3.5026070668
  O        -0.8326499470       10.2494137357        3.4978669558
  O         1.7265675021        5.8084662903        3.4953964782
  O         4.2935100567        1.3680927606        3.4986487690
 Fe         5.1012311090       11.8166630414        4.5104341072
 Fe         7.6689420504        7.3632358385        4.4568857360
 Fe        10.2224472026        2.9466011061        4.5030427558
 Fe        -0.0358101721       11.8201011077        4.5010042271
 Fe         2.5380204731        7.3753216830        4.5012719555
 Fe         5.0944398101        2.9415507012        4.4966135586
 Fe        -5.1604108997       11.8186892849        4.5017791202
 Fe        -2.6045683291        7.3729187325        4.5031657936
 Fe        -0.0318092849        2.9391992115        4.5011594325
 Fe         7.6600261706       13.2985963618        4.8205182547
 Fe        10.2317392193        8.8515090363        4.8078411535
 Fe        12.7808730976        4.4226115589        4.8208938806
 Fe         2.5337565984       13.2994218486        4.8218360361
 Fe         5.0938799492        8.8578411469        4.7743376548
 Fe         7.6642007233        4.4189125274        4.7937624233
 Fe        -2.5968328450       13.3003671640        4.8182242988
 Fe        -0.0342717209        8.8556828740        4.8164060400
 Fe         2.5349770697        4.4200038339        4.8174985948
  O         5.8609180509       10.3551966224        5.7865376969
  O         8.4603538229        5.9387776272        5.7033902989
  O        10.9931846852        1.5038289966        5.7363873042
  O         0.7320825401       10.3834369946        5.7374541945
  O         3.3084942819        5.9481436998        5.6873349058
  O         5.8652437223        1.5015085067        5.7377764736
  O        -4.3902277307       10.3800126668        5.7337960919
  O        -1.8206387113        5.9443830198        5.7335429694
  O         0.7388689314        1.5013051838        5.7339157605
  O         5.9500257449       13.2039119119        5.7399288956
  O         8.5095344999        8.7512466458        5.6738685969
  O        11.0691944249        4.3400233591        5.7214913200
  O         0.8251287394       13.2056644050        5.7381123845
  O         3.4155681666        8.7693235071        5.7631388504
  O         5.9697558605        4.3111060990        5.6936922858
  O        -4.3047110904       13.2069755947        5.7340360987
  O        -1.7410655796        8.7660419173        5.7330084262
  O         0.8233823590        4.3260736587        5.7315989097
  O         3.4691216519       11.8642950040        5.7517819991
  O         5.9699114430        7.3276513892        5.5661029327
  O         8.5892687291        2.9954080545        5.7516930308
  O        -1.6637926839       11.8678280195        5.7391431689
  O         0.9045462238        7.4302728595        5.7372981505
  O         3.4661029243        2.9849483566        5.7349252286
  O        -6.7969739963       11.8583421049        5.7392594332
  O        -4.2470191924        7.4074346843        5.7296939582
  O        -1.6636044562        2.9868992444        5.7359813859
 Fe         7.6731083729       10.3166499392        6.0152808150
 Fe        10.2326797204        5.8882937251        6.2704212507
 Fe        12.7847716755        1.4601973244        6.0012551160
 Fe         2.5217107912       10.3368346562        5.9787279379
 Fe         5.0537788654        5.8050325478        6.2411709780
 Fe         7.6562760635        1.4597500599        5.9921430660
 Fe        -2.5993432521       10.3387137295        6.0011945749
 Fe        -0.0304958571        5.8999979886        6.0030934193
 Fe         2.5297186756        1.4601304971        6.0016270655
  C         9.9084215001        4.7181623634       10.4047577016
  C         9.2893074271        5.9834969762        9.8254564894
  H         9.3316158157        4.3586395673       11.2776045184
  O        11.2255768033        4.9516596449       10.8955438107
  H         9.8916500186        3.9254196341        9.6337911453
  C         7.8215329395        5.7821823233        9.4203927768
  C         7.3502821398        6.9340591137        8.5093550018
  O         6.9566534242        5.7472184450       10.5962515987
  H         7.7195900601        4.8326219263        8.8643156324
  C         5.8398023468        7.2079939522        8.5344550520
  H         7.5810343458        6.5969741987        7.4739349409
  O         8.0885423316        8.1609055314        8.6947085953
  C         5.2782813945        8.0511607568        9.6544299624
  O         5.0950146551        5.9598043700        8.4090087280
  H         5.6224857306        7.7491244179        7.6028918891
  H         4.1815062782        8.0753869390        9.5461435556
  O         5.8060011794        9.3983023686        9.5732844766
  H         5.5455345921        7.6675382264       10.6424235261
  H        11.6906571639        5.4387538295       10.1871220449
  H         7.2917913003        5.0608488768       11.2002991434
  H         7.4612775494        8.7743873912        9.1420555516
  H         5.3241900511        5.3801935488        9.1879200965
  H         5.4508480855        9.8315833437        8.7658214011
  O        10.0969018862        6.3770031578        8.6731185288
  H         9.3231038809        6.7821085160       10.5924564550
  H         9.8486045991        7.3316294000        8.5396875747
     161
 i =        3, E =     -8104.5273459510
 Fe         5.0938794100       11.8196869300        0.3885799900
 Fe         7.6575796300        7.3792284900        0.3885799900
 Fe        10.2212798400        2.9387700600        0.3885799900
 Fe        -0.0335205200       11.8196869300        0.3885799900
 Fe         2.5301797000        7.3792284900        0.3885799900
 Fe         5.0938799200        2.9387700600        0.3885799900
 Fe        -5.1609204400       11.8196869300        0.3885799900
 Fe        -2.5972202200        7.3792284900        0.3885799900
 Fe        -0.0335200000        2.9387700600        0.3885799900
  O         8.4519195100        8.9577468800        1.1642700400
  O        11.0156197300        4.5172884400        1.1642700400
  O        13.5793199500        0.0768300000        1.1642700400
  O         3.3245195900        8.9577468800        1.1642700400
  O         5.8882198100        4.5172884400        1.1642700400
  O         8.4519200300        0.0768300000        1.1642700400
  O        -1.8028803300        8.9577468800        1.1642700400
  O         0.7608198900        4.5172884400        1.1642700400
  O         3.3245201100        0.0768300000        1.1642700400
  O         8.4568493000       11.7183869300        1.1650400200
  O        11.0205495200        7.2779284900        1.1650400200
  O        13.5842497300        2.8374700500        1.1650400200
  O         3.3294493700       11.7183869300        1.1650400200
  O         5.8931495900        7.2779284900        1.1650400200
  O         8.4568498100        2.8374700500        1.1650400200
  O        -1.7979505500       11.7183869300        1.1650400200
  O         0.7657496700        7.2779284900        1.1650400200
  O         3.3294498900        2.8374700500        1.1650400200
  O         6.0627194200       10.3425368500        1.1660399400
  O         8.6264196400        5.9020784100        1.1660399400
  O        11.1901198600        1.4616199700        1.1660399400
  O         0.9353195000       10.3425368500        1.1660399400
  O         3.4990197200        5.9020784100        1.1660399400
  O         6.0627199400        1.4616199700        1.1660399400
  O        -4.1920804200       10.3425368500        1.1660399400
  O        -1.6283802000        5.9020784100        1.1660399400
  O         0.9353200200        1.4616199700        1.1660399400
 Fe         7.6576695000       13.2997167500        1.9292099500
 Fe        10.2213697200        8.8592583200        1.9292099500
 Fe        12.7850699400        4.4187998800        1.9292099500
 Fe         2.5302695800       13.2997167500        1.9292099500
 Fe         5.0939698000        8.8592583200        1.9292099500
 Fe         7.6576700200        4.4187998800        1.9292099500
 Fe        -2.5971303400       13.2997167500        1.9292099500
 Fe        -0.0334301200        8.8592583200        1.9292099500
 Fe         2.5302701000        4.4187998800        1.9292099500
 Fe         7.6573893600       10.3392168700        2.7128999200
 Fe        10.2210895800        5.8987584300        2.7128999200
 Fe        12.7847898000        1.4582999900        2.7128999200
 Fe         2.5299894400       10.3392168700        2.7128999200
 Fe         5.0936896600        5.8987584300        2.7128999200
 Fe         7.6573898800        1.4582999900        2.7128999200
 Fe        -2.5974104800       10.3392168700        2.7128999200
 Fe        -0.0337102600        5.8987584300        2.7128999200
 Fe         2.5299899600        1.4582999900        2.7128999200
  O         4.1353789073       13.2940623386        3.5026299118
  O         6.7332772641        8.8837578913        3.5431141920
  O         9.3075312898        4.4274010751        3.5573315953
  O        -0.9906696097       13.2980207948        3.5016808248
  O         1.5829488548        8.8615878052        3.5155131142
  O         4.1289853193        4.4061077393        3.4744309789
  O        -6.1220160277       13.2981621558        3.5003065043
  O        -3.5428996022        8.8652957830        3.5118446331
  O        -0.9927434844        4.4164980189        3.5019234284
  O         6.8543963212       11.9062723821        3.5096090908
  O         9.4170728791        7.4796170311        3.4691657294
  O        11.9883290153        3.0250405899        3.5041003432
  O         1.7335710787       11.9089715210        3.5100410970
  O         4.2581275839        7.4651822826        3.4875164797
  O         6.8582163252        2.9681073594        3.5799270067
  O        -3.3967809301       11.9116252099        3.5020514216
  O        -0.8373393822        7.4734006594        3.5004094316
  O         1.7292092390        3.0242884545        3.5070672056
  O         9.4210443210       10.2561298682        3.5014830487
  O        11.9967565666        5.8042255170        3.4782646907
  O        14.5487231903        1.3631808793        3.5013688588
  O         4.2626155739       10.2765431202        3.5713652574
  O         6.8412097327        5.8246135861        3.5195947674
  O         9.4228458555        1.3687983008        3.5060428682
  O        -0.8312019577       10.2492803300        3.4979081760
  O         1.7211012625        5.8084649874        3.4973477522
  O         4.2940071929        1.3662784800        3.4990131009
 Fe         5.1096971297       11.8288228103        4.5260062556
 Fe         7.6791846882        7.3556487444        4.4729474765
 Fe        10.2349997415        2.9391301908        4.5191645390
 Fe        -0.0361734989       11.8197166181        4.5021152967
 Fe         2.5345650354        7.3674223637        4.5107704399
 Fe         5.0747096490        2.9440261879        4.5080255858
 Fe        -5.1603883926       11.8183778949        4.5024768965
 Fe        -2.6108536470        7.3654030597        4.5055563791
 Fe        -0.0328691015        2.9394891062        4.5030998182
 Fe         7.6620232890       13.2972354103        4.8179798810
 Fe        10.2327374367        8.8417851411        4.8019467658
 Fe        12.7737326090        4.4259690238        4.8186448821
 Fe         2.5349218424       13.2990498280        4.8197257439
 Fe         5.0989947676        8.8367280348        4.7936025958
 Fe         7.6655914057        4.4250641230        4.8200736799
 Fe        -2.5973299129       13.3012904735        4.8148973977
 Fe        -0.0365603665        8.8546196819        4.8125178343
 Fe         2.5366213862        4.4231003921        4.8081181631
  O         5.8587130370       10.3437777922        5.8109589312
  O         8.4775165149        5.9381010137        5.7206437952
  O        10.9936934487        1.4968171208        5.7467825584
  O         0.7296190320       10.3818370750        5.7421769743
  O         3.3081664960        5.9427660335        5.6859848895
  O         5.8631851348        1.5004080932        5.7428406673
  O        -4.3937134701       10.3744525720        5.7372178657
  O        -1.8217616043        5.9421786819        5.7396263671
  O         0.7378321527        1.4991569437        5.7371442206
  O         5.9564285637       13.2077045509        5.7504342404
  O         8.5097611691        8.7478083613        5.6678828811
  O        11.0653339623        4.3511820656        5.7315099715
  O         0.8265858158       13.2054040267        5.7415569815
  O         3.4179763823        8.7665531971        5.7809176551
  O         5.9654841633        4.3027944621        5.6980348663
  O        -4.3049040736       13.2061710003        5.7369712801
  O        -1.7435723295        8.7632063006        5.7354365265
  O         0.8268895933        4.3259890641        5.7338579343
  O         3.4699552402       11.8655133241        5.7615099940
  O         5.9626812382        7.2830885809        5.5520516159
  O         8.5941480465        2.9954683339        5.7656631615
  O        -1.6648741882       11.8697165317        5.7432080781
  O         0.9025784935        7.4337638416        5.7446107418
  O         3.4576095889        2.9925320118        5.7478439650
  O        -6.7987980732       11.8557811233        5.7439349633
  O        -4.2569510516        7.3967376590        5.7388122068
  O        -1.6663237730        2.9909970130        5.7386226861
 Fe         7.6775620772       10.3102574359        6.0155464820
 Fe        10.2371767156        5.8852798843        6.3902637101
 Fe        12.7856006612        1.4623266164        5.9978409493
 Fe         2.5199619179       10.3362902165        5.9758769139
 Fe         5.0368215920        5.7718173520        6.3156098894
 Fe         7.6556948722        1.4599057314        5.9876166114
 Fe        -2.6004022857       10.3384606510        5.9974873894
 Fe        -0.0298130447        5.8997646655        5.9975264379
 Fe         2.5294124836        1.4604888331        5.9968901765
  C         9.9149983976        4.7167985723       10.3897069884
  C         9.2888324494        5.9754136880        9.8081542397
  H         9.3302541990        4.3667168352       11.2625377108
  O        11.2256505466        4.9587453922       10.8935132751
  H         9.8987529390        3.9147262928        9.6291368360
  C         7.8203809736        5.7826378155        9.4152625745
  C         7.3502354618        6.9452144737        8.5225858203
  O         6.9578361328        5.7396945563       10.5937353076
  H         7.7119011550        4.8363329447        8.8533927913
  C         5.8503992644        7.2366052866        8.5464066790
  H         7.5644306092        6.6224817103        7.4753734537
  O         8.0938434964        8.1669634737        8.7319528637
  C         5.2806053269        8.0587913083        9.6687959727
  O         5.0910709525        5.9849964542        8.3752353505
  H         5.6505063292        7.8165770022        7.6345796589
  H         4.1832858015        8.0759473797        9.5618891725
  O         5.7961887591        9.4095294444        9.5832364017
  H         5.5297121111        7.6982911083       10.6723986484
  H        11.7030752362        5.4313631512       10.1836755375
  H         7.2881785053        5.0514394051       11.1983773353
  H         7.4625929412        8.7861690770        9.1651986078
  H         5.3261380730        5.3516459843        9.1213470978
  H         5.4508906404        9.8158779499        8.7520206981
  O        10.0780481527        6.3812461584        8.6308354081
  H         9.3376774642        6.7857463262       10.5616559390
  H         9.8451141306        7.3527924182        8.5403128575
     161
 i =        4, E =     -8104.5370765642
 Fe         5.0938794100       11.8196869300        0.3885799900
 Fe         7.6575796300        7.3792284900        0.3885799900
 Fe        10.2212798400        2.9387700600        0.3885799900
 Fe        -0.0335205200       11.8196869300        0.3885799900
 Fe         2.5301797000        7.3792284900        0.3885799900
 Fe         5.0938799200        2.9387700600        0.3885799900
 Fe        -5.1609204400       11.8196869300        0.3885799900
 Fe        -2.5972202200        7.3792284900        0.3885799900
 Fe        -0.0335200000        2.9387700600        0.3885799900
  O         8.4519195100        8.9577468800        1.1642700400
  O        11.0156197300        4.5172884400        1.1642700400
  O        13.5793199500        0.0768300000        1.1642700400
  O         3.3245195900        8.9577468800        1.1642700400
  O         5.8882198100        4.5172884400        1.1642700400
  O         8.4519200300        0.0768300000        1.1642700400
  O        -1.8028803300        8.9577468800        1.1642700400
  O         0.7608198900        4.5172884400        1.1642700400
  O         3.3245201100        0.0768300000        1.1642700400
  O         8.4568493000       11.7183869300        1.1650400200
  O        11.0205495200        7.2779284900        1.1650400200
  O        13.5842497300        2.8374700500        1.1650400200
  O         3.3294493700       11.7183869300        1.1650400200
  O         5.8931495900        7.2779284900        1.1650400200
  O         8.4568498100        2.8374700500        1.1650400200
  O        -1.7979505500       11.7183869300        1.1650400200
  O         0.7657496700        7.2779284900        1.1650400200
  O         3.3294498900        2.8374700500        1.1650400200
  O         6.0627194200       10.3425368500        1.1660399400
  O         8.6264196400        5.9020784100        1.1660399400
  O        11.1901198600        1.4616199700        1.1660399400
  O         0.9353195000       10.3425368500        1.1660399400
  O         3.4990197200        5.9020784100        1.1660399400
  O         6.0627199400        1.4616199700        1.1660399400
  O        -4.1920804200       10.3425368500        1.1660399400
  O        -1.6283802000        5.9020784100        1.1660399400
  O         0.9353200200        1.4616199700        1.1660399400
 Fe         7.6576695000       13.2997167500        1.9292099500
 Fe        10.2213697200        8.8592583200        1.9292099500
 Fe        12.7850699400        4.4187998800        1.9292099500
 Fe         2.5302695800       13.2997167500        1.9292099500
 Fe         5.0939698000        8.8592583200        1.9292099500
 Fe         7.6576700200        4.4187998800        1.9292099500
 Fe        -2.5971303400       13.2997167500        1.9292099500
 Fe        -0.0334301200        8.8592583200        1.9292099500
 Fe         2.5302701000        4.4187998800        1.9292099500
 Fe         7.6573893600       10.3392168700        2.7128999200
 Fe        10.2210895800        5.8987584300        2.7128999200
 Fe        12.7847898000        1.4582999900        2.7128999200
 Fe         2.5299894400       10.3392168700        2.7128999200
 Fe         5.0936896600        5.8987584300        2.7128999200
 Fe         7.6573898800        1.4582999900        2.7128999200
 Fe        -2.5974104800       10.3392168700        2.7128999200
 Fe        -0.0337102600        5.8987584300        2.7128999200
 Fe         2.5299899600        1.4582999900        2.7128999200
  O         4.1341066701       13.3036000869        3.5079366638
  O         6.7234760852        8.8850095375        3.5533803373
  O         9.2976868035        4.4310960663        3.5588492569
  O        -0.9949790957       13.3019978696        3.5010976442
  O         1.5757960471        8.8663626344        3.5146086813
  O         4.1292178006        4.4126720115        3.4851618969
  O        -6.1246120331       13.3054571651        3.5031355673
  O        -3.5510556056        8.8687037280        3.5162579507
  O        -0.9950040885        4.4265593159        3.5101064081
  O         6.8575108439       11.9061898867        3.5120844283
  O         9.4134887785        7.4762470945        3.4797236428
  O        11.9935928926        3.0205451238        3.5141066778
  O         1.7382524739       11.9106050839        3.5064930476
  O         4.2716371837        7.4668157563        3.4955698002
  O         6.8695670640        2.9719662579        3.5906561528
  O        -3.3896212311       11.9105302514        3.5041455837
  O        -0.8301370093        7.4711456707        3.5043685763
  O         1.7338065069        3.0184422618        3.5139805122
  O         9.4182134456       10.2470973340        3.5055196313
  O        11.9908602936        5.8000708794        3.4852393216
  O        14.5430753294        1.3566515153        3.5044949908
  O         4.2644162213       10.2568852137        3.5761999921
  O         6.8417431785        5.8116112819        3.5276975309
  O         9.4192385675        1.3659415956        3.5094501849
  O        -0.8364874686       10.2423835039        3.5002941414
  O         1.7128003981        5.8052261479        3.5081337823
  O         4.2864284345        1.3597845851        3.5051017395
 Fe         5.1022845702       11.8240335324        4.5105380369
 Fe         7.6633341919        7.3527668155        4.4957483320
 Fe        10.2324333897        2.9468108240        4.5061147260
 Fe        -0.0340869587       11.8186255843        4.4819977665
 Fe         2.5400841099        7.3662953853        4.4922870133
 Fe         5.0815680529        2.9428867178        4.4921003863
 Fe        -5.1599319996       11.8159872237        4.4809103480
 Fe        -2.6118699807        7.3649439363        4.4872706450
 Fe        -0.0362403548        2.9390990103        4.4831686135
 Fe         7.6622896396       13.2969847456        4.8190702286
 Fe        10.2233824360        8.8358432891        4.8154236500
 Fe        12.7687079633        4.4260739009        4.8216981288
 Fe         2.5331698109       13.2992115217        4.8210403367
 Fe         5.1024469984        8.8181662961        4.8433762382
 Fe         7.6642488583        4.4292224502        4.8572494651
 Fe        -2.5962960731       13.3009106989        4.8168569478
 Fe        -0.0365488554        8.8552582057        4.8163628618
 Fe         2.5339152278        4.4224938195        4.8075575506
  O         5.8616290833       10.3575542419        5.7870482122
  O         8.4581201793        5.9473135043        5.7659398215
  O        10.9918413427        1.5059663527        5.7404063392
  O         0.7329479549       10.3875496103        5.7344634409
  O         3.2951874447        5.9379176256        5.7242909966
  O         5.8560157172        1.5037666612        5.7446056382
  O        -4.3973168768       10.3787897117        5.7328128413
  O        -1.8288062807        5.9469527792        5.7380983402
  O         0.7348841395        1.5069087535        5.7330400092
  O         5.9543316652       13.2022876501        5.7429470828
  O         8.5062990591        8.7434167455        5.7136408711
  O        11.0711219693        4.3403234541        5.7607397942
  O         0.8212183641       13.2003299218        5.7337863077
  O         3.3947765298        8.7524629427        5.7725387378
  O         5.9458159070        4.3002454536        5.7410319310
  O        -4.3092611043       13.1998683223        5.7313296342
  O        -1.7488927022        8.7550853372        5.7319183242
  O         0.8236190979        4.3194252986        5.7308812443
  O         3.4728283695       11.8711785820        5.7550586176
  O         6.0130938569        7.3395520257        5.6951395420
  O         8.6076802572        2.9893304392        5.7674747550
  O        -1.6577329671       11.8679831895        5.7350484161
  O         0.9109912283        7.4295293091        5.7378776520
  O         3.4669802307        2.9960711270        5.7462922499
  O        -6.7862446815       11.8604769281        5.7368377703
  O        -4.2395634342        7.4016550844        5.7524859350
  O        -1.6607745985        2.9926716597        5.7335452954
 Fe         7.6714207621       10.3225298907        5.9729267227
 Fe        10.2302239341        5.8888147963        6.1836065245
 Fe        12.7870976487        1.4611806344        5.9649000637
 Fe         2.5291053112       10.3369215136        5.9574342513
 Fe         5.0557983962        5.8249481847        6.0761337203
 Fe         7.6547213500        1.4597545199        5.9543094658
 Fe        -2.5996266770       10.3378663142        5.9624922634
 Fe        -0.0317639557        5.8991158805        5.9604411755
 Fe         2.5303011951        1.4605425268        5.9624257718
  C         9.9232213867        4.7163952181       10.3980923156
  C         9.2796840447        5.9679658552        9.8204201175
  H         9.3253406146        4.3660095737       11.2586491922
  O        11.2367677427        4.9541855571       10.8919115320
  H         9.8989109242        3.9198826490        9.6292739403
  C         7.8083540830        5.8018754242        9.4175433261
  C         7.3415660614        6.9277049845        8.4725679006
  O         6.9571826131        5.7337607116       10.5974328504
  H         7.7153837393        4.8497751898        8.8586664276
  C         5.8337263618        7.2208061074        8.5318525529
  H         7.5959511900        6.5988602643        7.4498477718
  O         8.0672343203        8.1500251669        8.7309959432
  C         5.2637651162        8.0720621024        9.6611780800
  O         5.0991773754        5.9679050356        8.3957356322
  H         5.6237652420        7.7489806260        7.5903720588
  H         4.1673958391        8.0611070696        9.5570599189
  O         5.8241608256        9.4068433787        9.5768631838
  H         5.5471186427        7.6825332335       10.6456241416
  H        11.7031666611        5.4345655698       10.1818259801
  H         7.2915035606        5.0495384297       11.2037442104
  H         7.4804058197        8.8145503146        9.1623394909
  H         5.3324875850        5.4130590627        9.1689899231
  H         5.4516837158        9.8206605823        8.7709591890
  O        10.0966555783        6.3893307026        8.6833497341
  H         9.3353894425        6.7830325542       10.5653624734
  H         9.8468964547        7.3285750955        8.5245092919
     161
 i =        5, E =     -8104.5442064921
 Fe         5.0938794100       11.8196869300        0.3885799900
 Fe         7.6575796300        7.3792284900        0.3885799900
 Fe        10.2212798400        2.9387700600        0.3885799900
 Fe        -0.0335205200       11.8196869300        0.3885799900
 Fe         2.5301797000        7.3792284900        0.3885799900
 Fe         5.0938799200        2.9387700600        0.3885799900
 Fe        -5.1609204400       11.8196869300        0.3885799900
 Fe        -2.5972202200        7.3792284900        0.3885799900
 Fe        -0.0335200000        2.9387700600        0.3885799900
  O         8.4519195100        8.9577468800        1.1642700400
  O        11.0156197300        4.5172884400        1.1642700400
  O        13.5793199500        0.0768300000        1.1642700400
  O         3.3245195900        8.9577468800        1.1642700400
  O         5.8882198100        4.5172884400        1.1642700400
  O         8.4519200300        0.0768300000        1.1642700400
  O        -1.8028803300        8.9577468800        1.1642700400
  O         0.7608198900        4.5172884400        1.1642700400
  O         3.3245201100        0.0768300000        1.1642700400
  O         8.4568493000       11.7183869300        1.1650400200
  O        11.0205495200        7.2779284900        1.1650400200
  O        13.5842497300        2.8374700500        1.1650400200
  O         3.3294493700       11.7183869300        1.1650400200
  O         5.8931495900        7.2779284900        1.1650400200
  O         8.4568498100        2.8374700500        1.1650400200
  O        -1.7979505500       11.7183869300        1.1650400200
  O         0.7657496700        7.2779284900        1.1650400200
  O         3.3294498900        2.8374700500        1.1650400200
  O         6.0627194200       10.3425368500        1.1660399400
  O         8.6264196400        5.9020784100        1.1660399400
  O        11.1901198600        1.4616199700        1.1660399400
  O         0.9353195000       10.3425368500        1.1660399400
  O         3.4990197200        5.9020784100        1.1660399400
  O         6.0627199400        1.4616199700        1.1660399400
  O        -4.1920804200       10.3425368500        1.1660399400
  O        -1.6283802000        5.9020784100        1.1660399400
  O         0.9353200200        1.4616199700        1.1660399400
 Fe         7.6576695000       13.2997167500        1.9292099500
 Fe        10.2213697200        8.8592583200        1.9292099500
 Fe        12.7850699400        4.4187998800        1.9292099500
 Fe         2.5302695800       13.2997167500        1.9292099500
 Fe         5.0939698000        8.8592583200        1.9292099500
 Fe         7.6576700200        4.4187998800        1.9292099500
 Fe        -2.5971303400       13.2997167500        1.9292099500
 Fe        -0.0334301200        8.8592583200        1.9292099500
 Fe         2.5302701000        4.4187998800        1.9292099500
 Fe         7.6573893600       10.3392168700        2.7128999200
 Fe        10.2210895800        5.8987584300        2.7128999200
 Fe        12.7847898000        1.4582999900        2.7128999200
 Fe         2.5299894400       10.3392168700        2.7128999200
 Fe         5.0936896600        5.8987584300        2.7128999200
 Fe         7.6573898800        1.4582999900        2.7128999200
 Fe        -2.5974104800       10.3392168700        2.7128999200
 Fe        -0.0337102600        5.8987584300        2.7128999200
 Fe         2.5299899600        1.4582999900        2.7128999200
  O         4.1361776625       13.3018728842        3.5089054510
  O         6.7122442278        8.8802516704        3.5423479341
  O         9.2869449867        4.4282079589        3.5429670076
  O        -0.9938037130       13.2980688547        3.4990243487
  O         1.5748718177        8.8668843102        3.5112127797
  O         4.1301764664        4.4109682701        3.4876829133
  O        -6.1229447328       13.3000827647        3.5004636477
  O        -3.5516601387        8.8633531012        3.5114317934
  O        -0.9936850203        4.4232907172        3.5064488128
  O         6.8560023483       11.9051920560        3.5132496366
  O         9.4208672470        7.4770619672        3.4782860522
  O        11.9913154030        3.0223089249        3.5141907362
  O         1.7350709594       11.9129835424        3.5037269997
  O         4.2772575618        7.4724777060        3.4959732236
  O         6.8674640224        2.9831964560        3.5712201906
  O        -3.3923098144       11.9100980555        3.5031406198
  O        -0.8308618004        7.4710668470        3.5026718122
  O         1.7303226793        3.0197190459        3.5090610195
  O         9.4209228511       10.2490507880        3.5011675160
  O        11.9938812020        5.8013192966        3.4849744914
  O        14.5444506492        1.3586641764        3.5032518446
  O         4.2675291043       10.2533166440        3.5621161327
  O         6.8497238735        5.8012317382        3.5206782148
  O         9.4208448460        1.3652029037        3.5070538522
  O        -0.8344232394       10.2440492145        3.4986078877
  O         1.7177671965        5.8052603730        3.5037422791
  O         4.2866981546        1.3606203165        3.5044264679
 Fe         5.0988918676       11.8137825877        4.5112404380
 Fe         7.6668535498        7.3538722137        4.4846110511
 Fe        10.2260591453        2.9523683247        4.5049462208
 Fe        -0.0339702820       11.8183703339        4.4903993050
 Fe         2.5392272299        7.3707365545        4.4929229995
 Fe         5.0899014209        2.9390978260        4.4950673599
 Fe        -5.1596817835       11.8128552248        4.4902794188
 Fe        -2.6110701309        7.3661723858        4.4937999296
 Fe        -0.0367325833        2.9398491475        4.4908627314
 Fe         7.6619437950       13.2971543012        4.8196692066
 Fe        10.2219265917        8.8346223619        4.8136377261
 Fe        12.7699877794        4.4265270548        4.8236946787
 Fe         2.5340813964       13.3004966662        4.8226704912
 Fe         5.0980628825        8.8286084790        4.8476517835
 Fe         7.6696550876        4.4218275980        4.8622823148
 Fe        -2.5960915329       13.3002356324        4.8169985742
 Fe        -0.0359621164        8.8537096020        4.8154519103
 Fe         2.5305033632        4.4184027059        4.8077322904
  O         5.8634368152       10.3566052258        5.8052105022
  O         8.4627208503        5.9476148097        5.7594910354
  O        10.9925860541        1.5105577060        5.7393933174
  O         0.7339788507       10.3847217720        5.7342983126
  O         3.2949287058        5.9380735379        5.7097479362
  O         5.8517466644        1.4981649019        5.7527214956
  O        -4.3971595435       10.3733842219        5.7332741156
  O        -1.8290085020        5.9475868275        5.7384536026
  O         0.7353482576        1.5053844733        5.7339493961
  O         5.9501163371       13.1984812722        5.7394754160
  O         8.5061911811        8.7384367058        5.7124256296
  O        11.0719304536        4.3443637835        5.7589898786
  O         0.8216983511       13.2028003329        5.7335095798
  O         3.3961914596        8.7475525919        5.7847742220
  O         5.9493520457        4.3005364860        5.7375842541
  O        -4.3096783978       13.2025603074        5.7303807400
  O        -1.7470094142        8.7579293015        5.7323614577
  O         0.8216243561        4.3212540674        5.7316476854
  O         3.4725548719       11.8730733463        5.7601140958
  O         6.0018401672        7.3282857805        5.6668026191
  O         8.6117683321        2.9887892934        5.7814587698
  O        -1.6610846838       11.8656238674        5.7346916703
  O         0.9093051494        7.4279858892        5.7387234808
  O         3.4697014532        2.9929082612        5.7425088302
  O        -6.7899935817       11.8590626632        5.7371678225
  O        -4.2469296899        7.3958431120        5.7453654763
  O        -1.6627579918        2.9908121469        5.7356498738
 Fe         7.6745877602       10.3185718111        5.9869600093
 Fe        10.2310360422        5.8862153269        6.2501585223
 Fe        12.7869568831        1.4592919154        5.9777628000
 Fe         2.5304350745       10.3358795228        5.9522085166
 Fe         5.0488851431        5.8145657952        6.1271226692
 Fe         7.6515561438        1.4606967010        5.9507460395
 Fe        -2.6015954659       10.3366494692        5.9734095326
 Fe        -0.0334510325        5.8989985508        5.9718102194
 Fe         2.5293998147        1.4612537357        5.9747246961
  C         9.9133034397        4.7247080781       10.3867009720
  C         9.2868258736        5.9825440083        9.8033447837
  H         9.3297002717        4.3664656227       11.2536777166
  O        11.2266877964        4.9564885900       10.8839406715
  H         9.9075759475        3.9183396209        9.6275497397
  C         7.8145526704        5.7866785946        9.4152256827
  C         7.3454417291        6.9446073196        8.5084087588
  O         6.9571529380        5.7377314319       10.5921781120
  H         7.7089195553        4.8430444017        8.8469989058
  C         5.8384514779        7.2272709117        8.5378346352
  H         7.5869922743        6.6233682576        7.4749600927
  O         8.0873769107        8.1617812529        8.7364714647
  C         5.2695440311        8.0674670109        9.6720559924
  O         5.0902949807        5.9816372257        8.3732399572
  H         5.6301988094        7.7718047274        7.6045727427
  H         4.1730455243        8.0696783683        9.5610622192
  O         5.8052546818        9.4118173365        9.5786658383
  H         5.5470818399        7.6869765012       10.6607500277
  H        11.7091805724        5.4309224904       10.1796148106
  H         7.2919356728        5.0483219433       11.1931457980
  H         7.4741092831        8.8025633365        9.1672997047
  H         5.3326559892        5.4046826451        9.1333667519
  H         5.4547545411        9.8259753800        8.7620170466
  O        10.0972388365        6.3822786184        8.6492301129
  H         9.3368439263        6.7818825181       10.5629595766
  H         9.8426585807        7.3319756987        8.5292986047
     161
 i =        6, E =     -8104.5442008117
 Fe         5.0938794100       11.8196869300        0.3885799900
 Fe         7.6575796300        7.3792284900        0.3885799900
 Fe        10.2212798400        2.9387700600        0.3885799900
 Fe        -0.0335205200       11.8196869300        0.3885799900
 Fe         2.5301797000        7.3792284900        0.3885799900
 Fe         5.0938799200        2.9387700600        0.3885799900
 Fe        -5.1609204400       11.8196869300        0.3885799900
 Fe        -2.5972202200        7.3792284900        0.3885799900
 Fe        -0.0335200000        2.9387700600        0.3885799900
  O         8.4519195100        8.9577468800        1.1642700400
  O        11.0156197300        4.5172884400        1.1642700400
  O        13.5793199500        0.0768300000        1.1642700400
  O         3.3245195900        8.9577468800        1.1642700400
  O         5.8882198100        4.5172884400        1.1642700400
  O         8.4519200300        0.0768300000        1.1642700400
  O        -1.8028803300        8.9577468800        1.1642700400
  O         0.7608198900        4.5172884400        1.1642700400
  O         3.3245201100        0.0768300000        1.1642700400
  O         8.4568493000       11.7183869300        1.1650400200
  O        11.0205495200        7.2779284900        1.1650400200
  O        13.5842497300        2.8374700500        1.1650400200
  O         3.3294493700       11.7183869300        1.1650400200
  O         5.8931495900        7.2779284900        1.1650400200
  O         8.4568498100        2.8374700500        1.1650400200
  O        -1.7979505500       11.7183869300        1.1650400200
  O         0.7657496700        7.2779284900        1.1650400200
  O         3.3294498900        2.8374700500        1.1650400200
  O         6.0627194200       10.3425368500        1.1660399400
  O         8.6264196400        5.9020784100        1.1660399400
  O        11.1901198600        1.4616199700        1.1660399400
  O         0.9353195000       10.3425368500        1.1660399400
  O         3.4990197200        5.9020784100        1.1660399400
  O         6.0627199400        1.4616199700        1.1660399400
  O        -4.1920804200       10.3425368500        1.1660399400
  O        -1.6283802000        5.9020784100        1.1660399400
  O         0.9353200200        1.4616199700        1.1660399400
 Fe         7.6576695000       13.2997167500        1.9292099500
 Fe        10.2213697200        8.8592583200        1.9292099500
 Fe        12.7850699400        4.4187998800        1.9292099500
 Fe         2.5302695800       13.2997167500        1.9292099500
 Fe         5.0939698000        8.8592583200        1.9292099500
 Fe         7.6576700200        4.4187998800        1.9292099500
 Fe        -2.5971303400       13.2997167500        1.9292099500
 Fe        -0.0334301200        8.8592583200        1.9292099500
 Fe         2.5302701000        4.4187998800        1.9292099500
 Fe         7.6573893600       10.3392168700        2.7128999200
 Fe        10.2210895800        5.8987584300        2.7128999200
 Fe        12.7847898000        1.4582999900        2.7128999200
 Fe         2.5299894400       10.3392168700        2.7128999200
 Fe         5.0936896600        5.8987584300        2.7128999200
 Fe         7.6573898800        1.4582999900        2.7128999200
 Fe        -2.5974104800       10.3392168700        2.7128999200
 Fe        -0.0337102600        5.8987584300        2.7128999200
 Fe         2.5299899600        1.4582999900        2.7128999200
  O         4.1361776625       13.3018728842        3.5089054510
  O         6.7122442278        8.8802516704        3.5423479341
  O         9.2869449867        4.4282079589        3.5429670076
  O        -0.9938037130       13.2980688547        3.4990243487
  O         1.5748718177        8.8668843102        3.5112127797
  O         4.1301764664        4.4109682701        3.4876829133
  O        -6.1229447328       13.3000827647        3.5004636477
  O        -3.5516601387        8.8633531012        3.5114317934
  O        -0.9936850203        4.4232907172        3.5064488128
  O         6.8560023483       11.9051920560        3.5132496366
  O         9.4208672470        7.4770619672        3.4782860522
  O        11.9913154030        3.0223089249        3.5141907362
  O         1.7350709594       11.9129835424        3.5037269997
  O         4.2772575618        7.4724777060        3.4959732236
  O         6.8674640224        2.9831964560        3.5712201906
  O        -3.3923098144       11.9100980555        3.5031406198
  O        -0.8308618004        7.4710668470        3.5026718122
  O         1.7303226793        3.0197190459        3.5090610195
  O         9.4209228511       10.2490507880        3.5011675160
  O        11.9938812020        5.8013192966        3.4849744914
  O        14.5444506492        1.3586641764        3.5032518446
  O         4.2675291043       10.2533166440        3.5621161327
  O         6.8497238735        5.8012317382        3.5206782148
  O         9.4208448460        1.3652029037        3.5070538522
  O        -0.8344232394       10.2440492145        3.4986078877
  O         1.7177671965        5.8052603730        3.5037422791
  O         4.2866981546        1.3606203165        3.5044264679
 Fe         5.0988918676       11.8137825877        4.5112404380
 Fe         7.6668535498        7.3538722137        4.4846110511
 Fe        10.2260591453        2.9523683247        4.5049462208
 Fe        -0.0339702820       11.8183703339        4.4903993050
 Fe         2.5392272299        7.3707365545        4.4929229995
 Fe         5.0899014209        2.9390978260        4.4950673599
 Fe        -5.1596817835       11.8128552248        4.4902794188
 Fe        -2.6110701309        7.3661723858        4.4937999296
 Fe        -0.0367325833        2.9398491475        4.4908627314
 Fe         7.6619437950       13.2971543012        4.8196692066
 Fe        10.2219265917        8.8346223619        4.8136377261
 Fe        12.7699877794        4.4265270548        4.8236946787
 Fe         2.5340813964       13.3004966662        4.8226704912
 Fe         5.0980628825        8.8286084790        4.8476517835
 Fe         7.6696550876        4.4218275980        4.8622823148
 Fe        -2.5960915329       13.3002356324        4.8169985742
 Fe        -0.0359621164        8.8537096020        4.8154519103
 Fe         2.5305033632        4.4184027059        4.8077322904
  O         5.8634368152       10.3566052258        5.8052105022
  O         8.4627208503        5.9476148097        5.7594910354
  O        10.9925860541        1.5105577060        5.7393933174
  O         0.7339788507       10.3847217720        5.7342983126
  O         3.2949287058        5.9380735379        5.7097479362
  O         5.8517466644        1.4981649019        5.7527214956
  O        -4.3971595435       10.3733842219        5.7332741156
  O        -1.8290085020        5.9475868275        5.7384536026
  O         0.7353482576        1.5053844733        5.7339493961
  O         5.9501163371       13.1984812722        5.7394754160
  O         8.5061911811        8.7384367058        5.7124256296
  O        11.0719304536        4.3443637835        5.7589898786
  O         0.8216983511       13.2028003329        5.7335095798
  O         3.3961914596        8.7475525919        5.7847742220
  O         5.9493520457        4.3005364860        5.7375842541
  O        -4.3096783978       13.2025603074        5.7303807400
  O        -1.7470094142        8.7579293015        5.7323614577
  O         0.8216243561        4.3212540674        5.7316476854
  O         3.4725548719       11.8730733463        5.7601140958
  O         6.0018401672        7.3282857805        5.6668026191
  O         8.6117683321        2.9887892934        5.7814587698
  O        -1.6610846838       11.8656238674        5.7346916703
  O         0.9093051494        7.4279858892        5.7387234808
  O         3.4697014532        2.9929082612        5.7425088302
  O        -6.7899935817       11.8590626632        5.7371678225
  O        -4.2469296899        7.3958431120        5.7453654763
  O        -1.6627579918        2.9908121469        5.7356498738
 Fe         7.6745877602       10.3185718111        5.9869600093
 Fe        10.2310360422        5.8862153269        6.2501585223
 Fe        12.7869568831        1.4592919154        5.9777628000
 Fe         2.5304350745       10.3358795228        5.9522085166
 Fe         5.0488851431        5.8145657952        6.1271226692
 Fe         7.6515561438        1.4606967010        5.9507460395
 Fe        -2.6015954659       10.3366494692        5.9734095326
 Fe        -0.0334510325        5.8989985508        5.9718102194
 Fe         2.5293998147        1.4612537357        5.9747246961
  C         9.9133034397        4.7247080781       10.3867009720
  C         9.2868258736        5.9825440083        9.8033447837
  H         9.3297002717        4.3664656227       11.2536777166
  O        11.2266877964        4.9564885900       10.8839406715
  H         9.9075759475        3.9183396209        9.6275497397
  C         7.8145526704        5.7866785946        9.4152256827
  C         7.3454417291        6.9446073196        8.5084087588
  O         6.9571529380        5.7377314319       10.5921781120
  H         7.7089195553        4.8430444017        8.8469989058
  C         5.8384514779        7.2272709117        8.5378346352
  H         7.5869922743        6.6233682576        7.4749600927
  O         8.0873769107        8.1617812529        8.7364714647
  C         5.2695440311        8.0674670109        9.6720559924
  O         5.0902949807        5.9816372257        8.3732399572
  H         5.6301988094        7.7718047274        7.6045727427
  H         4.1730455243        8.0696783683        9.5610622192
  O         5.8052546818        9.4118173365        9.5786658383
  H         5.5470818399        7.6869765012       10.6607500277
  H        11.7091805724        5.4309224904       10.1796148106
  H         7.2919356728        5.0483219433       11.1931457980
  H         7.4741092831        8.8025633365        9.1672997047
  H         5.3326559892        5.4046826451        9.1333667519
  H         5.4547545411        9.8259753800        8.7620170466
  O        10.0972388365        6.3822786184        8.6492301129
  H         9.3368439263        6.7818825181       10.5629595766
  H         9.8426585807        7.3319756987        8.5292986047
