40
Properties=species:S:1:pos:R:3 energy=-34953.41151543757 pbc="F F F"
Au      15.03426299      14.84962278      16.42741488
Au      17.44901045      11.15717124      14.25877948
Au      14.44033581      12.06266847      17.38352638
Au      18.08025450      15.32633959      17.16321434
Au      12.42127940      14.01306269      17.34892583
Au      11.24487896      14.86359815      15.00135717
Au      12.93989393      18.08405781      13.34880442
Au      15.32071042      18.88612084      14.54427631
Au      14.86301749      15.99473785      13.90768806
Au      14.24713596      13.83992476      19.47587750
Au      14.92857587      12.31188250      13.18506312
Au      12.81846464      14.16122939      12.77722695
Au      15.18249642      14.30193120      11.26587619
Au      16.83758630      14.10376470      14.44209737
Au      12.81311902      12.50006250      15.01393802
Au      14.72316190      10.41026274      15.20151977
Au      17.66758521      16.87025674      14.88600735
Au      19.63984049      14.72252536      14.77616518
Au      15.97883798      17.57271537      17.05843047
Au      18.99035217      16.22054409      12.55248338
Au      13.26264017      17.93904300      16.19687009
Au      16.86176335      10.65905929      17.06940611
Au      10.90920944      16.26528480      12.55044352
Au      15.31015426      18.08553724      11.81349049
Au      11.17835554      16.45859698      17.41293082
Au      10.70695134      17.69778210      14.97092367
Au      16.87076325      13.12858725      18.45811077
Au      15.55292152      16.45435241       9.48635113
Au      18.72962998      12.66034703      16.35548684
Au      16.46157972      15.85265578      19.29176451
Au      17.78301020      14.96780680      10.40291152
Au      14.46327491      15.90990792      21.22785526
Au      13.74962099      16.66574121      18.60802200
Au      13.20078907      16.34378097      11.00319174
Au      17.56758071      12.84225948      12.04487341
Au      17.81352381      17.79518964      10.47163607
Au      17.77806095      18.91454575      12.99410360
Au      17.66829481      19.55717874      15.81922835
C       18.56589870       9.58448720      13.65263769
O       19.24464579       8.73906561      13.27185525
