26
Properties=species:S:1:pos:R:3 pbc="F F F"
C        1.80930000       0.93700000      -0.24140000
C        1.68190000      -0.57930000      -0.47000000
H        2.80260000       1.27030000      -0.56290000
O        0.85440000       1.71920000      -0.94530000
H        1.74020000       1.18060000       0.82400000
C        0.43620000      -1.23760000       0.16260000
C       -0.95080000      -0.86670000      -0.43310000
O        0.48700000      -1.07020000       1.59270000
H        0.55170000      -2.32150000       0.02180000
C       -1.97870000      -0.25450000       0.55750000
H       -1.39060000      -1.82230000      -0.75050000
O       -0.82080000      -0.11010000      -1.64650000
C       -1.68370000       1.19030000       0.97470000
O       -2.13250000      -1.07950000       1.71390000
H       -2.94850000      -0.24380000       0.04360000
H       -0.73330000       1.27900000       1.51080000
O       -1.68600000       2.05880000      -0.15400000
H       -2.45870000       1.53770000       1.66670000
H        0.47450000       1.15070000      -1.65160000
H        1.40850000      -1.31170000       1.83080000
H       -1.63020000       0.44040000      -1.71950000
H       -1.23260000      -1.16600000       2.10010000
H       -0.74290000       2.26380000      -0.34420000
O        2.82450000      -1.21440000       0.14180000
H        1.70760000      -0.80740000      -1.54170000
H        3.61110000      -0.94280000      -0.36600000
