12
Lattice="5.1123820279787395 0.0 0.0 2.5561910139893698 4.427452710080594 0.0 0.0 0.0 24.174242446240996" Properties=species:S:1:pos:R:3:tags:I:1:momenta:R:3:forces:R:3 energy=-45.33890467671007 free_energy=-45.33890467671007 stress="0.00048140044464373746 -1.730759620191263e-13 -2.7839365638878583e-13 -1.730759620191263e-13 0.0004814004446345333 7.40043725129934e-15 -2.7839365638878583e-13 7.40043725129934e-15 -2.1015152025932514e-05" pbc="T T F"
Cu       1.27809551       0.73790879      10.00000000        3      -0.96807883      -1.59624831       1.21725866      -0.00000002      -0.00000003      -0.01296884
Cu       3.83428652       0.73790879      10.00000000        3      -0.57237367       1.24615975       0.55007791       0.00000001      -0.00000001      -0.01296884
Cu       2.55619101       2.95163514      10.00000000        3      -2.15419951      -4.35621630      -2.69254589       0.00000003       0.00000003      -0.01296883
Cu       5.11238203       2.95163514      10.00000000        3      -0.13965873       0.42647246      -0.68023121      -0.00000002       0.00000002      -0.01296883
Cu      -0.00000000       1.47581757      12.08712122        2      -1.56698064      -0.99187955      -0.39333235      -0.00000001       0.00000003       0.00000005
Cu       2.55619101       1.47581757      12.08712122        2       1.06115233      -3.30055055       5.50461660       0.00000003       0.00000002       0.00000005
Cu       1.27809551       3.68954393      12.08712122        2       1.11484558       0.05762337       1.74280633      -0.00000003      -0.00000002       0.00000004
Cu       3.83428652       3.68954393      12.08712122        2       0.69082707       1.29256084      -1.86413955       0.00000001      -0.00000004       0.00000002
Cu       0.00000000       0.00000000      14.17424245        1      -0.10924476       0.42724938      -1.52964124      -0.00000001       0.00000003       0.01296881
Cu       2.55619101       0.00000000      14.17424245        1       0.71482355      -1.03331279      -1.22765593       0.00000002       0.00000002       0.01296880
Cu       1.27809551       2.21372636      14.17424245        1      -1.83766967      -2.37146420      -0.61064427      -0.00000002      -0.00000002       0.01296880
Cu       3.83428652       2.21372636      14.17424245        1      -1.29215360      -0.75365570       0.43626862       0.00000001      -0.00000003       0.01296879
