12
Lattice="5.1123820279787395 0.0 0.0 2.5561910139893698 4.427452710080594 0.0 0.0 0.0 24.174242446240996" Properties=species:S:1:pos:R:3:tags:I:1:momenta:R:3:forces:R:3 energy=-44.99074607754384 free_energy=-44.99074607754384 stress="0.0004952796162549143 4.7465262786329474e-05 1.8256927687321072e-05 4.7465262786329474e-05 0.0004738231475878341 -1.68408524073905e-05 1.8256927687321072e-05 -1.68408524073905e-05 0.0002235149755000872" pbc="T T F"
Cu       1.11657853       0.61039261       9.98137385        3      -0.52378740      -0.37837532      -1.25194650       0.18999842      -0.00924109       0.11835660
Cu       3.76919424       0.60219108      10.09096583        3      -0.47354446      -2.31838898       0.13240812      -0.17701033       0.28355307      -0.23004890
Cu       2.40329884       2.74320761       9.87789643        3       0.63323513       1.16062677       1.15407206       0.43571136       0.15036434       0.24056782
Cu       5.04295098       2.93556426       9.92412978        3      -1.16050666      -1.02868470      -0.48936711      -0.25294559      -0.42266029       0.06272589
Cu      -0.05458797       1.47068036      12.07423202        2       0.55870185      -0.66812778       0.93226647       0.01867028      -0.73573375       0.17960337
Cu       2.49328195       1.35395757      12.16615958        2      -0.81209629      -1.13018912      -3.51323390       0.21376001      -0.56583770       0.00266907
Cu       1.36285882       3.48269453      12.03135723        2      -0.39894773       0.14394935      -1.40535160      -0.52402528       0.65628778       0.28596619
Cu       3.82509885       3.52196998      12.03070678        2      -0.77853901      -2.13005382       1.74539913       0.00125771       0.52119461       0.17247447
Cu      -0.01729676      -0.13945934      14.11935774        1      -1.14949637      -1.24138805       0.36894571      -0.19172220       0.18230131       0.01239103
Cu       2.56514839      -0.24352010      14.29510274        1      -0.46193443       0.33097886       1.32076743      -0.13151093       0.51741505      -0.46266441
Cu       1.16717679       2.03816592      14.22478644        1       0.66962302      -0.56030554       0.91646699       0.22663228      -0.05261559      -0.05096612
Cu       3.69961997       2.14880389      14.29605614        1      -0.68814155      -2.10855084       0.50004482       0.19118425      -0.52502773      -0.33107501
