12
Lattice="5.1123820279787395 0.0 0.0 2.5561910139893698 4.427452710080594 0.0 0.0 0.0 24.174242446240996" Properties=species:S:1:pos:R:3:tags:I:1:momenta:R:3:forces:R:3 energy=-45.33890467671007 stress="0.00048140044464373746 -1.730759620191263e-13 -2.7839365638878583e-13 -1.730759620191263e-13 0.0004814004446345333 7.40043725129934e-15 -2.7839365638878583e-13 7.40043725129934e-15 -2.1015152025932514e-05" free_energy=-45.33890467671007 pbc="T T F"
Cu       1.27809551       0.73790879      10.00000000        3      -0.96807883      -1.59624831       1.21725866      -0.00000002      -0.00000003      -0.01296884
Cu       3.83428652       0.73790879      10.00000000        3      -0.57237367       1.24615975       0.55007791       0.00000001      -0.00000001      -0.01296884
Cu       2.55619101       2.95163514      10.00000000        3      -2.15419951      -4.35621630      -2.69254589       0.00000003       0.00000003      -0.01296883
Cu       5.11238203       2.95163514      10.00000000        3      -0.13965873       0.42647246      -0.68023121      -0.00000002       0.00000002      -0.01296883
Cu      -0.00000000       1.47581757      12.08712122        2      -1.56698064      -0.99187955      -0.39333235      -0.00000001       0.00000003       0.00000005
Cu       2.55619101       1.47581757      12.08712122        2       1.06115233      -3.30055055       5.50461660       0.00000003       0.00000002       0.00000005
Cu       1.27809551       3.68954393      12.08712122        2       1.11484558       0.05762337       1.74280633      -0.00000003      -0.00000002       0.00000004
Cu       3.83428652       3.68954393      12.08712122        2       0.69082707       1.29256084      -1.86413955       0.00000001      -0.00000004       0.00000002
Cu       0.00000000       0.00000000      14.17424245        1      -0.10924476       0.42724938      -1.52964124      -0.00000001       0.00000003       0.01296881
Cu       2.55619101       0.00000000      14.17424245        1       0.71482355      -1.03331279      -1.22765593       0.00000002       0.00000002       0.01296880
Cu       1.27809551       2.21372636      14.17424245        1      -1.83766967      -2.37146420      -0.61064427      -0.00000002      -0.00000002       0.01296880
Cu       3.83428652       2.21372636      14.17424245        1      -1.29215360      -0.75365570       0.43626862       0.00000001      -0.00000003       0.01296879
12
Lattice="5.1123820279787395 0.0 0.0 2.5561910139893698 4.427452710080594 0.0 0.0 0.0 24.174242446240996" Properties=species:S:1:pos:R:3:tags:I:1:momenta:R:3:forces:R:3 energy=-45.26981854645307 stress="0.00046196841725151545 -4.2266856736997457e-07 9.365108405676513e-07 -4.2266856736997457e-07 0.00045067431197547223 7.437388466105818e-06 9.365108405676513e-07 7.437388466105818e-06 -6.144358287115541e-05" free_energy=-45.26981854645307 pbc="T T F"
Cu       1.26206813       0.71528287      10.01889966        3      -1.12455289      -1.60194827       1.26316688      -0.02238231       0.01627069      -0.08372037
Cu       3.82572770       0.75693672      10.01055797        3      -0.53036952       1.07997273       0.73200179       0.00241402      -0.20903216       0.00571484
Cu       2.52360408       2.88550264       9.95941997        3      -2.08496012      -4.07590509      -2.59394292       0.07074050       0.25589682       0.25389247
Cu       5.10970253       2.95553205       9.98677864        3      -0.11294011       0.14254939      -0.76203343      -0.00465062      -0.02541466       0.04672792
Cu      -0.02241253       1.46180147      12.08156914        2      -1.38242029      -0.64645566      -0.47910996       0.15114135       0.20159389      -0.03545703
Cu       2.56999737       1.42765857      12.17036327        2       0.74343470      -2.87868692       5.17592073      -0.13178483       0.37744351      -0.51367029
Cu       1.29611590       3.68910494      12.11250737        2       1.02779011      -0.15813788       1.46756361       0.00944626      -0.27608751      -0.29046550
Cu       3.84545766       3.70823715      12.05666766        2       0.78962621       1.13723437      -2.04295113      -0.12103688      -0.32807852       0.05590167
Cu      -0.00113894       0.00709279      14.15150883        1       0.10538039       0.52207845      -1.29857788       0.02792257      -0.16521454       0.12480204
Cu       2.56693415      -0.01729607      14.15395397        1       0.70915775      -1.16072072      -1.36332825      -0.10042873      -0.14734932       0.28278181
Cu       1.25025072       2.17913925      14.16827699        1      -1.79454312      -2.22780590      -0.33607662       0.06295918       0.15006006       0.10983943
Cu       3.81398158       2.19978877      14.18191674        1      -1.35486707      -0.97837225       0.68577855       0.05565949       0.14991175       0.04365301
12
Lattice="5.1123820279787395 0.0 0.0 2.5561910139893698 4.427452710080594 0.0 0.0 0.0 24.174242446240996" Properties=species:S:1:pos:R:3:tags:I:1:momenta:R:3:forces:R:3 energy=-45.09608905911572 stress="0.0004237914713028436 -4.8326904917322725e-06 -4.239893392169121e-06 -4.8326904917322725e-06 0.00038136915425687485 2.6719007765071822e-05 -4.239893392169121e-06 2.6719007765071822e-05 -0.00014180185557957541" free_energy=-45.09608905911572 pbc="T T F"
Cu       1.24688469       0.69166618      10.03675481        3      -0.96731351      -1.48833967       1.00213900      -0.04370808       0.06147733      -0.21855920
Cu       3.82022493       0.77109108      10.02376971        3      -0.33726071       0.76384225       0.90804336      -0.01266273      -0.38431416      -0.00422446
Cu       2.49354097       2.82537307       9.92148798        3      -1.81366455      -3.44006984      -2.34391975       0.14082290       0.49561969       0.42275787
Cu       5.10913639       2.95794774       9.97503001        3      -0.04554149       0.16677670      -0.73859621      -0.01793829      -0.05930050       0.07025980
Cu      -0.04303417       1.45152047      12.07235747        2      -1.26927053      -0.67157668      -0.61431839       0.27855278       0.34441189      -0.01533256
Cu       2.58000717       1.38691944      12.24387036        2       0.52326236      -2.26229062       4.27125175      -0.24290830       0.71761765      -1.01780105
Cu       1.30855490       3.68377666      12.13196946        2       0.79304096      -0.50552475       1.10376600       0.05266454      -0.49217163      -0.51714757
Cu       3.85860420       3.72263515      12.02516687        2       0.85519434       0.70131894      -2.03741896      -0.25643072      -0.61373947       0.18099278
Cu      -0.00093863       0.01203393      14.13359580        1      -0.04157632      -0.06456533      -1.09586357       0.04662441      -0.30733446       0.20365602
Cu       2.57637767      -0.03642847      14.13747068        1       0.56135724      -1.27189580      -0.58240750      -0.20220206      -0.33361447       0.60485438
Cu       1.22155766       2.14838524      14.16600333        1      -1.83734183      -1.91393332      -0.05798669       0.12069105       0.28542728       0.18668652
Cu       3.79232036       2.18702505      14.19184115        1      -1.38118631      -0.75392228       0.62933928       0.13649449       0.28592085       0.10385748
12
Lattice="5.1123820279787395 0.0 0.0 2.5561910139893698 4.427452710080594 0.0 0.0 0.0 24.174242446240996" Properties=species:S:1:pos:R:3:tags:I:1:momenta:R:3:forces:R:3 energy=-44.91025654209113 stress="0.0003864224785140722 -9.315989214188725e-06 -1.3552444183026797e-05 -9.315989214188725e-06 0.0003171062494360962 4.173216965230996e-05 -1.3552444183026797e-05 4.173216965230996e-05 -0.00021581301955037166" free_energy=-44.91025654209113 pbc="T T F"
Cu       1.22979051       0.67199704      10.04911601        3      -1.22112767      -1.08874652       0.48142909      -0.05277263       0.10623927      -0.35868900
Cu       3.81560032       0.78071099      10.03639655        3      -0.36300010       0.33195701       0.76027492      -0.03877289      -0.52811634      -0.02169662
Cu       2.46806095       2.77514378       9.88981793        3      -1.43681489      -2.94669682      -1.88690834       0.19295612       0.69594860       0.51337968
Cu       5.10829103       2.96012762       9.96492336        3      -0.06597787       0.19386885      -0.44866465      -0.02930866      -0.09048193       0.07282870
Cu      -0.06007433       1.44462727      12.06326723        2      -0.92845035      -0.30270412      -0.56037777       0.36855502       0.41339912       0.02995975
Cu       2.58533096       1.36198222      12.30092413        2       0.16653548      -1.00926322       3.01605614      -0.31380670       0.87180188      -1.39473072
Cu       1.32097611       3.66919070      12.14648362        2       0.72206208      -1.45917556       0.56671578       0.04139759      -0.57687208      -0.68169197
Cu       3.86969984       3.72856802      11.99660136        2       0.62004973      -0.06330266      -1.59251853      -0.33395677      -0.78671186       0.33182897
Cu      -0.00116825       0.00695032      14.11664052        1      -0.00010304      -0.57349584      -0.98985166       0.05398419      -0.38329789       0.27399322
Cu       2.58295839      -0.06169785      14.13464437        1       0.40000224      -1.86555528       0.38352262      -0.27646878      -0.44480593       0.80328999
Cu       1.19376333       2.12029818      14.16601752        1      -1.79385712      -1.56803547       0.07139938       0.18105018       0.37610133       0.25328115
Cu       3.77370821       2.17884242      14.20131507        1      -1.01113385      -0.28404971       0.63861114       0.20714333       0.34679582       0.17824687
12
Lattice="5.1123820279787395 0.0 0.0 2.5561910139893698 4.427452710080594 0.0 0.0 0.0 24.174242446240996" Properties=species:S:1:pos:R:3:tags:I:1:momenta:R:3:forces:R:3 energy=-44.80589600193929 stress="0.00037292642100200354 -1.0408835627489189e-05 -2.071376209895804e-05 -1.0408835627489189e-05 0.00029548247692690646 4.375324991473131e-05 -2.071376209895804e-05 4.375324991473131e-05 -0.00022892439066296832" free_energy=-44.80589600193929 pbc="T T F"
Cu       1.21211559       0.65968458      10.05442696        3      -1.05725719      -0.58543232       0.30766326      -0.05753536       0.09573948      -0.43149400
Cu       3.81154719       0.78181706      10.04543005        3      -0.29429893      -0.34425912       0.38451089      -0.06866658      -0.60152445      -0.03139897
Cu       2.44379349       2.73500444       9.86477915        3      -1.63051275      -2.16357461      -1.39008724       0.26554422       0.84205701       0.55376032
Cu       5.10727995       2.96363619       9.95795447        3      -0.19806215       0.29224346      -0.33717529      -0.06405912      -0.12749658       0.04856429
Cu      -0.07327071       1.44249762      12.05572811        2      -0.78264663       0.08058788      -0.50200777       0.40825689       0.35245901       0.09185586
Cu       2.58406874       1.35172240      12.33762220        2      -0.28909929      -0.25078081       1.59525626      -0.32380538       0.77622476      -1.52903948
Cu       1.32989258       3.63989354      12.15011721        2       0.59761473      -2.16510080       0.02288543       0.00787758      -0.46838810      -0.72212899
Cu       3.87883606       3.72045500      11.97591773        2       0.46458443      -0.88056153      -1.08766579      -0.38204988      -0.78633520       0.45147508
Cu       0.00043072      -0.00575402      14.10434845        1       0.31722868      -1.11336093      -0.54340570       0.01878772      -0.38620624       0.28712300
Cu       2.58704630      -0.09399117      14.14654775        1       0.15697382      -2.39039721       1.07783732      -0.28813611      -0.37458988       0.76703142
Cu       1.16957293       2.09785305      14.17010914        1      -1.32273773      -1.32602956       0.34630226       0.25148723       0.39519731       0.29285365
Cu       3.76007099       2.18033200      14.20992970        1      -0.82559127       0.31542110       0.56127669       0.23229880       0.28286287       0.22139781
12
Lattice="5.1123820279787395 0.0 0.0 2.5561910139893698 4.427452710080594 0.0 0.0 0.0 24.174242446240996" Properties=species:S:1:pos:R:3:tags:I:1:momenta:R:3:forces:R:3 energy=-44.80402311196492 stress="0.00037977276644199484 -7.0763858636279654e-06 -2.098233615783431e-05 -7.0763858636279654e-06 0.00031469625787076413 3.099584437000284e-05 -2.098233615783431e-05 3.099584437000284e-05 -0.00018051323515943274" free_energy=-44.80402311196492 pbc="T T F"
Cu       1.19506597       0.65239490      10.05475220        3      -1.08921480      -0.49396328      -0.26785830      -0.04368364       0.04083054      -0.42608401
Cu       3.80736683       0.77140539      10.05292685        3      -0.27847358      -1.11965646       0.53985149      -0.11029180      -0.58462421      -0.04515930
Cu       2.42223341       2.70990498       9.85009268        3      -1.22694787      -1.10107616      -0.62471336       0.35628206       0.89252984       0.55904099
Cu       5.10477791       2.96553057       9.95357146        3      -0.23134558       0.09325468      -0.23733482      -0.12107364      -0.16114608       0.01845484
Cu      -0.08239410       1.44499877      12.04920902        2      -0.48940921       0.31310844      -0.20484264       0.40423168       0.20811024       0.16698281
Cu       2.57602252       1.35390654      12.34887660        2      -0.84622057       0.44050038      -0.14420374      -0.26366035       0.48372809      -1.39841360
Cu       1.33943736       3.60415539      12.14392495        2       0.74379836      -2.43433829      -0.70905190      -0.07400006      -0.23744069      -0.65887889
Cu       3.88141382       3.70096445      11.96674373        2      -0.01811396      -1.76079893      -0.51292884      -0.37332265      -0.64821931       0.49911219
Cu       0.00421560      -0.02473350      14.09699140        1       0.24122284      -1.33539644      -0.26566519      -0.06026424      -0.32147783       0.25891224
Cu       2.58590761      -0.13446835      14.16848891        1      -0.15319127      -2.58160059       1.66923030      -0.23246642      -0.11589235       0.52261224
Cu       1.15280908       2.08020861      14.17402720        1      -0.86122383      -0.94255125       0.21132637       0.31266253       0.34535363       0.30939585
Cu       3.74971303       2.18689193      14.22000305        1      -0.60714302       0.49421228       0.97732520       0.20558655       0.09824813       0.19402465
12
Lattice="5.1123820279787395 0.0 0.0 2.5561910139893698 4.427452710080594 0.0 0.0 0.0 24.174242446240996" Properties=species:S:1:pos:R:3:tags:I:1:momenta:R:3:forces:R:3 energy=-44.857737591884415 stress="0.00040445157293766623 5.609477943634933e-06 -1.3748251925331044e-05 5.609477943634933e-06 0.00035328679756316614 1.5068806856279078e-05 -1.3748251925331044e-05 1.5068806856279078e-05 -8.732079380656736e-05" free_energy=-44.857737591884415 pbc="T T F"
Cu       1.17884628       0.64367017      10.04671695        3      -1.07576382      -0.60999573      -0.71501230      -0.02583387       0.00466984      -0.33763599
Cu       3.80152667       0.74838500      10.06121497        3      -0.40052244      -1.79972661       0.60546459      -0.13911809      -0.47536601      -0.05122280
Cu       2.40719109       2.69858824       9.84260767        3      -0.80183194      -0.28691346      -0.26621646       0.42575390       0.84075405       0.54276823
Cu       5.09860634       2.96778013       9.95018061        3      -0.49225151       0.10275531      -0.29194091      -0.16533366      -0.23032905      -0.01500105
Cu      -0.08672181       1.45343862      12.04951602        2      -0.18525535       0.56367590       0.13182902       0.36369282      -0.01893334       0.19973359
Cu       2.56041749       1.36307963      12.33775147        2      -0.88637459       0.67449004      -1.32889934      -0.14033115       0.11004260      -1.11940863
Cu       1.35094228       3.56567506      12.12774672        2       0.70686930      -2.44522321      -1.26321242      -0.19078728       0.06466970      -0.52139509
Cu       3.87649411       3.66833745      11.96403122        2      -0.69934570      -2.28054530       0.19635893      -0.32409995      -0.38872735       0.50127337
Cu       0.00681874      -0.04825857      14.09627081        1       0.08599069      -1.74241615       0.19615312      -0.13811424      -0.19998444       0.19567778
Cu       2.58404535      -0.17471789      14.19733381        1      -0.19159203      -2.41711899       1.99589081      -0.16904749       0.20539192       0.19948036
Cu       1.14432221       2.06897389      14.17785199        1      -0.30103054      -0.70897154       0.20821766       0.34914209       0.23660981       0.31035944
Cu       3.73999684       2.19580036      14.23501750        1      -0.52807746       0.62361674       0.95828768       0.15407692      -0.14879772       0.09537080
12
Lattice="5.1123820279787395 0.0 0.0 2.5561910139893698 4.427452710080594 0.0 0.0 0.0 24.174242446240996" Properties=species:S:1:pos:R:3:tags:I:1:momenta:R:3:forces:R:3 energy=-44.908011308133794 stress="0.0004271078522626621 2.0380575499441428e-05 -4.247278439337072e-06 2.0380575499441428e-05 0.0003879895019035874 7.800056962850324e-07 -4.247278439337072e-06 7.800056962850324e-07 1.4444780177290258e-05" free_energy=-44.908011308133794 pbc="T T F"
Cu       1.15880301       0.63550414      10.03310416        3      -1.42137073      -0.46580775      -0.89849806       0.04026302      -0.02834252      -0.21535258
Cu       3.79615454       0.71669075      10.06976959        3      -0.41055549      -2.15851741       0.62037309      -0.18846384      -0.31163089      -0.06802455
Cu       2.39759196       2.69942439       9.84389818        3      -0.51226199       0.40412821       0.31782461       0.47407364       0.70595817       0.50353824
Cu       5.08886385       2.96618367       9.94558293        3      -0.80166320      -0.31922350      -0.42046222      -0.21290579      -0.28627350      -0.02854243
Cu      -0.08506631       1.46291277      12.05154414        2       0.38887213       0.50156814       0.26362655       0.29846139      -0.25628296       0.22505529
Cu       2.54486910       1.37274731      12.30972041        2      -1.02017576       0.55088843      -2.33063794      -0.01596165      -0.21247023      -0.80604505
Cu       1.36042724       3.53071126      12.10433899        2       0.62335582      -1.95895028      -1.77097826      -0.30560185       0.34842545      -0.33434989
Cu       3.86619863       3.63195172      11.97123661        2      -0.71610196      -2.44804241       0.77686115      -0.24426237      -0.10168034       0.43827544
Cu       0.00861983      -0.07483076      14.10053147        1       0.05001017      -1.71865201       0.39924770      -0.22261943      -0.06233967       0.11923391
Cu       2.57972987      -0.20822990      14.22618743        1      -0.22043025      -1.99860409       1.61737632      -0.10099134       0.46327470      -0.07229931
Cu       1.14129131       2.05844911      14.18352316        1      -0.04876018      -0.52423600       0.55730943       0.37373292       0.13168776       0.27013894
Cu       3.73164323       2.20039796      14.25336953        1      -0.63348704      -0.08998808       1.29070504       0.10427530      -0.39032598      -0.03162800
12
Lattice="5.1123820279787395 0.0 0.0 2.5561910139893698 4.427452710080594 0.0 0.0 0.0 24.174242446240996" Properties=species:S:1:pos:R:3:tags:I:1:momenta:R:3:forces:R:3 energy=-44.942534375166254 stress="0.00044892038897779117 3.469323212489574e-05 3.888891918149371e-06 3.469323212489574e-05 0.0004165857924490602 -8.441322649410505e-06 3.888891918149371e-06 -8.441322649410505e-06 0.00010590298582306645" free_energy=-44.942534375166254 pbc="T T F"
Cu       1.13994087       0.62688231      10.01754849        3      -0.99899057      -0.52794579      -0.96321015       0.11513752      -0.03845199      -0.09044004
Cu       3.78971328       0.68015795      10.07952657        3      -0.58268498      -2.51598887       0.53473393      -0.22500378      -0.10865232      -0.10134710
Cu       2.39120945       2.71101617       9.85024866        3      -0.21584586       0.89965538       0.54576343       0.50722024       0.51831384       0.43689694
Cu       5.07631306       2.96132301       9.93731392        3      -1.01391352      -0.40069065      -0.58040365      -0.26254296      -0.34099776      -0.00677938
Cu      -0.07654735       1.46954042      12.05797850        2       0.69761298       0.35453929       0.51679603       0.19876714      -0.45956760       0.22222435
Cu       2.52671013       1.37617395      12.26861866        2      -1.20290917      -0.15149211      -3.01353529       0.10331449      -0.43684625      -0.50595258
Cu       1.36675722       3.50348144      12.07683447        2       0.24819786      -1.45370174      -1.77960024      -0.40777197       0.56473497      -0.12224357
Cu       3.85373974       3.59456791      11.98692156        2      -0.96242262      -2.41224563       1.26261005      -0.15194975       0.15206761       0.34018329
Cu       0.00594654      -0.09860062      14.10684485        1      -0.37751606      -1.51243881       0.50242442      -0.25640678       0.04619315       0.05876681
Cu       2.57811284      -0.23293034      14.25020379        1      -0.05728891      -1.08686122       1.55556079      -0.09102650       0.60097867      -0.25402101
Cu       1.14416968       2.05084820      14.19527712        1       0.51823831      -0.52281476       0.80410054       0.37362283       0.03392191       0.18111524
Cu       3.72041852       2.19216492      14.27199271        1      -0.72888468      -0.79550218       1.03337537       0.09663953      -0.53169423      -0.15840296
12
Lattice="5.1123820279787395 0.0 0.0 2.5561910139893698 4.427452710080594 0.0 0.0 0.0 24.174242446240996" Properties=species:S:1:pos:R:3:tags:I:1:momenta:R:3:forces:R:3 energy=-44.968809666873696 stress="0.00047261637208875946 4.366083709761414e-05 1.1639587757793546e-05 4.366083709761414e-05 0.00044162485342964087 -1.4185369468073605e-05 1.1639587757793546e-05 -1.4185369468073605e-05 0.00017541100677834846" free_energy=-44.968809666873696 pbc="T T F"
Cu       1.12709503       0.61959447      10.00030765        3      -0.68511552      -0.50316409      -1.20029548       0.15391574      -0.03406580       0.02321943
Cu       3.77921541       0.63927595      10.08660034        3      -0.74558410      -2.51293540       0.43358278      -0.20423181       0.09940524      -0.15112024
Cu       2.39448601       2.72570474       9.86241501        3       0.50637854       1.01669611       0.85973222       0.48504181       0.33681850       0.34644782
Cu       5.05949997       2.95171291       9.93069213        3      -0.98890078      -0.90316841      -0.45670678      -0.26873205      -0.39725422       0.01828115
Cu      -0.06537053       1.47305620      12.06472643        2       0.84672243       0.13076981       0.53491172       0.09654211      -0.63164726       0.20716232
Cu       2.50865150       1.36951679      12.21974964        2      -1.19369266      -0.78923960      -3.36199328       0.18589619      -0.55540125      -0.23836570
Cu       1.36721308       3.48776981      12.05195672        2      -0.15898043      -0.70581515      -1.43561653      -0.47806742       0.67121580       0.08967466
Cu       3.83983929       3.55678138      12.00716218        2      -0.99263815      -2.32252261       1.43273472      -0.07363967       0.37039622       0.25083256
Cu      -0.00264971      -0.12015836      14.11385990        1      -0.75732788      -1.25082314       0.40932969      -0.24613534       0.13364198       0.01974805
Cu       2.57331589      -0.24405602      14.27348264        1      -0.51004282      -0.32430532       1.52912123      -0.10275900       0.61003370      -0.37826788
Cu       1.15394698       2.04420536      14.20889503        1       0.66501667      -0.34813470       0.93480494       0.31831646      -0.02582983       0.07070040
Cu       3.70930883       2.17547243      14.28590074        1      -0.61653248      -1.51387191       0.73491820       0.13385298      -0.57731308      -0.25831256
12
Lattice="5.1123820279787395 0.0 0.0 2.5561910139893698 4.427452710080594 0.0 0.0 0.0 24.174242446240996" Properties=species:S:1:pos:R:3:tags:I:1:momenta:R:3:forces:R:3 energy=-44.99074607754384 stress="0.0004952796162549143 4.7465262786329474e-05 1.8256927687321072e-05 4.7465262786329474e-05 0.0004738231475878341 -1.68408524073905e-05 1.8256927687321072e-05 -1.68408524073905e-05 0.0002235149755000872" free_energy=-44.99074607754384 pbc="T T F"
Cu       1.11657853       0.61039261       9.98137385        3      -0.52378740      -0.37837532      -1.25194650       0.18999842      -0.00924109       0.11835660
Cu       3.76919424       0.60219108      10.09096583        3      -0.47354446      -2.31838898       0.13240812      -0.17701033       0.28355307      -0.23004890
Cu       2.40329884       2.74320761       9.87789643        3       0.63323513       1.16062677       1.15407206       0.43571136       0.15036434       0.24056782
Cu       5.04295098       2.93556426       9.92412978        3      -1.16050666      -1.02868470      -0.48936711      -0.25294559      -0.42266029       0.06272589
Cu      -0.05458797       1.47068036      12.07423202        2       0.55870185      -0.66812778       0.93226647       0.01867028      -0.73573375       0.17960337
Cu       2.49328195       1.35395757      12.16615958        2      -0.81209629      -1.13018912      -3.51323390       0.21376001      -0.56583770       0.00266907
Cu       1.36285882       3.48269453      12.03135723        2      -0.39894773       0.14394935      -1.40535160      -0.52402528       0.65628778       0.28596619
Cu       3.82509885       3.52196998      12.03070678        2      -0.77853901      -2.13005382       1.74539913       0.00125771       0.52119461       0.17247447
Cu      -0.01729676      -0.13945934      14.11935774        1      -1.14949637      -1.24138805       0.36894571      -0.19172220       0.18230131       0.01239103
Cu       2.56514839      -0.24352010      14.29510274        1      -0.46193443       0.33097886       1.32076743      -0.13151093       0.51741505      -0.46266441
Cu       1.16717679       2.03816592      14.22478644        1       0.66962302      -0.56030554       0.91646699       0.22663228      -0.05261559      -0.05096612
Cu       3.69961997       2.14880389      14.29605614        1      -0.68814155      -2.10855084       0.50004482       0.19118425      -0.52502773      -0.33107501
