12

Cu      1.278095510000000      0.737908790000000     10.000000000000000
Cu      3.834286520000000      0.737908790000000     10.000000000000000
Cu      2.556191010000000      2.951635140000000     10.000000000000000
Cu      5.112382030000000      2.951635140000000     10.000000000000000
Cu     -0.000000000000000      1.475817570000000     12.087121220000000
Cu      2.556191010000000      1.475817570000000     12.087121220000000
Cu      1.278095510000000      3.689543930000000     12.087121220000000
Cu      3.834286520000000      3.689543930000000     12.087121220000000
Cu      0.000000000000000      0.000000000000000     14.174242449999999
Cu      2.556191010000000      0.000000000000000     14.174242449999999
Cu      1.278095510000000      2.213726360000000     14.174242449999999
Cu      3.834286520000000      2.213726360000000     14.174242449999999
12

Cu      1.262068125281878      0.715282870203146     10.018899658398389
Cu      3.825727695250256      0.756936717627726     10.010557970890812
Cu      2.523604079981644      2.885502635842281      9.959419966035522
Cu      5.109702529292803      2.955532052303590      9.986778637162688
Cu     -0.022412526859903      1.461801466416830     12.081569135955013
Cu      2.569997374876511      1.427658572555299     12.170363265196615
Cu      1.296115899348764      3.689104944271801     12.112507370269908
Cu      3.845457658893587      3.708237145308993     12.056667662678796
Cu     -0.001138935958588      0.007092786139763     14.151508832817642
Cu      2.566934154402971     -0.017296066257852     14.153953966437040
Cu      1.250250719309183      2.179139247258107     14.168276993921298
Cu      3.813981575433539      2.199788766039706     14.181916743461906
12

Cu      1.246884691487196      0.691666184527822     10.036754812235973
Cu      3.820224932035086      0.771091079498614     10.023769711963048
Cu      2.493540971357347      2.825373071607791      9.921487980846862
Cu      5.109136386092774      2.957947744780346      9.975030012384309
Cu     -0.043034168577953      1.451520466972767     12.072357474371632
Cu      2.580007165571682      1.386919441735323     12.243870363402268
Cu      1.308554904844044      3.683776658761199     12.131969455625702
Cu      3.858604203568634      3.722635152176247     12.025166866507922
Cu     -0.000938630147022      0.012033925042442     14.133595798816749
Cu      2.576377667875612     -0.036428466389024     14.137470677945174
Cu      1.221557656818728      2.148385238917907     14.166003333299935
Cu      3.792320357305098      2.187025047834859     14.191841153783589
12

Cu      1.229790507259061      0.671997037057868     10.049116006514756
Cu      3.815600323782934      0.780710992113511     10.036396546497325
Cu      2.468060953537899      2.775143783687780      9.889817926564865
Cu      5.108291033073178      2.960127619858480      9.964923364123859
Cu     -0.060074331839675      1.444627274618224     12.063267227307643
Cu      2.585330962148166      1.361982216496624     12.300924130075234
Cu      1.320976109918807      3.669190700695510     12.146483622442506
Cu      3.869699843645420      3.728568016390291     11.996601358384972
Cu     -0.001168247386720      0.006950322866568     14.116640518454629
Cu      2.582958392385975     -0.061697853715629     14.134644369002949
Cu      1.193763327955698      2.120298176922328     14.166017515629216
Cu      3.773708207987599      2.178842418963386     14.201315074381627
12

Cu      1.212115586865605      0.659684579342502     10.054426963279498
Cu      3.811547190102050      0.781817055867671     10.045430054284152
Cu      2.443793487790424      2.735004442917985      9.864779148587436
Cu      5.107279948956058      2.963636189421830      9.957954469421427
Cu     -0.073270714754058      1.442497616353971     12.055728114288486
Cu      2.584068741247855      1.351722401246710     12.337622195170368
Cu      1.329892575477071      3.639893536423506     12.150117205901099
Cu      3.878836064309036      3.720455000552037     11.975917725995428
Cu      0.000430719384964     -0.005754022308860     14.104348446462701
Cu      2.587046296637818     -0.093991169788269     14.146547750415403
Cu      1.169572932767973      2.097853052917972     14.170109144188233
Cu      3.760070991380790      2.180331996257470     14.209929698822480
12

Cu      1.195065971638342      0.652394903038531     10.054752204325428
Cu      3.807366830709503      0.771405389214712     10.052926851110916
Cu      2.422233412614502      2.709904980132224      9.850092684041314
Cu      5.104777909463584      2.965530567696274      9.953571463636536
Cu     -0.082394095487997      1.444998771760438     12.049209022115797
Cu      2.576022524632148      1.353906542363493     12.348876603250869
Cu      1.339437364150172      3.604155390579699     12.143924954313801
Cu      3.881413822155671      3.700964448646483     11.966743731495022
Cu      0.004215600788761     -0.024733503347048     14.096991397576270
Cu      2.585907610961963     -0.134468347020538     14.168488911430806
Cu      1.152809079651976      2.080208608487861     14.174027195345637
Cu      3.749713030204624      2.186891929499054     14.220003047412520
12

Cu      1.178846279758193      0.643670168764794     10.046716949789246
Cu      3.801526671298729      0.748384998121868     10.061214969432529
Cu      2.407191090565082      2.698588237758210      9.842607674531855
Cu      5.098606336171674      2.967780128556847      9.950180611385168
Cu     -0.086721806769353      1.453438620121168     12.049516016833850
Cu      2.560417487051931      1.363079634670966     12.337751468239267
Cu      1.350942283304244      3.565675056357397     12.127746716549577
Cu      3.876494106550376      3.668337454242411     11.964031224058804
Cu      0.006818742436395     -0.048258573922947     14.096270813730946
Cu      2.584045347463242     -0.174717892331564     14.197333811135961
Cu      1.144322214619872      2.068973892861139     14.177851994798372
Cu      3.739996835386628      2.195800356414830     14.235017502790386
12

Cu      1.158803006411674      0.635504136887287     10.033104155831106
Cu      3.796154538701089      0.716690750477334     10.069769589990704
Cu      2.397591959125718      2.699424386890777      9.843898182435229
Cu      5.088863854047224      2.966183669540025      9.945582928905928
Cu     -0.085066314127628      1.462912771026798     12.051544143298383
Cu      2.544869099969601      1.372747306281010     12.309720408488998
Cu      1.360427240828993      3.530711257294574     12.104338994633455
Cu      3.866198625830148      3.631951717138395     11.971236612346006
Cu      0.008619831936042     -0.074830757859035     14.100531471243343
Cu      2.579729867642163     -0.208229900624156     14.226187434383178
Cu      1.141291307144028      2.058449109665765     14.183523164671719
Cu      3.731643233692323      2.200397957073745     14.253369532117247
12

Cu      1.139940866381089      0.626882310904908     10.017548493117657
Cu      3.789713283316148      0.680157954909809     10.079526572794437
Cu      2.391209445064514      2.711016170529503      9.850248656866567
Cu      5.076313059034666      2.961323006102816      9.937313917207089
Cu     -0.076547352350763      1.469540418178840     12.057978499161933
Cu      2.526710133415464      1.376173950632082     12.268618659180941
Cu      1.366757215333954      3.503481435444828     12.076834467791862
Cu      3.853739737726989      3.594567914156771     11.986921560172146
Cu      0.005946541270834     -0.098600616095089     14.106844854175447
Cu      2.578112839863190     -0.232930342541593     14.250203789540942
Cu      1.144169684965247      2.050848204028560     14.195277117037460
Cu      3.720418519398632      2.192164915510742     14.271992707827662
12

Cu      1.127095032005192      0.619594471242523     10.000307647167936
Cu      3.779215410793194      0.639275952945214     10.086600343223571
Cu      2.394486005632660      2.725704740598639      9.862415013925332
Cu      5.059499971271668      2.951712906097892      9.930692127597968
Cu     -0.065370528871912      1.473056203503874     12.064726434148081
Cu      2.508651499409449      1.369516785267863     12.219749636228096
Cu      1.367213080670790      3.487769807828543     12.051956720611871
Cu      3.839839285158599      3.556781381204984     12.007162177094418
Cu     -0.002649707182088     -0.120158358722036     14.113859899178095
Cu      2.573315885523740     -0.244056016676825     14.273482642943188
Cu      1.153946984557816      2.044205355202576     14.208895029761319
Cu      3.709308826553526      2.175472431013567     14.285900738400629
12

Cu      1.116578530345448      0.610392605382856      9.981373854268735
Cu      3.769194238829526      0.602191084947957     10.090965832023501
Cu      2.403298840855496      2.743207607063364      9.877896431453367
Cu      5.042950984011684      2.935564263768576      9.924129783433440
Cu     -0.054587971926872      1.470680362045940     12.074232021438062
Cu      2.493281948183717      1.353957574127482     12.166159581914279
Cu      1.362858817930658      3.482694534138111     12.031357234774550
Cu      3.825098845351333      3.521969981373827     12.030706780078654
Cu     -0.017296762471419     -0.139459337412526     14.119357742815838
Cu      2.565148394826570     -0.243520095948685     14.295102739840633
Cu      1.167176787387680      2.038165917230718     14.224786439981678
Cu      3.699619973725346      2.148803892631199     14.296056143826782
