 DBCSR| Multiplication driver                                               XSMM
 DBCSR| Multrec recursion limit                                              512
 DBCSR| Multiplication stack size                                           1000
 DBCSR| Maximum elements for images                                    UNLIMITED
 DBCSR| Multiplicative factor virtual images                                   1
 DBCSR| Multiplication size stacks                                             3
 DBCSR| Number of 3D layers                                               SINGLE
 DBCSR| Use MPI memory allocation                                              T
 DBCSR| Use RMA algorithm                                                      F
 DBCSR| Use Communication thread                                               T
 DBCSR| Communication thread load                                             87


  **** **** ******  **  PROGRAM STARTED AT               2020-10-29 17:36:16.477
 ***** ** ***  *** **   PROGRAM STARTED ON                             irene3783
 **    ****   ******    PROGRAM STARTED BY                              marticar
 ***** **    ** ** **   PROGRAM PROCESS ID                                243211
  **** **  *******  **  PROGRAM STARTED IN /ccc/scratch/cont003/gen0609/marticar
                                           /5726041

 CP2K| version string:                                          CP2K version 6.1
 CP2K| source code revision number:                                    svn:18464
 CP2K| cp2kflags: libint fftw3 parallel mpi3 scalapack xsmm mkl                 
 CP2K| is freely available from                            https://www.cp2k.org/
 CP2K| Program compiled at                          Mon Dec 24 15:18:38 CET 2018
 CP2K| Program compiled on                                             cobalt170
 CP2K| Program compiled for                                   Linux-x86-64-iomkl
 CP2K| Data directory path          /tmp/cp2k/6.1/iomkl-174196.202/cp2k-6.1/data
 CP2K| Input file name                                             screening.inp
 
 GLOBAL| Force Environment number                                              1
 GLOBAL| Basis set file name            /ccc/work/cont003/gen0609/marticar/data/
 GLOBAL| Potential file name            /ccc/work/cont003/gen0609/marticar/data/
 GLOBAL| MM Potential file name                                     MM_POTENTIAL
 GLOBAL| Coordinate file name                                          coord.xyz
 GLOBAL| Method name                                                        CP2K
 GLOBAL| Project name                                         sorbitol_screening
 GLOBAL| Preferred FFT library                                             FFTW3
 GLOBAL| Preferred diagonalization lib.                                       SL
 GLOBAL| Run type                                                        GEO_OPT
 GLOBAL| All-to-all communication in single precision                          F
 GLOBAL| FFTs using library dependent lengths                                  F
 GLOBAL| Global print level                                                  LOW
 GLOBAL| Total number of message passing processes                            64
 GLOBAL| Number of threads for this process                                    1
 GLOBAL| This output is from process                                           0
 GLOBAL| CPU model name :  Intel(R) Xeon Phi(TM) CPU 7250 @ 1.40GHz

 MEMORY| system memory details [Kb]
 MEMORY|                        rank 0           min           max       average
 MEMORY| MemTotal             98253748      98253748      98253748      98253748
 MEMORY| MemFree              70019920      70019920      70019920      70019920
 MEMORY| Buffers                     0             0             0             0
 MEMORY| Cached                1239764       1239764       1239764       1239764
 MEMORY| Slab                   939504        939504        939504        939504
 MEMORY| SReclaimable           118992        118992        118992        118992
 MEMORY| MemLikelyFree        71378676      71378676      71378676      71378676

 
 GENERATE|  Preliminary Number of Bonds generated:                             0
 GENERATE|  Achieved consistency in connectivity generation.

 *******************************************************************************
 *******************************************************************************
 **                                                                           **
 **     #####                         ##              ##                      **
 **    ##   ##            ##          ##              ##                      **
 **   ##     ##                       ##            ######                    **
 **   ##     ##  ##   ##  ##   #####  ##  ##   ####   ##    #####    #####    **
 **   ##     ##  ##   ##  ##  ##      ## ##   ##      ##   ##   ##  ##   ##   **
 **   ##  ## ##  ##   ##  ##  ##      ####     ###    ##   ######   ######    **
 **    ##  ###   ##   ##  ##  ##      ## ##      ##   ##   ##       ##        **
 **     #######   #####   ##   #####  ##  ##  ####    ##    #####   ##        **
 **           ##                                                    ##        **
 **                                                                           **
 **                                                ... make the atoms dance   **
 **                                                                           **
 **            Copyright (C) by CP2K developers group (2000 - 2018)           **
 **                                                                           **
 *******************************************************************************


 TOTAL NUMBERS AND MAXIMUM NUMBERS

  Total number of            - Atomic kinds:                                   6
                             - Atoms:                                        161
                             - Shell sets:                                   161
                             - Shells:                                       939
                             - Primitive Cartesian functions:               1073
                             - Cartesian basis functions:                   3046
                             - Spherical basis functions:                   2683

  Maximum angular momentum of- Orbital basis functions:                        3
                             - Local part of the GTH pseudopotential:          2
                             - Non-local part of the GTH pseudopotential:      3


 SCF PARAMETERS         Density guess:                                   RESTART
                        --------------------------------------------------------
                        max_scf:                                             500
                        max_scf_history:                                       0
                        max_diis:                                              4
                        --------------------------------------------------------
                        eps_scf:                                        1.00E-05
                        eps_scf_history:                                0.00E+00
                        eps_diis:                                       1.00E-01
                        eps_eigval:                                     1.00E-05
                        --------------------------------------------------------
                        level_shift [a.u.]:                                 0.00
                        --------------------------------------------------------
                        Outer loop SCF in use 
                        No variables optimised in outer loop
                        eps_scf                                         1.00E-05
                        max_scf                                               10
                        No outer loop optimization
                        step_size                                       5.00E-01

 BFGS| Use rational function optimization for step estimation:                NO
 BFGS| Use model Hessian for initial guess:                                  YES
 BFGS| Restart Hessian:                                                       NO
 BFGS| Trust radius:                                                       0.472

 *******************************************************************************
 ***                     STARTING GEOMETRY OPTIMIZATION                      ***
 ***                                   BFGS                                  ***
 *******************************************************************************

 Spin 1

 Number of electrons:                                                        712
 Number of occupied orbitals:                                                712
 Number of molecular orbitals:                                               712

 Spin 2

 Number of electrons:                                                        712
 Number of occupied orbitals:                                                712
 Number of molecular orbitals:                                               712

 Number of orbital functions:                                               2683
 Number of independent orbital functions:                                   2683

 Extrapolation method: initial_guess

 *** WARNING in qs_initial_guess.F:263 :: User requested to restart the  ***
 *** wavefunction from the file named: sorbitol_screening-RESTART.wfn.   ***
 *** This file does not exist. Please check the existence of the file or ***
 *** change properly the value of the keyword WFN_RESTART_FILE_NAME.     ***
 *** Calculation continues using ATOMIC GUESS.                           ***



 SCF WAVEFUNCTION OPTIMIZATION

  ----------------------------------- OT ---------------------------------------
  Minimizer      : CG                  : conjugate gradient
  Preconditioner : FULL_ALL            : diagonalization, state selective
  Precond_solver : DEFAULT
  Line search    : 3PNT                : 3 energies
  stepsize       :    0.15000000                  energy_gap     :    0.08000000
  eps_taylor     :   0.10000E-15                  max_taylor     :             4
  ----------------------------------- OT ---------------------------------------

  Step     Update method      Time    Convergence         Total energy    Change
  ------------------------------------------------------------------------------
     1 OT CG       0.12E+00   22.6     0.01837513     -7999.8824190879 -8.00E+03
     2 OT LS       0.17E+00   10.0                    -8078.7001736813
     3 OT LS       0.14E+00    9.9                    -8077.5008342050
     4 OT CG       0.11E+00   18.8     0.00469222     -8079.2511358380 -7.94E+01
     5 OT LS       0.16E+00    9.9                    -8086.9023966451
     6 OT LS       0.31E+00    9.9                    -8089.0068179099
     7 OT CG       0.25E+00   18.8     0.00305279     -8092.0721211821 -1.28E+01

 *** WARNING in dft_plus_u.F:2007 :: DFT+U energy contibution is negative ***
 *** possibly due to unphysical Mulliken charges. Check your input, if    ***
 *** this warning persists or try a different method!                     ***

     8 OT LS       0.35E+00   10.0                    -8097.5360928852

 *** WARNING in dft_plus_u.F:2007 :: DFT+U energy contibution is negative ***
 *** possibly due to unphysical Mulliken charges. Check your input, if    ***
 *** this warning persists or try a different method!                     ***

     9 OT LS       0.33E+00   10.0                    -8097.8857008803

 *** WARNING in dft_plus_u.F:2007 :: DFT+U energy contibution is negative ***
 *** possibly due to unphysical Mulliken charges. Check your input, if    ***
 *** this warning persists or try a different method!                     ***

    10 OT CG       0.26E+00   18.8     0.00236231     -8097.8986871491 -5.83E+00
    11 OT LS       0.37E+00    9.9                    -8099.1978380772
    12 OT LS       0.17E+00    9.9                    -8097.2891936046
    13 OT CG       0.14E+00   18.8     0.00217459     -8099.7297351099 -1.83E+00
    14 OT LS       0.19E+00    9.9                    -8101.4457316157
    15 OT LS       0.22E+00    9.9                    -8101.7067571461
    16 OT CG       0.18E+00   18.8     0.00163880     -8101.7470968405 -2.02E+00
    17 OT LS       0.25E+00    9.9                    -8102.5237693719
    18 OT LS       0.15E+00    9.9                    -8102.2382128824
    19 OT CG       0.12E+00   18.8     0.00124247     -8102.5429551156 -7.96E-01
    20 OT LS       0.17E+00    9.9                    -8103.0452650603
    21 OT LS       0.20E+00    9.9                    -8103.1175228472
    22 OT CG       0.16E+00   18.8     0.00097381     -8103.1258382804 -5.83E-01
    23 OT LS       0.22E+00    9.9                    -8103.4253645868
    24 OT LS       0.17E+00    9.9                    -8103.3929858777
    25 OT CG       0.13E+00   18.8     0.00076321     -8103.4260988179 -3.00E-01
    26 OT LS       0.19E+00    9.9                    -8103.6289582423
    27 OT LS       0.21E+00    9.9                    -8103.6582122975
    28 OT CG       0.17E+00   18.8     0.00071606     -8103.6616557226 -2.36E-01
    29 OT LS       0.24E+00    9.9                    -8103.8442821138
    30 OT LS       0.19E+00    9.9                    -8103.8336699791
    31 OT CG       0.15E+00   18.8     0.00060151     -8103.8461716064 -1.85E-01
    32 OT LS       0.21E+00    9.9                    -8103.9782662336
    33 OT LS       0.20E+00    9.9                    -8103.9881336649
    34 OT CG       0.16E+00   18.8     0.00057284     -8103.9882669891 -1.42E-01
    35 OT LS       0.23E+00    9.9                    -8104.1043359305
    36 OT LS       0.19E+00    9.9                    -8104.0999539218
    37 OT CG       0.15E+00   18.8     0.00047958     -8104.1061723025 -1.18E-01
    38 OT LS       0.21E+00    9.9                    -8104.1864219329
    39 OT LS       0.19E+00    9.9                    -8104.1896191892
    40 OT CG       0.15E+00   18.8     0.00043958     -8104.1904178720 -8.42E-02
    41 OT LS       0.21E+00    9.9                    -8104.2616647333
    42 OT LS       0.21E+00    9.9                    -8104.2668269522
    43 OT CG       0.17E+00   18.8     0.00039531     -8104.2669210281 -7.65E-02
    44 OT LS       0.23E+00    9.9                    -8104.3214161904
    45 OT LS       0.18E+00    9.9                    -8104.3184126768
    46 OT CG       0.15E+00   18.8     0.00033219     -8104.3220142949 -5.51E-02
    47 OT LS       0.21E+00    9.9                    -8104.3617733033
    48 OT LS       0.20E+00    9.9                    -8104.3651130330
    49 OT CG       0.16E+00   18.8     0.00030393     -8104.3651176995 -4.31E-02
    50 OT LS       0.23E+00    9.9                    -8104.3981095499
    51 OT LS       0.19E+00   10.0                    -8104.3974724234
    52 OT CG       0.15E+00   18.8     0.00025795     -8104.3988073023 -3.37E-02
    53 OT LS       0.21E+00    9.9                    -8104.4223026061
    54 OT LS       0.19E+00    9.9                    -8104.4231054821
    55 OT CG       0.15E+00   18.8     0.00022906     -8104.4233851389 -2.46E-02
    56 OT LS       0.22E+00    9.9                    -8104.4423926108
    57 OT LS       0.20E+00    9.9                    -8104.4432774429
    58 OT CG       0.16E+00   18.8     0.00019984     -8104.4434180424 -2.00E-02
    59 OT LS       0.22E+00    9.9                    -8104.4577045172
    60 OT LS       0.19E+00    9.9                    -8104.4577647800
    61 OT CG       0.15E+00   18.8     0.00017679     -8104.4581398160 -1.47E-02
    62 OT LS       0.22E+00    9.9                    -8104.4695510096
    63 OT LS       0.20E+00    9.9                    -8104.4701861309
    64 OT CG       0.16E+00   18.8     0.00015934     -8104.4702392443 -1.21E-02
    65 OT LS       0.23E+00    9.9                    -8104.4795385485
    66 OT LS       0.20E+00    9.9                    -8104.4796585304
    67 OT CG       0.16E+00   18.8     0.00014361     -8104.4798594350 -9.62E-03
    68 OT LS       0.22E+00    9.9                    -8104.4875145151
    69 OT LS       0.20E+00    9.9                    -8104.4878594241
    70 OT CG       0.16E+00   18.8     0.00013144     -8104.4879196443 -8.06E-03
    71 OT LS       0.23E+00    9.9                    -8104.4943075139
    72 OT LS       0.20E+00    9.9                    -8104.4943892358
    73 OT CG       0.16E+00   18.8     0.00011707     -8104.4945278084 -6.61E-03
    74 OT LS       0.22E+00    9.9                    -8104.4995623290
    75 OT LS       0.20E+00    9.9                    -8104.4996991908
    76 OT CG       0.16E+00   18.8     0.00010620     -8104.4997737848 -5.25E-03
    77 OT LS       0.22E+00    9.9                    -8104.5039361987
    78 OT LS       0.20E+00   10.0                    -8104.5040654989
    79 OT CG       0.16E+00   18.8     0.00009541     -8104.5041201803 -4.35E-03
    80 OT LS       0.23E+00    9.9                    -8104.5074024135
    81 OT LS       0.19E+00    9.9                    -8104.5074111193
    82 OT CG       0.16E+00   18.8     0.00008435     -8104.5075000193 -3.38E-03
    83 OT LS       0.22E+00    9.9                    -8104.5101325890
    84 OT LS       0.21E+00    9.9                    -8104.5102928072
    85 OT CG       0.16E+00   18.8     0.00007650     -8104.5103016362 -2.80E-03
    86 OT LS       0.23E+00    9.9                    -8104.5124478873
    87 OT LS       0.20E+00   10.0                    -8104.5124438103
    88 OT CG       0.16E+00   18.8     0.00006731     -8104.5125074951 -2.21E-03
    89 OT LS       0.22E+00    9.9                    -8104.5141495896
    90 OT LS       0.20E+00    9.9                    -8104.5141955295
    91 OT CG       0.16E+00   18.8     0.00006042     -8104.5142192310 -1.71E-03
    92 OT LS       0.22E+00    9.9                    -8104.5155487371
    93 OT LS       0.20E+00    9.9                    -8104.5155893496
    94 OT CG       0.16E+00   18.8     0.00005380     -8104.5156070763 -1.39E-03
    95 OT LS       0.22E+00    9.9                    -8104.5166502398
    96 OT LS       0.20E+00   10.0                    -8104.5166658911
    97 OT CG       0.16E+00   18.9     0.00004738     -8104.5166872897 -1.08E-03
    98 OT LS       0.22E+00    9.9                    -8104.5175008198
    99 OT LS       0.20E+00   10.0                    -8104.5175312559
   100 OT CG       0.16E+00   18.8     0.00004218     -8104.5175398552 -8.53E-04
   101 OT LS       0.22E+00    9.9                    -8104.5181831924
   102 OT LS       0.20E+00    9.9                    -8104.5181953144
   103 OT CG       0.16E+00   18.8     0.00003736     -8104.5182072926 -6.67E-04
   104 OT LS       0.22E+00    9.9                    -8104.5187185433
   105 OT LS       0.20E+00    9.9                    -8104.5187402244
   106 OT CG       0.16E+00   18.8     0.00003359     -8104.5187446928 -5.37E-04
   107 OT LS       0.23E+00    9.9                    -8104.5191570653
   108 OT LS       0.20E+00    9.9                    -8104.5191636044
   109 OT CG       0.16E+00   18.8     0.00002982     -8104.5191718874 -4.27E-04
   110 OT LS       0.22E+00    9.9                    -8104.5194968033
   111 OT LS       0.20E+00    9.9                    -8104.5195071885
   112 OT CG       0.16E+00   18.8     0.00002684     -8104.5195113275 -3.39E-04
   113 OT LS       0.22E+00    9.9                    -8104.5197801307
   114 OT LS       0.21E+00    9.9                    -8104.5197917889
   115 OT CG       0.16E+00   18.8     0.00002449     -8104.5197940481 -2.83E-04
   116 OT LS       0.23E+00    9.9                    -8104.5200152360
   117 OT LS       0.20E+00    9.9                    -8104.5200165552
   118 OT CG       0.16E+00   18.8     0.00002198     -8104.5200221385 -2.28E-04
   119 OT LS       0.22E+00    9.9                    -8104.5202024015
   120 OT LS       0.21E+00    9.9                    -8104.5202108547
   121 OT CG       0.16E+00   18.8     0.00002033     -8104.5202121569 -1.90E-04
   122 OT LS       0.23E+00    9.9                    -8104.5203679096
   123 OT LS       0.21E+00    9.9                    -8104.5203717650
   124 OT CG       0.16E+00   18.8     0.00001873     -8104.5203742347 -1.62E-04
   125 OT LS       0.23E+00    9.9                    -8104.5205071497
   126 OT LS       0.21E+00    9.9                    -8104.5205115800
   127 OT CG       0.17E+00   18.8     0.00001745     -8104.5205131987 -1.39E-04
   128 OT LS       0.23E+00    9.9                    -8104.5206292916
   129 OT LS       0.21E+00    9.9                    -8104.5206325903
   130 OT CG       0.17E+00   18.8     0.00001627     -8104.5206342432 -1.21E-04
   131 OT LS       0.23E+00    9.9                    -8104.5207362067
   132 OT LS       0.21E+00    9.9                    -8104.5207398048
   133 OT CG       0.17E+00   18.8     0.00001540     -8104.5207409666 -1.07E-04
   134 OT LS       0.24E+00    9.9                    -8104.5208333935
   135 OT LS       0.21E+00    9.9                    -8104.5208365014
   136 OT CG       0.17E+00   18.8     0.00001463     -8104.5208376157 -9.66E-05
   137 OT LS       0.24E+00    9.9                    -8104.5209204342
   138 OT LS       0.21E+00    9.9                    -8104.5209217469
   139 OT CG       0.17E+00   18.8     0.00001382     -8104.5209234105 -8.58E-05
   140 OT LS       0.23E+00    9.9                    -8104.5209978137
   141 OT LS       0.21E+00    9.9                    -8104.5210006124
   142 OT CG       0.17E+00   18.8     0.00001334     -8104.5210013933 -7.80E-05
   143 OT LS       0.24E+00    9.9                    -8104.5210710584
   144 OT LS       0.21E+00    9.9                    -8104.5210728852
   145 OT CG       0.17E+00   18.8     0.00001275     -8104.5210739441 -7.26E-05
   146 OT LS       0.24E+00    9.9                    -8104.5211379568
   147 OT LS       0.22E+00    9.9                    -8104.5211400343
   148 OT CG       0.17E+00   18.8     0.00001234     -8104.5211408367 -6.69E-05
   149 OT LS       0.24E+00    9.9                    -8104.5212016961
   150 OT LS       0.22E+00    9.9                    -8104.5212039774
   151 OT CG       0.18E+00   18.8     0.00001207     -8104.5212046190 -6.38E-05
   152 OT LS       0.25E+00    9.9                    -8104.5212626000
   153 OT LS       0.22E+00    9.9                    -8104.5212635485
   154 OT CG       0.17E+00   18.8     0.00001169     -8104.5212646985 -6.01E-05
   155 OT LS       0.24E+00    9.9                    -8104.5213190719
   156 OT LS       0.22E+00   10.0                    -8104.5213207628
   157 OT CG       0.17E+00   18.8     0.00001145     -8104.5213214750 -5.68E-05
   158 OT LS       0.24E+00    9.9                    -8104.5213736905
   159 OT LS       0.22E+00    9.9                    -8104.5213750030
   160 OT CG       0.17E+00   18.8     0.00001111     -8104.5213758222 -5.43E-05
   161 OT LS       0.24E+00    9.9                    -8104.5214247144
   162 OT LS       0.22E+00    9.9                    -8104.5214258762
   163 OT CG       0.17E+00   18.8     0.00001076     -8104.5214266736 -5.09E-05
   164 OT LS       0.24E+00    9.9                    -8104.5214723086
   165 OT LS       0.21E+00   10.0                    -8104.5214733642
   166 OT CG       0.17E+00   18.9     0.00001039     -8104.5214741216 -4.74E-05
   167 OT LS       0.24E+00    9.9                    -8104.5215164459
   168 OT LS       0.21E+00   10.0                    -8104.5215174431
   169 OT CG       0.17E+00   18.8     0.00000992     -8104.5215181370 -4.40E-05

  *** SCF run converged in   169 steps ***


  Electronic density on regular grids:      -1423.9999923629        0.0000076371
  Core density on regular grids:             1423.9999996425       -0.0000003575
  Total charge density on r-space grids:        0.0000072796
  Total charge density g-space grids:           0.0000072796

  Overlap energy of the core charge distribution:               0.00000189619021
  Self energy of the core charge distribution:             -14544.97670297458353
  Core Hamiltonian energy:                                   4078.62178611387662
  Hartree energy:                                            3394.98034000290636
  Exchange-correlation energy:                              -1034.08712250931603
  Dispersion energy:                                           -0.55042524509878

  DFT+U energy:                                                 1.49060457899881

  Total energy:                                             -8104.52151813702403

  outer SCF iter =    1 RMS gradient =   0.99E-05 energy =      -8104.5215181370
  outer SCF loop converged in   1 iterations or  169 steps


  Integrated absolute spin density  :                             232.1539971773
  Ideal and single determinant S**2 :                    0.000000     127.230955

 ENERGY| Total FORCE_EVAL ( QS ) energy (a.u.):            -8104.521556459943895


 --------  Informations at step =     0 ------------
  Optimization Method        =                 BFGS
  Total Energy               =     -8104.5215564599
  Used time                  =             2242.883
 ---------------------------------------------------

 --------------------------
 OPTIMIZATION STEP:      1
 --------------------------

 Spin 1

 Number of electrons:                                                        712
 Number of occupied orbitals:                                                712
 Number of molecular orbitals:                                               712

 Spin 2

 Number of electrons:                                                        712
 Number of occupied orbitals:                                                712
 Number of molecular orbitals:                                               712

 Number of orbital functions:                                               2683
 Number of independent orbital functions:                                   2683

 Extrapolation method: PS Nth order


 SCF WAVEFUNCTION OPTIMIZATION

  ----------------------------------- OT ---------------------------------------
  Minimizer      : CG                  : conjugate gradient
  Preconditioner : FULL_ALL            : diagonalization, state selective
  Precond_solver : DEFAULT
  Line search    : 3PNT                : 3 energies
  stepsize       :    0.15000000                  energy_gap     :    0.08000000
  eps_taylor     :   0.10000E-15                  max_taylor     :             4
  ----------------------------------- OT ---------------------------------------

  Step     Update method      Time    Convergence         Total energy    Change
  ------------------------------------------------------------------------------
     1 OT CG       0.12E+00   20.9     0.00010808     -8104.5202967222 -8.10E+03
     2 OT LS       0.17E+00    9.0                    -8104.5244110535
     3 OT LS       0.26E+00    9.0                    -8104.5253612959
     4 OT CG       0.21E+00   17.9     0.00009599     -8104.5260699501 -5.77E-03
     5 OT LS       0.29E+00    8.9                    -8104.5286867472
     6 OT LS       0.16E+00    8.9                    -8104.5271227589
     7 OT CG       0.13E+00   17.9     0.00003592     -8104.5289109794 -2.84E-03
     8 OT LS       0.18E+00    8.9                    -8104.5291033414
     9 OT LS       0.93E-01    8.9                    -8104.5289304275
    10 OT CG       0.74E-01   17.8     0.00001596     -8104.5291393220 -2.28E-04
    11 OT LS       0.10E+00    8.9                    -8104.5291916588
    12 OT LS       0.14E+00    8.9                    -8104.5292015354
    13 OT CG       0.11E+00   17.7     0.00000865     -8104.5292051090 -6.58E-05

  *** SCF run converged in    13 steps ***


  Electronic density on regular grids:      -1423.9999923227        0.0000076773
  Core density on regular grids:             1423.9999996426       -0.0000003574
  Total charge density on r-space grids:        0.0000073199
  Total charge density g-space grids:           0.0000073199

  Overlap energy of the core charge distribution:               0.00000191794383
  Self energy of the core charge distribution:             -14544.97670297458353
  Core Hamiltonian energy:                                   4078.54951177522435
  Hartree energy:                                            3395.02547425752437
  Exchange-correlation energy:                              -1034.06859177924434
  Dispersion energy:                                           -0.55065760661331

  DFT+U energy:                                                 1.49175930071393

  Total energy:                                             -8104.52920510903550

  outer SCF iter =    1 RMS gradient =   0.87E-05 energy =      -8104.5292051090
  outer SCF loop converged in   1 iterations or   13 steps


  Integrated absolute spin density  :                             232.1482921491
  Ideal and single determinant S**2 :                    0.000000     127.236515

 ENERGY| Total FORCE_EVAL ( QS ) energy (a.u.):            -8104.529221998405774


 --------  Informations at step =     1 ------------
  Optimization Method        =                 BFGS
  Total Energy               =     -8104.5292219984
  Real energy change         =        -0.0076655385
  Predicted change in energy =        -0.0053887445
  Scaling factor             =         0.0000000000
  Step size                  =         0.1484056799
  Trust radius               =         0.4724315332
  Decrease in energy         =                  YES
  Used time                  =              214.801

  Convergence check :
  Max. step size             =         0.1484056799
  Conv. limit for step size  =         1.0000000000
  Convergence in step size   =                  YES
  RMS step size              =         0.0139754343
  Conv. limit for RMS step   =         1.0000000000
  Convergence in RMS step    =                  YES
  Max. gradient              =         0.0139982965
  Conv. limit for gradients  =         0.0100000000
  Conv. for gradients        =                   NO
  RMS gradient               =         0.0014798958
  Conv. limit for RMS grad.  =         1.0000000000
  Conv. in RMS gradients     =                  YES
 ---------------------------------------------------

 --------------------------
 OPTIMIZATION STEP:      2
 --------------------------

 Spin 1

 Number of electrons:                                                        712
 Number of occupied orbitals:                                                712
 Number of molecular orbitals:                                               712

 Spin 2

 Number of electrons:                                                        712
 Number of occupied orbitals:                                                712
 Number of molecular orbitals:                                               712

 Number of orbital functions:                                               2683
 Number of independent orbital functions:                                   2683

 Extrapolation method: PS Nth order


 SCF WAVEFUNCTION OPTIMIZATION

  ----------------------------------- OT ---------------------------------------
  Minimizer      : CG                  : conjugate gradient
  Preconditioner : FULL_ALL            : diagonalization, state selective
  Precond_solver : DEFAULT
  Line search    : 3PNT                : 3 energies
  stepsize       :    0.15000000                  energy_gap     :    0.08000000
  eps_taylor     :   0.10000E-15                  max_taylor     :             4
  ----------------------------------- OT ---------------------------------------

  Step     Update method      Time    Convergence         Total energy    Change
  ------------------------------------------------------------------------------
     1 OT CG       0.12E+00   20.8     0.00010990     -8104.5224658701 -8.10E+03
     2 OT LS       0.17E+00    8.9                    -8104.5270050684
     3 OT LS       0.34E+00    8.9                    -8104.5282681313
     4 OT CG       0.27E+00   17.8     0.00009558     -8104.5302592233 -7.79E-03
     5 OT LS       0.13E+00    8.9                    -8104.5290010471
     6 OT LS       0.12E+00    8.9                    -8104.5323751638
     7 OT CG       0.95E-01   17.8     0.00003167     -8104.5324059071 -2.15E-03
     8 OT LS       0.13E+00    8.9                    -8104.5326512595
     9 OT LS       0.14E+00    8.9                    -8104.5326804438
    10 OT CG       0.11E+00   17.8     0.00001465     -8104.5326815849 -2.76E-04
    11 OT LS       0.16E+00    8.9                    -8104.5327211881
    12 OT LS       0.99E-01    8.9                    -8104.5327068736
    13 OT CG       0.79E-01   17.8     0.00000677     -8104.5327221322 -4.05E-05

  *** SCF run converged in    13 steps ***


  Electronic density on regular grids:      -1423.9999923317        0.0000076683
  Core density on regular grids:             1423.9999996435       -0.0000003565
  Total charge density on r-space grids:        0.0000073117
  Total charge density g-space grids:           0.0000073117

  Overlap energy of the core charge distribution:               0.00000194835188
  Self energy of the core charge distribution:             -14544.97670297458353
  Core Hamiltonian energy:                                   4078.27714589467450
  Hartree energy:                                            3395.21876609706123
  Exchange-correlation energy:                              -1033.99883052276778
  Dispersion energy:                                           -0.55046624974712

  DFT+U energy:                                                 1.49736367480552

  Total energy:                                             -8104.53272213220407

  outer SCF iter =    1 RMS gradient =   0.68E-05 energy =      -8104.5327221322
  outer SCF loop converged in   1 iterations or   13 steps


  Integrated absolute spin density  :                             232.1766350124
  Ideal and single determinant S**2 :                    0.000000     127.259718

 ENERGY| Total FORCE_EVAL ( QS ) energy (a.u.):            -8104.532732294912421


 --------  Informations at step =     2 ------------
  Optimization Method        =                 BFGS
  Total Energy               =     -8104.5327322949
  Real energy change         =        -0.0035102965
  Predicted change in energy =        -0.0066941895
  Scaling factor             =         0.0000000000
  Step size                  =         0.3612873452
  Trust radius               =         0.4724315332
  Decrease in energy         =                  YES
  Used time                  =              214.774

  Convergence check :
  Max. step size             =         0.3612873452
  Conv. limit for step size  =         1.0000000000
  Convergence in step size   =                  YES
  RMS step size              =         0.0266745916
  Conv. limit for RMS step   =         1.0000000000
  Convergence in RMS step    =                  YES
  Max. gradient              =         0.0163346893
  Conv. limit for gradients  =         0.0100000000
  Conv. for gradients        =                   NO
  RMS gradient               =         0.0028678415
  Conv. limit for RMS grad.  =         1.0000000000
  Conv. in RMS gradients     =                  YES
 ---------------------------------------------------

 --------------------------
 OPTIMIZATION STEP:      3
 --------------------------

 Spin 1

 Number of electrons:                                                        712
 Number of occupied orbitals:                                                712
 Number of molecular orbitals:                                               712

 Spin 2

 Number of electrons:                                                        712
 Number of occupied orbitals:                                                712
 Number of molecular orbitals:                                               712

 Number of orbital functions:                                               2683
 Number of independent orbital functions:                                   2683

 Extrapolation method: PS Nth order


 SCF WAVEFUNCTION OPTIMIZATION

  ----------------------------------- OT ---------------------------------------
  Minimizer      : CG                  : conjugate gradient
  Preconditioner : FULL_ALL            : diagonalization, state selective
  Precond_solver : DEFAULT
  Line search    : 3PNT                : 3 energies
  stepsize       :    0.15000000                  energy_gap     :    0.08000000
  eps_taylor     :   0.10000E-15                  max_taylor     :             4
  ----------------------------------- OT ---------------------------------------

  Step     Update method      Time    Convergence         Total energy    Change
  ------------------------------------------------------------------------------
     1 OT CG       0.12E+00   20.7     0.00034286     -8104.4655075130 -8.10E+03
     2 OT LS       0.17E+00    8.9                    -8104.4987191606
     3 OT LS       0.16E+00    8.9                    -8104.5010659720
     4 OT CG       0.13E+00   17.8     0.00024766     -8104.5010946466 -3.56E-02
     5 OT LS       0.18E+00    9.4                    -8104.5240157708
     6 OT LS       0.25E+00    9.4                    -8104.5287906328
     7 OT CG       0.20E+00   18.3     0.00010952     -8104.5310929201 -3.00E-02
     8 OT LS       0.28E+00    9.4                    -8104.5316020502
     9 OT LS       0.11E+00    9.4                    -8104.5270181378
    10 OT CG       0.86E-01   18.2     0.00005860     -8104.5334986945 -2.41E-03
    11 OT LS       0.12E+00    9.3                    -8104.5342535548
    12 OT LS       0.13E+00    9.4                    -8104.5343459189
    13 OT CG       0.10E+00   18.2     0.00003371     -8104.5343503601 -8.52E-04
    14 OT LS       0.15E+00    9.3                    -8104.5346383611
    15 OT LS       0.14E+00    9.4                    -8104.5346619815
    16 OT CG       0.11E+00   18.2     0.00001772     -8104.5346620426 -3.12E-04
    17 OT LS       0.16E+00    9.3                    -8104.5347516012
    18 OT LS       0.16E+00    9.4                    -8104.5347603196
    19 OT CG       0.13E+00   18.2     0.00001183     -8104.5347603490 -9.83E-05
    20 OT LS       0.18E+00    9.4                    -8104.5348041549
    21 OT LS       0.18E+00    9.4                    -8104.5348070328
    22 OT CG       0.14E+00   18.2     0.00000786     -8104.5348071343 -4.68E-05

  *** SCF run converged in    22 steps ***


  Electronic density on regular grids:      -1423.9999923347        0.0000076653
  Core density on regular grids:             1423.9999996429       -0.0000003571
  Total charge density on r-space grids:        0.0000073082
  Total charge density g-space grids:           0.0000073082

  Overlap energy of the core charge distribution:               0.00000196132760
  Self energy of the core charge distribution:             -14544.97670297458353
  Core Hamiltonian energy:                                   4078.31024954948862
  Hartree energy:                                            3395.19075228781730
  Exchange-correlation energy:                              -1034.00420339671291
  Dispersion energy:                                           -0.55114724295581

  DFT+U energy:                                                 1.49624268134322

  Total energy:                                             -8104.53480713427689

  outer SCF iter =    1 RMS gradient =   0.79E-05 energy =      -8104.5348071343
  outer SCF loop converged in   1 iterations or   22 steps


  Integrated absolute spin density  :                             232.1813058012
  Ideal and single determinant S**2 :                    0.000000     127.258336

 ENERGY| Total FORCE_EVAL ( QS ) energy (a.u.):            -8104.534821000319425


 --------  Informations at step =     3 ------------
  Optimization Method        =                 BFGS
  Total Energy               =     -8104.5348210003
  Real energy change         =        -0.0020887054
  Predicted change in energy =        -0.0056418607
  Scaling factor             =         0.0000000000
  Step size                  =         0.0812523539
  Trust radius               =         0.4724315332
  Decrease in energy         =                  YES
  Used time                  =              329.324

  Convergence check :
  Max. step size             =         0.0812523539
  Conv. limit for step size  =         1.0000000000
  Convergence in step size   =                  YES
  RMS step size              =         0.0114499244
  Conv. limit for RMS step   =         1.0000000000
  Convergence in RMS step    =                  YES
  Max. gradient              =         0.0120118501
  Conv. limit for gradients  =         0.0100000000
  Conv. for gradients        =                   NO
  RMS gradient               =         0.0016966231
  Conv. limit for RMS grad.  =         1.0000000000
  Conv. in RMS gradients     =                  YES
 ---------------------------------------------------

 --------------------------
 OPTIMIZATION STEP:      4
 --------------------------

 Spin 1

 Number of electrons:                                                        712
 Number of occupied orbitals:                                                712
 Number of molecular orbitals:                                               712

 Spin 2

 Number of electrons:                                                        712
 Number of occupied orbitals:                                                712
 Number of molecular orbitals:                                               712

 Number of orbital functions:                                               2683
 Number of independent orbital functions:                                   2683

 Extrapolation method: PS Nth order


 SCF WAVEFUNCTION OPTIMIZATION

  ----------------------------------- OT ---------------------------------------
  Minimizer      : CG                  : conjugate gradient
  Preconditioner : FULL_ALL            : diagonalization, state selective
  Precond_solver : DEFAULT
  Line search    : 3PNT                : 3 energies
  stepsize       :    0.15000000                  energy_gap     :    0.08000000
  eps_taylor     :   0.10000E-15                  max_taylor     :             4
  ----------------------------------- OT ---------------------------------------

  Step     Update method      Time    Convergence         Total energy    Change
  ------------------------------------------------------------------------------
     1 OT CG       0.12E+00   20.7     0.00016704     -8104.5178795883 -8.10E+03
     2 OT LS       0.17E+00    8.9                    -8104.5268747407
     3 OT LS       0.20E+00    8.9                    -8104.5283410462
     4 OT CG       0.16E+00   17.7     0.00013623     -8104.5286403489 -1.08E-02
     5 OT LS       0.23E+00    8.9                    -8104.5354621826
     6 OT LS       0.20E+00    8.9                    -8104.5356249188
     7 OT CG       0.16E+00   17.7     0.00006148     -8104.5357349184 -7.09E-03
     8 OT LS       0.22E+00    8.9                    -8104.5361105976
     9 OT LS       0.96E-01    8.9                    -8104.5351696654
    10 OT CG       0.77E-01   17.7     0.00002382     -8104.5364275059 -6.93E-04
    11 OT LS       0.11E+00    8.9                    -8104.5365388791
    12 OT LS       0.12E+00    8.9                    -8104.5365527114
    13 OT CG       0.93E-01   17.7     0.00001159     -8104.5365534399 -1.26E-04
    14 OT LS       0.13E+00    8.9                    -8104.5365873355
    15 OT LS       0.16E+00    8.9                    -8104.5365931621
    16 OT CG       0.13E+00   17.7     0.00000510     -8104.5365946434 -4.12E-05

  *** SCF run converged in    16 steps ***


  Electronic density on regular grids:      -1423.9999923297        0.0000076703
  Core density on regular grids:             1423.9999996427       -0.0000003573
  Total charge density on r-space grids:        0.0000073130
  Total charge density g-space grids:           0.0000073130

  Overlap energy of the core charge distribution:               0.00000195297709
  Self energy of the core charge distribution:             -14544.97670297458353
  Core Hamiltonian energy:                                   4078.35465451979780
  Hartree energy:                                            3395.16063306633123
  Exchange-correlation energy:                              -1034.01947360354438
  Dispersion energy:                                           -0.55087567815026

  DFT+U energy:                                                 1.49516807379015

  Total energy:                                             -8104.53659464337943

  outer SCF iter =    1 RMS gradient =   0.51E-05 energy =      -8104.5365946434
  outer SCF loop converged in   1 iterations or   16 steps


  Integrated absolute spin density  :                             232.1846810356
  Ideal and single determinant S**2 :                    0.000000     127.255332

 ENERGY| Total FORCE_EVAL ( QS ) energy (a.u.):            -8104.536601641879315


 --------  Informations at step =     4 ------------
  Optimization Method        =                 BFGS
  Total Energy               =     -8104.5366016419
  Real energy change         =        -0.0017806416
  Predicted change in energy =        -0.0038410233
  Scaling factor             =         0.0000000000
  Step size                  =         0.1739629808
  Trust radius               =         0.4724315332
  Decrease in energy         =                  YES
  Used time                  =              249.493

  Convergence check :
  Max. step size             =         0.1739629808
  Conv. limit for step size  =         1.0000000000
  Convergence in step size   =                  YES
  RMS step size              =         0.0140107517
  Conv. limit for RMS step   =         1.0000000000
  Convergence in RMS step    =                  YES
  Max. gradient              =         0.0083508397
  Conv. limit for gradients  =         0.0100000000
  Conv. in gradients         =                  YES
  RMS gradient               =         0.0013335444
  Conv. limit for RMS grad.  =         1.0000000000
  Conv. in RMS gradients     =                  YES
 ---------------------------------------------------

 *******************************************************************************
 ***                    GEOMETRY OPTIMIZATION COMPLETED                      ***
 *******************************************************************************

                    Reevaluating energy at the minimum

 Spin 1

 Number of electrons:                                                        712
 Number of occupied orbitals:                                                712
 Number of molecular orbitals:                                               712

 Spin 2

 Number of electrons:                                                        712
 Number of occupied orbitals:                                                712
 Number of molecular orbitals:                                               712

 Number of orbital functions:                                               2683
 Number of independent orbital functions:                                   2683

 Extrapolation method: PS Nth order


 SCF WAVEFUNCTION OPTIMIZATION

  ----------------------------------- OT ---------------------------------------
  Minimizer      : CG                  : conjugate gradient
  Preconditioner : FULL_ALL            : diagonalization, state selective
  Precond_solver : DEFAULT
  Line search    : 3PNT                : 3 energies
  stepsize       :    0.15000000                  energy_gap     :    0.08000000
  eps_taylor     :   0.10000E-15                  max_taylor     :             4
  ----------------------------------- OT ---------------------------------------

  Step     Update method      Time    Convergence         Total energy    Change
  ------------------------------------------------------------------------------
     1 OT CG       0.12E+00   20.6     0.00024729     -8104.4951103986 -8.10E+03
     2 OT LS       0.17E+00    8.9                    -8104.5150673370
     3 OT LS       0.21E+00    8.9                    -8104.5186153245
     4 OT CG       0.17E+00   17.7     0.00019984     -8104.5196972848 -2.46E-02
     5 OT LS       0.24E+00    8.9                    -8104.5340149464
     6 OT LS       0.18E+00    8.9                    -8104.5329757285
     7 OT CG       0.15E+00   17.7     0.00009449     -8104.5341270104 -1.44E-02
     8 OT LS       0.21E+00    8.9                    -8104.5355033087
     9 OT LS       0.10E+00    8.9                    -8104.5339834155
    10 OT CG       0.81E-01   17.7     0.00004828     -8104.5358652224 -1.74E-03
    11 OT LS       0.11E+00    8.9                    -8104.5363506864
    12 OT LS       0.12E+00    8.9                    -8104.5364122859
    13 OT CG       0.99E-01   17.7     0.00002339     -8104.5364160533 -5.51E-04
    14 OT LS       0.14E+00    8.9                    -8104.5365517289
    15 OT LS       0.14E+00    8.9                    -8104.5365660777
    16 OT CG       0.11E+00   17.7     0.00000908     -8104.5365662659 -1.50E-04

  *** SCF run converged in    16 steps ***


  Electronic density on regular grids:      -1423.9999923300        0.0000076700
  Core density on regular grids:             1423.9999996427       -0.0000003573
  Total charge density on r-space grids:        0.0000073128
  Total charge density g-space grids:           0.0000073128

  Overlap energy of the core charge distribution:               0.00000195297709
  Self energy of the core charge distribution:             -14544.97670297458353
  Core Hamiltonian energy:                                   4078.37084014402808
  Hartree energy:                                            3395.14752339278130
  Exchange-correlation energy:                              -1034.02261953660627
  Dispersion energy:                                           -0.55087567815026

  DFT+U energy:                                                 1.49526643365998

  Total energy:                                             -8104.53656626589236

  outer SCF iter =    1 RMS gradient =   0.91E-05 energy =      -8104.5365662659
  outer SCF loop converged in   1 iterations or   16 steps


  Integrated absolute spin density  :                             232.1783649243
  Ideal and single determinant S**2 :                    0.000000     127.255208

 ENERGY| Total FORCE_EVAL ( QS ) energy (a.u.):            -8104.536566265892361


 -------------------------------------------------------------------------------
 -                                                                             -
 -                                DBCSR STATISTICS                             -
 -                                                                             -
 -------------------------------------------------------------------------------
 COUNTER                                    TOTAL       BLAS       SMM       ACC
 flops     5 x     8 x     8               107520       0.0%    100.0%      0.0%
 flops    13 x     8 x     8              1857024       0.0%    100.0%      0.0%
 flops    26 x     8 x     8              2156544       0.0%    100.0%      0.0%
 flops     5 x    32 x    32             37847040       0.0%    100.0%      0.0%
 flops     5 x     8 x     5             60995200       0.0%    100.0%      0.0%
 flops     5 x     5 x    64            174720000       0.0%    100.0%      0.0%
 flops     5 x     5 x    72            196560000       0.0%    100.0%      0.0%
 flops    13 x    32 x    32            653672448       0.0%    100.0%      0.0%
 flops    26 x    32 x    32            759103488       0.0%    100.0%      0.0%
 flops     5 x     8 x    13           1053474240       0.0%    100.0%      0.0%
 flops    13 x     8 x     5           1053474240       0.0%    100.0%      0.0%
 flops    64 x    64 x    64           1058013184       0.0%    100.0%      0.0%
 flops    64 x    64 x    72           1190264832       0.0%    100.0%      0.0%
 flops    64 x    72 x    64           1190264832       0.0%    100.0%      0.0%
 flops    72 x    64 x    64           1190264832       0.0%    100.0%      0.0%
 flops     5 x     8 x    26           1223389440       0.0%    100.0%      0.0%
 flops    26 x     8 x     5           1223389440       0.0%    100.0%      0.0%
 flops    64 x    72 x    72           1339047936       0.0%    100.0%      0.0%
 flops    72 x    64 x    72           1339047936       0.0%    100.0%      0.0%
 flops    72 x    72 x    64           1339047936       0.0%    100.0%      0.0%
 flops    72 x    72 x    72           1506428928       0.0%    100.0%      0.0%
 flops     5 x     5 x    96           1572480000       0.0%    100.0%      0.0%
 flops     5 x    13 x    64           2799180800       0.0%    100.0%      0.0%
 flops    13 x     5 x    64           2833792000       0.0%    100.0%      0.0%
 flops    64 x    64 x   338           2857500672       0.0%    100.0%      0.0%
 flops     5 x    13 x    72           3149078400       0.0%    100.0%      0.0%
 flops    13 x     5 x    72           3188016000       0.0%    100.0%      0.0%
 flops    64 x    72 x   338           3214688256       0.0%    100.0%      0.0%
 flops    72 x    64 x   338           3214688256       0.0%    100.0%      0.0%
 flops    26 x     5 x    64           3236147200       0.0%    100.0%      0.0%
 flops     5 x    26 x    64           3305369600       0.0%    100.0%      0.0%
 flops    72 x    72 x   338           3616524288       0.0%    100.0%      0.0%
 flops    26 x     5 x    72           3640665600       0.0%    100.0%      0.0%
 flops     5 x    26 x    72           3718540800       0.0%    100.0%      0.0%
 flops   338 x    64 x    64           4203184128       0.0%    100.0%      0.0%
 flops   338 x    64 x    72           4728582144       0.0%    100.0%      0.0%
 flops   338 x    72 x    64           4728582144       0.0%    100.0%      0.0%
 flops   338 x    72 x    72           5319654912       0.0%    100.0%      0.0%
 flops     5 x    32 x     5           5367577600       0.0%    100.0%      0.0%
 flops   338 x    64 x   338           5439842304     100.0%      0.0%      0.0%
 flops   338 x    72 x   338           6119822592     100.0%      0.0%      0.0%
 flops    64 x    64 x    96           9522118656       0.0%    100.0%      0.0%
 flops    64 x    96 x    64           9522118656       0.0%    100.0%      0.0%
 flops    96 x    64 x    64           9522118656       0.0%    100.0%      0.0%
 flops    64 x    72 x    96          10712383488       0.0%    100.0%      0.0%
 flops    64 x    96 x    72          10712383488       0.0%    100.0%      0.0%
 flops    72 x    64 x    96          10712383488       0.0%    100.0%      0.0%
 flops    72 x    96 x    64          10712383488       0.0%    100.0%      0.0%
 flops    96 x    64 x    72          10712383488       0.0%    100.0%      0.0%
 flops    96 x    72 x    64          10712383488       0.0%    100.0%      0.0%
 flops    72 x    72 x    96          12051431424       0.0%    100.0%      0.0%
 flops    72 x    96 x    72          12051431424       0.0%    100.0%      0.0%
 flops    96 x    72 x    72          12051431424       0.0%    100.0%      0.0%
 flops    13 x     8 x    13          18035122976       0.0%    100.0%      0.0%
 flops    64 x    64 x   335          19824967680       0.0%    100.0%      0.0%
 flops    26 x     8 x    13          21028705152       0.0%    100.0%      0.0%
 flops    13 x     8 x    26          21028705152       0.0%    100.0%      0.0%
 flops    64 x    72 x   335          22303088640       0.0%    100.0%      0.0%
 flops    72 x    64 x   335          22303088640       0.0%    100.0%      0.0%
 flops    26 x     8 x    26          24537696768       0.0%    100.0%      0.0%
 flops    72 x    72 x   335          25090974720       0.0%    100.0%      0.0%
 flops     5 x    13 x    96          25192627200       0.0%    100.0%      0.0%
 flops    13 x     5 x    96          25504128000       0.0%    100.0%      0.0%
 flops    64 x    96 x   338          25717506048       0.0%    100.0%      0.0%
 flops    96 x    64 x   338          25717506048       0.0%    100.0%      0.0%
 flops    72 x    96 x   338          28932194304     100.0%      0.0%      0.0%
 flops    96 x    72 x   338          28932194304     100.0%      0.0%      0.0%
 flops    26 x     5 x    96          29125324800       0.0%    100.0%      0.0%
 flops   335 x    64 x    64          29161144320       0.0%    100.0%      0.0%
 flops     5 x    26 x    96          29748326400       0.0%    100.0%      0.0%
 flops   335 x    64 x    72          32806287360       0.0%    100.0%      0.0%
 flops   335 x    72 x    64          32806287360       0.0%    100.0%      0.0%
 flops   335 x    72 x    72          36907073280       0.0%    100.0%      0.0%
 flops   335 x    64 x   338          37740917760     100.0%      0.0%      0.0%
 flops   338 x    64 x   335          37740917760     100.0%      0.0%      0.0%
 flops   338 x    64 x    96          37828657152       0.0%    100.0%      0.0%
 flops   338 x    96 x    64          37828657152       0.0%    100.0%      0.0%
 flops   335 x    72 x   338          42458532480     100.0%      0.0%      0.0%
 flops   338 x    72 x   335          42458532480     100.0%      0.0%      0.0%
 flops   338 x    72 x    96          42557239296     100.0%      0.0%      0.0%
 flops   338 x    96 x    72          42557239296     100.0%      0.0%      0.0%
 flops    13 x    13 x    64          48740357120       0.0%    100.0%      0.0%
 flops   338 x    96 x   338          48958580736     100.0%      0.0%      0.0%
 flops    13 x    13 x    72          54832901760       0.0%    100.0%      0.0%
 flops    13 x    26 x    64          56085719040       0.0%    100.0%      0.0%
 flops    26 x    13 x    64          56355686400       0.0%    100.0%      0.0%
 flops    13 x    26 x    72          63096433920       0.0%    100.0%      0.0%
 flops    26 x    13 x    72          63400147200       0.0%    100.0%      0.0%
 flops    26 x    26 x    64          66816921600       0.0%    100.0%      0.0%
 flops    26 x    26 x    72          75169036800       0.0%    100.0%      0.0%
 flops    96 x    96 x    64          85699067904       0.0%    100.0%      0.0%
 flops    64 x    96 x    96          85699067904       0.0%    100.0%      0.0%
 flops    96 x    64 x    96          85699067904       0.0%    100.0%      0.0%
 flops     5 x    32 x    13          92705733120       0.0%    100.0%      0.0%
 flops    13 x    32 x     5          92705733120       0.0%    100.0%      0.0%
 flops    96 x    96 x    72          96411451392       0.0%    100.0%      0.0%
 flops    72 x    96 x    96          96411451392       0.0%    100.0%      0.0%
 flops    96 x    72 x    96          96411451392       0.0%    100.0%      0.0%
 flops     5 x    32 x    26         107658270720       0.0%    100.0%      0.0%
 flops    26 x    32 x     5         107658270720       0.0%    100.0%      0.0%
 flops    64 x    96 x   335         178424709120       0.0%    100.0%      0.0%
 flops    96 x    64 x   335         178424709120       0.0%    100.0%      0.0%
 flops    72 x    96 x   335         200727797760     100.0%      0.0%      0.0%
 flops    96 x    72 x   335         200727797760     100.0%      0.0%      0.0%
 flops    96 x    96 x   338         231457554432     100.0%      0.0%      0.0%
 flops   335 x    64 x   335         261841574400     100.0%      0.0%      0.0%
 flops   335 x    96 x    64         262450298880       0.0%    100.0%      0.0%
 flops   335 x    64 x    96         262450298880       0.0%    100.0%      0.0%
 flops   335 x    72 x   335         294571771200     100.0%      0.0%      0.0%
 flops   335 x    96 x    72         295256586240     100.0%      0.0%      0.0%
 flops   335 x    72 x    96         295256586240     100.0%      0.0%      0.0%
 flops   335 x    96 x   338         339668259840     100.0%      0.0%      0.0%
 flops   338 x    96 x   335         339668259840     100.0%      0.0%      0.0%
 flops   338 x    96 x    96         340457914368     100.0%      0.0%      0.0%
 flops    13 x    13 x    96         438663214080       0.0%    100.0%      0.0%
 flops    13 x    26 x    96         504771471360       0.0%    100.0%      0.0%
 flops    26 x    13 x    96         507201177600       0.0%    100.0%      0.0%
 flops    26 x    26 x    96         601352294400       0.0%    100.0%      0.0%
 flops    96 x    96 x    96         771291611136       0.0%    100.0%      0.0%
 flops    13 x    32 x    13        1587090821888       0.0%    100.0%      0.0%
 flops    96 x    96 x   335        1605822382080     100.0%      0.0%      0.0%
 flops    26 x    32 x    13        1850526053376       0.0%    100.0%      0.0%
 flops    13 x    32 x    26        1850526053376       0.0%    100.0%      0.0%
 flops    26 x    32 x    26        2159317315584       0.0%    100.0%      0.0%
 flops   335 x    96 x   335        2356574169600     100.0%      0.0%      0.0%
 flops   335 x    96 x    96        2362052689920     100.0%      0.0%      0.0%
 flops inhomo. stacks                           0       0.0%      0.0%      0.0%
 flops total                        22.824804E+12      41.6%     58.4%      0.0%
 flops max/rank                    412.851331E+09      43.5%     56.5%      0.0%
 matmuls inhomo. stacks                         0       0.0%      0.0%      0.0%
 matmuls total                          518177874       0.2%     99.8%      0.0%
 number of processed stacks               8436462      13.9%     86.1%      0.0%
 average stack size                                     1.0      71.1       0.0
 marketing flops                    25.576530E+12
 -------------------------------------------------------------------------------
 # multiplications                           6262
 max memory usage/rank             786.419712E+06
 # max total images/rank                        1
 # max 3D layers                                1
 # MPI messages exchanged                 5610752
 MPI messages size (bytes):
  total size                         1.238606E+12
  min size                           0.000000E+00
  max size                         913.952000E+03
  average size                     220.755812E+03
 MPI breakdown and total messages size (bytes):
             size <=      128               15456                        0
       128 < size <=     8192                   0                        0
      8192 < size <=    32768               39550               1289136128
     32768 < size <=   131072             2449314             156397796352
    131072 < size <=  4194304             3106432            1081068772560
   4194304 < size <= 16777216                   0                        0
  16777216 < size                               0                        0
 -------------------------------------------------------------------------------
 
 MEMORY| Estimated peak process memory [MiB]                                 750

 -------------------------------------------------------------------------------
 -                                                                             -
 -                         MESSAGE PASSING PERFORMANCE                         -
 -                                                                             -
 -------------------------------------------------------------------------------

 ROUTINE             CALLS      AVE VOLUME [Bytes]
 MP_Group              540
 MP_Bcast            23416                  48215.
 MP_Allreduce        93111                    422.
 MP_Sync               402
 MP_Alltoall         28996                 794187.
 MP_SendRecv          6796                 450986.
 MP_ISendRecv       131166                  29184.
 MP_Wait            739816
 MP_comm_split         397
 MP_ISend           301042                 124936.
 MP_IRecv           301042                 123741.
 MP_Recv                60                 123648.
 MP_Memory          252664
 -------------------------------------------------------------------------------


 -------------------------------------------------------------------------------
 -                                                                             -
 -                           R E F E R E N C E S                               -
 -                                                                             -
 -------------------------------------------------------------------------------
 
 CP2K version 6.1, the CP2K developers group (2018).
 CP2K is freely available from https://www.cp2k.org/ .

 Schuett, Ole; Messmer, Peter; Hutter, Juerg; VandeVondele, Joost. 
 Electronic Structure Calculations on Graphics Processing Units, John Wiley & Sons, Ltd, 173-190 (2016). 
 GPU-Accelerated Sparse Matrix-Matrix Multiplication for Linear Scaling Density Functional Theory.
 http://dx.doi.org/10.1002/9781118670712.ch8


 Borstnik, U; VandeVondele, J; Weber, V; Hutter, J. 
 PARALLEL COMPUTING, 40 (5-6), 47-58 (2014). 
 Sparse matrix multiplication: The distributed block-compressed sparse
 row library.
 http://dx.doi.org/10.1016/j.parco.2014.03.012


 Hutter, J; Iannuzzi, M; Schiffmann, F; VandeVondele, J. 
 WILEY INTERDISCIPLINARY REVIEWS-COMPUTATIONAL MOLECULAR SCIENCE, 4 (1), 15-25 (2014). 
 CP2K: atomistic simulations of condensed matter systems.
 http://dx.doi.org/10.1002/wcms.1159


 Grimme, S; Ehrlich, S; Goerigk, L. 
 JOURNAL OF COMPUTATIONAL CHEMISTRY, 32, 1456 (2011). 
 Effect of the damping function in dispersion corrected density functional theory.
 http://dx.doi.org/10.1002/jcc.21759


 Grimme, S; Antony, J; Ehrlich, S; Krieg, H. 
 JOURNAL OF CHEMICAL PHYSICS, 132 (15), 154104 (2010). 
 A consistent and accurate ab initio parametrization of density
 functional dispersion correction (DFT-D) for the 94 elements H-Pu.
 http://dx.doi.org/10.1063/1.3382344


 VandeVondele, J; Hutter, J. 
 JOURNAL OF CHEMICAL PHYSICS, 127 (11), 114105 (2007). 
 Gaussian basis sets for accurate calculations on molecular systems in
 gas and condensed phases.
 http://dx.doi.org/10.1063/1.2770708


 Krack, M. 
 THEORETICAL CHEMISTRY ACCOUNTS, 114 (1-3), 145-152 (2005). 
 Pseudopotentials for H to Kr optimized for gradient-corrected
 exchange-correlation functionals.
 http://dx.doi.org/10.1007/s00214-005-0655-y


 VandeVondele, J; Krack, M; Mohamed, F; Parrinello, M; Chassaing, T;
 Hutter, J. COMPUTER PHYSICS COMMUNICATIONS, 167 (2), 103-128 (2005). 
 QUICKSTEP: Fast and accurate density functional calculations using a
 mixed Gaussian and plane waves approach.
 http://dx.doi.org/10.1016/j.cpc.2004.12.014


 Frigo, M; Johnson, SG. 
 PROCEEDINGS OF THE IEEE, 93 (2), 216-231 (2005). 
 The design and implementation of FFTW3.
 http://dx.doi.org/10.1109/JPROC.2004.840301


 VandeVondele, J; Hutter, J. 
 JOURNAL OF CHEMICAL PHYSICS, 118 (10), 4365-4369 (2003). 
 An efficient orbital transformation method for electronic structure
 calculations.
 http://dx.doi.org/10.1063/1.1543154


 Hartwigsen, C; Goedecker, S; Hutter, J. 
 PHYSICAL REVIEW B, 58 (7), 3641-3662 (1998). 
 Relativistic separable dual-space Gaussian pseudopotentials from H to Rn.
 http://dx.doi.org/10.1103/PhysRevB.58.3641


 Dudarev, SL; Botton, GA; Savrasov, SY; Humphreys, CJ; Sutton, AP. 
 PHYSICAL REVIEW B, 57 (3), 1505-1509 (1998). 
 Electron-energy-loss spectra and the structural stability of
 nickel oxide: An LSDA+U study.
 http://dx.doi.org/10.1103/PhysRevB.57.1505


 Lippert, G; Hutter, J; Parrinello, M. 
 MOLECULAR PHYSICS, 92 (3), 477-487 (1997). 
 A hybrid Gaussian and plane wave density functional scheme.
 http://dx.doi.org/10.1080/002689797170220


 Dudarev, SL; Manh, DN; Sutton, AP. 
 PHILOSOPHICAL MAGAZINE B, 75 (5), 613-628 (1997). 
 Effect of Mott-Hubbard correlations on the electronic
 structure and structural stability of uranium dioxide.
 http://dx.doi.org/10.1080/13642819708202343


 Perdew, JP; Burke, K; Ernzerhof, M. 
 PHYSICAL REVIEW LETTERS, 77 (18), 3865-3868 (1996). 
 Generalized gradient approximation made simple.
 http://dx.doi.org/10.1103/PhysRevLett.77.3865


 Goedecker, S; Teter, M; Hutter, J. 
 PHYSICAL REVIEW B, 54 (3), 1703-1710 (1996). 
 Separable dual-space Gaussian pseudopotentials.
 http://dx.doi.org/10.1103/PhysRevB.54.1703


 -------------------------------------------------------------------------------
 -                                                                             -
 -                                T I M I N G                                  -
 -                                                                             -
 -------------------------------------------------------------------------------
 SUBROUTINE                       CALLS  ASD         SELF TIME        TOTAL TIME
                                MAXIMUM       AVERAGE  MAXIMUM  AVERAGE  MAXIMUM
 CP2K                                 1  1.0    0.139    0.162 3470.595 3470.662
 cp_geo_opt                           1  2.0    0.011    0.012 3467.105 3467.171
 geoopt_bfgs                          1  3.0    0.100    0.148 3467.094 3467.160
 cp_eval_at                           6  4.0    0.008    0.011 3465.050 3465.125
 qs_energies                          6  5.8    0.011    0.013 3330.131 3330.201
 qs_forces                            5  5.0    0.012    0.014 3249.269 3249.331
 scf_env_do_scf                       6  6.8    0.004    0.006 3236.923 3236.984
 scf_env_do_scf_inner_loop          249  7.9    0.039    0.097 3116.156 3116.214
 qs_rho_update_rho                  255  9.0    0.010    0.011 2000.104 2000.142
 calculate_rho_elec                 510 10.0 1666.413 1860.888 2000.094 2000.132
 rebuild_ks_matrix                  254  9.9    0.012    0.013 1071.136 1071.235
 qs_ks_build_kohn_sham_matrix       254 10.9    0.138    0.149 1071.124 1071.223
 qs_ks_update_qs_env                255  8.9    0.016    0.019  949.176  949.271
 sum_up_and_integrate                92 11.8    1.021    1.026  787.117  787.172
 integrate_v_rspace                 184 12.8  635.667  734.812  786.095  786.154
 density_rs2pw                      510 11.0    0.095    0.101  320.850  580.448
 rs_pw_transfer                    3481 12.7    0.133    0.144  312.570  572.023
 mp_waitany                      100706 14.7  226.316  492.647  226.316  492.647
 rs_pw_transfer_RS2PW_200           516 12.9   23.610   27.956  229.845  488.226
 qs_scf_new_mos                     249  8.9    0.006    0.008  269.479  269.807
 qs_scf_loop_do_ot                  249  9.9    0.007    0.008  269.473  269.801
 qs_vxc_create                      254 11.9    0.022    0.029  267.110  267.130
 ot_scf_mini                        249 10.9    0.055    0.060  258.568  259.018
 rs_distribute_matrix               704 11.7    2.361    4.617  107.771  221.402
 mp_alltoall_d11v                  6134 15.9  104.953  219.567  104.953  219.567
 xc_rho_set_and_dset_create         254 13.9    7.561    7.594  212.626  216.021
 cp_fm_syevd                        397 14.6    0.013    0.019  204.657  204.766
 cp_fm_redistribute_end             397 15.6  145.360  202.359  145.722  202.489
 cp_fm_syevd_base                   397 15.4   56.598  200.503   56.598  200.503
 qs_ot_get_p                        510 11.9    0.017    0.019  184.323  185.339
 cp_dbcsr_syevd                     380 13.8    0.157    0.171  170.818  170.837
 qs_ot_p2m_diag                     356 13.0    1.348    1.615  168.140  168.472
 pw_nn_compose_r                   2768 14.6  139.588  140.663  144.568  146.137
 xc_exc_calc                        162 12.9    0.627    0.632  137.687  137.701
 xc_vxc_pw_create                    92 12.8    9.386    9.474  129.400  129.418
 qs_ks_update_qs_env_forces           5  6.0    0.000    0.000  122.409  122.415
 init_scf_loop                        6  7.8    0.003    0.004  120.688  120.689
 dbcsr_multiply_generic            6262 13.6    1.397    1.431  110.370  112.140
 xc_functional_eval                 254 14.9    0.013    0.015   96.605  100.133
 pbe_lsd_eval                       254 15.9   96.593  100.122   96.593  100.122
 multiply_cannon                   6262 14.6    5.264    5.492   73.343   78.154
 -------------------------------------------------------------------------------

 The number of warnings for this run is : 4
 
 -------------------------------------------------------------------------------
  **** **** ******  **  PROGRAM ENDED AT                 2020-10-29 18:34:40.386
 ***** ** ***  *** **   PROGRAM RAN ON                                 irene3783
 **    ****   ******    PROGRAM RAN BY                                  marticar
 ***** **    ** ** **   PROGRAM PROCESS ID                                243211
  **** **  *******  **  PROGRAM STOPPED IN /ccc/scratch/cont003/gen0609/marticar
                                           /5726041
