8
Lattice="5.1123820279787395 0.0 0.0 2.5561910139893698 4.427452710080594 0.0 0.0 0.0 32.0871212231205" Properties=species:S:1:pos:R:3:tags:I:1 pbc="T T F"
Cu      -0.00000000       1.47581757      15.00000000        2
Cu       2.55619101       1.47581757      15.00000000        2
Cu       1.27809551       3.68954393      15.00000000        2
Cu       3.83428652       3.68954393      15.00000000        2
Cu       0.00000000       0.00000000      17.08712122        1
Cu       2.55619101       0.00000000      17.08712122        1
Cu       1.27809551       2.21372636      17.08712122        1
Cu       3.83428652       2.21372636      17.08712122        1
