 DBCSR| Multiplication driver                                               XSMM
 DBCSR| Multrec recursion limit                                              512
 DBCSR| Multiplication stack size                                           1000
 DBCSR| Maximum elements for images                                    UNLIMITED
 DBCSR| Multiplicative factor virtual images                                   1
 DBCSR| Multiplication size stacks                                             3
 DBCSR| Number of 3D layers                                               SINGLE
 DBCSR| Use MPI memory allocation                                              T
 DBCSR| Use RMA algorithm                                                      F
 DBCSR| Use Communication thread                                               T
 DBCSR| Communication thread load                                             87


  **** **** ******  **  PROGRAM STARTED AT               2020-10-29 21:38:02.672
 ***** ** ***  *** **   PROGRAM STARTED ON                             irene3227
 **    ****   ******    PROGRAM STARTED BY                              marticar
 ***** **    ** ** **   PROGRAM PROCESS ID                                 38819
  **** **  *******  **  PROGRAM STARTED IN /ccc/scratch/cont003/gen0609/marticar
                                           /5732518

 CP2K| version string:                                          CP2K version 6.1
 CP2K| source code revision number:                                    svn:18464
 CP2K| cp2kflags: libint fftw3 parallel mpi3 scalapack xsmm mkl                 
 CP2K| is freely available from                            https://www.cp2k.org/
 CP2K| Program compiled at                          Mon Dec 24 15:18:38 CET 2018
 CP2K| Program compiled on                                             cobalt170
 CP2K| Program compiled for                                   Linux-x86-64-iomkl
 CP2K| Data directory path          /tmp/cp2k/6.1/iomkl-174196.202/cp2k-6.1/data
 CP2K| Input file name                                             screening.inp
 
 GLOBAL| Force Environment number                                              1
 GLOBAL| Basis set file name            /ccc/work/cont003/gen0609/marticar/data/
 GLOBAL| Potential file name            /ccc/work/cont003/gen0609/marticar/data/
 GLOBAL| MM Potential file name                                     MM_POTENTIAL
 GLOBAL| Coordinate file name                                          coord.xyz
 GLOBAL| Method name                                                        CP2K
 GLOBAL| Project name                                         sorbitol_screening
 GLOBAL| Preferred FFT library                                             FFTW3
 GLOBAL| Preferred diagonalization lib.                                       SL
 GLOBAL| Run type                                                        GEO_OPT
 GLOBAL| All-to-all communication in single precision                          F
 GLOBAL| FFTs using library dependent lengths                                  F
 GLOBAL| Global print level                                                  LOW
 GLOBAL| Total number of message passing processes                            64
 GLOBAL| Number of threads for this process                                    1
 GLOBAL| This output is from process                                           0
 GLOBAL| CPU model name :  Intel(R) Xeon Phi(TM) CPU 7250 @ 1.40GHz

 MEMORY| system memory details [Kb]
 MEMORY|                        rank 0           min           max       average
 MEMORY| MemTotal             98253756      98253756      98253756      98253756
 MEMORY| MemFree              70063892      70063892      70063892      70063892
 MEMORY| Buffers                     0             0             0             0
 MEMORY| Cached                1213960       1213960       1213960       1213960
 MEMORY| Slab                   910412        910412        910412        910412
 MEMORY| SReclaimable           109680        109680        109680        109680
 MEMORY| MemLikelyFree        71387532      71387532      71387532      71387532

 
 GENERATE|  Preliminary Number of Bonds generated:                             0
 GENERATE|  Achieved consistency in connectivity generation.

 *******************************************************************************
 *******************************************************************************
 **                                                                           **
 **     #####                         ##              ##                      **
 **    ##   ##            ##          ##              ##                      **
 **   ##     ##                       ##            ######                    **
 **   ##     ##  ##   ##  ##   #####  ##  ##   ####   ##    #####    #####    **
 **   ##     ##  ##   ##  ##  ##      ## ##   ##      ##   ##   ##  ##   ##   **
 **   ##  ## ##  ##   ##  ##  ##      ####     ###    ##   ######   ######    **
 **    ##  ###   ##   ##  ##  ##      ## ##      ##   ##   ##       ##        **
 **     #######   #####   ##   #####  ##  ##  ####    ##    #####   ##        **
 **           ##                                                    ##        **
 **                                                                           **
 **                                                ... make the atoms dance   **
 **                                                                           **
 **            Copyright (C) by CP2K developers group (2000 - 2018)           **
 **                                                                           **
 *******************************************************************************


 TOTAL NUMBERS AND MAXIMUM NUMBERS

  Total number of            - Atomic kinds:                                   6
                             - Atoms:                                        161
                             - Shell sets:                                   161
                             - Shells:                                       939
                             - Primitive Cartesian functions:               1073
                             - Cartesian basis functions:                   3046
                             - Spherical basis functions:                   2683

  Maximum angular momentum of- Orbital basis functions:                        3
                             - Local part of the GTH pseudopotential:          2
                             - Non-local part of the GTH pseudopotential:      3


 SCF PARAMETERS         Density guess:                                   RESTART
                        --------------------------------------------------------
                        max_scf:                                             500
                        max_scf_history:                                       0
                        max_diis:                                              4
                        --------------------------------------------------------
                        eps_scf:                                        1.00E-05
                        eps_scf_history:                                0.00E+00
                        eps_diis:                                       1.00E-01
                        eps_eigval:                                     1.00E-05
                        --------------------------------------------------------
                        level_shift [a.u.]:                                 0.00
                        --------------------------------------------------------
                        Outer loop SCF in use 
                        No variables optimised in outer loop
                        eps_scf                                         1.00E-05
                        max_scf                                               10
                        No outer loop optimization
                        step_size                                       5.00E-01

 BFGS| Use rational function optimization for step estimation:                NO
 BFGS| Use model Hessian for initial guess:                                  YES
 BFGS| Restart Hessian:                                                       NO
 BFGS| Trust radius:                                                       0.472

 *******************************************************************************
 ***                     STARTING GEOMETRY OPTIMIZATION                      ***
 ***                                   BFGS                                  ***
 *******************************************************************************

 Spin 1

 Number of electrons:                                                        712
 Number of occupied orbitals:                                                712
 Number of molecular orbitals:                                               712

 Spin 2

 Number of electrons:                                                        712
 Number of occupied orbitals:                                                712
 Number of molecular orbitals:                                               712

 Number of orbital functions:                                               2683
 Number of independent orbital functions:                                   2683

 Extrapolation method: initial_guess

 *** WARNING in qs_initial_guess.F:263 :: User requested to restart the  ***
 *** wavefunction from the file named: sorbitol_screening-RESTART.wfn.   ***
 *** This file does not exist. Please check the existence of the file or ***
 *** change properly the value of the keyword WFN_RESTART_FILE_NAME.     ***
 *** Calculation continues using ATOMIC GUESS.                           ***



 SCF WAVEFUNCTION OPTIMIZATION

  ----------------------------------- OT ---------------------------------------
  Minimizer      : CG                  : conjugate gradient
  Preconditioner : FULL_ALL            : diagonalization, state selective
  Precond_solver : DEFAULT
  Line search    : 3PNT                : 3 energies
  stepsize       :    0.15000000                  energy_gap     :    0.08000000
  eps_taylor     :   0.10000E-15                  max_taylor     :             4
  ----------------------------------- OT ---------------------------------------

  Step     Update method      Time    Convergence         Total energy    Change
  ------------------------------------------------------------------------------
     1 OT CG       0.12E+00   22.0     0.01859089     -7997.8119194557 -8.00E+03
     2 OT LS       0.17E+00    9.8                    -8078.8393740066
     3 OT LS       0.14E+00    9.7                    -8077.9443767129
     4 OT CG       0.11E+00   18.4     0.00456384     -8079.5390589755 -8.17E+01
     5 OT LS       0.16E+00    9.7                    -8086.9199314666
     6 OT LS       0.33E+00    9.7                    -8089.0008791054
     7 OT CG       0.26E+00   18.4     0.00296089     -8092.3442239757 -1.28E+01

 *** WARNING in dft_plus_u.F:2007 :: DFT+U energy contibution is negative ***
 *** possibly due to unphysical Mulliken charges. Check your input, if    ***
 *** this warning persists or try a different method!                     ***

     8 OT LS       0.36E+00    9.7                    -8097.6090555270

 *** WARNING in dft_plus_u.F:2007 :: DFT+U energy contibution is negative ***
 *** possibly due to unphysical Mulliken charges. Check your input, if    ***
 *** this warning persists or try a different method!                     ***

     9 OT LS       0.33E+00    9.7                    -8097.7912277409

 *** WARNING in dft_plus_u.F:2007 :: DFT+U energy contibution is negative ***
 *** possibly due to unphysical Mulliken charges. Check your input, if    ***
 *** this warning persists or try a different method!                     ***

    10 OT CG       0.26E+00   18.4     0.00239999     -8097.8517292808 -5.51E+00
    11 OT LS       0.37E+00    9.7                    -8099.2796381913
    12 OT LS       0.17E+00    9.7                    -8097.3946578827
    13 OT CG       0.14E+00   18.4     0.00208927     -8099.7784264026 -1.93E+00
    14 OT LS       0.20E+00    9.7                    -8101.4192904888
    15 OT LS       0.24E+00    9.7                    -8101.6864265074
    16 OT CG       0.19E+00   18.5     0.00168616     -8101.7407884311 -1.96E+00
    17 OT LS       0.26E+00    9.7                    -8102.5907549100
    18 OT LS       0.16E+00    9.7                    -8102.2559398985
    19 OT CG       0.13E+00   18.4     0.00125382     -8102.6162641103 -8.75E-01
    20 OT LS       0.18E+00    9.7                    -8103.1376329129
    21 OT LS       0.20E+00    9.7                    -8103.2040019884
    22 OT CG       0.16E+00   18.4     0.00102803     -8103.2078866087 -5.92E-01
    23 OT LS       0.22E+00    9.7                    -8103.5497383655
    24 OT LS       0.17E+00    9.7                    -8103.5226111779
    25 OT CG       0.14E+00   18.4     0.00080452     -8103.5518743745 -3.44E-01
    26 OT LS       0.19E+00    9.7                    -8103.7818451061
    27 OT LS       0.21E+00    9.7                    -8103.8137832648
    28 OT CG       0.17E+00   18.4     0.00075363     -8103.8168818673 -2.65E-01
    29 OT LS       0.24E+00    9.7                    -8104.0162152620
    30 OT LS       0.18E+00    9.7                    -8103.9994793363
    31 OT CG       0.15E+00   18.4     0.00060399     -8104.0173061030 -2.00E-01
    32 OT LS       0.21E+00    9.7                    -8104.1431260987
    33 OT LS       0.19E+00    9.7                    -8104.1485006636
    34 OT CG       0.15E+00   18.4     0.00052419     -8104.1495972010 -1.32E-01
    35 OT LS       0.21E+00    9.7                    -8104.2455268419
    36 OT LS       0.19E+00    9.7                    -8104.2484519986
    37 OT CG       0.15E+00   18.4     0.00042618     -8104.2497405061 -1.00E-01
    38 OT LS       0.21E+00    9.7                    -8104.3106915495
    39 OT LS       0.18E+00    9.7                    -8104.3099419276
    40 OT CG       0.14E+00   18.4     0.00034812     -8104.3121335117 -6.24E-02
    41 OT LS       0.20E+00    9.7                    -8104.3541514288
    42 OT LS       0.19E+00    9.7                    -8104.3571984204
    43 OT CG       0.16E+00   18.4     0.00029912     -8104.3572483129 -4.51E-02
    44 OT LS       0.22E+00    9.7                    -8104.3880423891
    45 OT LS       0.18E+00    9.7                    -8104.3877652601
    46 OT CG       0.15E+00   18.4     0.00024220     -8104.3888089629 -3.16E-02
    47 OT LS       0.21E+00    9.7                    -8104.4091644869
    48 OT LS       0.19E+00    9.7                    -8104.4101627911
    49 OT CG       0.15E+00   18.4     0.00020804     -8104.4102961555 -2.15E-02
    50 OT LS       0.21E+00    9.7                    -8104.4259090699
    51 OT LS       0.20E+00    9.7                    -8104.4266907328
    52 OT CG       0.16E+00   18.4     0.00017938     -8104.4267882776 -1.65E-02
    53 OT LS       0.22E+00    9.7                    -8104.4384887421
    54 OT LS       0.20E+00    9.7                    -8104.4387334775
    55 OT CG       0.16E+00   18.4     0.00015713     -8104.4389401123 -1.22E-02
    56 OT LS       0.22E+00    9.7                    -8104.4481043489
    57 OT LS       0.20E+00    9.7                    -8104.4485484595
    58 OT CG       0.16E+00   18.4     0.00014064     -8104.4486103141 -9.67E-03
    59 OT LS       0.23E+00    9.7                    -8104.4558237203
    60 OT LS       0.20E+00    9.7                    -8104.4558072183
    61 OT CG       0.16E+00   18.4     0.00012311     -8104.4560230734 -7.41E-03
    62 OT LS       0.22E+00    9.7                    -8104.4616165126
    63 OT LS       0.20E+00    9.7                    -8104.4618968386
    64 OT CG       0.16E+00   18.4     0.00011072     -8104.4619317264 -5.91E-03
    65 OT LS       0.23E+00    9.7                    -8104.4665155622
    66 OT LS       0.20E+00    9.7                    -8104.4666341396
    67 OT CG       0.16E+00   18.4     0.00009938     -8104.4667046830 -4.77E-03
    68 OT LS       0.23E+00    9.7                    -8104.4703636827
    69 OT LS       0.20E+00    9.7                    -8104.4704302524
    70 OT CG       0.16E+00   18.4     0.00008951     -8104.4704996773 -3.79E-03
    71 OT LS       0.23E+00    9.7                    -8104.4734967944
    72 OT LS       0.21E+00    9.7                    -8104.4736157017
    73 OT CG       0.16E+00   18.4     0.00008008     -8104.4736449434 -3.15E-03
    74 OT LS       0.23E+00    9.7                    -8104.4760045070
    75 OT LS       0.20E+00    9.7                    -8104.4760145448
    76 OT CG       0.16E+00   18.4     0.00007139     -8104.4760763947 -2.43E-03
    77 OT LS       0.22E+00    9.7                    -8104.4779719347
    78 OT LS       0.21E+00    9.7                    -8104.4780608363
    79 OT CG       0.16E+00   18.4     0.00006483     -8104.4780745517 -2.00E-03
    80 OT LS       0.23E+00    9.7                    -8104.4796358652
    81 OT LS       0.20E+00    9.7                    -8104.4796581687
    82 OT CG       0.16E+00   18.4     0.00005749     -8104.4796907709 -1.62E-03
    83 OT LS       0.23E+00    9.7                    -8104.4809189170
    84 OT LS       0.20E+00    9.7                    -8104.4809592176
    85 OT CG       0.16E+00   18.4     0.00005220     -8104.4809744389 -1.28E-03
    86 OT LS       0.23E+00    9.7                    -8104.4819966511
    87 OT LS       0.21E+00    9.7                    -8104.4820298852
    88 OT CG       0.16E+00   18.4     0.00004717     -8104.4820426863 -1.07E-03
    89 OT LS       0.23E+00    9.7                    -8104.4828732770
    90 OT LS       0.20E+00    9.7                    -8104.4828888839
    91 OT CG       0.16E+00   18.4     0.00004209     -8104.4829043854 -8.62E-04
    92 OT LS       0.23E+00    9.7                    -8104.4835640364
    93 OT LS       0.20E+00    9.7                    -8104.4835825538
    94 OT CG       0.16E+00   18.4     0.00003811     -8104.4835920519 -6.88E-04
    95 OT LS       0.23E+00    9.7                    -8104.4841356536
    96 OT LS       0.20E+00    9.7                    -8104.4841524263
    97 OT CG       0.16E+00   18.4     0.00003399     -8104.4841596043 -5.68E-04
    98 OT LS       0.23E+00    9.7                    -8104.4845900157
    99 OT LS       0.20E+00    9.7                    -8104.4845988411
   100 OT CG       0.16E+00   18.4     0.00003029     -8104.4846065139 -4.47E-04
   101 OT LS       0.23E+00    9.8                    -8104.4849481243
   102 OT LS       0.20E+00    9.7                    -8104.4849581251
   103 OT CG       0.16E+00   18.4     0.00002703     -8104.4849628622 -3.56E-04
   104 OT LS       0.23E+00    9.7                    -8104.4852340367
   105 OT LS       0.20E+00    9.7                    -8104.4852400102
   106 OT CG       0.16E+00   18.4     0.00002393     -8104.4852446499 -2.82E-04
   107 OT LS       0.23E+00    9.7                    -8104.4854572115
   108 OT LS       0.20E+00    9.7                    -8104.4854633322
   109 OT CG       0.16E+00   18.4     0.00002120     -8104.4854663239 -2.22E-04
   110 OT LS       0.23E+00    9.7                    -8104.4856337623
   111 OT LS       0.20E+00    9.7                    -8104.4856385921
   112 OT CG       0.16E+00   18.4     0.00001899     -8104.4856409449 -1.75E-04
   113 OT LS       0.23E+00    9.7                    -8104.4857743556
   114 OT LS       0.20E+00    9.7                    -8104.4857769273
   115 OT CG       0.16E+00   18.4     0.00001676     -8104.4857793836 -1.38E-04
   116 OT LS       0.23E+00    9.7                    -8104.4858823302
   117 OT LS       0.20E+00    9.7                    -8104.4858845779
   118 OT CG       0.16E+00   18.4     0.00001484     -8104.4858863484 -1.07E-04
   119 OT LS       0.22E+00    9.7                    -8104.4859688062
   120 OT LS       0.21E+00    9.7                    -8104.4859728127
   121 OT CG       0.17E+00   18.4     0.00001357     -8104.4859733639 -8.70E-05
   122 OT LS       0.23E+00    9.7                    -8104.4860428771
   123 OT LS       0.21E+00    9.7                    -8104.4860444621
   124 OT CG       0.16E+00   18.4     0.00001221     -8104.4860456263 -7.23E-05
   125 OT LS       0.23E+00    9.7                    -8104.4861015674
   126 OT LS       0.20E+00    9.7                    -8104.4861028478
   127 OT CG       0.16E+00   18.4     0.00001114     -8104.4861037825 -5.82E-05
   128 OT LS       0.23E+00    9.7                    -8104.4861514748
   129 OT LS       0.21E+00    9.7                    -8104.4861538921
   130 OT CG       0.17E+00   18.4     0.00001044     -8104.4861541804 -5.04E-05
   131 OT LS       0.24E+00    9.7                    -8104.4861962405
   132 OT LS       0.21E+00    9.7                    -8104.4861969046
   133 OT CG       0.17E+00   18.4     0.00000959     -8104.4861977508 -4.36E-05

  *** SCF run converged in   133 steps ***


  Electronic density on regular grids:      -1423.9999923637        0.0000076363
  Core density on regular grids:             1423.9999996427       -0.0000003573
  Total charge density on r-space grids:        0.0000072791
  Total charge density g-space grids:           0.0000072791

  Overlap energy of the core charge distribution:               0.00000186245102
  Self energy of the core charge distribution:             -14544.97670297458353
  Core Hamiltonian energy:                                   4078.65838429489986
  Hartree energy:                                            3394.98335817400948
  Exchange-correlation energy:                              -1034.09094277444456
  Dispersion energy:                                           -0.55146591661477

  DFT+U energy:                                                 1.49116958351175

  Total energy:                                             -8104.48619775077077

  outer SCF iter =    1 RMS gradient =   0.96E-05 energy =      -8104.4861977508
  outer SCF loop converged in   1 iterations or  133 steps


  Integrated absolute spin density  :                             232.1503080519
  Ideal and single determinant S**2 :                    0.000000     127.226421

 ENERGY| Total FORCE_EVAL ( QS ) energy (a.u.):            -8104.486233210938735


 --------  Informations at step =     0 ------------
  Optimization Method        =                 BFGS
  Total Energy               =     -8104.4862332109
  Used time                  =             1742.358
 ---------------------------------------------------

 --------------------------
 OPTIMIZATION STEP:      1
 --------------------------

 Spin 1

 Number of electrons:                                                        712
 Number of occupied orbitals:                                                712
 Number of molecular orbitals:                                               712

 Spin 2

 Number of electrons:                                                        712
 Number of occupied orbitals:                                                712
 Number of molecular orbitals:                                               712

 Number of orbital functions:                                               2683
 Number of independent orbital functions:                                   2683

 Extrapolation method: PS Nth order


 SCF WAVEFUNCTION OPTIMIZATION

  ----------------------------------- OT ---------------------------------------
  Minimizer      : CG                  : conjugate gradient
  Preconditioner : FULL_ALL            : diagonalization, state selective
  Precond_solver : DEFAULT
  Line search    : 3PNT                : 3 energies
  stepsize       :    0.15000000                  energy_gap     :    0.08000000
  eps_taylor     :   0.10000E-15                  max_taylor     :             4
  ----------------------------------- OT ---------------------------------------

  Step     Update method      Time    Convergence         Total energy    Change
  ------------------------------------------------------------------------------
     1 OT CG       0.12E+00   20.4     0.00010997     -8104.4882269327 -8.10E+03
     2 OT LS       0.17E+00    8.8                    -8104.4926729815
     3 OT LS       0.30E+00    8.8                    -8104.4938369078
     4 OT CG       0.24E+00   17.6     0.00009822     -8104.4952327246 -7.01E-03
     5 OT LS       0.34E+00    8.8                    -8104.4966578045
     6 OT LS       0.14E+00    8.8                    -8104.4929939774
     7 OT CG       0.12E+00   17.5     0.00003172     -8104.4978980550 -2.67E-03
     8 OT LS       0.16E+00    8.7                    -8104.4980509921
     9 OT LS       0.88E-01    8.7                    -8104.4979489627
    10 OT CG       0.70E-01   17.4     0.00001403     -8104.4980673885 -1.69E-04
    11 OT LS       0.98E-01    8.7                    -8104.4981066563
    12 OT LS       0.14E+00    8.7                    -8104.4981147483
    13 OT CG       0.11E+00   17.4     0.00000697     -8104.4981187719 -5.14E-05

  *** SCF run converged in    13 steps ***


  Electronic density on regular grids:      -1423.9999923310        0.0000076690
  Core density on regular grids:             1423.9999996429       -0.0000003571
  Total charge density on r-space grids:        0.0000073119
  Total charge density g-space grids:           0.0000073119

  Overlap energy of the core charge distribution:               0.00000187451468
  Self energy of the core charge distribution:             -14544.97670297458353
  Core Hamiltonian energy:                                   4078.66644848660553
  Hartree energy:                                            3394.96958927283731
  Exchange-correlation energy:                              -1034.09497643992245
  Dispersion energy:                                           -0.55160493625296

  DFT+U energy:                                                 1.48912594492397

  Total energy:                                             -8104.49811877187858

  outer SCF iter =    1 RMS gradient =   0.70E-05 energy =      -8104.4981187719
  outer SCF loop converged in   1 iterations or   13 steps


  Integrated absolute spin density  :                             232.1403543503
  Ideal and single determinant S**2 :                    0.000000     127.225036

 ENERGY| Total FORCE_EVAL ( QS ) energy (a.u.):            -8104.498130418598521


 --------  Informations at step =     1 ------------
  Optimization Method        =                 BFGS
  Total Energy               =     -8104.4981304186
  Real energy change         =        -0.0118972077
  Predicted change in energy =        -0.0081111983
  Scaling factor             =         0.0000000000
  Step size                  =         0.1440571164
  Trust radius               =         0.4724315332
  Decrease in energy         =                  YES
  Used time                  =              210.590

  Convergence check :
  Max. step size             =         0.1440571164
  Conv. limit for step size  =         1.0000000000
  Convergence in step size   =                  YES
  RMS step size              =         0.0173984030
  Conv. limit for RMS step   =         1.0000000000
  Convergence in RMS step    =                  YES
  Max. gradient              =         0.0117738585
  Conv. limit for gradients  =         0.0100000000
  Conv. for gradients        =                   NO
  RMS gradient               =         0.0015066231
  Conv. limit for RMS grad.  =         1.0000000000
  Conv. in RMS gradients     =                  YES
 ---------------------------------------------------

 --------------------------
 OPTIMIZATION STEP:      2
 --------------------------

 Spin 1

 Number of electrons:                                                        712
 Number of occupied orbitals:                                                712
 Number of molecular orbitals:                                               712

 Spin 2

 Number of electrons:                                                        712
 Number of occupied orbitals:                                                712
 Number of molecular orbitals:                                               712

 Number of orbital functions:                                               2683
 Number of independent orbital functions:                                   2683

 Extrapolation method: PS Nth order


 SCF WAVEFUNCTION OPTIMIZATION

  ----------------------------------- OT ---------------------------------------
  Minimizer      : CG                  : conjugate gradient
  Preconditioner : FULL_ALL            : diagonalization, state selective
  Precond_solver : DEFAULT
  Line search    : 3PNT                : 3 energies
  stepsize       :    0.15000000                  energy_gap     :    0.08000000
  eps_taylor     :   0.10000E-15                  max_taylor     :             4
  ----------------------------------- OT ---------------------------------------

  Step     Update method      Time    Convergence         Total energy    Change
  ------------------------------------------------------------------------------
     1 OT CG       0.12E+00   20.3     0.00010237     -8104.4954187598 -8.10E+03
     2 OT LS       0.17E+00    8.8                    -8104.4993376216
     3 OT LS       0.33E+00    8.8                    -8104.5004105472
     4 OT CG       0.26E+00   17.5     0.00008910     -8104.5019578109 -6.54E-03
     5 OT LS       0.37E+00    8.8                    -8104.5020600475
     6 OT LS       0.13E+00    8.8                    -8104.4976617064
     7 OT CG       0.11E+00   17.5     0.00002710     -8104.5039781273 -2.02E-03
     8 OT LS       0.15E+00    8.9                    -8104.5041310092
     9 OT LS       0.11E+00    8.8                    -8104.5041114195
    10 OT CG       0.87E-01   17.5     0.00001349     -8104.5041311392 -1.53E-04
    11 OT LS       0.12E+00    8.8                    -8104.5041695786
    12 OT LS       0.12E+00    8.8                    -8104.5041725705
    13 OT CG       0.95E-01   17.5     0.00000710     -8104.5041725916 -4.15E-05

  *** SCF run converged in    13 steps ***


  Electronic density on regular grids:      -1423.9999923157        0.0000076843
  Core density on regular grids:             1423.9999996431       -0.0000003569
  Total charge density on r-space grids:        0.0000073274
  Total charge density g-space grids:           0.0000073274

  Overlap energy of the core charge distribution:               0.00000190617359
  Self energy of the core charge distribution:             -14544.97670297458353
  Core Hamiltonian energy:                                   4078.53863464701726
  Hartree energy:                                            3395.05753278036400
  Exchange-correlation energy:                              -1034.06153693275292
  Dispersion energy:                                           -0.55103423690570

  DFT+U energy:                                                 1.48893221904189

  Total energy:                                             -8104.50417259164624

  outer SCF iter =    1 RMS gradient =   0.71E-05 energy =      -8104.5041725916
  outer SCF loop converged in   1 iterations or   13 steps


  Integrated absolute spin density  :                             232.1465250587
  Ideal and single determinant S**2 :                    0.000000     127.233698

 ENERGY| Total FORCE_EVAL ( QS ) energy (a.u.):            -8104.504184345118119


 --------  Informations at step =     2 ------------
  Optimization Method        =                 BFGS
  Total Energy               =     -8104.5041843451
  Real energy change         =        -0.0060539265
  Predicted change in energy =        -0.0078881402
  Scaling factor             =         0.0000000000
  Step size                  =         0.2476236762
  Trust radius               =         0.4724315332
  Decrease in energy         =                  YES
  Used time                  =              210.973

  Convergence check :
  Max. step size             =         0.2476236762
  Conv. limit for step size  =         1.0000000000
  Convergence in step size   =                  YES
  RMS step size              =         0.0282295960
  Conv. limit for RMS step   =         1.0000000000
  Convergence in RMS step    =                  YES
  Max. gradient              =         0.0314697323
  Conv. limit for gradients  =         0.0100000000
  Conv. for gradients        =                   NO
  RMS gradient               =         0.0033435715
  Conv. limit for RMS grad.  =         1.0000000000
  Conv. in RMS gradients     =                  YES
 ---------------------------------------------------

 --------------------------
 OPTIMIZATION STEP:      3
 --------------------------

 Spin 1

 Number of electrons:                                                        712
 Number of occupied orbitals:                                                712
 Number of molecular orbitals:                                               712

 Spin 2

 Number of electrons:                                                        712
 Number of occupied orbitals:                                                712
 Number of molecular orbitals:                                               712

 Number of orbital functions:                                               2683
 Number of independent orbital functions:                                   2683

 Extrapolation method: PS Nth order


 SCF WAVEFUNCTION OPTIMIZATION

  ----------------------------------- OT ---------------------------------------
  Minimizer      : CG                  : conjugate gradient
  Preconditioner : FULL_ALL            : diagonalization, state selective
  Precond_solver : DEFAULT
  Line search    : 3PNT                : 3 energies
  stepsize       :    0.15000000                  energy_gap     :    0.08000000
  eps_taylor     :   0.10000E-15                  max_taylor     :             4
  ----------------------------------- OT ---------------------------------------

  Step     Update method      Time    Convergence         Total energy    Change
  ------------------------------------------------------------------------------
     1 OT CG       0.12E+00   20.3     0.00020148     -8104.4732807651 -8.10E+03
     2 OT LS       0.17E+00    8.8                    -8104.4884891507
     3 OT LS       0.33E+00    8.7                    -8104.4926734552
     4 OT CG       0.26E+00   17.5     0.00017774     -8104.4988397445 -2.56E-02
     5 OT LS       0.37E+00    8.8                    -8104.4991879421
     6 OT LS       0.13E+00    8.8                    -8104.4814665987
     7 OT CG       0.11E+00   17.5     0.00004911     -8104.5069398425 -8.10E-03
     8 OT LS       0.15E+00    8.8                    -8104.5074540735
     9 OT LS       0.11E+00    8.7                    -8104.5073976907
    10 OT CG       0.89E-01   17.5     0.00002166     -8104.5074552066 -5.15E-04
    11 OT LS       0.13E+00    8.8                    -8104.5075497835
    12 OT LS       0.11E+00    8.8                    -8104.5075508660
    13 OT CG       0.87E-01   17.4     0.00001135     -8104.5075529804 -9.78E-05
    14 OT LS       0.12E+00    8.7                    -8104.5075829997
    15 OT LS       0.14E+00    8.8                    -8104.5075877469
    16 OT CG       0.12E+00   17.5     0.00000531     -8104.5075886079 -3.56E-05

  *** SCF run converged in    16 steps ***


  Electronic density on regular grids:      -1423.9999923076        0.0000076924
  Core density on regular grids:             1423.9999996421       -0.0000003579
  Total charge density on r-space grids:        0.0000073345
  Total charge density g-space grids:           0.0000073345

  Overlap energy of the core charge distribution:               0.00000191520367
  Self energy of the core charge distribution:             -14544.97670297458353
  Core Hamiltonian energy:                                   4078.54909590144507
  Hartree energy:                                            3395.04891711655455
  Exchange-correlation energy:                              -1034.06421466514576
  Dispersion energy:                                           -0.55181740745755

  DFT+U energy:                                                 1.48713150605857

  Total energy:                                             -8104.50758860792575

  outer SCF iter =    1 RMS gradient =   0.53E-05 energy =      -8104.5075886079
  outer SCF loop converged in   1 iterations or   16 steps


  Integrated absolute spin density  :                             232.1540766144
  Ideal and single determinant S**2 :                    0.000000     127.235650

 ENERGY| Total FORCE_EVAL ( QS ) energy (a.u.):            -8104.507596092788845


 --------  Informations at step =     3 ------------
  Optimization Method        =                 BFGS
  Total Energy               =     -8104.5075960928
  Real energy change         =        -0.0034117477
  Predicted change in energy =        -0.0075559870
  Scaling factor             =         0.0000000000
  Step size                  =         0.1391159488
  Trust radius               =         0.4724315332
  Decrease in energy         =                  YES
  Used time                  =              245.728

  Convergence check :
  Max. step size             =         0.1391159488
  Conv. limit for step size  =         1.0000000000
  Convergence in step size   =                  YES
  RMS step size              =         0.0199036888
  Conv. limit for RMS step   =         1.0000000000
  Convergence in RMS step    =                  YES
  Max. gradient              =         0.0175934834
  Conv. limit for gradients  =         0.0100000000
  Conv. for gradients        =                   NO
  RMS gradient               =         0.0022641296
  Conv. limit for RMS grad.  =         1.0000000000
  Conv. in RMS gradients     =                  YES
 ---------------------------------------------------

 --------------------------
 OPTIMIZATION STEP:      4
 --------------------------

 Spin 1

 Number of electrons:                                                        712
 Number of occupied orbitals:                                                712
 Number of molecular orbitals:                                               712

 Spin 2

 Number of electrons:                                                        712
 Number of occupied orbitals:                                                712
 Number of molecular orbitals:                                               712

 Number of orbital functions:                                               2683
 Number of independent orbital functions:                                   2683

 Extrapolation method: PS Nth order


 SCF WAVEFUNCTION OPTIMIZATION

  ----------------------------------- OT ---------------------------------------
  Minimizer      : CG                  : conjugate gradient
  Preconditioner : FULL_ALL            : diagonalization, state selective
  Precond_solver : DEFAULT
  Line search    : 3PNT                : 3 energies
  stepsize       :    0.15000000                  energy_gap     :    0.08000000
  eps_taylor     :   0.10000E-15                  max_taylor     :             4
  ----------------------------------- OT ---------------------------------------

  Step     Update method      Time    Convergence         Total energy    Change
  ------------------------------------------------------------------------------
     1 OT CG       0.12E+00   20.3     0.00017481     -8104.4907492270 -8.10E+03
     2 OT LS       0.17E+00    8.7                    -8104.5010267394
     3 OT LS       0.23E+00    8.7                    -8104.5030469065
     4 OT CG       0.18E+00   17.4     0.00014115     -8104.5038935461 -1.31E-02
     5 OT LS       0.25E+00    8.7                    -8104.5112474687
     6 OT LS       0.19E+00    8.7                    -8104.5106281328
     7 OT CG       0.16E+00   17.4     0.00005806     -8104.5112864635 -7.39E-03
     8 OT LS       0.22E+00    8.8                    -8104.5118088000
     9 OT LS       0.11E+00    8.7                    -8104.5111879977
    10 OT CG       0.84E-01   17.4     0.00002350     -8104.5119637923 -6.77E-04
    11 OT LS       0.12E+00    8.8                    -8104.5120755051
    12 OT LS       0.11E+00    8.7                    -8104.5120834096
    13 OT CG       0.91E-01   17.4     0.00001286     -8104.5120835700 -1.20E-04
    14 OT LS       0.13E+00    8.7                    -8104.5121242536
    15 OT LS       0.16E+00    8.7                    -8104.5121311849
    16 OT CG       0.12E+00   17.4     0.00000523     -8104.5121328858 -4.93E-05

  *** SCF run converged in    16 steps ***


  Electronic density on regular grids:      -1423.9999923260        0.0000076740
  Core density on regular grids:             1423.9999996427       -0.0000003573
  Total charge density on r-space grids:        0.0000073167
  Total charge density g-space grids:           0.0000073167

  Overlap energy of the core charge distribution:               0.00000188489363
  Self energy of the core charge distribution:             -14544.97670297458353
  Core Hamiltonian energy:                                   4078.54523731992049
  Hartree energy:                                            3395.04595379648890
  Exchange-correlation energy:                              -1034.06553718873761
  Dispersion energy:                                           -0.55164277484324

  DFT+U energy:                                                 1.49055705107675

  Total energy:                                             -8104.51213288578492

  outer SCF iter =    1 RMS gradient =   0.52E-05 energy =      -8104.5121328858
  outer SCF loop converged in   1 iterations or   16 steps


  Integrated absolute spin density  :                             232.1721912251
  Ideal and single determinant S**2 :                    0.000000     127.246002

 ENERGY| Total FORCE_EVAL ( QS ) energy (a.u.):            -8104.512139862038566


 --------  Informations at step =     4 ------------
  Optimization Method        =                 BFGS
  Total Energy               =     -8104.5121398620
  Real energy change         =        -0.0045437692
  Predicted change in energy =        -0.0065269981
  Scaling factor             =         0.0000000000
  Step size                  =         0.1079769556
  Trust radius               =         0.4724315332
  Decrease in energy         =                  YES
  Used time                  =              245.181

  Convergence check :
  Max. step size             =         0.1079769556
  Conv. limit for step size  =         1.0000000000
  Convergence in step size   =                  YES
  RMS step size              =         0.0162120127
  Conv. limit for RMS step   =         1.0000000000
  Convergence in RMS step    =                  YES
  Max. gradient              =         0.0193161414
  Conv. limit for gradients  =         0.0100000000
  Conv. for gradients        =                   NO
  RMS gradient               =         0.0021472596
  Conv. limit for RMS grad.  =         1.0000000000
  Conv. in RMS gradients     =                  YES
 ---------------------------------------------------

 --------------------------
 OPTIMIZATION STEP:      5
 --------------------------

 Spin 1

 Number of electrons:                                                        712
 Number of occupied orbitals:                                                712
 Number of molecular orbitals:                                               712

 Spin 2

 Number of electrons:                                                        712
 Number of occupied orbitals:                                                712
 Number of molecular orbitals:                                               712

 Number of orbital functions:                                               2683
 Number of independent orbital functions:                                   2683

 Extrapolation method: PS Nth order


 SCF WAVEFUNCTION OPTIMIZATION

  ----------------------------------- OT ---------------------------------------
  Minimizer      : CG                  : conjugate gradient
  Preconditioner : FULL_ALL            : diagonalization, state selective
  Precond_solver : DEFAULT
  Line search    : 3PNT                : 3 energies
  stepsize       :    0.15000000                  energy_gap     :    0.08000000
  eps_taylor     :   0.10000E-15                  max_taylor     :             4
  ----------------------------------- OT ---------------------------------------

  Step     Update method      Time    Convergence         Total energy    Change
  ------------------------------------------------------------------------------
     1 OT CG       0.12E+00   20.2     0.00025963     -8104.4615725573 -8.10E+03
     2 OT LS       0.17E+00    9.0                    -8104.4864714387
     3 OT LS       0.31E+00    9.0                    -8104.4930789231
     4 OT CG       0.25E+00   17.6     0.00021819     -8104.5014842589 -3.99E-02
     5 OT LS       0.35E+00    9.0                    -8104.5078616662
     6 OT LS       0.14E+00    9.0                    -8104.4885437917
     7 OT CG       0.12E+00   17.6     0.00008260     -8104.5146710356 -1.32E-02
     8 OT LS       0.16E+00    9.0                    -8104.5157631662
     9 OT LS       0.90E-01    9.0                    -8104.5151215153
    10 OT CG       0.72E-01   17.6     0.00003653     -8104.5158526163 -1.18E-03
    11 OT LS       0.10E+00    9.0                    -8104.5161177807
    12 OT LS       0.13E+00    9.0                    -8104.5161658022
    13 OT CG       0.10E+00   17.6     0.00001747     -8104.5161807174 -3.28E-04
    14 OT LS       0.14E+00    9.0                    -8104.5162582841
    15 OT LS       0.15E+00    9.0                    -8104.5162656079
    16 OT CG       0.12E+00   17.7     0.00000777     -8104.5162656190 -8.49E-05

  *** SCF run converged in    16 steps ***


  Electronic density on regular grids:      -1423.9999923324        0.0000076676
  Core density on regular grids:             1423.9999996430       -0.0000003570
  Total charge density on r-space grids:        0.0000073106
  Total charge density g-space grids:           0.0000073106

  Overlap energy of the core charge distribution:               0.00000188437709
  Self energy of the core charge distribution:             -14544.97670297458353
  Core Hamiltonian energy:                                   4078.50382969647944
  Hartree energy:                                            3395.07331619003617
  Exchange-correlation energy:                              -1034.05637402474804
  Dispersion energy:                                           -0.55179011329180

  DFT+U energy:                                                 1.49145372270432

  Total energy:                                             -8104.51626561902685

  outer SCF iter =    1 RMS gradient =   0.78E-05 energy =      -8104.5162656190
  outer SCF loop converged in   1 iterations or   16 steps


  Integrated absolute spin density  :                             232.1825430507
  Ideal and single determinant S**2 :                    0.000000     127.252695

 ENERGY| Total FORCE_EVAL ( QS ) energy (a.u.):            -8104.516281957169667


 --------  Informations at step =     5 ------------
  Optimization Method        =                 BFGS
  Total Energy               =     -8104.5162819572
  Real energy change         =        -0.0041420951
  Predicted change in energy =        -0.0033485394
  Scaling factor             =         0.0000000000
  Step size                  =         0.0828672603
  Trust radius               =         0.4724315332
  Decrease in energy         =                  YES
  Used time                  =              249.055

  Convergence check :
  Max. step size             =         0.0828672603
  Conv. limit for step size  =         1.0000000000
  Convergence in step size   =                  YES
  RMS step size              =         0.0111909274
  Conv. limit for RMS step   =         1.0000000000
  Convergence in RMS step    =                  YES
  Max. gradient              =         0.0070845366
  Conv. limit for gradients  =         0.0100000000
  Conv. in gradients         =                  YES
  RMS gradient               =         0.0011688544
  Conv. limit for RMS grad.  =         1.0000000000
  Conv. in RMS gradients     =                  YES
 ---------------------------------------------------

 *******************************************************************************
 ***                    GEOMETRY OPTIMIZATION COMPLETED                      ***
 *******************************************************************************

                    Reevaluating energy at the minimum

 Spin 1

 Number of electrons:                                                        712
 Number of occupied orbitals:                                                712
 Number of molecular orbitals:                                               712

 Spin 2

 Number of electrons:                                                        712
 Number of occupied orbitals:                                                712
 Number of molecular orbitals:                                               712

 Number of orbital functions:                                               2683
 Number of independent orbital functions:                                   2683

 Extrapolation method: PS Nth order


 SCF WAVEFUNCTION OPTIMIZATION

  ----------------------------------- OT ---------------------------------------
  Minimizer      : CG                  : conjugate gradient
  Preconditioner : FULL_ALL            : diagonalization, state selective
  Precond_solver : DEFAULT
  Line search    : 3PNT                : 3 energies
  stepsize       :    0.15000000                  energy_gap     :    0.08000000
  eps_taylor     :   0.10000E-15                  max_taylor     :             4
  ----------------------------------- OT ---------------------------------------

  Step     Update method      Time    Convergence         Total energy    Change
  ------------------------------------------------------------------------------
     1 OT CG       0.12E+00   20.3     0.00016540     -8104.4924672461 -8.10E+03
     2 OT LS       0.17E+00    9.0                    -8104.5029892376
     3 OT LS       0.37E+00    9.0                    -8104.5060656952
     4 OT CG       0.30E+00   17.7     0.00013292     -8104.5119079231 -1.94E-02
     5 OT LS       0.15E+00    9.0                    -8104.5059605169
     6 OT LS       0.11E+00    9.0                    -8104.5154324862
     7 OT CG       0.92E-01   17.6     0.00004801     -8104.5157740945 -3.87E-03
     8 OT LS       0.13E+00    9.0                    -8104.5161733378
     9 OT LS       0.91E-01    9.0                    -8104.5161043664
    10 OT CG       0.73E-01   17.6     0.00001900     -8104.5161733917 -3.99E-04
    11 OT LS       0.10E+00    9.0                    -8104.5162448295
    12 OT LS       0.13E+00    9.0                    -8104.5162573123
    13 OT CG       0.10E+00   17.7     0.00000902     -8104.5162606899 -8.73E-05

  *** SCF run converged in    13 steps ***


  Electronic density on regular grids:      -1423.9999923299        0.0000076701
  Core density on regular grids:             1423.9999996430       -0.0000003570
  Total charge density on r-space grids:        0.0000073132
  Total charge density g-space grids:           0.0000073132

  Overlap energy of the core charge distribution:               0.00000188437709
  Self energy of the core charge distribution:             -14544.97670297458353
  Core Hamiltonian energy:                                   4078.48672994785557
  Hartree energy:                                            3395.08572968352701
  Exchange-correlation energy:                              -1034.05211696507627
  Dispersion energy:                                           -0.55179011329180

  DFT+U energy:                                                 1.49188784734117

  Total energy:                                             -8104.51626068985115

  outer SCF iter =    1 RMS gradient =   0.90E-05 energy =      -8104.5162606899
  outer SCF loop converged in   1 iterations or   13 steps


  Integrated absolute spin density  :                             232.1791097149
  Ideal and single determinant S**2 :                    0.000000     127.251144

 ENERGY| Total FORCE_EVAL ( QS ) energy (a.u.):            -8104.516260689851151


 -------------------------------------------------------------------------------
 -                                                                             -
 -                                DBCSR STATISTICS                             -
 -                                                                             -
 -------------------------------------------------------------------------------
 COUNTER                                    TOTAL       BLAS       SMM       ACC
 flops     5 x     8 x     8               125440       0.0%    100.0%      0.0%
 flops    13 x     8 x     8              2166528       0.0%    100.0%      0.0%
 flops    26 x     8 x     8              2515968       0.0%    100.0%      0.0%
 flops     5 x    32 x    32             44154880       0.0%    100.0%      0.0%
 flops     5 x     8 x     5             56526400       0.0%    100.0%      0.0%
 flops     5 x     5 x    64            156576000       0.0%    100.0%      0.0%
 flops     5 x     5 x    72            176148000       0.0%    100.0%      0.0%
 flops    13 x    32 x    32            762617856       0.0%    100.0%      0.0%
 flops    26 x    32 x    32            885620736       0.0%    100.0%      0.0%
 flops    64 x    64 x    64            901251072       0.0%    100.0%      0.0%
 flops     5 x     8 x    13            976291680       0.0%    100.0%      0.0%
 flops    13 x     8 x     5            976291680       0.0%    100.0%      0.0%
 flops    64 x    64 x    72           1013907456       0.0%    100.0%      0.0%
 flops    64 x    72 x    64           1013907456       0.0%    100.0%      0.0%
 flops    72 x    64 x    64           1013907456       0.0%    100.0%      0.0%
 flops     5 x     8 x    26           1133758080       0.0%    100.0%      0.0%
 flops    26 x     8 x     5           1133758080       0.0%    100.0%      0.0%
 flops    64 x    72 x    72           1140645888       0.0%    100.0%      0.0%
 flops    72 x    64 x    72           1140645888       0.0%    100.0%      0.0%
 flops    72 x    72 x    64           1140645888       0.0%    100.0%      0.0%
 flops    72 x    72 x    72           1283226624       0.0%    100.0%      0.0%
 flops     5 x     5 x    96           1409184000       0.0%    100.0%      0.0%
 flops     5 x    13 x    64           2508496640       0.0%    100.0%      0.0%
 flops    13 x     5 x    64           2539513600       0.0%    100.0%      0.0%
 flops    64 x    64 x   338           2552922112       0.0%    100.0%      0.0%
 flops     5 x    13 x    72           2822058720       0.0%    100.0%      0.0%
 flops    13 x     5 x    72           2856952800       0.0%    100.0%      0.0%
 flops    64 x    72 x   338           2872037376       0.0%    100.0%      0.0%
 flops    72 x    64 x   338           2872037376       0.0%    100.0%      0.0%
 flops    26 x     5 x    64           2900085760       0.0%    100.0%      0.0%
 flops     5 x    26 x    64           2962119680       0.0%    100.0%      0.0%
 flops    72 x    72 x   338           3231042048       0.0%    100.0%      0.0%
 flops    26 x     5 x    72           3262596480       0.0%    100.0%      0.0%
 flops     5 x    26 x    72           3332384640       0.0%    100.0%      0.0%
 flops   338 x    64 x    64           3732471808       0.0%    100.0%      0.0%
 flops   338 x    64 x    72           4199030784       0.0%    100.0%      0.0%
 flops   338 x    72 x    64           4199030784       0.0%    100.0%      0.0%
 flops   338 x    72 x    72           4723909632       0.0%    100.0%      0.0%
 flops   338 x    64 x   338           4971898880     100.0%      0.0%      0.0%
 flops     5 x    32 x     5           4974323200       0.0%    100.0%      0.0%
 flops   338 x    72 x   338           5593386240     100.0%      0.0%      0.0%
 flops    64 x    64 x    96           8111259648       0.0%    100.0%      0.0%
 flops    64 x    96 x    64           8111259648       0.0%    100.0%      0.0%
 flops    96 x    64 x    64           8111259648       0.0%    100.0%      0.0%
 flops    64 x    72 x    96           9125167104       0.0%    100.0%      0.0%
 flops    64 x    96 x    72           9125167104       0.0%    100.0%      0.0%
 flops    72 x    64 x    96           9125167104       0.0%    100.0%      0.0%
 flops    72 x    96 x    64           9125167104       0.0%    100.0%      0.0%
 flops    96 x    64 x    72           9125167104       0.0%    100.0%      0.0%
 flops    96 x    72 x    64           9125167104       0.0%    100.0%      0.0%
 flops    72 x    72 x    96          10265812992       0.0%    100.0%      0.0%
 flops    72 x    96 x    72          10265812992       0.0%    100.0%      0.0%
 flops    96 x    72 x    72          10265812992       0.0%    100.0%      0.0%
 flops    13 x     8 x    13          16789344208       0.0%    100.0%      0.0%
 flops    64 x    64 x   335          17711841280       0.0%    100.0%      0.0%
 flops    26 x     8 x    13          19542630016       0.0%    100.0%      0.0%
 flops    13 x     8 x    26          19542630016       0.0%    100.0%      0.0%
 flops    64 x    72 x   335          19925821440       0.0%    100.0%      0.0%
 flops    72 x    64 x   335          19925821440       0.0%    100.0%      0.0%
 flops    72 x    72 x   335          22416549120       0.0%    100.0%      0.0%
 flops     5 x    13 x    96          22576469760       0.0%    100.0%      0.0%
 flops    26 x     8 x    26          22739947776       0.0%    100.0%      0.0%
 flops    13 x     5 x    96          22855622400       0.0%    100.0%      0.0%
 flops    64 x    96 x   338          22976299008       0.0%    100.0%      0.0%
 flops    96 x    64 x   338          22976299008       0.0%    100.0%      0.0%
 flops    72 x    96 x   338          25848336384     100.0%      0.0%      0.0%
 flops    96 x    72 x   338          25848336384     100.0%      0.0%      0.0%
 flops   335 x    64 x    64          25895403520       0.0%    100.0%      0.0%
 flops    26 x     5 x    96          26100771840       0.0%    100.0%      0.0%
 flops     5 x    26 x    96          26659077120       0.0%    100.0%      0.0%
 flops   335 x    64 x    72          29132328960       0.0%    100.0%      0.0%
 flops   335 x    72 x    64          29132328960       0.0%    100.0%      0.0%
 flops   335 x    72 x    72          32773870080       0.0%    100.0%      0.0%
 flops   338 x    64 x    96          33592246272       0.0%    100.0%      0.0%
 flops   338 x    96 x    64          33592246272       0.0%    100.0%      0.0%
 flops   335 x    64 x   338          34494387200     100.0%      0.0%      0.0%
 flops   338 x    64 x   335          34494387200     100.0%      0.0%      0.0%
 flops   338 x    72 x    96          37791277056     100.0%      0.0%      0.0%
 flops   338 x    96 x    72          37791277056     100.0%      0.0%      0.0%
 flops   335 x    72 x   338          38806185600     100.0%      0.0%      0.0%
 flops   338 x    72 x   335          38806185600     100.0%      0.0%      0.0%
 flops    13 x    13 x    64          43874757888       0.0%    100.0%      0.0%
 flops   338 x    96 x   338          44747089920     100.0%      0.0%      0.0%
 flops    13 x    13 x    72          49359102624       0.0%    100.0%      0.0%
 flops    13 x    26 x    64          50463043072       0.0%    100.0%      0.0%
 flops    26 x    13 x    64          50584009216       0.0%    100.0%      0.0%
 flops    13 x    26 x    72          56770923456       0.0%    100.0%      0.0%
 flops    26 x    13 x    72          56907010368       0.0%    100.0%      0.0%
 flops    26 x    26 x    64          59878241280       0.0%    100.0%      0.0%
 flops    26 x    26 x    72          67363021440       0.0%    100.0%      0.0%
 flops    96 x    96 x    64          73001336832       0.0%    100.0%      0.0%
 flops    64 x    96 x    96          73001336832       0.0%    100.0%      0.0%
 flops    96 x    64 x    96          73001336832       0.0%    100.0%      0.0%
 flops    96 x    96 x    72          82126503936       0.0%    100.0%      0.0%
 flops    72 x    96 x    96          82126503936       0.0%    100.0%      0.0%
 flops    96 x    72 x    96          82126503936       0.0%    100.0%      0.0%
 flops     5 x    32 x    13          85913667840       0.0%    100.0%      0.0%
 flops    13 x    32 x     5          85913667840       0.0%    100.0%      0.0%
 flops     5 x    32 x    26          99770711040       0.0%    100.0%      0.0%
 flops    26 x    32 x     5          99770711040       0.0%    100.0%      0.0%
 flops    64 x    96 x   335         159406571520       0.0%    100.0%      0.0%
 flops    96 x    64 x   335         159406571520       0.0%    100.0%      0.0%
 flops    72 x    96 x   335         179332392960     100.0%      0.0%      0.0%
 flops    96 x    72 x   335         179332392960     100.0%      0.0%      0.0%
 flops    96 x    96 x   338         206786691072     100.0%      0.0%      0.0%
 flops   335 x    96 x    64         233058631680       0.0%    100.0%      0.0%
 flops   335 x    64 x    96         233058631680       0.0%    100.0%      0.0%
 flops   335 x    64 x   335         239317568000     100.0%      0.0%      0.0%
 flops   335 x    96 x    72         262190960640     100.0%      0.0%      0.0%
 flops   335 x    72 x    96         262190960640     100.0%      0.0%      0.0%
 flops   335 x    72 x   335         269232264000     100.0%      0.0%      0.0%
 flops   338 x    96 x    96         302330216448     100.0%      0.0%      0.0%
 flops   335 x    96 x   338         310449484800     100.0%      0.0%      0.0%
 flops   338 x    96 x   335         310449484800     100.0%      0.0%      0.0%
 flops    13 x    13 x    96         394872820992       0.0%    100.0%      0.0%
 flops    13 x    26 x    96         454167387648       0.0%    100.0%      0.0%
 flops    26 x    13 x    96         455256082944       0.0%    100.0%      0.0%
 flops    26 x    26 x    96         538904171520       0.0%    100.0%      0.0%
 flops    96 x    96 x    96         657012031488       0.0%    100.0%      0.0%
 flops    96 x    96 x   335        1434659143680     100.0%      0.0%      0.0%
 flops    13 x    32 x    13        1477462290304       0.0%    100.0%      0.0%
 flops    26 x    32 x    13        1719751441408       0.0%    100.0%      0.0%
 flops    13 x    32 x    26        1719751441408       0.0%    100.0%      0.0%
 flops    26 x    32 x    26        2001115404288       0.0%    100.0%      0.0%
 flops   335 x    96 x    96        2097527685120     100.0%      0.0%      0.0%
 flops   335 x    96 x   335        2153858112000     100.0%      0.0%      0.0%
 flops inhomo. stacks                           0       0.0%      0.0%      0.0%
 flops total                        20.681671E+12      41.3%     58.7%      0.0%
 flops max/rank                    374.516231E+09      43.1%     56.9%      0.0%
 matmuls inhomo. stacks                         0       0.0%      0.0%      0.0%
 matmuls total                          479677329       0.2%     99.8%      0.0%
 number of processed stacks               7624139      13.7%     86.3%      0.0%
 average stack size                                     1.0      72.8       0.0
 marketing flops                    23.144228E+12
 -------------------------------------------------------------------------------
 # multiplications                           5544
 max memory usage/rank             788.414464E+06
 # max total images/rank                        1
 # max 3D layers                                1
 # MPI messages exchanged                 4967424
 MPI messages size (bytes):
  total size                         1.119120E+12
  min size                           0.000000E+00
  max size                         913.952000E+03
  average size                     225.291906E+03
 MPI breakdown and total messages size (bytes):
             size <=      128               18032                        0
       128 < size <=     8192                   0                        0
      8192 < size <=    32768               34286               1115505664
     32768 < size <=   131072             2110626             134771309568
    131072 < size <=  4194304             2804480             983349571960
   4194304 < size <= 16777216                   0                        0
  16777216 < size                               0                        0
 -------------------------------------------------------------------------------
 
 MEMORY| Estimated peak process memory [MiB]                                 752

 -------------------------------------------------------------------------------
 -                                                                             -
 -                         MESSAGE PASSING PERFORMANCE                         -
 -                                                                             -
 -------------------------------------------------------------------------------

 ROUTINE             CALLS      AVE VOLUME [Bytes]
 MP_Group              481
 MP_Bcast            18451                  61038.
 MP_Allreduce        76733                    431.
 MP_Sync               319
 MP_Alltoall         25893                 801747.
 MP_SendRecv          6472                 424452.
 MP_ISendRecv       117558                  29184.
 MP_Wait            657828
 MP_comm_split         314
 MP_ISend           267830                 126533.
 MP_IRecv           267830                 125367.
 MP_Recv                75                 123648.
 MP_Memory          223348
 -------------------------------------------------------------------------------


 -------------------------------------------------------------------------------
 -                                                                             -
 -                           R E F E R E N C E S                               -
 -                                                                             -
 -------------------------------------------------------------------------------
 
 CP2K version 6.1, the CP2K developers group (2018).
 CP2K is freely available from https://www.cp2k.org/ .

 Schuett, Ole; Messmer, Peter; Hutter, Juerg; VandeVondele, Joost. 
 Electronic Structure Calculations on Graphics Processing Units, John Wiley & Sons, Ltd, 173-190 (2016). 
 GPU-Accelerated Sparse Matrix-Matrix Multiplication for Linear Scaling Density Functional Theory.
 http://dx.doi.org/10.1002/9781118670712.ch8


 Borstnik, U; VandeVondele, J; Weber, V; Hutter, J. 
 PARALLEL COMPUTING, 40 (5-6), 47-58 (2014). 
 Sparse matrix multiplication: The distributed block-compressed sparse
 row library.
 http://dx.doi.org/10.1016/j.parco.2014.03.012


 Hutter, J; Iannuzzi, M; Schiffmann, F; VandeVondele, J. 
 WILEY INTERDISCIPLINARY REVIEWS-COMPUTATIONAL MOLECULAR SCIENCE, 4 (1), 15-25 (2014). 
 CP2K: atomistic simulations of condensed matter systems.
 http://dx.doi.org/10.1002/wcms.1159


 Grimme, S; Ehrlich, S; Goerigk, L. 
 JOURNAL OF COMPUTATIONAL CHEMISTRY, 32, 1456 (2011). 
 Effect of the damping function in dispersion corrected density functional theory.
 http://dx.doi.org/10.1002/jcc.21759


 Grimme, S; Antony, J; Ehrlich, S; Krieg, H. 
 JOURNAL OF CHEMICAL PHYSICS, 132 (15), 154104 (2010). 
 A consistent and accurate ab initio parametrization of density
 functional dispersion correction (DFT-D) for the 94 elements H-Pu.
 http://dx.doi.org/10.1063/1.3382344


 VandeVondele, J; Hutter, J. 
 JOURNAL OF CHEMICAL PHYSICS, 127 (11), 114105 (2007). 
 Gaussian basis sets for accurate calculations on molecular systems in
 gas and condensed phases.
 http://dx.doi.org/10.1063/1.2770708


 Krack, M. 
 THEORETICAL CHEMISTRY ACCOUNTS, 114 (1-3), 145-152 (2005). 
 Pseudopotentials for H to Kr optimized for gradient-corrected
 exchange-correlation functionals.
 http://dx.doi.org/10.1007/s00214-005-0655-y


 VandeVondele, J; Krack, M; Mohamed, F; Parrinello, M; Chassaing, T;
 Hutter, J. COMPUTER PHYSICS COMMUNICATIONS, 167 (2), 103-128 (2005). 
 QUICKSTEP: Fast and accurate density functional calculations using a
 mixed Gaussian and plane waves approach.
 http://dx.doi.org/10.1016/j.cpc.2004.12.014


 Frigo, M; Johnson, SG. 
 PROCEEDINGS OF THE IEEE, 93 (2), 216-231 (2005). 
 The design and implementation of FFTW3.
 http://dx.doi.org/10.1109/JPROC.2004.840301


 VandeVondele, J; Hutter, J. 
 JOURNAL OF CHEMICAL PHYSICS, 118 (10), 4365-4369 (2003). 
 An efficient orbital transformation method for electronic structure
 calculations.
 http://dx.doi.org/10.1063/1.1543154


 Hartwigsen, C; Goedecker, S; Hutter, J. 
 PHYSICAL REVIEW B, 58 (7), 3641-3662 (1998). 
 Relativistic separable dual-space Gaussian pseudopotentials from H to Rn.
 http://dx.doi.org/10.1103/PhysRevB.58.3641


 Dudarev, SL; Botton, GA; Savrasov, SY; Humphreys, CJ; Sutton, AP. 
 PHYSICAL REVIEW B, 57 (3), 1505-1509 (1998). 
 Electron-energy-loss spectra and the structural stability of
 nickel oxide: An LSDA+U study.
 http://dx.doi.org/10.1103/PhysRevB.57.1505


 Lippert, G; Hutter, J; Parrinello, M. 
 MOLECULAR PHYSICS, 92 (3), 477-487 (1997). 
 A hybrid Gaussian and plane wave density functional scheme.
 http://dx.doi.org/10.1080/002689797170220


 Dudarev, SL; Manh, DN; Sutton, AP. 
 PHILOSOPHICAL MAGAZINE B, 75 (5), 613-628 (1997). 
 Effect of Mott-Hubbard correlations on the electronic
 structure and structural stability of uranium dioxide.
 http://dx.doi.org/10.1080/13642819708202343


 Perdew, JP; Burke, K; Ernzerhof, M. 
 PHYSICAL REVIEW LETTERS, 77 (18), 3865-3868 (1996). 
 Generalized gradient approximation made simple.
 http://dx.doi.org/10.1103/PhysRevLett.77.3865


 Goedecker, S; Teter, M; Hutter, J. 
 PHYSICAL REVIEW B, 54 (3), 1703-1710 (1996). 
 Separable dual-space Gaussian pseudopotentials.
 http://dx.doi.org/10.1103/PhysRevB.54.1703


 -------------------------------------------------------------------------------
 -                                                                             -
 -                                T I M I N G                                  -
 -                                                                             -
 -------------------------------------------------------------------------------
 SUBROUTINE                       CALLS  ASD         SELF TIME        TOTAL TIME
                                MAXIMUM       AVERAGE  MAXIMUM  AVERAGE  MAXIMUM
 CP2K                                 1  1.0    0.218    0.279 3088.372 3088.482
 cp_geo_opt                           1  2.0    0.012    0.013 3084.895 3085.006
 geoopt_bfgs                          1  3.0    0.109    0.156 3084.883 3084.993
 cp_eval_at                           7  4.0    0.024    0.027 3082.481 3082.599
 qs_energies                          7  5.9    0.034    0.037 2923.661 2923.775
 qs_forces                            6  5.0    0.025    0.029 2901.505 2901.609
 scf_env_do_scf                       7  6.9    0.015    0.018 2815.714 2815.813
 scf_env_do_scf_inner_loop          220  7.9    0.051    0.107 2677.964 2678.060
 qs_rho_update_rho                  227  9.0    0.013    0.015 1754.336 1754.394
 calculate_rho_elec                 454 10.0 1473.002 1624.876 1754.323 1754.381
 rebuild_ks_matrix                  226  9.9    0.012    0.014  974.635  974.708
 qs_ks_build_kohn_sham_matrix       226 10.9    0.160    0.173  974.623  974.696
 qs_ks_update_qs_env                227  8.9    0.016    0.019  830.823  830.885
 sum_up_and_integrate                84 11.7    0.921    0.935  725.020  725.104
 integrate_v_rspace                 168 12.7  591.755  679.261  724.098  724.184
 density_rs2pw                      454 11.0    0.087    0.091  269.949  474.089
 rs_pw_transfer                    3123 12.7    0.134    0.214  262.040  466.322
 rs_pw_transfer_RS2PW_200           461 12.9   20.635   23.735  190.678  395.085
 mp_waitany                       90478 14.7  186.707  391.206  186.707  391.206
 qs_vxc_create                      226 11.9    0.014    0.016  234.412  234.431
 qs_scf_new_mos                     220  8.9    0.006    0.007  210.770  211.081
 qs_scf_loop_do_ot                  220  9.9    0.013    0.015  210.764  211.075
 ot_scf_mini                        220 10.9    0.055    0.060  201.368  201.755
 rs_distribute_matrix               634 11.7    2.139    4.068   95.266  192.808
 mp_alltoall_d11v                  5504 15.6   92.810  191.384   92.810  191.384
 xc_rho_set_and_dset_create         226 13.9    6.599    6.619  185.209  187.969
 cp_fm_syevd                        314 14.4    0.010    0.015  168.549  168.662
 cp_fm_redistribute_end             314 15.4  113.636  166.727  113.919  166.838
 cp_fm_syevd_base                   314 15.1   52.779  165.322   52.779  165.322
 qs_ks_update_qs_env_forces           6  6.0    0.000    0.000  144.200  144.209
 init_scf_loop                        7  7.9    0.007    0.009  137.633  137.639
 qs_ot_get_p                        454 11.9    0.016    0.017  136.626  137.567
 cp_dbcsr_syevd                     294 13.7    0.121    0.132  129.057  129.093
 pw_nn_compose_r                   2480 14.6  122.771  123.722  126.646  128.026
 qs_ot_p2m_diag                     266 13.0    0.992    1.186  122.585  122.835
 xc_exc_calc                        142 12.9    0.542    0.544  117.936  117.943
 xc_vxc_pw_create                    84 12.7    9.512    9.576  116.462  116.480
 dbcsr_multiply_generic            5544 13.6    1.248    1.301   96.753   98.394
 xc_functional_eval                 226 14.9    0.005    0.005   84.108   86.831
 pbe_lsd_eval                       226 15.9   84.103   86.826   84.103   86.826
 prepare_preconditioner               7  8.9    0.002    0.002   73.002   73.020
 multiply_cannon                   5544 14.6    4.599    4.776   64.544   68.880
 make_preconditioner                 14  9.9    0.006    0.008   65.547   65.553
 -------------------------------------------------------------------------------

 The number of warnings for this run is : 4
 
 -------------------------------------------------------------------------------
  **** **** ******  **  PROGRAM ENDED AT                 2020-10-29 22:30:03.484
 ***** ** ***  *** **   PROGRAM RAN ON                                 irene3227
 **    ****   ******    PROGRAM RAN BY                                  marticar
 ***** **    ** ** **   PROGRAM PROCESS ID                                 38819
  **** **  *******  **  PROGRAM STOPPED IN /ccc/scratch/cont003/gen0609/marticar
                                           /5732518
