     161
 i =        1, E =     -8104.4981304186
 Fe         5.0938794100       11.8196869300        0.3885799900
 Fe         7.6575796300        7.3792284900        0.3885799900
 Fe        10.2212798400        2.9387700600        0.3885799900
 Fe        -0.0335205200       11.8196869300        0.3885799900
 Fe         2.5301797000        7.3792284900        0.3885799900
 Fe         5.0938799200        2.9387700600        0.3885799900
 Fe        -5.1609204400       11.8196869300        0.3885799900
 Fe        -2.5972202200        7.3792284900        0.3885799900
 Fe        -0.0335200000        2.9387700600        0.3885799900
  O         8.4519195100        8.9577468800        1.1642700400
  O        11.0156197300        4.5172884400        1.1642700400
  O        13.5793199500        0.0768300000        1.1642700400
  O         3.3245195900        8.9577468800        1.1642700400
  O         5.8882198100        4.5172884400        1.1642700400
  O         8.4519200300        0.0768300000        1.1642700400
  O        -1.8028803300        8.9577468800        1.1642700400
  O         0.7608198900        4.5172884400        1.1642700400
  O         3.3245201100        0.0768300000        1.1642700400
  O         8.4568493000       11.7183869300        1.1650400200
  O        11.0205495200        7.2779284900        1.1650400200
  O        13.5842497300        2.8374700500        1.1650400200
  O         3.3294493700       11.7183869300        1.1650400200
  O         5.8931495900        7.2779284900        1.1650400200
  O         8.4568498100        2.8374700500        1.1650400200
  O        -1.7979505500       11.7183869300        1.1650400200
  O         0.7657496700        7.2779284900        1.1650400200
  O         3.3294498900        2.8374700500        1.1650400200
  O         6.0627194200       10.3425368500        1.1660399400
  O         8.6264196400        5.9020784100        1.1660399400
  O        11.1901198600        1.4616199700        1.1660399400
  O         0.9353195000       10.3425368500        1.1660399400
  O         3.4990197200        5.9020784100        1.1660399400
  O         6.0627199400        1.4616199700        1.1660399400
  O        -4.1920804200       10.3425368500        1.1660399400
  O        -1.6283802000        5.9020784100        1.1660399400
  O         0.9353200200        1.4616199700        1.1660399400
 Fe         7.6576695000       13.2997167500        1.9292099500
 Fe        10.2213697200        8.8592583200        1.9292099500
 Fe        12.7850699400        4.4187998800        1.9292099500
 Fe         2.5302695800       13.2997167500        1.9292099500
 Fe         5.0939698000        8.8592583200        1.9292099500
 Fe         7.6576700200        4.4187998800        1.9292099500
 Fe        -2.5971303400       13.2997167500        1.9292099500
 Fe        -0.0334301200        8.8592583200        1.9292099500
 Fe         2.5302701000        4.4187998800        1.9292099500
 Fe         7.6573893600       10.3392168700        2.7128999200
 Fe        10.2210895800        5.8987584300        2.7128999200
 Fe        12.7847898000        1.4582999900        2.7128999200
 Fe         2.5299894400       10.3392168700        2.7128999200
 Fe         5.0936896600        5.8987584300        2.7128999200
 Fe         7.6573898800        1.4582999900        2.7128999200
 Fe        -2.5974104800       10.3392168700        2.7128999200
 Fe        -0.0337102600        5.8987584300        2.7128999200
 Fe         2.5299899600        1.4582999900        2.7128999200
  O         4.1328681719       13.3039050182        3.4995652599
  O         6.7002013373        8.8668464188        3.4983964725
  O         9.2608016006        4.4244824410        3.5003732145
  O        -0.9937180761       13.3025021162        3.4998130178
  O         1.5708616543        8.8600615691        3.4971867976
  O         4.1322188673        4.4220770723        3.4964301950
  O        -6.1221839466       13.3041421755        3.4994137204
  O        -3.5574291288        8.8640337336        3.5006129790
  O        -0.9943427564        4.4237739766        3.5011312719
  O         6.8604753729       11.9105778500        3.5005632155
  O         9.4234776341        7.4689258864        3.5014471257
  O        11.9888902487        3.0293897026        3.5015928227
  O         1.7330446534       11.9100665842        3.5005997967
  O         4.3013071929        7.4706946890        3.4944620689
  O         6.8612751439        3.0288400443        3.4996027527
  O        -3.3940196721       11.9097296381        3.5014438375
  O        -0.8317459475        7.4682713442        3.5006777471
  O         1.7328425244        3.0273275152        3.5010793049
  O         9.4164903933       10.2448638656        3.5007998769
  O        11.9800059755        5.8043617867        3.5016114807
  O        14.5428207032        1.3644240382        3.5017632062
  O         4.2885127912       10.2460688979        3.4986383820
  O         6.8533164963        5.8044681215        3.4985012728
  O         9.4154682950        1.3635330574        3.5018439427
  O        -0.8472067231       10.2508575320        3.5009119310
  O         1.7220053399        5.8055978018        3.5026395314
  O         4.2868780129        1.3637207269        3.5015031962
 Fe         5.0938559550       11.8180188531        4.4865378225
 Fe         7.6550788610        7.3796053555        4.4868184889
 Fe        10.2212738817        2.9388754075        4.4861616655
 Fe        -0.0320829940       11.8173246930        4.4868660520
 Fe         2.5443926277        7.3743812486        4.4780021085
 Fe         5.0930666707        2.9370977103        4.4840659644
 Fe        -5.1610173650       11.8193183010        4.4861774848
 Fe        -2.5969271473        7.3796765794        4.4860487007
 Fe        -0.0329752927        2.9376110104        4.4858632961
 Fe         7.6589606932       13.2989999675        4.8227324567
 Fe        10.2223622328        8.8574944119        4.8222800829
 Fe        12.7862593511        4.4180627106        4.8228063555
 Fe         2.5311556181       13.2987873139        4.8230065497
 Fe         5.1044288196        8.8587882169        4.8144060244
 Fe         7.6601207409        4.4188129621        4.8221438471
 Fe        -2.5960424661       13.3003538675        4.8220062394
 Fe        -0.0434538843        8.8765287839        4.8037156564
 Fe         2.5326505862        4.4162301123        4.8168261322
  O         5.8656254008       10.3886341372        5.7273568246
  O         8.4309075329        5.9498741975        5.7237367308
  O        10.9932231186        1.5079670247        5.7268275500
  O         0.7380003688       10.3854300015        5.7319032793
  O         3.3232582493        5.9345239344        5.7101400994
  O         5.8655147292        1.5074632940        5.7282368534
  O        -4.3894961505       10.3880387290        5.7276623146
  O        -1.8294664930        5.9496839944        5.7303389907
  O         0.7383203864        1.5081845800        5.7282760061
  O         5.9482032686       13.2033326280        5.7276688648
  O         8.5130858895        8.7633707443        5.7277047978
  O        11.0765684554        4.3228151466        5.7280793334
  O         0.8191329792       13.2021644618        5.7263313427
  O         3.3886979964        8.7808429316        5.6836066815
  O         5.9513565341        4.3091311571        5.7123340069
  O        -4.3063756647       13.2027817218        5.7283738736
  O        -1.7400553587        8.7597811745        5.7389315981
  O         0.8250487283        4.3177376869        5.7288196426
  O         3.4693180454       11.8659283998        5.7294128570
  O         6.0301582702        7.4231656622        5.7206297489
  O         8.5976800647        2.9840398209        5.7296336298
  O        -1.6578540639       11.8666740279        5.7303071201
  O         0.8813789714        7.4193480562        5.6504070073
  O         3.4679795386        2.9871355699        5.7340607110
  O        -6.7853293888       11.8653338660        5.7298698838
  O        -4.2196975889        7.4249464425        5.7312355623
  O        -1.6569462383        2.9853372277        5.7309083703
 Fe         7.6569847217       10.3384863532        5.9797451116
 Fe        10.2205588809        5.8986269320        5.9796533121
 Fe        12.7849848031        1.4582286879        5.9783827338
 Fe         2.5311834744       10.3400642198        5.9850312525
 Fe         5.1161119862        5.8853687200        6.0088309057
 Fe         7.6577740770        1.4582008753        5.9797127092
 Fe        -2.5974055449       10.3396683990        5.9731953187
 Fe        -0.0384616711        5.8893302082        5.9538941568
 Fe         2.5306542788        1.4580402170        5.9788922725
  C         1.5464361673        6.9408440133        8.2486077206
  C         1.1473532114        7.0202728057        9.7149438459
  H         0.8192122208        7.5247178519        7.6551113795
  O         2.8313883806        7.4966750510        7.9672491453
  H         1.5314872755        5.8959165786        7.8806778524
  C         1.8151730151        5.9982030993       10.6466716843
  C         3.3330824048        6.1908487697       10.9739370011
  O         1.5795876215        4.6598541393       10.1531894124
  H         1.2608384554        6.1238910297       11.5915613601
  C         4.2729139651        5.0150687477       10.6088243810
  H         3.3916556959        6.2811992279       12.0706595871
  O         3.8701330797        7.4327223609       10.4391073605
  C         4.4774957147        4.7505592213        9.1062319173
  O         3.8907852764        3.8188919092       11.2851755588
  H         5.2583235402        5.2860812425       11.0298168709
  H         3.5288550943        4.5017721226        8.6121027971
  O         5.0814718816        5.8761317023        8.4103634898
  H         5.1639149529        3.8992888231        9.0000367959
  H         3.1870565884        7.7993281058        8.8346629501
  H         0.6097552980        4.5857427504       10.0579026146
  H         4.6843019670        7.1828727886        9.9435647301
  H         2.9663811224        3.6397530233       11.0084534175
  H         4.3118232366        6.4035596822        8.0442367051
  O        -0.2590504129        6.6979195509        9.8147477205
  H         1.3506697818        8.0475092968       10.0688073819
  H        -0.7610086655        7.2823468080        9.2177941672
     161
 i =        2, E =     -8104.5041843451
 Fe         5.0938794100       11.8196869300        0.3885799900
 Fe         7.6575796300        7.3792284900        0.3885799900
 Fe        10.2212798400        2.9387700600        0.3885799900
 Fe        -0.0335205200       11.8196869300        0.3885799900
 Fe         2.5301797000        7.3792284900        0.3885799900
 Fe         5.0938799200        2.9387700600        0.3885799900
 Fe        -5.1609204400       11.8196869300        0.3885799900
 Fe        -2.5972202200        7.3792284900        0.3885799900
 Fe        -0.0335200000        2.9387700600        0.3885799900
  O         8.4519195100        8.9577468800        1.1642700400
  O        11.0156197300        4.5172884400        1.1642700400
  O        13.5793199500        0.0768300000        1.1642700400
  O         3.3245195900        8.9577468800        1.1642700400
  O         5.8882198100        4.5172884400        1.1642700400
  O         8.4519200300        0.0768300000        1.1642700400
  O        -1.8028803300        8.9577468800        1.1642700400
  O         0.7608198900        4.5172884400        1.1642700400
  O         3.3245201100        0.0768300000        1.1642700400
  O         8.4568493000       11.7183869300        1.1650400200
  O        11.0205495200        7.2779284900        1.1650400200
  O        13.5842497300        2.8374700500        1.1650400200
  O         3.3294493700       11.7183869300        1.1650400200
  O         5.8931495900        7.2779284900        1.1650400200
  O         8.4568498100        2.8374700500        1.1650400200
  O        -1.7979505500       11.7183869300        1.1650400200
  O         0.7657496700        7.2779284900        1.1650400200
  O         3.3294498900        2.8374700500        1.1650400200
  O         6.0627194200       10.3425368500        1.1660399400
  O         8.6264196400        5.9020784100        1.1660399400
  O        11.1901198600        1.4616199700        1.1660399400
  O         0.9353195000       10.3425368500        1.1660399400
  O         3.4990197200        5.9020784100        1.1660399400
  O         6.0627199400        1.4616199700        1.1660399400
  O        -4.1920804200       10.3425368500        1.1660399400
  O        -1.6283802000        5.9020784100        1.1660399400
  O         0.9353200200        1.4616199700        1.1660399400
 Fe         7.6576695000       13.2997167500        1.9292099500
 Fe        10.2213697200        8.8592583200        1.9292099500
 Fe        12.7850699400        4.4187998800        1.9292099500
 Fe         2.5302695800       13.2997167500        1.9292099500
 Fe         5.0939698000        8.8592583200        1.9292099500
 Fe         7.6576700200        4.4187998800        1.9292099500
 Fe        -2.5971303400       13.2997167500        1.9292099500
 Fe        -0.0334301200        8.8592583200        1.9292099500
 Fe         2.5302701000        4.4187998800        1.9292099500
 Fe         7.6573893600       10.3392168700        2.7128999200
 Fe        10.2210895800        5.8987584300        2.7128999200
 Fe        12.7847898000        1.4582999900        2.7128999200
 Fe         2.5299894400       10.3392168700        2.7128999200
 Fe         5.0936896600        5.8987584300        2.7128999200
 Fe         7.6573898800        1.4582999900        2.7128999200
 Fe        -2.5974104800       10.3392168700        2.7128999200
 Fe        -0.0337102600        5.8987584300        2.7128999200
 Fe         2.5299899600        1.4582999900        2.7128999200
  O         4.1342789025       13.3018444176        3.4994225523
  O         6.7108687708        8.8674131262        3.5010306923
  O         9.2664933292        4.4211977125        3.5001215452
  O        -0.9942244114       13.2994319361        3.4978016212
  O         1.5706439076        8.8595487242        3.4810797180
  O         4.1321252905        4.4094797315        3.4796951990
  O        -6.1211410386       13.3013617712        3.4994990531
  O        -3.5534451902        8.8619394999        3.5039900777
  O        -0.9909618402        4.4226976291        3.5079360668
  O         6.8593130746       11.9126042054        3.4999713941
  O         9.4229083972        7.4708185959        3.5000926862
  O        11.9877220441        3.0305265249        3.5012976359
  O         1.7298690207       11.9109704270        3.5004359693
  O         4.2991578750        7.4722460254        3.4809095876
  O         6.8610252919        3.0269753376        3.4944244633
  O        -3.3961265682       11.9098800173        3.5018530293
  O        -0.8541802322        7.4717118059        3.4801988397
  O         1.7295700190        3.0267929216        3.5012838252
  O         9.4213346860       10.2468162686        3.4981164300
  O        11.9847142839        5.8062902322        3.4998828097
  O        14.5459457268        1.3665947568        3.5005680600
  O         4.2966422163       10.2578749388        3.4871241133
  O         6.8605851237        5.8057118181        3.4889723808
  O         9.4195012441        1.3653812313        3.4997395051
  O        -0.8486459002       10.2596292293        3.5050727836
  O         1.7272248406        5.8022902314        3.4921530989
  O         4.2895330935        1.3655664185        3.5011492156
 Fe         5.0938207752       11.8174356574        4.4949382365
 Fe         7.6535630310        7.3758165915        4.4952873543
 Fe        10.2215279682        2.9384771055        4.4947780351
 Fe        -0.0290792206       11.8237470347        4.4985576018
 Fe         2.5549862713        7.3702736201        4.4705459311
 Fe         5.0942290153        2.9379212336        4.4897337441
 Fe        -5.1616092564       11.8190347599        4.4942855914
 Fe        -2.5983239703        7.3797231438        4.4966529389
 Fe        -0.0317808179        2.9339981838        4.4956950291
 Fe         7.6590988538       13.2984257226        4.8200941198
 Fe        10.2210695581        8.8561284188        4.8188898625
 Fe        12.7838663881        4.4165026035        4.8200673823
 Fe         2.5320604826       13.2988877043        4.8197884984
 Fe         5.1134916601        8.8584944139        4.7962663018
 Fe         7.6631096154        4.4178688805        4.8135542821
 Fe        -2.5950645331       13.3004266253        4.8186203921
 Fe        -0.0474665241        8.8826264831        4.7712982265
 Fe         2.5420631901        4.4173117588        4.8039049569
  O         5.8659484799       10.3853081643        5.7325989168
  O         8.4318900190        5.9454169687        5.7267503950
  O        10.9936493414        1.5052115120        5.7324983910
  O         0.7336938828       10.3745195253        5.7394530947
  O         3.3556492153        5.9217340329        5.6872666534
  O         5.8641606483        1.5027735988        5.7350271139
  O        -4.3906032048       10.3842033812        5.7337416938
  O        -1.8408077022        5.9470837795        5.7443244759
  O         0.7384024662        1.5039570341        5.7362529478
  O         5.9499664570       13.2058421310        5.7327341075
  O         8.5153114115        8.7653103722        5.7323337021
  O        11.0783169938        4.3250557616        5.7343558394
  O         0.8228259386       13.2058426891        5.7343263277
  O         3.3922050442        8.8017269130        5.6312554923
  O         5.9616420323        4.2907239116        5.6929222452
  O        -4.3041361784       13.2045274671        5.7328746930
  O        -1.7288338569        8.7616343825        5.7544534681
  O         0.8373935857        4.3127638269        5.7360462996
  O         3.4664388867       11.8687670817        5.7375625689
  O         6.0207646662        7.4181302622        5.7055561024
  O         8.5971873672        2.9848580273        5.7357960884
  O        -1.6604531354       11.8668764374        5.7381468669
  O         0.8620905277        7.4084050613        5.5742574002
  O         3.4645073590        2.9905418399        5.7473460412
  O        -6.7877020206       11.8669198145        5.7363112777
  O        -4.2210929431        7.4271440606        5.7401115404
  O        -1.6586292199        2.9882771531        5.7400473965
 Fe         7.6566255750       10.3383348616        5.9930284237
 Fe        10.2189132001        5.8993738539        5.9913999216
 Fe        12.7845259928        1.4587898251        5.9907830392
 Fe         2.5307146603       10.3403154916        5.9937151367
 Fe         5.1490233084        5.8618802263        6.0900488938
 Fe         7.6564222328        1.4600632742        5.9914967920
 Fe        -2.5997569503       10.3397026179        5.9848523821
 Fe        -0.0477499420        5.8769527452        5.9103686413
 Fe         2.5306866390        1.4580167527        5.9926810077
  C         1.5687097184        6.9456675237        8.2685960363
  C         1.1415686875        7.0109043873        9.7115674738
  H         0.8335782074        7.5470741374        7.7091389628
  O         2.8669437033        7.4845136118        8.0338377869
  H         1.5444980863        5.8907248781        7.9183221425
  C         1.8088004376        6.0173268887       10.6652316125
  C         3.3359995097        6.1839986581       10.9773879909
  O         1.5812479248        4.6785001464       10.1706501599
  H         1.2656758319        6.0996918383       11.6208699857
  C         4.2785315012        5.0169586197       10.5890568602
  H         3.3974550990        6.2811854010       12.0732191364
  O         3.8742831144        7.4300565147       10.4517495137
  C         4.4723981012        4.7409941471        9.0787084925
  O         3.8953881360        3.8253762222       11.2775087260
  H         5.2568436261        5.2890104459       11.0284633041
  H         3.5206405306        4.4796596720        8.6042382168
  O         5.0370575219        5.8666843242        8.3107159690
  H         5.1657509248        3.8974086539        8.9862532748
  H         3.1725814685        7.8299023005        8.8990017599
  H         0.6156540170        4.5806812640       10.0416396980
  H         4.6949741544        7.2023801079        9.9624890723
  H         2.9698161062        3.6495207045       10.9979856926
  H         4.1807864308        6.4836566277        8.1631745157
  O        -0.2644856360        6.7022111811        9.8400401128
  H         1.3410152847        8.0296044427       10.0934814415
  H        -0.7500926129        7.2747703186        9.2135722757
     161
 i =        3, E =     -8104.5075960928
 Fe         5.0938794100       11.8196869300        0.3885799900
 Fe         7.6575796300        7.3792284900        0.3885799900
 Fe        10.2212798400        2.9387700600        0.3885799900
 Fe        -0.0335205200       11.8196869300        0.3885799900
 Fe         2.5301797000        7.3792284900        0.3885799900
 Fe         5.0938799200        2.9387700600        0.3885799900
 Fe        -5.1609204400       11.8196869300        0.3885799900
 Fe        -2.5972202200        7.3792284900        0.3885799900
 Fe        -0.0335200000        2.9387700600        0.3885799900
  O         8.4519195100        8.9577468800        1.1642700400
  O        11.0156197300        4.5172884400        1.1642700400
  O        13.5793199500        0.0768300000        1.1642700400
  O         3.3245195900        8.9577468800        1.1642700400
  O         5.8882198100        4.5172884400        1.1642700400
  O         8.4519200300        0.0768300000        1.1642700400
  O        -1.8028803300        8.9577468800        1.1642700400
  O         0.7608198900        4.5172884400        1.1642700400
  O         3.3245201100        0.0768300000        1.1642700400
  O         8.4568493000       11.7183869300        1.1650400200
  O        11.0205495200        7.2779284900        1.1650400200
  O        13.5842497300        2.8374700500        1.1650400200
  O         3.3294493700       11.7183869300        1.1650400200
  O         5.8931495900        7.2779284900        1.1650400200
  O         8.4568498100        2.8374700500        1.1650400200
  O        -1.7979505500       11.7183869300        1.1650400200
  O         0.7657496700        7.2779284900        1.1650400200
  O         3.3294498900        2.8374700500        1.1650400200
  O         6.0627194200       10.3425368500        1.1660399400
  O         8.6264196400        5.9020784100        1.1660399400
  O        11.1901198600        1.4616199700        1.1660399400
  O         0.9353195000       10.3425368500        1.1660399400
  O         3.4990197200        5.9020784100        1.1660399400
  O         6.0627199400        1.4616199700        1.1660399400
  O        -4.1920804200       10.3425368500        1.1660399400
  O        -1.6283802000        5.9020784100        1.1660399400
  O         0.9353200200        1.4616199700        1.1660399400
 Fe         7.6576695000       13.2997167500        1.9292099500
 Fe        10.2213697200        8.8592583200        1.9292099500
 Fe        12.7850699400        4.4187998800        1.9292099500
 Fe         2.5302695800       13.2997167500        1.9292099500
 Fe         5.0939698000        8.8592583200        1.9292099500
 Fe         7.6576700200        4.4187998800        1.9292099500
 Fe        -2.5971303400       13.2997167500        1.9292099500
 Fe        -0.0334301200        8.8592583200        1.9292099500
 Fe         2.5302701000        4.4187998800        1.9292099500
 Fe         7.6573893600       10.3392168700        2.7128999200
 Fe        10.2210895800        5.8987584300        2.7128999200
 Fe        12.7847898000        1.4582999900        2.7128999200
 Fe         2.5299894400       10.3392168700        2.7128999200
 Fe         5.0936896600        5.8987584300        2.7128999200
 Fe         7.6573898800        1.4582999900        2.7128999200
 Fe        -2.5974104800       10.3392168700        2.7128999200
 Fe        -0.0337102600        5.8987584300        2.7128999200
 Fe         2.5299899600        1.4582999900        2.7128999200
  O         4.1343289350       13.3045108841        3.5016469781
  O         6.7230589837        8.8726174977        3.5188486194
  O         9.2726821609        4.4204727134        3.5037357319
  O        -0.9964383048       13.3016601224        3.4979461459
  O         1.5913249314        8.8776409831        3.5175353469
  O         4.1462819489        4.4067155983        3.4915993304
  O        -6.1209652819       13.3016399006        3.5014219539
  O        -3.5528899460        8.8643521989        3.5073298857
  O        -0.9880846440        4.4265937771        3.5182073626
  O         6.8617880092       11.9135238208        3.5010467593
  O         9.4264445559        7.4720150096        3.5004959343
  O        11.9894502211        3.0308160924        3.5019283136
  O         1.7307593647       11.9111163184        3.5028981919
  O         4.2979208458        7.4677122033        3.4809469470
  O         6.8645844195        3.0216833012        3.4940988560
  O        -3.3950265554       11.9088922141        3.5035993849
  O        -0.8712295639        7.4451282031        3.5160508488
  O         1.7296341176        3.0094738131        3.5293965012
  O         9.4220910280       10.2465363360        3.4984497878
  O        11.9848006864        5.8034653853        3.5000041378
  O        14.5461687294        1.3659300920        3.5012341726
  O         4.2960050330       10.2696948291        3.4935465751
  O         6.8635178776        5.8045328701        3.4847712074
  O         9.4204747568        1.3647438707        3.4997976739
  O        -0.8698242539       10.2753950455        3.5575907952
  O         1.7176066458        5.8035436935        3.5078809169
  O         4.2901342056        1.3647880173        3.5026700353
 Fe         5.0956328893       11.8206855356        4.4958965597
 Fe         7.6548552792        7.3690759952        4.4970176019
 Fe        10.2225490755        2.9365683357        4.4951107613
 Fe        -0.0228624518       11.8411435389        4.5075322643
 Fe         2.5656131595        7.3637353869        4.4741428155
 Fe         5.1005717562        2.9346813822        4.4931732720
 Fe        -5.1614589491       11.8183937670        4.4940256274
 Fe        -2.6141596720        7.3785192139        4.5038494800
 Fe        -0.0355996733        2.9295556242        4.5009145276
 Fe         7.6593420289       13.2974727691        4.8175398558
 Fe        10.2190883426        8.8569420955        4.8154850948
 Fe        12.7800626578        4.4150939633        4.8175610858
 Fe         2.5341086839       13.2998548489        4.8160644300
 Fe         5.1158215558        8.8549677262        4.7955110758
 Fe         7.6638469098        4.4157119346        4.8049399095
 Fe        -2.5952463042       13.2992559054        4.8152727005
 Fe        -0.0441070533        8.8774936900        4.7888080082
 Fe         2.5522569895        4.4193990784        4.8069912041
  O         5.8654798373       10.3861658629        5.7354151493
  O         8.4309233015        5.9399339119        5.7296697499
  O        10.9937739954        1.5044556698        5.7352764272
  O         0.7318451094       10.3777616238        5.7453652283
  O         3.3748518328        5.9187943541        5.6784674631
  O         5.8633815917        1.4968763850        5.7394898112
  O        -4.3903878067       10.3831344936        5.7364029956
  O        -1.8514048584        5.9471491043        5.7521376533
  O         0.7374938348        1.5012014080        5.7405913637
  O         5.9513400168       13.2069170408        5.7358570931
  O         8.5157026446        8.7639625579        5.7346662183
  O        11.0774316179        4.3240865833        5.7370447289
  O         0.8293287746       13.2113614476        5.7423450561
  O         3.3882280513        8.8081855935        5.6136004988
  O         5.9663706064        4.2839380987        5.6827617926
  O        -4.3038783321       13.2041308001        5.7340144883
  O        -1.7308446024        8.7582251162        5.7636331337
  O         0.8440537843        4.3067991145        5.7410076433
  O         3.4670661503       11.8719013058        5.7418926506
  O         6.0182923294        7.4085522006        5.6960751119
  O         8.5992268851        2.9860451143        5.7377224343
  O        -1.6596081124       11.8684316669        5.7427445686
  O         0.8702044896        7.3932503831        5.5560485947
  O         3.4682960156        2.9898740187        5.7552747723
  O        -6.7870481424       11.8679470828        5.7393009731
  O        -4.2270641903        7.4308010978        5.7486017899
  O        -1.6602504002        2.9913311964        5.7459321483
 Fe         7.6571691402       10.3380164538        5.9909703775
 Fe        10.2180080109        5.8988987636        5.9903068732
 Fe        12.7847903996        1.4593272334        5.9898528852
 Fe         2.5306764596       10.3421622057        5.9866971340
 Fe         5.1651768171        5.8486242460        6.1621845757
 Fe         7.6558228631        1.4628575942        5.9898689781
 Fe        -2.5989628483       10.3403255433        5.9838088756
 Fe        -0.0544248883        5.8680537867        5.8669347471
 Fe         2.5310323399        1.4581662473        5.9906532369
  C         1.5756817723        6.9474007289        8.2964644788
  C         1.1498784087        7.0116903747        9.7367303356
  H         0.8553834278        7.5572292141        7.7291230577
  O         2.8895004464        7.4666843344        8.0864581646
  H         1.5531957572        5.8955356405        7.9361272248
  C         1.8083405525        6.0044335120       10.6793993405
  C         3.3386472323        6.1908915298       10.9784908682
  O         1.5855510434        4.6683395034       10.1754619963
  H         1.2719669802        6.0953408016       11.6389215312
  C         4.2775296851        5.0238082671       10.5779249084
  H         3.4072314831        6.2730155750       12.0748138589
  O         3.8812797607        7.4418839752       10.4642808938
  C         4.4600975314        4.7260932560        9.0620535932
  O         3.9019054603        3.8261145253       11.2610848026
  H         5.2577614646        5.2924289116       11.0166356364
  H         3.5079149807        4.4490443523        8.6016830525
  O         4.9634405324        5.8966304339        8.2970976358
  H         5.1710690344        3.8968532272        8.9694392740
  H         3.1553616468        7.8629115718        8.9495988344
  H         0.6207031291        4.5826572960       10.0316928321
  H         4.7070862137        7.2164213151        9.9874031946
  H         2.9722403615        3.6569398248       10.9893737097
  H         4.1077805513        6.5221492393        8.1908380393
  O        -0.2584106859        6.7059963371        9.8427455504
  H         1.3341934973        8.0344646040       10.1151433469
  H        -0.7509391671        7.2670605222        9.2100561728
     161
 i =        4, E =     -8104.5121398620
 Fe         5.0938794100       11.8196869300        0.3885799900
 Fe         7.6575796300        7.3792284900        0.3885799900
 Fe        10.2212798400        2.9387700600        0.3885799900
 Fe        -0.0335205200       11.8196869300        0.3885799900
 Fe         2.5301797000        7.3792284900        0.3885799900
 Fe         5.0938799200        2.9387700600        0.3885799900
 Fe        -5.1609204400       11.8196869300        0.3885799900
 Fe        -2.5972202200        7.3792284900        0.3885799900
 Fe        -0.0335200000        2.9387700600        0.3885799900
  O         8.4519195100        8.9577468800        1.1642700400
  O        11.0156197300        4.5172884400        1.1642700400
  O        13.5793199500        0.0768300000        1.1642700400
  O         3.3245195900        8.9577468800        1.1642700400
  O         5.8882198100        4.5172884400        1.1642700400
  O         8.4519200300        0.0768300000        1.1642700400
  O        -1.8028803300        8.9577468800        1.1642700400
  O         0.7608198900        4.5172884400        1.1642700400
  O         3.3245201100        0.0768300000        1.1642700400
  O         8.4568493000       11.7183869300        1.1650400200
  O        11.0205495200        7.2779284900        1.1650400200
  O        13.5842497300        2.8374700500        1.1650400200
  O         3.3294493700       11.7183869300        1.1650400200
  O         5.8931495900        7.2779284900        1.1650400200
  O         8.4568498100        2.8374700500        1.1650400200
  O        -1.7979505500       11.7183869300        1.1650400200
  O         0.7657496700        7.2779284900        1.1650400200
  O         3.3294498900        2.8374700500        1.1650400200
  O         6.0627194200       10.3425368500        1.1660399400
  O         8.6264196400        5.9020784100        1.1660399400
  O        11.1901198600        1.4616199700        1.1660399400
  O         0.9353195000       10.3425368500        1.1660399400
  O         3.4990197200        5.9020784100        1.1660399400
  O         6.0627199400        1.4616199700        1.1660399400
  O        -4.1920804200       10.3425368500        1.1660399400
  O        -1.6283802000        5.9020784100        1.1660399400
  O         0.9353200200        1.4616199700        1.1660399400
 Fe         7.6576695000       13.2997167500        1.9292099500
 Fe        10.2213697200        8.8592583200        1.9292099500
 Fe        12.7850699400        4.4187998800        1.9292099500
 Fe         2.5302695800       13.2997167500        1.9292099500
 Fe         5.0939698000        8.8592583200        1.9292099500
 Fe         7.6576700200        4.4187998800        1.9292099500
 Fe        -2.5971303400       13.2997167500        1.9292099500
 Fe        -0.0334301200        8.8592583200        1.9292099500
 Fe         2.5302701000        4.4187998800        1.9292099500
 Fe         7.6573893600       10.3392168700        2.7128999200
 Fe        10.2210895800        5.8987584300        2.7128999200
 Fe        12.7847898000        1.4582999900        2.7128999200
 Fe         2.5299894400       10.3392168700        2.7128999200
 Fe         5.0936896600        5.8987584300        2.7128999200
 Fe         7.6573898800        1.4582999900        2.7128999200
 Fe        -2.5974104800       10.3392168700        2.7128999200
 Fe        -0.0337102600        5.8987584300        2.7128999200
 Fe         2.5299899600        1.4582999900        2.7128999200
  O         4.1336109516       13.3072060907        3.5024606749
  O         6.7135233679        8.8705002082        3.5127818284
  O         9.2756854880        4.4220174962        3.5084793898
  O        -0.9965924351       13.3062794503        3.5023400174
  O         1.5772352550        8.8793028289        3.5069528922
  O         4.1393836265        4.4024321650        3.4800707928
  O        -6.1219437428       13.3024497693        3.5010166106
  O        -3.5560776348        8.8667978073        3.5079614169
  O        -0.9854086494        4.4304653774        3.5259544746
  O         6.8658657835       11.9136966143        3.5021046684
  O         9.4312522588        7.4713257011        3.5033881672
  O        11.9933019302        3.0313314543        3.5015958373
  O         1.7310347127       11.9121205513        3.5066404070
  O         4.2971083960        7.4794328032        3.4662826060
  O         6.8690982793        3.0160449012        3.4991739719
  O        -3.3946039286       11.9098313641        3.5014716848
  O        -0.8658609214        7.4506143552        3.5139131915
  O         1.7352562569        3.0119789130        3.5272387100
  O         9.4211455890       10.2456437642        3.4985096877
  O        11.9811277545        5.7988566683        3.5018240142
  O        14.5435400631        1.3638743499        3.5039684732
  O         4.3030163833       10.2641489126        3.4869674933
  O         6.8645131383        5.8018032851        3.4840687154
  O         9.4186329463        1.3617567935        3.5010439828
  O        -0.8611730215       10.2619989711        3.5505718464
  O         1.7232978374        5.7949576796        3.5011277110
  O         4.2898813350        1.3624899327        3.5042272812
 Fe         5.0956090296       11.8175934681        4.4862036420
 Fe         7.6517557717        7.3688401368        4.4884581995
 Fe        10.2236848496        2.9344368128        4.4878250057
 Fe        -0.0294059763       11.8359940121        4.4997399572
 Fe         2.5626892795        7.3673827306        4.4702963364
 Fe         5.1016139547        2.9409385927        4.4863340313
 Fe        -5.1606163811       11.8183427055        4.4877131381
 Fe        -2.6120769092        7.3787108659        4.4926866904
 Fe        -0.0281208337        2.9266781050        4.4942963526
 Fe         7.6602481673       13.2961244203        4.8168760337
 Fe        10.2168511929        8.8594543808        4.8156661327
 Fe        12.7772180718        4.4140145773        4.8183484989
 Fe         2.5362380915       13.3017731239        4.8155460358
 Fe         5.1109069404        8.8483153737        4.8070498650
 Fe         7.6611155515        4.4145680670        4.8028965675
 Fe        -2.5970269251       13.2976869453        4.8150668726
 Fe        -0.0367938020        8.8680733532        4.8158005753
 Fe         2.5600178334        4.4210937467        4.8147062880
  O         5.8637111709       10.3884452346        5.7368295354
  O         8.4272729938        5.9405303559        5.7304005304
  O        10.9945677036        1.5082467108        5.7345274585
  O         0.7326139535       10.3851024877        5.7532268415
  O         3.3672333649        5.9325618812        5.6858028019
  O         5.8634522069        1.4991178886        5.7355889859
  O        -4.3886597484       10.3858802745        5.7344099562
  O        -1.8604752350        5.9490318221        5.7555718981
  O         0.7341695266        1.4999061071        5.7425604608
  O         5.9494752106       13.2039576570        5.7324269247
  O         8.5131937905        8.7584206872        5.7359571521
  O        11.0732439386        4.3203976446        5.7359602453
  O         0.8266373856       13.2080026423        5.7369671371
  O         3.3824039542        8.7920663784        5.6472614894
  O         5.9637309901        4.2931077422        5.6953151536
  O        -4.3066048464       13.2023735476        5.7321010895
  O        -1.7370860658        8.7515283881        5.7677889868
  O         0.8463634932        4.3020742785        5.7456140495
  O         3.4716654124       11.8746400687        5.7418397666
  O         6.0236093197        7.3999429349        5.7026735760
  O         8.6028118343        2.9863965125        5.7355004210
  O        -1.6563459372       11.8748441254        5.7492272409
  O         0.8968469584        7.3921400319        5.6065076728
  O         3.4784090236        2.9869880131        5.7580170592
  O        -6.7839800374       11.8668443836        5.7375176597
  O        -4.2253632167        7.4301702170        5.7434169400
  O        -1.6549974979        2.9903050572        5.7413957909
 Fe         7.6581046175       10.3367306722        5.9771113790
 Fe        10.2182509704        5.8985565067        5.9827044613
 Fe        12.7869959137        1.4595668085        5.9807431403
 Fe         2.5330214911       10.3433360610        5.9702593416
 Fe         5.1537653417        5.8534860882        6.1762388942
 Fe         7.6567256396        1.4634191484        5.9807862894
 Fe        -2.5936548393       10.3415161480        5.9683216748
 Fe        -0.0562913399        5.8676359663        5.8247568713
 Fe         2.5304550923        1.4594727325        5.9746587944
  C         1.5701574134        6.9429935340        8.3195378783
  C         1.1487018134        7.0231637728        9.7708192318
  H         0.8816684789        7.5529849465        7.7102412461
  O         2.8822979050        7.4750956594        8.0993818991
  H         1.5525771056        5.9066697893        7.9278977678
  C         1.8168008106        5.9869139430       10.6790041249
  C         3.3444450765        6.1953225542       10.9798251753
  O         1.5880001575        4.6524500174       10.1732607798
  H         1.2787812913        6.1033320391       11.6366131885
  C         4.2750081254        5.0215626731       10.5832519002
  H         3.4191477906        6.2604192783       12.0762302959
  O         3.8859252780        7.4567334205       10.4847840754
  C         4.4364419382        4.7323002940        9.0653689513
  O         3.9041568295        3.8163702816       11.2508751261
  H         5.2645706955        5.2961801914       10.9931704110
  H         3.4945011948        4.4168427839        8.6049776235
  O         4.9184189370        5.9370904944        8.3542365798
  H         5.1729580383        3.9217595852        8.9494404579
  H         3.1476764761        7.8817327906        8.9623563082
  H         0.6225877516        4.5882553784       10.0302888632
  H         4.7110839153        7.2227300726       10.0088700382
  H         2.9715752979        3.6564495172       10.9854734222
  H         4.1124988944        6.4882118164        8.1375981350
  O        -0.2581945284        6.6982357497        9.8335686636
  H         1.3394555020        8.0509626739       10.1299906331
  H        -0.7534109540        7.2618232618        9.2084780331
     161
 i =        5, E =     -8104.5162819572
 Fe         5.0938794100       11.8196869300        0.3885799900
 Fe         7.6575796300        7.3792284900        0.3885799900
 Fe        10.2212798400        2.9387700600        0.3885799900
 Fe        -0.0335205200       11.8196869300        0.3885799900
 Fe         2.5301797000        7.3792284900        0.3885799900
 Fe         5.0938799200        2.9387700600        0.3885799900
 Fe        -5.1609204400       11.8196869300        0.3885799900
 Fe        -2.5972202200        7.3792284900        0.3885799900
 Fe        -0.0335200000        2.9387700600        0.3885799900
  O         8.4519195100        8.9577468800        1.1642700400
  O        11.0156197300        4.5172884400        1.1642700400
  O        13.5793199500        0.0768300000        1.1642700400
  O         3.3245195900        8.9577468800        1.1642700400
  O         5.8882198100        4.5172884400        1.1642700400
  O         8.4519200300        0.0768300000        1.1642700400
  O        -1.8028803300        8.9577468800        1.1642700400
  O         0.7608198900        4.5172884400        1.1642700400
  O         3.3245201100        0.0768300000        1.1642700400
  O         8.4568493000       11.7183869300        1.1650400200
  O        11.0205495200        7.2779284900        1.1650400200
  O        13.5842497300        2.8374700500        1.1650400200
  O         3.3294493700       11.7183869300        1.1650400200
  O         5.8931495900        7.2779284900        1.1650400200
  O         8.4568498100        2.8374700500        1.1650400200
  O        -1.7979505500       11.7183869300        1.1650400200
  O         0.7657496700        7.2779284900        1.1650400200
  O         3.3294498900        2.8374700500        1.1650400200
  O         6.0627194200       10.3425368500        1.1660399400
  O         8.6264196400        5.9020784100        1.1660399400
  O        11.1901198600        1.4616199700        1.1660399400
  O         0.9353195000       10.3425368500        1.1660399400
  O         3.4990197200        5.9020784100        1.1660399400
  O         6.0627199400        1.4616199700        1.1660399400
  O        -4.1920804200       10.3425368500        1.1660399400
  O        -1.6283802000        5.9020784100        1.1660399400
  O         0.9353200200        1.4616199700        1.1660399400
 Fe         7.6576695000       13.2997167500        1.9292099500
 Fe        10.2213697200        8.8592583200        1.9292099500
 Fe        12.7850699400        4.4187998800        1.9292099500
 Fe         2.5302695800       13.2997167500        1.9292099500
 Fe         5.0939698000        8.8592583200        1.9292099500
 Fe         7.6576700200        4.4187998800        1.9292099500
 Fe        -2.5971303400       13.2997167500        1.9292099500
 Fe        -0.0334301200        8.8592583200        1.9292099500
 Fe         2.5302701000        4.4187998800        1.9292099500
 Fe         7.6573893600       10.3392168700        2.7128999200
 Fe        10.2210895800        5.8987584300        2.7128999200
 Fe        12.7847898000        1.4582999900        2.7128999200
 Fe         2.5299894400       10.3392168700        2.7128999200
 Fe         5.0936896600        5.8987584300        2.7128999200
 Fe         7.6573898800        1.4582999900        2.7128999200
 Fe        -2.5974104800       10.3392168700        2.7128999200
 Fe        -0.0337102600        5.8987584300        2.7128999200
 Fe         2.5299899600        1.4582999900        2.7128999200
  O         4.1341622513       13.3072206838        3.5025206758
  O         6.7176270911        8.8714095617        3.5211418424
  O         9.2766579040        4.4214459900        3.5090057914
  O        -0.9954993839       13.3062801878        3.5039808062
  O         1.5708554213        8.8773049824        3.5011467379
  O         4.1361552196        4.4001010277        3.4754728688
  O        -6.1216159480       13.3029493674        3.5016796373
  O        -3.5565077926        8.8673468140        3.5085256574
  O        -0.9804999217        4.4348734568        3.5351886107
  O         6.8673525531       11.9132664003        3.5028926899
  O         9.4316120801        7.4704594337        3.5050688295
  O        11.9949886365        3.0321328556        3.5013652625
  O         1.7320022085       11.9117475544        3.5096245011
  O         4.2963797290        7.4789130709        3.4687751598
  O         6.8705154005        3.0147948969        3.5011207467
  O        -3.3941414829       11.9101144946        3.5018634738
  O        -0.8598176025        7.4492505358        3.5199740877
  O         1.7380163491        3.0120817095        3.5268854410
  O         9.4201362024       10.2456255289        3.4998512161
  O        11.9808133548        5.7966869757        3.5014792400
  O        14.5431344260        1.3643470959        3.5051105370
  O         4.2981803826       10.2660468134        3.4988249242
  O         6.8675943755        5.7982477545        3.4801678564
  O         9.4190692662        1.3615971652        3.5010647025
  O        -0.8583489175       10.2557642570        3.5451759147
  O         1.7243141802        5.7913613862        3.5006305832
  O         4.2896919201        1.3619030590        3.5051523355
 Fe         5.0973617571       11.8175344029        4.4876164149
 Fe         7.6493906918        7.3640269664        4.4900355364
 Fe        10.2234240194        2.9343579452        4.4879843467
 Fe        -0.0325901194       11.8313453485        4.4967286142
 Fe         2.5622993143        7.3672338931        4.4746951554
 Fe         5.1023135255        2.9445078166        4.4866272221
 Fe        -5.1602033668       11.8185443326        4.4877740434
 Fe        -2.6118417482        7.3791664596        4.4907745202
 Fe        -0.0220382030        2.9239313009        4.4950025233
 Fe         7.6610240923       13.2945723717        4.8162650213
 Fe        10.2149582610        8.8605598960        4.8156256930
 Fe        12.7748827119        4.4126010855        4.8201861530
 Fe         2.5376360198       13.3028060576        4.8150295872
 Fe         5.1098219619        8.8425270693        4.8152021044
 Fe         7.6594369005        4.4143436593        4.8020749895
 Fe        -2.5977718255       13.2982725381        4.8155503997
 Fe        -0.0337732542        8.8677403353        4.8278681669
 Fe         2.5656359400        4.4234132271        4.8194197530
  O         5.8628940143       10.3866829194        5.7373915466
  O         8.4261008779        5.9390104624        5.7324106115
  O        10.9960708377        1.5097260706        5.7327487592
  O         0.7337765005       10.3872172974        5.7595462663
  O         3.3721969919        5.9374561501        5.6881510255
  O         5.8647558340        1.5004256199        5.7343120135
  O        -4.3868691533       10.3866399173        5.7320672342
  O        -1.8649060938        5.9491538364        5.7564765876
  O         0.7337144841        1.4970447928        5.7437919849
  O         5.9501993410       13.2043922130        5.7309236816
  O         8.5110745246        8.7566615077        5.7359628230
  O        11.0715010732        4.3186805585        5.7361620110
  O         0.8246445192       13.2062525244        5.7320557500
  O         3.3798840297        8.7858084096        5.6609122354
  O         5.9611961845        4.3017684922        5.7029013113
  O        -4.3084675978       13.2031804365        5.7305355461
  O        -1.7382472883        8.7489374104        5.7715355378
  O         0.8507675273        4.2998323104        5.7485330185
  O         3.4722976346       11.8744582323        5.7407257171
  O         6.0229818397        7.3923145850        5.7054387605
  O         8.6026006809        2.9859508458        5.7345415977
  O        -1.6560103354       11.8773367917        5.7512306656
  O         0.9051951614        7.3921031089        5.6262744189
  O         3.4823487515        2.9871135008        5.7598742364
  O        -6.7837534397       11.8646147148        5.7362323209
  O        -4.2265465492        7.4298094310        5.7400366322
  O        -1.6527467957        2.9884811489        5.7389604198
 Fe         7.6573744776       10.3357120134        5.9772221008
 Fe        10.2188095234        5.8979193556        5.9790473835
 Fe        12.7881955956        1.4593263333        5.9814366514
 Fe         2.5334829470       10.3438904611        5.9720156769
 Fe         5.1512216297        5.8561371921        6.2126813958
 Fe         7.6573134733        1.4627561828        5.9811247741
 Fe        -2.5910332144       10.3413197093        5.9657176832
 Fe        -0.0586253662        5.8639871389        5.7949222339
 Fe         2.5305239843        1.4612233326        5.9732550961
  C         1.5746473820        6.9506589063        8.3191826299
  C         1.1404755882        7.0205624335        9.7696751342
  H         0.8890231524        7.5564358418        7.7071283768
  O         2.8845946155        7.4989062673        8.1124256308
  H         1.5545710111        5.9136356973        7.9389674003
  C         1.8172975215        5.9980457587       10.6868925349
  C         3.3472669033        6.1872534663       10.9896021625
  O         1.5884719244        4.6641624857       10.1791133815
  H         1.2843831056        6.0943440994       11.6494201447
  C         4.2732328604        5.0156992917       10.5786478071
  H         3.4277567940        6.2497179309       12.0844525058
  O         3.8887871581        7.4572092931       10.5130489382
  C         4.4228796733        4.7476902056        9.0611375383
  O         3.9051635712        3.8125968901       11.2485084318
  H         5.2683244715        5.2938994784       10.9721728498
  H         3.4856488257        4.3972038776        8.6084349696
  O         4.9140397110        5.9232404246        8.3170901345
  H         5.1747573452        3.9523718493        8.9282743074
  H         3.1470837721        7.8941175217        8.9794770134
  H         0.6253119995        4.5902328667       10.0247630504
  H         4.7124701175        7.2357935873       10.0252317696
  H         2.9724915536        3.6551031553       10.9818520382
  H         4.0686474289        6.4894317836        8.1687638385
  O        -0.2634906553        6.6953377575        9.8485311018
  H         1.3372024565        8.0413518737       10.1491601232
  H        -0.7454044004        7.2536151169        9.2075599570
     161
 i =        6, E =     -8104.5162606899
 Fe         5.0938794100       11.8196869300        0.3885799900
 Fe         7.6575796300        7.3792284900        0.3885799900
 Fe        10.2212798400        2.9387700600        0.3885799900
 Fe        -0.0335205200       11.8196869300        0.3885799900
 Fe         2.5301797000        7.3792284900        0.3885799900
 Fe         5.0938799200        2.9387700600        0.3885799900
 Fe        -5.1609204400       11.8196869300        0.3885799900
 Fe        -2.5972202200        7.3792284900        0.3885799900
 Fe        -0.0335200000        2.9387700600        0.3885799900
  O         8.4519195100        8.9577468800        1.1642700400
  O        11.0156197300        4.5172884400        1.1642700400
  O        13.5793199500        0.0768300000        1.1642700400
  O         3.3245195900        8.9577468800        1.1642700400
  O         5.8882198100        4.5172884400        1.1642700400
  O         8.4519200300        0.0768300000        1.1642700400
  O        -1.8028803300        8.9577468800        1.1642700400
  O         0.7608198900        4.5172884400        1.1642700400
  O         3.3245201100        0.0768300000        1.1642700400
  O         8.4568493000       11.7183869300        1.1650400200
  O        11.0205495200        7.2779284900        1.1650400200
  O        13.5842497300        2.8374700500        1.1650400200
  O         3.3294493700       11.7183869300        1.1650400200
  O         5.8931495900        7.2779284900        1.1650400200
  O         8.4568498100        2.8374700500        1.1650400200
  O        -1.7979505500       11.7183869300        1.1650400200
  O         0.7657496700        7.2779284900        1.1650400200
  O         3.3294498900        2.8374700500        1.1650400200
  O         6.0627194200       10.3425368500        1.1660399400
  O         8.6264196400        5.9020784100        1.1660399400
  O        11.1901198600        1.4616199700        1.1660399400
  O         0.9353195000       10.3425368500        1.1660399400
  O         3.4990197200        5.9020784100        1.1660399400
  O         6.0627199400        1.4616199700        1.1660399400
  O        -4.1920804200       10.3425368500        1.1660399400
  O        -1.6283802000        5.9020784100        1.1660399400
  O         0.9353200200        1.4616199700        1.1660399400
 Fe         7.6576695000       13.2997167500        1.9292099500
 Fe        10.2213697200        8.8592583200        1.9292099500
 Fe        12.7850699400        4.4187998800        1.9292099500
 Fe         2.5302695800       13.2997167500        1.9292099500
 Fe         5.0939698000        8.8592583200        1.9292099500
 Fe         7.6576700200        4.4187998800        1.9292099500
 Fe        -2.5971303400       13.2997167500        1.9292099500
 Fe        -0.0334301200        8.8592583200        1.9292099500
 Fe         2.5302701000        4.4187998800        1.9292099500
 Fe         7.6573893600       10.3392168700        2.7128999200
 Fe        10.2210895800        5.8987584300        2.7128999200
 Fe        12.7847898000        1.4582999900        2.7128999200
 Fe         2.5299894400       10.3392168700        2.7128999200
 Fe         5.0936896600        5.8987584300        2.7128999200
 Fe         7.6573898800        1.4582999900        2.7128999200
 Fe        -2.5974104800       10.3392168700        2.7128999200
 Fe        -0.0337102600        5.8987584300        2.7128999200
 Fe         2.5299899600        1.4582999900        2.7128999200
  O         4.1341622513       13.3072206838        3.5025206758
  O         6.7176270911        8.8714095617        3.5211418424
  O         9.2766579040        4.4214459900        3.5090057914
  O        -0.9954993839       13.3062801878        3.5039808062
  O         1.5708554213        8.8773049824        3.5011467379
  O         4.1361552196        4.4001010277        3.4754728688
  O        -6.1216159480       13.3029493674        3.5016796373
  O        -3.5565077926        8.8673468140        3.5085256574
  O        -0.9804999217        4.4348734568        3.5351886107
  O         6.8673525531       11.9132664003        3.5028926899
  O         9.4316120801        7.4704594337        3.5050688295
  O        11.9949886365        3.0321328556        3.5013652625
  O         1.7320022085       11.9117475544        3.5096245011
  O         4.2963797290        7.4789130709        3.4687751598
  O         6.8705154005        3.0147948969        3.5011207467
  O        -3.3941414829       11.9101144946        3.5018634738
  O        -0.8598176025        7.4492505358        3.5199740877
  O         1.7380163491        3.0120817095        3.5268854410
  O         9.4201362024       10.2456255289        3.4998512161
  O        11.9808133548        5.7966869757        3.5014792400
  O        14.5431344260        1.3643470959        3.5051105370
  O         4.2981803826       10.2660468134        3.4988249242
  O         6.8675943755        5.7982477545        3.4801678564
  O         9.4190692662        1.3615971652        3.5010647025
  O        -0.8583489175       10.2557642570        3.5451759147
  O         1.7243141802        5.7913613862        3.5006305832
  O         4.2896919201        1.3619030590        3.5051523355
 Fe         5.0973617571       11.8175344029        4.4876164149
 Fe         7.6493906918        7.3640269664        4.4900355364
 Fe        10.2234240194        2.9343579452        4.4879843467
 Fe        -0.0325901194       11.8313453485        4.4967286142
 Fe         2.5622993143        7.3672338931        4.4746951554
 Fe         5.1023135255        2.9445078166        4.4866272221
 Fe        -5.1602033668       11.8185443326        4.4877740434
 Fe        -2.6118417482        7.3791664596        4.4907745202
 Fe        -0.0220382030        2.9239313009        4.4950025233
 Fe         7.6610240923       13.2945723717        4.8162650213
 Fe        10.2149582610        8.8605598960        4.8156256930
 Fe        12.7748827119        4.4126010855        4.8201861530
 Fe         2.5376360198       13.3028060576        4.8150295872
 Fe         5.1098219619        8.8425270693        4.8152021044
 Fe         7.6594369005        4.4143436593        4.8020749895
 Fe        -2.5977718255       13.2982725381        4.8155503997
 Fe        -0.0337732542        8.8677403353        4.8278681669
 Fe         2.5656359400        4.4234132271        4.8194197530
  O         5.8628940143       10.3866829194        5.7373915466
  O         8.4261008779        5.9390104624        5.7324106115
  O        10.9960708377        1.5097260706        5.7327487592
  O         0.7337765005       10.3872172974        5.7595462663
  O         3.3721969919        5.9374561501        5.6881510255
  O         5.8647558340        1.5004256199        5.7343120135
  O        -4.3868691533       10.3866399173        5.7320672342
  O        -1.8649060938        5.9491538364        5.7564765876
  O         0.7337144841        1.4970447928        5.7437919849
  O         5.9501993410       13.2043922130        5.7309236816
  O         8.5110745246        8.7566615077        5.7359628230
  O        11.0715010732        4.3186805585        5.7361620110
  O         0.8246445192       13.2062525244        5.7320557500
  O         3.3798840297        8.7858084096        5.6609122354
  O         5.9611961845        4.3017684922        5.7029013113
  O        -4.3084675978       13.2031804365        5.7305355461
  O        -1.7382472883        8.7489374104        5.7715355378
  O         0.8507675273        4.2998323104        5.7485330185
  O         3.4722976346       11.8744582323        5.7407257171
  O         6.0229818397        7.3923145850        5.7054387605
  O         8.6026006809        2.9859508458        5.7345415977
  O        -1.6560103354       11.8773367917        5.7512306656
  O         0.9051951614        7.3921031089        5.6262744189
  O         3.4823487515        2.9871135008        5.7598742364
  O        -6.7837534397       11.8646147148        5.7362323209
  O        -4.2265465492        7.4298094310        5.7400366322
  O        -1.6527467957        2.9884811489        5.7389604198
 Fe         7.6573744776       10.3357120134        5.9772221008
 Fe        10.2188095234        5.8979193556        5.9790473835
 Fe        12.7881955956        1.4593263333        5.9814366514
 Fe         2.5334829470       10.3438904611        5.9720156769
 Fe         5.1512216297        5.8561371921        6.2126813958
 Fe         7.6573134733        1.4627561828        5.9811247741
 Fe        -2.5910332144       10.3413197093        5.9657176832
 Fe        -0.0586253662        5.8639871389        5.7949222339
 Fe         2.5305239843        1.4612233326        5.9732550961
  C         1.5746473820        6.9506589063        8.3191826299
  C         1.1404755882        7.0205624335        9.7696751342
  H         0.8890231524        7.5564358418        7.7071283768
  O         2.8845946155        7.4989062673        8.1124256308
  H         1.5545710111        5.9136356973        7.9389674003
  C         1.8172975215        5.9980457587       10.6868925349
  C         3.3472669033        6.1872534663       10.9896021625
  O         1.5884719244        4.6641624857       10.1791133815
  H         1.2843831056        6.0943440994       11.6494201447
  C         4.2732328604        5.0156992917       10.5786478071
  H         3.4277567940        6.2497179309       12.0844525058
  O         3.8887871581        7.4572092931       10.5130489382
  C         4.4228796733        4.7476902056        9.0611375383
  O         3.9051635712        3.8125968901       11.2485084318
  H         5.2683244715        5.2938994784       10.9721728498
  H         3.4856488257        4.3972038776        8.6084349696
  O         4.9140397110        5.9232404246        8.3170901345
  H         5.1747573452        3.9523718493        8.9282743074
  H         3.1470837721        7.8941175217        8.9794770134
  H         0.6253119995        4.5902328667       10.0247630504
  H         4.7124701175        7.2357935873       10.0252317696
  H         2.9724915536        3.6551031553       10.9818520382
  H         4.0686474289        6.4894317836        8.1687638385
  O        -0.2634906553        6.6953377575        9.8485311018
  H         1.3372024565        8.0413518737       10.1491601232
  H        -0.7454044004        7.2536151169        9.2075599570
