     161
 i =        1, E =     -8104.4819183427
 Fe         5.0938794100       11.8196869300        0.3885799900
 Fe         7.6575796300        7.3792284900        0.3885799900
 Fe        10.2212798400        2.9387700600        0.3885799900
 Fe        -0.0335205200       11.8196869300        0.3885799900
 Fe         2.5301797000        7.3792284900        0.3885799900
 Fe         5.0938799200        2.9387700600        0.3885799900
 Fe        -5.1609204400       11.8196869300        0.3885799900
 Fe        -2.5972202200        7.3792284900        0.3885799900
 Fe        -0.0335200000        2.9387700600        0.3885799900
  O         8.4519195100        8.9577468800        1.1642700400
  O        11.0156197300        4.5172884400        1.1642700400
  O        13.5793199500        0.0768300000        1.1642700400
  O         3.3245195900        8.9577468800        1.1642700400
  O         5.8882198100        4.5172884400        1.1642700400
  O         8.4519200300        0.0768300000        1.1642700400
  O        -1.8028803300        8.9577468800        1.1642700400
  O         0.7608198900        4.5172884400        1.1642700400
  O         3.3245201100        0.0768300000        1.1642700400
  O         8.4568493000       11.7183869300        1.1650400200
  O        11.0205495200        7.2779284900        1.1650400200
  O        13.5842497300        2.8374700500        1.1650400200
  O         3.3294493700       11.7183869300        1.1650400200
  O         5.8931495900        7.2779284900        1.1650400200
  O         8.4568498100        2.8374700500        1.1650400200
  O        -1.7979505500       11.7183869300        1.1650400200
  O         0.7657496700        7.2779284900        1.1650400200
  O         3.3294498900        2.8374700500        1.1650400200
  O         6.0627194200       10.3425368500        1.1660399400
  O         8.6264196400        5.9020784100        1.1660399400
  O        11.1901198600        1.4616199700        1.1660399400
  O         0.9353195000       10.3425368500        1.1660399400
  O         3.4990197200        5.9020784100        1.1660399400
  O         6.0627199400        1.4616199700        1.1660399400
  O        -4.1920804200       10.3425368500        1.1660399400
  O        -1.6283802000        5.9020784100        1.1660399400
  O         0.9353200200        1.4616199700        1.1660399400
 Fe         7.6576695000       13.2997167500        1.9292099500
 Fe        10.2213697200        8.8592583200        1.9292099500
 Fe        12.7850699400        4.4187998800        1.9292099500
 Fe         2.5302695800       13.2997167500        1.9292099500
 Fe         5.0939698000        8.8592583200        1.9292099500
 Fe         7.6576700200        4.4187998800        1.9292099500
 Fe        -2.5971303400       13.2997167500        1.9292099500
 Fe        -0.0334301200        8.8592583200        1.9292099500
 Fe         2.5302701000        4.4187998800        1.9292099500
 Fe         7.6573893600       10.3392168700        2.7128999200
 Fe        10.2210895800        5.8987584300        2.7128999200
 Fe        12.7847898000        1.4582999900        2.7128999200
 Fe         2.5299894400       10.3392168700        2.7128999200
 Fe         5.0936896600        5.8987584300        2.7128999200
 Fe         7.6573898800        1.4582999900        2.7128999200
 Fe        -2.5974104800       10.3392168700        2.7128999200
 Fe        -0.0337102600        5.8987584300        2.7128999200
 Fe         2.5299899600        1.4582999900        2.7128999200
  O         4.1315472707       13.3033584472        3.4992645822
  O         6.6967705454        8.8646532393        3.5011767074
  O         9.2658777923        4.4217716434        3.4965943293
  O        -0.9943392372       13.3054054905        3.5059771728
  O         1.5666359991        8.8679609526        3.4969462278
  O         4.1367471678        4.4243120499        3.4928526166
  O        -6.1353819746       13.2831606212        3.4627931684
  O        -3.5587033529        8.8619808963        3.4995324142
  O        -0.9919416812        4.4222003907        3.5054343903
  O         6.8623439149       11.9110841090        3.5088002198
  O         9.4234881459        7.4684996325        3.5015037600
  O        11.9877282295        3.0299925240        3.4994804402
  O         1.7334239557       11.9105744068        3.5011496356
  O         4.2979134011        7.4738203555        3.4963516594
  O         6.8832888619        3.0356257992        3.4930051718
  O        -3.3903752134       11.9082283948        3.4964857999
  O        -0.8313840942        7.4694424193        3.5028779777
  O         1.7268448089        3.0495251228        3.4706678174
  O         9.4155498709       10.2494932712        3.5079979345
  O        11.9787942267        5.8057234057        3.5021933148
  O        14.5386738695        1.3600393199        3.4989843051
  O         4.2883945430       10.2434486275        3.5024888518
  O         6.8551279255        5.8033431328        3.4990772190
  O         9.4154817326        1.3646405731        3.5031746957
  O        -0.8380285805       10.2447201160        3.5013897117
  O         1.7203100794        5.8074978571        3.5031635201
  O         4.3097219836        1.3585373842        3.4656890248
 Fe         5.0932613874       11.8195326641        4.4861061616
 Fe         7.6556965497        7.3792457233        4.4855287483
 Fe        10.2252855310        2.9378763011        4.4847403498
 Fe        -0.0331114206       11.8190991052        4.4867487512
 Fe         2.5267939790        7.3882324461        4.4744868457
 Fe         5.1138708156        2.9256111635        4.4366222931
 Fe        -5.1566665981       11.8343909632        4.4883158284
 Fe        -2.5968744470        7.3796002883        4.4873221813
 Fe        -0.0221954694        2.9270623308        4.4874497373
 Fe         7.6679957649       13.3113827533        4.8264155131
 Fe        10.2222607257        8.8586524360        4.8204634221
 Fe        12.7871339969        4.4176781032        4.8199841814
 Fe         2.5316990384       13.3004676854        4.8227418054
 Fe         5.0969320658        8.8546147543        4.8246027820
 Fe         7.6696640045        4.4188149398        4.8169077526
 Fe        -2.6056577699       13.3032660014        4.8242612705
 Fe        -0.0313729268        8.8589173511        4.8208030607
 Fe         2.5352127707        4.4173698056        4.8133980704
  O         5.8636771115       10.3887635999        5.7254256683
  O         8.4277345969        5.9496628569        5.7234472242
  O        10.9958747523        1.5083071179        5.7257151917
  O         0.7378089018       10.3879094454        5.7274466256
  O         3.2985857626        5.9759128698        5.6699672489
  O         5.8687253090        1.5151308382        5.7210130416
  O        -4.3906342570       10.3836838166        5.7249618182
  O        -1.8268501165        5.9473494015        5.7284400645
  O         0.6988599678        1.5149106238        5.7307011146
  O         5.9444324700       13.1999020815        5.7235275051
  O         8.5141109568        8.7616608690        5.7282743569
  O        11.0773358502        4.3233820059        5.7265525432
  O         0.8212041493       13.2035956958        5.7278007309
  O         3.3841933918        8.7639868470        5.7245519001
  O         5.9292896824        4.3560521494        5.6488225066
  O        -4.2852233403       13.1564926276        5.7282105045
  O        -1.7414583644        8.7646655315        5.7273002263
  O         0.8251306069        4.3190612870        5.7335210751
  O         3.4687619926       11.8667458001        5.7297063159
  O         6.0335053211        7.4177393172        5.7219819756
  O         8.6018841776        2.9808964191        5.7174735371
  O        -1.6538941791       11.8655561363        5.7276180833
  O         0.9057652339        7.4279678690        5.7322485891
  O         3.4949766931        2.9371306602        5.5939853945
  O        -6.7886922559       11.8639305093        5.7235681874
  O        -4.2234769393        7.4242355516        5.7295029914
  O        -1.6603748815        2.9888803058        5.7277926459
 Fe         7.6557313129       10.3375296231        5.9816566626
 Fe        10.2183893180        5.8972860063        5.9793756097
 Fe        12.7898579963        1.4581637230        5.9824282970
 Fe         2.5305728081       10.3390882249        5.9781848919
 Fe         5.0668956430        5.9150510650        6.0511487036
 Fe         7.6605217732        1.4603184622        5.9884791120
 Fe        -2.5987508683       10.3425038199        5.9790123278
 Fe        -0.0324822765        5.8983134086        5.9730459063
 Fe         2.5158363520        1.4180013605        5.9945932334
  C         5.7882431404        3.5541823304        8.3410601120
  C         4.8827514130        4.5813830046        9.0095838740
  H         5.6563859702        2.5500476669        8.7655663538
  O         7.1582783596        4.0125110448        8.4054200775
  H         5.5686013556        3.5155102872        7.2627995502
  C         3.3866358620        4.2728157960        8.9349150726
  C         2.8845952054        3.0172701027        9.6737435071
  O         3.0633551168        4.0843593347        7.5642475658
  H         2.8154019433        5.1864969908        9.2015979598
  C         3.0281273581        3.1016006105       11.2021470471
  H         3.4385890488        2.1386527036        9.3062155073
  O         1.5095743584        2.8106927802        9.2991576326
  C         2.5570951580        4.4269129412       11.8094825189
  O         4.4080775034        2.8643712053       11.5402479277
  H         2.3817548491        2.2853129247       11.5685118570
  H         2.6570855011        4.3647333449       12.9090994767
  O         1.1767805163        4.6244844228       11.4386699552
  H         3.1976526076        5.2487572834       11.4491206104
  H         7.4480339578        3.9082253797        9.3294299625
  H         2.1894837999        3.6344047452        7.4629996283
  H         0.9899193997        3.4830647114        9.7894733771
  H         4.4298256176        2.5839862946       12.4709303608
  H         0.9232231934        5.5377568176       11.6541074783
  O         5.1075359990        5.8756449553        8.3956924046
  H         5.1147554730        4.6032462165       10.0905812747
  H         6.0889009987        5.9545356950        8.3088849840
     161
 i =        2, E =     -8104.4880065603
 Fe         5.0938794100       11.8196869300        0.3885799900
 Fe         7.6575796300        7.3792284900        0.3885799900
 Fe        10.2212798400        2.9387700600        0.3885799900
 Fe        -0.0335205200       11.8196869300        0.3885799900
 Fe         2.5301797000        7.3792284900        0.3885799900
 Fe         5.0938799200        2.9387700600        0.3885799900
 Fe        -5.1609204400       11.8196869300        0.3885799900
 Fe        -2.5972202200        7.3792284900        0.3885799900
 Fe        -0.0335200000        2.9387700600        0.3885799900
  O         8.4519195100        8.9577468800        1.1642700400
  O        11.0156197300        4.5172884400        1.1642700400
  O        13.5793199500        0.0768300000        1.1642700400
  O         3.3245195900        8.9577468800        1.1642700400
  O         5.8882198100        4.5172884400        1.1642700400
  O         8.4519200300        0.0768300000        1.1642700400
  O        -1.8028803300        8.9577468800        1.1642700400
  O         0.7608198900        4.5172884400        1.1642700400
  O         3.3245201100        0.0768300000        1.1642700400
  O         8.4568493000       11.7183869300        1.1650400200
  O        11.0205495200        7.2779284900        1.1650400200
  O        13.5842497300        2.8374700500        1.1650400200
  O         3.3294493700       11.7183869300        1.1650400200
  O         5.8931495900        7.2779284900        1.1650400200
  O         8.4568498100        2.8374700500        1.1650400200
  O        -1.7979505500       11.7183869300        1.1650400200
  O         0.7657496700        7.2779284900        1.1650400200
  O         3.3294498900        2.8374700500        1.1650400200
  O         6.0627194200       10.3425368500        1.1660399400
  O         8.6264196400        5.9020784100        1.1660399400
  O        11.1901198600        1.4616199700        1.1660399400
  O         0.9353195000       10.3425368500        1.1660399400
  O         3.4990197200        5.9020784100        1.1660399400
  O         6.0627199400        1.4616199700        1.1660399400
  O        -4.1920804200       10.3425368500        1.1660399400
  O        -1.6283802000        5.9020784100        1.1660399400
  O         0.9353200200        1.4616199700        1.1660399400
 Fe         7.6576695000       13.2997167500        1.9292099500
 Fe        10.2213697200        8.8592583200        1.9292099500
 Fe        12.7850699400        4.4187998800        1.9292099500
 Fe         2.5302695800       13.2997167500        1.9292099500
 Fe         5.0939698000        8.8592583200        1.9292099500
 Fe         7.6576700200        4.4187998800        1.9292099500
 Fe        -2.5971303400       13.2997167500        1.9292099500
 Fe        -0.0334301200        8.8592583200        1.9292099500
 Fe         2.5302701000        4.4187998800        1.9292099500
 Fe         7.6573893600       10.3392168700        2.7128999200
 Fe        10.2210895800        5.8987584300        2.7128999200
 Fe        12.7847898000        1.4582999900        2.7128999200
 Fe         2.5299894400       10.3392168700        2.7128999200
 Fe         5.0936896600        5.8987584300        2.7128999200
 Fe         7.6573898800        1.4582999900        2.7128999200
 Fe        -2.5974104800       10.3392168700        2.7128999200
 Fe        -0.0337102600        5.8987584300        2.7128999200
 Fe         2.5299899600        1.4582999900        2.7128999200
  O         4.1321939567       13.3005691472        3.4980129334
  O         6.6998780821        8.8650439557        3.5027348012
  O         9.2806244702        4.4239655922        3.5115877511
  O        -0.9637112017       13.3146804517        3.5494247739
  O         1.5664494292        8.8673479492        3.4951750551
  O         4.1599585245        4.4316700200        3.5031691717
  O        -6.1127480569       13.2978906626        3.5091898614
  O        -3.5576085525        8.8589142624        3.4985037758
  O        -0.9921116149        4.4233664914        3.5050366712
  O         6.8563045463       11.8900922726        3.5382375909
  O         9.4203407393        7.4690563241        3.5015380501
  O        11.9866856174        3.0315643062        3.4970989953
  O         1.7323503234       11.9110630064        3.5016131049
  O         4.2956685080        7.4854586124        3.4798494014
  O         6.8928889493        3.0271646365        3.4955697582
  O        -3.3935015787       11.8803305805        3.5394660607
  O        -0.8332627491        7.4688590482        3.5055132184
  O         1.7144753308        3.0183681481        3.5117658760
  O         9.4172077423       10.2455435775        3.5023310141
  O        11.9813763055        5.8075431029        3.5008971298
  O        14.5238470062        1.3733947016        3.5295105818
  O         4.2903027477       10.2462713058        3.5034805265
  O         6.8622815210        5.8144946787        3.4898263306
  O         9.4190737876        1.3646330234        3.5006374619
  O        -0.8365770446       10.2470873886        3.5007681819
  O         1.6885379190        5.8298044294        3.5491172021
  O         4.2953199851        1.3602944974        3.4920182269
 Fe         5.0871209820       11.8188215790        4.4996612199
 Fe         7.6501744655        7.3785945877        4.4951635605
 Fe        10.2302321279        2.9331224418        4.4927577574
 Fe        -0.0267651420       11.8111672718        4.5017453753
 Fe         2.5329367687        7.4044713961        4.4819075497
 Fe         5.1324243952        2.9270297286        4.4061882704
 Fe        -5.1641573207       11.8181065706        4.5025975963
 Fe        -2.5976873394        7.3792250370        4.4947098479
 Fe        -0.0318275920        2.9352111137        4.5051619671
 Fe         7.6634435451       13.3097931664        4.8369456813
 Fe        10.2207246331        8.8587207553        4.8156683076
 Fe        12.7888012465        4.4189390567        4.8149989977
 Fe         2.5318203518       13.3015427946        4.8198018958
 Fe         5.1000098421        8.8478222346        4.8241614940
 Fe         7.6693585210        4.4252598787        4.8106596176
 Fe        -2.6001626232       13.3048766975        4.8382946565
 Fe        -0.0316052734        8.8598701792        4.8170862633
 Fe         2.5477863200        4.4245317962        4.8061038376
  O         5.8637938581       10.3844872103        5.7310934977
  O         8.4278109658        5.9485790315        5.7281397735
  O        10.9981013548        1.5038043565        5.7305112017
  O         0.7384411548       10.3815114950        5.7350514060
  O         3.2978090614        5.9997225724        5.6175030192
  O         5.8717891967        1.5243488141        5.7229441028
  O        -4.3890022517       10.3728928610        5.7345454516
  O        -1.8239406302        5.9448343603        5.7350535944
  O         0.6942107239        1.5162590458        5.7243382506
  O         5.9410534883       13.2004425797        5.7286106325
  O         8.5162832314        8.7626305931        5.7339389496
  O        11.0817635442        4.3253663408        5.7293387843
  O         0.8240847533       13.2064671813        5.7338698774
  O         3.3896179554        8.7730656941        5.7303772058
  O         5.9097190412        4.3907960483        5.5889103156
  O        -4.2808455736       13.1357522719        5.7228077781
  O        -1.7396950593        8.7659455596        5.7311419439
  O         0.8419055266        4.3128568774        5.7478779819
  O         3.4631860585       11.8705441949        5.7363614959
  O         6.0256053407        7.4056684031        5.7220703643
  O         8.6006288252        2.9813728821        5.7061579449
  O        -1.6514810437       11.8644216905        5.7360485428
  O         0.8991253690        7.4309335911        5.7388829723
  O         3.4940196100        2.8705999975        5.4587899005
  O        -6.7904057214       11.8689032889        5.7343213434
  O        -4.2273162708        7.4259994709        5.7343451847
  O        -1.6700275290        2.9930789790        5.7362756471
 Fe         7.6562792575       10.3384556580        5.9812695718
 Fe        10.2173855134        5.8963132920        5.9856690150
 Fe        12.7904409503        1.4579674617        5.9902241989
 Fe         2.5303974238       10.3411198791        5.9862168750
 Fe         5.0364931378        5.9263932008        6.1603799215
 Fe         7.6642787837        1.4636449286        5.9955599138
 Fe        -2.5980433876       10.3427179764        5.9839900808
 Fe        -0.0279708702        5.8934470291        5.9725793671
 Fe         2.5099388628        1.3878590707        5.9900843705
  C         5.7721618831        3.5376039003        8.3635184340
  C         4.8674531977        4.5619392771        9.0307561745
  H         5.6593794772        2.5369067681        8.7950602234
  O         7.1410095201        4.0037601415        8.4277945649
  H         5.5697780083        3.4882336697        7.2812267350
  C         3.3630156242        4.3064155430        8.9424975127
  C         2.8904022860        3.0503554111        9.6882616711
  O         3.0595150372        4.0968135522        7.5914011324
  H         2.8168237898        5.2016800443        9.2861526478
  C         3.0152751582        3.0801118114       11.2136132145
  H         3.4288174397        2.1584298810        9.3176593049
  O         1.5251872387        2.7945489331        9.3220589603
  C         2.5601679244        4.4172858810       11.8104124657
  O         4.3999766741        2.8695395460       11.5484368238
  H         2.3752555070        2.2705595884       11.5979170415
  H         2.6574270222        4.3681707916       12.9107214662
  O         1.1806215121        4.6255084154       11.4459379502
  H         3.1928423479        5.2460424948       11.4497296287
  H         7.4658753009        3.9054906283        9.3403911511
  H         2.1672458189        3.6902521262        7.4956042480
  H         0.9888746784        3.4797057350        9.7781017545
  H         4.4378831614        2.5804488400       12.4751783933
  H         0.9221604049        5.5402544643       11.6502838963
  O         5.1210417683        5.8329375303        8.3273215622
  H         5.1430839787        4.6600048628       10.1003860611
  H         6.1247337976        5.9564221371        8.3601753745
     161
 i =        3, E =     -8104.4984024315
 Fe         5.0938794100       11.8196869300        0.3885799900
 Fe         7.6575796300        7.3792284900        0.3885799900
 Fe        10.2212798400        2.9387700600        0.3885799900
 Fe        -0.0335205200       11.8196869300        0.3885799900
 Fe         2.5301797000        7.3792284900        0.3885799900
 Fe         5.0938799200        2.9387700600        0.3885799900
 Fe        -5.1609204400       11.8196869300        0.3885799900
 Fe        -2.5972202200        7.3792284900        0.3885799900
 Fe        -0.0335200000        2.9387700600        0.3885799900
  O         8.4519195100        8.9577468800        1.1642700400
  O        11.0156197300        4.5172884400        1.1642700400
  O        13.5793199500        0.0768300000        1.1642700400
  O         3.3245195900        8.9577468800        1.1642700400
  O         5.8882198100        4.5172884400        1.1642700400
  O         8.4519200300        0.0768300000        1.1642700400
  O        -1.8028803300        8.9577468800        1.1642700400
  O         0.7608198900        4.5172884400        1.1642700400
  O         3.3245201100        0.0768300000        1.1642700400
  O         8.4568493000       11.7183869300        1.1650400200
  O        11.0205495200        7.2779284900        1.1650400200
  O        13.5842497300        2.8374700500        1.1650400200
  O         3.3294493700       11.7183869300        1.1650400200
  O         5.8931495900        7.2779284900        1.1650400200
  O         8.4568498100        2.8374700500        1.1650400200
  O        -1.7979505500       11.7183869300        1.1650400200
  O         0.7657496700        7.2779284900        1.1650400200
  O         3.3294498900        2.8374700500        1.1650400200
  O         6.0627194200       10.3425368500        1.1660399400
  O         8.6264196400        5.9020784100        1.1660399400
  O        11.1901198600        1.4616199700        1.1660399400
  O         0.9353195000       10.3425368500        1.1660399400
  O         3.4990197200        5.9020784100        1.1660399400
  O         6.0627199400        1.4616199700        1.1660399400
  O        -4.1920804200       10.3425368500        1.1660399400
  O        -1.6283802000        5.9020784100        1.1660399400
  O         0.9353200200        1.4616199700        1.1660399400
 Fe         7.6576695000       13.2997167500        1.9292099500
 Fe        10.2213697200        8.8592583200        1.9292099500
 Fe        12.7850699400        4.4187998800        1.9292099500
 Fe         2.5302695800       13.2997167500        1.9292099500
 Fe         5.0939698000        8.8592583200        1.9292099500
 Fe         7.6576700200        4.4187998800        1.9292099500
 Fe        -2.5971303400       13.2997167500        1.9292099500
 Fe        -0.0334301200        8.8592583200        1.9292099500
 Fe         2.5302701000        4.4187998800        1.9292099500
 Fe         7.6573893600       10.3392168700        2.7128999200
 Fe        10.2210895800        5.8987584300        2.7128999200
 Fe        12.7847898000        1.4582999900        2.7128999200
 Fe         2.5299894400       10.3392168700        2.7128999200
 Fe         5.0936896600        5.8987584300        2.7128999200
 Fe         7.6573898800        1.4582999900        2.7128999200
 Fe        -2.5974104800       10.3392168700        2.7128999200
 Fe        -0.0337102600        5.8987584300        2.7128999200
 Fe         2.5299899600        1.4582999900        2.7128999200
  O         4.1318309807       13.3008507458        3.4976237006
  O         6.7028709928        8.8668413242        3.5068710430
  O         9.2768932488        4.4276119600        3.5132554516
  O        -0.9709428165       13.3116026139        3.5358304781
  O         1.5653399787        8.8668321566        3.4969793487
  O         4.1411716934        4.4229321269        3.4599902755
  O        -6.1132180725       13.3075018734        3.5250532744
  O        -3.5591856414        8.8584870325        3.4965551317
  O        -0.9942017244        4.4256763000        3.5052800803
  O         6.8585481909       11.8962614453        3.5257178896
  O         9.4206718632        7.4697549896        3.5009719492
  O        11.9887828248        3.0327049940        3.4962684545
  O         1.7349182407       11.9107045966        3.5022514765
  O         4.2937251580        7.4927702467        3.4706609456
  O         6.8774593145        3.0272471404        3.4904125538
  O        -3.3894232838       11.8889083828        3.5312030405
  O        -0.8337729377        7.4709704036        3.5022889365
  O         1.7052476507        3.0240732663        3.4930029781
  O         9.4172894904       10.2398254162        3.4987429778
  O        11.9837527465        5.8064482380        3.4980191268
  O        14.5299582363        1.3694916607        3.5234414282
  O         4.2862759910       10.2478081534        3.5084983249
  O         6.8761730973        5.8154547648        3.4642780686
  O         9.4234489113        1.3626996414        3.4952019297
  O        -0.8362332390       10.2464700823        3.5006209454
  O         1.6914122955        5.8220422377        3.5343506969
  O         4.3119637374        1.3418362675        3.4700398903
 Fe         5.0928618205       11.8178804096        4.4937994298
 Fe         7.6442366920        7.3709901714        4.4911694735
 Fe        10.2285859116        2.9342849140        4.4875846603
 Fe        -0.0283334568       11.8168344606        4.4949815000
 Fe         2.5328908409        7.3962459358        4.4803572200
 Fe         5.1105224673        2.9373014010        4.4059284866
 Fe        -5.1604999957       11.8092224595        4.4921107767
 Fe        -2.5976220102        7.3787230907        4.4902276483
 Fe        -0.0306935005        2.9376663729        4.4966818386
 Fe         7.6555360365       13.3023164190        4.8420019017
 Fe        10.2190375052        8.8561013426        4.8146840468
 Fe        12.7886919389        4.4201720734        4.8143127906
 Fe         2.5316078089       13.3017122512        4.8182303669
 Fe         5.1000942951        8.8449289133        4.8243755306
 Fe         7.6584983419        4.4331547534        4.8096790560
 Fe        -2.5910707432       13.3037131580        4.8458540818
 Fe        -0.0335490510        8.8593961180        4.8172166031
 Fe         2.5557509913        4.4245215113        4.7940630793
  O         5.8610756692       10.3835723578        5.7388799020
  O         8.4287251505        5.9514346926        5.7377742886
  O        10.9957166291        1.5056740038        5.7320608857
  O         0.7370314692       10.3854746817        5.7348241302
  O         3.2979272816        5.9959053938        5.6216523965
  O         5.8695168423        1.5327739221        5.7306804371
  O        -4.3934795055       10.3710036265        5.7410716081
  O        -1.8211019083        5.9462847461        5.7374652105
  O         0.7041327735        1.5137696040        5.7323805122
  O         5.9370267732       13.1980828536        5.7385483364
  O         8.5114944190        8.7592766312        5.7346693969
  O        11.0827968079        4.3201884294        5.7331516722
  O         0.8274216798       13.2022294671        5.7422613185
  O         3.3877963519        8.7708610975        5.7332140055
  O         5.9057058348        4.3856073775        5.6019755309
  O        -4.2867232230       13.1411396967        5.7333768775
  O        -1.7423434312        8.7628915363        5.7336334217
  O         0.8524055638        4.3043468701        5.7593141795
  O         3.4680802276       11.8721081542        5.7376711793
  O         6.0228754726        7.4044941863        5.7292463010
  O         8.5985314589        2.9861863934        5.7049025179
  O        -1.6447996919       11.8631904717        5.7498174266
  O         0.8985996891        7.4355106114        5.7474943953
  O         3.4766515390        2.8669447026        5.4789684707
  O        -6.7803251645       11.8711094657        5.7437987002
  O        -4.2233806652        7.4266037390        5.7366698027
  O        -1.6646057851        2.9950289486        5.7393481212
 Fe         7.6566532843       10.3401275915        5.9713047298
 Fe        10.2220734710        5.8946373663        5.9772757619
 Fe        12.7893038030        1.4606996294        5.9804627127
 Fe         2.5312622103       10.3428652609        5.9812396986
 Fe         5.0338359664        5.9217829095        6.1521755400
 Fe         7.6663773080        1.4627130101        5.9792255297
 Fe        -2.5994796727       10.3414737957        5.9747725120
 Fe        -0.0223703022        5.8912925975        5.9618168334
 Fe         2.5132683438        1.3913974145        5.9550937369
  C         5.7714603916        3.5253606659        8.3736423386
  C         4.8636606473        4.5619953475        9.0190434254
  H         5.6607706718        2.5267408630        8.8128554575
  O         7.1366323209        4.0029095036        8.4402939579
  H         5.5585482573        3.4737181104        7.2952194266
  C         3.3618976615        4.2926694091        8.9343464980
  C         2.8802025385        3.0511551519        9.6999582342
  O         3.0653158561        4.0987046758        7.5854134945
  H         2.8340814743        5.1889205554        9.3172929476
  C         3.0152972006        3.0924059922       11.2216213222
  H         3.4404990158        2.1763955699        9.3215231881
  O         1.5189835674        2.7920407903        9.3245245014
  C         2.5483555386        4.4211791213       11.8248703906
  O         4.3971801050        2.8645979408       11.5546056705
  H         2.3833649189        2.2731131927       11.6043357696
  H         2.6603564644        4.3702667375       12.9220962343
  O         1.1730061566        4.6227867157       11.4428104114
  H         3.1939492804        5.2343451352       11.4497460088
  H         7.4688369838        3.8974128061        9.3492730607
  H         2.1566836671        3.7305096738        7.5100671466
  H         0.9828993980        3.4787276233        9.7766860801
  H         4.4443594691        2.5775258250       12.4814765052
  H         0.9262845223        5.5401475557       11.6498754567
  O         5.1363780086        5.8480075672        8.3485977660
  H         5.1497752826        4.6900014438       10.0844039513
  H         6.1259543556        5.9397735418        8.3638702311
     161
 i =        4, E =     -8104.4984607298
 Fe         5.0938794100       11.8196869300        0.3885799900
 Fe         7.6575796300        7.3792284900        0.3885799900
 Fe        10.2212798400        2.9387700600        0.3885799900
 Fe        -0.0335205200       11.8196869300        0.3885799900
 Fe         2.5301797000        7.3792284900        0.3885799900
 Fe         5.0938799200        2.9387700600        0.3885799900
 Fe        -5.1609204400       11.8196869300        0.3885799900
 Fe        -2.5972202200        7.3792284900        0.3885799900
 Fe        -0.0335200000        2.9387700600        0.3885799900
  O         8.4519195100        8.9577468800        1.1642700400
  O        11.0156197300        4.5172884400        1.1642700400
  O        13.5793199500        0.0768300000        1.1642700400
  O         3.3245195900        8.9577468800        1.1642700400
  O         5.8882198100        4.5172884400        1.1642700400
  O         8.4519200300        0.0768300000        1.1642700400
  O        -1.8028803300        8.9577468800        1.1642700400
  O         0.7608198900        4.5172884400        1.1642700400
  O         3.3245201100        0.0768300000        1.1642700400
  O         8.4568493000       11.7183869300        1.1650400200
  O        11.0205495200        7.2779284900        1.1650400200
  O        13.5842497300        2.8374700500        1.1650400200
  O         3.3294493700       11.7183869300        1.1650400200
  O         5.8931495900        7.2779284900        1.1650400200
  O         8.4568498100        2.8374700500        1.1650400200
  O        -1.7979505500       11.7183869300        1.1650400200
  O         0.7657496700        7.2779284900        1.1650400200
  O         3.3294498900        2.8374700500        1.1650400200
  O         6.0627194200       10.3425368500        1.1660399400
  O         8.6264196400        5.9020784100        1.1660399400
  O        11.1901198600        1.4616199700        1.1660399400
  O         0.9353195000       10.3425368500        1.1660399400
  O         3.4990197200        5.9020784100        1.1660399400
  O         6.0627199400        1.4616199700        1.1660399400
  O        -4.1920804200       10.3425368500        1.1660399400
  O        -1.6283802000        5.9020784100        1.1660399400
  O         0.9353200200        1.4616199700        1.1660399400
 Fe         7.6576695000       13.2997167500        1.9292099500
 Fe        10.2213697200        8.8592583200        1.9292099500
 Fe        12.7850699400        4.4187998800        1.9292099500
 Fe         2.5302695800       13.2997167500        1.9292099500
 Fe         5.0939698000        8.8592583200        1.9292099500
 Fe         7.6576700200        4.4187998800        1.9292099500
 Fe        -2.5971303400       13.2997167500        1.9292099500
 Fe        -0.0334301200        8.8592583200        1.9292099500
 Fe         2.5302701000        4.4187998800        1.9292099500
 Fe         7.6573893600       10.3392168700        2.7128999200
 Fe        10.2210895800        5.8987584300        2.7128999200
 Fe        12.7847898000        1.4582999900        2.7128999200
 Fe         2.5299894400       10.3392168700        2.7128999200
 Fe         5.0936896600        5.8987584300        2.7128999200
 Fe         7.6573898800        1.4582999900        2.7128999200
 Fe        -2.5974104800       10.3392168700        2.7128999200
 Fe        -0.0337102600        5.8987584300        2.7128999200
 Fe         2.5299899600        1.4582999900        2.7128999200
  O         4.1372549095       13.3039507190        3.5039661639
  O         6.7066859025        8.8720798568        3.5171682885
  O         9.2890883386        4.4400679178        3.5452156165
  O        -0.9797853872       13.3047973544        3.5144744842
  O         1.5628272849        8.8675491886        3.4999535157
  O         4.1067992086        4.4098208544        3.4069285867
  O        -6.1131079597       13.3179062005        3.5410345771
  O        -3.5577356489        8.8622016331        3.5031130913
  O        -0.9914135876        4.4299219536        3.5132818229
  O         6.8646327556       11.9076094036        3.5106207674
  O         9.4246094534        7.4650854317        3.5065254541
  O        11.9923384120        3.0303654899        3.5013906643
  O         1.7369980196       11.9065847213        3.5086949208
  O         4.2967253795        7.4970085385        3.4682473771
  O         6.8585870305        3.0068624999        3.5139083982
  O        -3.3834191960       11.9000239220        3.5189508152
  O        -0.8324749683        7.4716047893        3.5025577841
  O         1.6956146457        3.0367054884        3.4595893706
  O         9.4161505754       10.2401624504        3.5029831548
  O        11.9838408007        5.8065043866        3.5013069039
  O        14.5391208111        1.3591027142        3.5134551055
  O         4.2801314567       10.2513976631        3.5161385746
  O         6.8700701993        5.8275364670        3.4774528876
  O         9.4235948815        1.3619260379        3.4979923899
  O        -0.8390998955       10.2461220227        3.5050581520
  O         1.7002959436        5.8091483337        3.5072364217
  O         4.3306931744        1.3111628054        3.4405167540
 Fe         5.0987356900       11.8143762073        4.4887924448
 Fe         7.6420694978        7.3714798241        4.4920874215
 Fe        10.2295886419        2.9331621135        4.4908946658
 Fe        -0.0311998414       11.8231686681        4.4893468095
 Fe         2.5317350503        7.3875910053        4.4765143504
 Fe         5.0780981753        2.9435351237        4.4092485624
 Fe        -5.1515982940       11.8031693463        4.4863978799
 Fe        -2.5961443265        7.3788320301        4.4881460490
 Fe        -0.0250080128        2.9372017693        4.4837516814
 Fe         7.6473003296       13.2929897503        4.8525544485
 Fe        10.2157877600        8.8474764566        4.8155079767
 Fe        12.7888819817        4.4208084040        4.8153547717
 Fe         2.5332907928       13.3001881948        4.8171993077
 Fe         5.0973824037        8.8429543318        4.8266664235
 Fe         7.6405123241        4.4387976862        4.8230591501
 Fe        -2.5766915611       13.3035049114        4.8523706106
 Fe        -0.0351989533        8.8589752009        4.8193390848
 Fe         2.5559980281        4.4237692950        4.7773457852
  O         5.8591427739       10.3815726226        5.7457121875
  O         8.4231073961        5.9556155276        5.7475346887
  O        10.9949160368        1.5055656816        5.7342292120
  O         0.7371788978       10.3898997194        5.7330479283
  O         3.3036830892        5.9838442327        5.6177396042
  O         5.8672730440        1.5384956482        5.7427679278
  O        -4.3976096014       10.3653931487        5.7427023176
  O        -1.8150822539        5.9469615116        5.7367452997
  O         0.7215087324        1.5110421549        5.7465977738
  O         5.9328177142       13.1958930684        5.7504269278
  O         8.5069402920        8.7593846386        5.7378693884
  O        11.0836509967        4.3197754032        5.7376873294
  O         0.8308557987       13.2021682955        5.7472110182
  O         3.3840300739        8.7660087241        5.7371998141
  O         5.8863854112        4.3795650289        5.6155789145
  O        -4.2890632519       13.1612457836        5.7508519895
  O        -1.7464255675        8.7626592082        5.7341313983
  O         0.8632019378        4.2932728364        5.7757590271
  O         3.4727870916       11.8730335058        5.7406502950
  O         6.0160491584        7.3991201768        5.7284555463
  O         8.5948410326        2.9885576975        5.7024956926
  O        -1.6415321546       11.8634790064        5.7640500237
  O         0.8987291077        7.4387560921        5.7547592871
  O         3.4477068669        2.8665887496        5.5098788647
  O        -6.7711421919       11.8682616781        5.7536688763
  O        -4.2188392399        7.4212629235        5.7386151760
  O        -1.6545295501        2.9951453590        5.7401653757
 Fe         7.6547597565       10.3400461934        5.9718079704
 Fe        10.2193852331        5.8933198806        5.9740163965
 Fe        12.7885249737        1.4646912177        5.9771042240
 Fe         2.5325527184       10.3440282588        5.9774251540
 Fe         5.0309109392        5.9168866758        6.1573358379
 Fe         7.6671986704        1.4622490170        5.9731412599
 Fe        -2.6022158213       10.3406778819        5.9719220085
 Fe        -0.0149974860        5.8886820979        5.9461935222
 Fe         2.5159074303        1.4005608321        5.9247715556
  C         5.7728168832        3.5189024273        8.3887200008
  C         4.8795537058        4.5704899275        9.0325595128
  H         5.6607769512        2.5244949588        8.8456113728
  O         7.1375324301        3.9959500421        8.4564039115
  H         5.5480680570        3.4355414492        7.3160132661
  C         3.3773498350        4.2998362606        8.9396456613
  C         2.8870751688        3.0512016153        9.7020277994
  O         3.0655139474        4.0957067181        7.5993715079
  H         2.8464012568        5.1870275841        9.3527800519
  C         3.0153532369        3.0855949651       11.2262010426
  H         3.4566693002        2.1815114638        9.3371751708
  O         1.5223473071        2.7956024406        9.3371814535
  C         2.5517373507        4.4116209114       11.8369709178
  O         4.3990853280        2.8717023341       11.5629526045
  H         2.3819676293        2.2710635175       11.6204586698
  H         2.6495142087        4.3808335161       12.9363051262
  O         1.1782347443        4.6256263893       11.4580288155
  H         3.1897115504        5.2280191809       11.4580599466
  H         7.4667123908        3.8786500897        9.3644570782
  H         2.1249297371        3.7994931159        7.5120600849
  H         0.9656513840        3.4755293852        9.7749024912
  H         4.4481259280        2.5739816545       12.4871094580
  H         0.9218807348        5.5447975913       11.6466808023
  O         5.1457020775        5.8519627943        8.3293375313
  H         5.1531611777        4.7164518909       10.0902545548
  H         6.1331661088        5.9149811842        8.3885713347
     161
 i =        5, E =     -8104.5002171978
 Fe         5.0938794100       11.8196869300        0.3885799900
 Fe         7.6575796300        7.3792284900        0.3885799900
 Fe        10.2212798400        2.9387700600        0.3885799900
 Fe        -0.0335205200       11.8196869300        0.3885799900
 Fe         2.5301797000        7.3792284900        0.3885799900
 Fe         5.0938799200        2.9387700600        0.3885799900
 Fe        -5.1609204400       11.8196869300        0.3885799900
 Fe        -2.5972202200        7.3792284900        0.3885799900
 Fe        -0.0335200000        2.9387700600        0.3885799900
  O         8.4519195100        8.9577468800        1.1642700400
  O        11.0156197300        4.5172884400        1.1642700400
  O        13.5793199500        0.0768300000        1.1642700400
  O         3.3245195900        8.9577468800        1.1642700400
  O         5.8882198100        4.5172884400        1.1642700400
  O         8.4519200300        0.0768300000        1.1642700400
  O        -1.8028803300        8.9577468800        1.1642700400
  O         0.7608198900        4.5172884400        1.1642700400
  O         3.3245201100        0.0768300000        1.1642700400
  O         8.4568493000       11.7183869300        1.1650400200
  O        11.0205495200        7.2779284900        1.1650400200
  O        13.5842497300        2.8374700500        1.1650400200
  O         3.3294493700       11.7183869300        1.1650400200
  O         5.8931495900        7.2779284900        1.1650400200
  O         8.4568498100        2.8374700500        1.1650400200
  O        -1.7979505500       11.7183869300        1.1650400200
  O         0.7657496700        7.2779284900        1.1650400200
  O         3.3294498900        2.8374700500        1.1650400200
  O         6.0627194200       10.3425368500        1.1660399400
  O         8.6264196400        5.9020784100        1.1660399400
  O        11.1901198600        1.4616199700        1.1660399400
  O         0.9353195000       10.3425368500        1.1660399400
  O         3.4990197200        5.9020784100        1.1660399400
  O         6.0627199400        1.4616199700        1.1660399400
  O        -4.1920804200       10.3425368500        1.1660399400
  O        -1.6283802000        5.9020784100        1.1660399400
  O         0.9353200200        1.4616199700        1.1660399400
 Fe         7.6576695000       13.2997167500        1.9292099500
 Fe        10.2213697200        8.8592583200        1.9292099500
 Fe        12.7850699400        4.4187998800        1.9292099500
 Fe         2.5302695800       13.2997167500        1.9292099500
 Fe         5.0939698000        8.8592583200        1.9292099500
 Fe         7.6576700200        4.4187998800        1.9292099500
 Fe        -2.5971303400       13.2997167500        1.9292099500
 Fe        -0.0334301200        8.8592583200        1.9292099500
 Fe         2.5302701000        4.4187998800        1.9292099500
 Fe         7.6573893600       10.3392168700        2.7128999200
 Fe        10.2210895800        5.8987584300        2.7128999200
 Fe        12.7847898000        1.4582999900        2.7128999200
 Fe         2.5299894400       10.3392168700        2.7128999200
 Fe         5.0936896600        5.8987584300        2.7128999200
 Fe         7.6573898800        1.4582999900        2.7128999200
 Fe        -2.5974104800       10.3392168700        2.7128999200
 Fe        -0.0337102600        5.8987584300        2.7128999200
 Fe         2.5299899600        1.4582999900        2.7128999200
  O         4.1397233163       13.3050126133        3.5056631628
  O         6.7061263991        8.8744419166        3.5199861661
  O         9.2826400907        4.4412522439        3.5419339320
  O        -0.9566440211       13.3105289660        3.5468417312
  O         1.5608241582        8.8674178768        3.4993229280
  O         4.0897756285        4.4040725953        3.3925791936
  O        -6.1129660568       13.3188227819        3.5391364026
  O        -3.5579415668        8.8627843051        3.5042813362
  O        -0.9874405283        4.4301471010        3.5180781181
  O         6.8680480512       11.9140278009        3.5052928161
  O         9.4259327848        7.4644070595        3.5080954035
  O        11.9941876094        3.0299229348        3.5039617199
  O         1.7373950715       11.9074499651        3.5081454253
  O         4.2999192071        7.5001575965        3.4656025412
  O         6.8589164924        3.0119073643        3.5044088704
  O        -3.3837675902       11.8761903186        3.5547039286
  O        -0.8300678578        7.4708378870        3.5054047402
  O         1.6926576220        3.0445386160        3.4439045402
  O         9.4172759153       10.2420608814        3.5042934283
  O        11.9859122422        5.8064108458        3.5013858702
  O        14.5432298184        1.3527901257        3.5078689532
  O         4.2800105046       10.2523841542        3.5162718035
  O         6.8716406082        5.8225673356        3.4758916939
  O         9.4242333504        1.3610753473        3.4992058610
  O        -0.8409757872       10.2452292931        3.5070870929
  O         1.7055216963        5.8042495535        3.4952746034
  O         4.3122528966        1.3161485245        3.4731537193
 Fe         5.0987023366       11.8120909633        4.4883725514
 Fe         7.6381182619        7.3688143475        4.4904231803
 Fe        10.2258555740        2.9388586205        4.4903735269
 Fe        -0.0251864643       11.8146584761        4.4963248661
 Fe         2.5327529787        7.3875687905        4.4735330402
 Fe         5.0842593090        2.9520333463        4.4101061911
 Fe        -5.1576811028       11.8024351657        4.4943817370
 Fe        -2.5958440179        7.3795830069        4.4889831546
 Fe        -0.0219628491        2.9340709153        4.4812445222
 Fe         7.6464772677       13.2908707063        4.8552885252
 Fe        10.2142326850        8.8424070117        4.8168949252
 Fe        12.7893473997        4.4207967314        4.8167484743
 Fe         2.5355097666       13.2994218221        4.8173784572
 Fe         5.0952146221        8.8419262412        4.8288438148
 Fe         7.6320753435        4.4380266266        4.8303590714
 Fe        -2.5705148713       13.3043095490        4.8667057214
 Fe        -0.0351646234        8.8589564423        4.8208011295
 Fe         2.5502931169        4.4247252484        4.7712447800
  O         5.8597075490       10.3808741477        5.7460580643
  O         8.4155634410        5.9558229326        5.7535043958
  O        10.9943299475        1.5093574347        5.7330580218
  O         0.7397224640       10.3859986907        5.7362584160
  O         3.3070003454        5.9778188067        5.6087755406
  O         5.8650372642        1.5397517370        5.7515285696
  O        -4.3973885821       10.3634239459        5.7406397435
  O        -1.8125372611        5.9474706307        5.7347135880
  O         0.7244948000        1.5099974326        5.7555141091
  O         5.9345804214       13.1949102656        5.7537508160
  O         8.5041754681        8.7569560578        5.7382588625
  O        11.0854989667        4.3197983531        5.7423874247
  O         0.8312104169       13.2057044795        5.7455341537
  O         3.3822233672        8.7630071364        5.7395319127
  O         5.8745329823        4.3812931655        5.6204841933
  O        -4.2878353377       13.1690204773        5.7609427710
  O        -1.7475452374        8.7637722285        5.7336860317
  O         0.8664494341        4.2893818703        5.7824656442
  O         3.4735391828       11.8728870985        5.7432615267
  O         6.0112421368        7.3960025217        5.7266160427
  O         8.5929695719        2.9891222199        5.7051730815
  O        -1.6401685530       11.8635564351        5.7704878976
  O         0.9005006803        7.4383199768        5.7535718326
  O         3.4399479270        2.8656662963        5.5066006203
  O        -6.7763459381       11.8657590454        5.7577104849
  O        -4.2183218874        7.4161344675        5.7397924848
  O        -1.6507506087        2.9933002396        5.7405186999
 Fe         7.6537320858       10.3366356780        5.9779273486
 Fe        10.2142627013        5.8908950031        5.9725552317
 Fe        12.7880052177        1.4646665722        5.9797618076
 Fe         2.5340838993       10.3437160269        5.9777371102
 Fe         5.0277996986        5.9167191773        6.1660461344
 Fe         7.6652777049        1.4635100656        5.9753218211
 Fe        -2.6025042711       10.3406974737        5.9744491118
 Fe        -0.0125030426        5.8877828572        5.9294899119
 Fe         2.5136350189        1.4024967903        5.9113640093
  C         5.7777968243        3.5144074794        8.4054370830
  C         4.8750398492        4.5655546607        9.0346276024
  H         5.6593524390        2.5248142721        8.8732232055
  O         7.1433141828        3.9899630738        8.4632318232
  H         5.5456160629        3.4143930045        7.3351429442
  C         3.3708418059        4.2951314252        8.9627225017
  C         2.8844762645        3.0389271836        9.7222421342
  O         3.0635764384        4.1113673682        7.6168049794
  H         2.8508338517        5.1947396004        9.3624174699
  C         3.0173516595        3.0908283262       11.2460349323
  H         3.4617917798        2.1813150263        9.3435044172
  O         1.5236547543        2.7958235089        9.3351462586
  C         2.5452479896        4.4187918404       11.8450293500
  O         4.4049346268        2.8745057094       11.5678971334
  H         2.3840880288        2.2681866515       11.6241238761
  H         2.6464101420        4.3817809341       12.9440139473
  O         1.1708913137        4.6228478295       11.4642887707
  H         3.1933359980        5.2260430151       11.4655989460
  H         7.4640856068        3.8638855198        9.3728830637
  H         2.1115404049        3.8462602503        7.5100659775
  H         0.9669106287        3.4714227354        9.7770855225
  H         4.4493399833        2.5716748544       12.4905331822
  H         0.9253010539        5.5463295499       11.6463560703
  O         5.1617656265        5.8454397545        8.3288158030
  H         5.1547486600        4.7327196069       10.0867448901
  H         6.1437183911        5.9101730468        8.3957897285
     161
 i =        6, E =     -8104.5002174314
 Fe         5.0938794100       11.8196869300        0.3885799900
 Fe         7.6575796300        7.3792284900        0.3885799900
 Fe        10.2212798400        2.9387700600        0.3885799900
 Fe        -0.0335205200       11.8196869300        0.3885799900
 Fe         2.5301797000        7.3792284900        0.3885799900
 Fe         5.0938799200        2.9387700600        0.3885799900
 Fe        -5.1609204400       11.8196869300        0.3885799900
 Fe        -2.5972202200        7.3792284900        0.3885799900
 Fe        -0.0335200000        2.9387700600        0.3885799900
  O         8.4519195100        8.9577468800        1.1642700400
  O        11.0156197300        4.5172884400        1.1642700400
  O        13.5793199500        0.0768300000        1.1642700400
  O         3.3245195900        8.9577468800        1.1642700400
  O         5.8882198100        4.5172884400        1.1642700400
  O         8.4519200300        0.0768300000        1.1642700400
  O        -1.8028803300        8.9577468800        1.1642700400
  O         0.7608198900        4.5172884400        1.1642700400
  O         3.3245201100        0.0768300000        1.1642700400
  O         8.4568493000       11.7183869300        1.1650400200
  O        11.0205495200        7.2779284900        1.1650400200
  O        13.5842497300        2.8374700500        1.1650400200
  O         3.3294493700       11.7183869300        1.1650400200
  O         5.8931495900        7.2779284900        1.1650400200
  O         8.4568498100        2.8374700500        1.1650400200
  O        -1.7979505500       11.7183869300        1.1650400200
  O         0.7657496700        7.2779284900        1.1650400200
  O         3.3294498900        2.8374700500        1.1650400200
  O         6.0627194200       10.3425368500        1.1660399400
  O         8.6264196400        5.9020784100        1.1660399400
  O        11.1901198600        1.4616199700        1.1660399400
  O         0.9353195000       10.3425368500        1.1660399400
  O         3.4990197200        5.9020784100        1.1660399400
  O         6.0627199400        1.4616199700        1.1660399400
  O        -4.1920804200       10.3425368500        1.1660399400
  O        -1.6283802000        5.9020784100        1.1660399400
  O         0.9353200200        1.4616199700        1.1660399400
 Fe         7.6576695000       13.2997167500        1.9292099500
 Fe        10.2213697200        8.8592583200        1.9292099500
 Fe        12.7850699400        4.4187998800        1.9292099500
 Fe         2.5302695800       13.2997167500        1.9292099500
 Fe         5.0939698000        8.8592583200        1.9292099500
 Fe         7.6576700200        4.4187998800        1.9292099500
 Fe        -2.5971303400       13.2997167500        1.9292099500
 Fe        -0.0334301200        8.8592583200        1.9292099500
 Fe         2.5302701000        4.4187998800        1.9292099500
 Fe         7.6573893600       10.3392168700        2.7128999200
 Fe        10.2210895800        5.8987584300        2.7128999200
 Fe        12.7847898000        1.4582999900        2.7128999200
 Fe         2.5299894400       10.3392168700        2.7128999200
 Fe         5.0936896600        5.8987584300        2.7128999200
 Fe         7.6573898800        1.4582999900        2.7128999200
 Fe        -2.5974104800       10.3392168700        2.7128999200
 Fe        -0.0337102600        5.8987584300        2.7128999200
 Fe         2.5299899600        1.4582999900        2.7128999200
  O         4.1397233163       13.3050126133        3.5056631628
  O         6.7061263991        8.8744419166        3.5199861661
  O         9.2826400907        4.4412522439        3.5419339320
  O        -0.9566440211       13.3105289660        3.5468417312
  O         1.5608241582        8.8674178768        3.4993229280
  O         4.0897756285        4.4040725953        3.3925791936
  O        -6.1129660568       13.3188227819        3.5391364026
  O        -3.5579415668        8.8627843051        3.5042813362
  O        -0.9874405283        4.4301471010        3.5180781181
  O         6.8680480512       11.9140278009        3.5052928161
  O         9.4259327848        7.4644070595        3.5080954035
  O        11.9941876094        3.0299229348        3.5039617199
  O         1.7373950715       11.9074499651        3.5081454253
  O         4.2999192071        7.5001575965        3.4656025412
  O         6.8589164924        3.0119073643        3.5044088704
  O        -3.3837675902       11.8761903186        3.5547039286
  O        -0.8300678578        7.4708378870        3.5054047402
  O         1.6926576220        3.0445386160        3.4439045402
  O         9.4172759153       10.2420608814        3.5042934283
  O        11.9859122422        5.8064108458        3.5013858702
  O        14.5432298184        1.3527901257        3.5078689532
  O         4.2800105046       10.2523841542        3.5162718035
  O         6.8716406082        5.8225673356        3.4758916939
  O         9.4242333504        1.3610753473        3.4992058610
  O        -0.8409757872       10.2452292931        3.5070870929
  O         1.7055216963        5.8042495535        3.4952746034
  O         4.3122528966        1.3161485245        3.4731537193
 Fe         5.0987023366       11.8120909633        4.4883725514
 Fe         7.6381182619        7.3688143475        4.4904231803
 Fe        10.2258555740        2.9388586205        4.4903735269
 Fe        -0.0251864643       11.8146584761        4.4963248661
 Fe         2.5327529787        7.3875687905        4.4735330402
 Fe         5.0842593090        2.9520333463        4.4101061911
 Fe        -5.1576811028       11.8024351657        4.4943817370
 Fe        -2.5958440179        7.3795830069        4.4889831546
 Fe        -0.0219628491        2.9340709153        4.4812445222
 Fe         7.6464772677       13.2908707063        4.8552885252
 Fe        10.2142326850        8.8424070117        4.8168949252
 Fe        12.7893473997        4.4207967314        4.8167484743
 Fe         2.5355097666       13.2994218221        4.8173784572
 Fe         5.0952146221        8.8419262412        4.8288438148
 Fe         7.6320753435        4.4380266266        4.8303590714
 Fe        -2.5705148713       13.3043095490        4.8667057214
 Fe        -0.0351646234        8.8589564423        4.8208011295
 Fe         2.5502931169        4.4247252484        4.7712447800
  O         5.8597075490       10.3808741477        5.7460580643
  O         8.4155634410        5.9558229326        5.7535043958
  O        10.9943299475        1.5093574347        5.7330580218
  O         0.7397224640       10.3859986907        5.7362584160
  O         3.3070003454        5.9778188067        5.6087755406
  O         5.8650372642        1.5397517370        5.7515285696
  O        -4.3973885821       10.3634239459        5.7406397435
  O        -1.8125372611        5.9474706307        5.7347135880
  O         0.7244948000        1.5099974326        5.7555141091
  O         5.9345804214       13.1949102656        5.7537508160
  O         8.5041754681        8.7569560578        5.7382588625
  O        11.0854989667        4.3197983531        5.7423874247
  O         0.8312104169       13.2057044795        5.7455341537
  O         3.3822233672        8.7630071364        5.7395319127
  O         5.8745329823        4.3812931655        5.6204841933
  O        -4.2878353377       13.1690204773        5.7609427710
  O        -1.7475452374        8.7637722285        5.7336860317
  O         0.8664494341        4.2893818703        5.7824656442
  O         3.4735391828       11.8728870985        5.7432615267
  O         6.0112421368        7.3960025217        5.7266160427
  O         8.5929695719        2.9891222199        5.7051730815
  O        -1.6401685530       11.8635564351        5.7704878976
  O         0.9005006803        7.4383199768        5.7535718326
  O         3.4399479270        2.8656662963        5.5066006203
  O        -6.7763459381       11.8657590454        5.7577104849
  O        -4.2183218874        7.4161344675        5.7397924848
  O        -1.6507506087        2.9933002396        5.7405186999
 Fe         7.6537320858       10.3366356780        5.9779273486
 Fe        10.2142627013        5.8908950031        5.9725552317
 Fe        12.7880052177        1.4646665722        5.9797618076
 Fe         2.5340838993       10.3437160269        5.9777371102
 Fe         5.0277996986        5.9167191773        6.1660461344
 Fe         7.6652777049        1.4635100656        5.9753218211
 Fe        -2.6025042711       10.3406974737        5.9744491118
 Fe        -0.0125030426        5.8877828572        5.9294899119
 Fe         2.5136350189        1.4024967903        5.9113640093
  C         5.7777968243        3.5144074794        8.4054370830
  C         4.8750398492        4.5655546607        9.0346276024
  H         5.6593524390        2.5248142721        8.8732232055
  O         7.1433141828        3.9899630738        8.4632318232
  H         5.5456160629        3.4143930045        7.3351429442
  C         3.3708418059        4.2951314252        8.9627225017
  C         2.8844762645        3.0389271836        9.7222421342
  O         3.0635764384        4.1113673682        7.6168049794
  H         2.8508338517        5.1947396004        9.3624174699
  C         3.0173516595        3.0908283262       11.2460349323
  H         3.4617917798        2.1813150263        9.3435044172
  O         1.5236547543        2.7958235089        9.3351462586
  C         2.5452479896        4.4187918404       11.8450293500
  O         4.4049346268        2.8745057094       11.5678971334
  H         2.3840880288        2.2681866515       11.6241238761
  H         2.6464101420        4.3817809341       12.9440139473
  O         1.1708913137        4.6228478295       11.4642887707
  H         3.1933359980        5.2260430151       11.4655989460
  H         7.4640856068        3.8638855198        9.3728830637
  H         2.1115404049        3.8462602503        7.5100659775
  H         0.9669106287        3.4714227354        9.7770855225
  H         4.4493399833        2.5716748544       12.4905331822
  H         0.9253010539        5.5463295499       11.6463560703
  O         5.1617656265        5.8454397545        8.3288158030
  H         5.1547486600        4.7327196069       10.0867448901
  H         6.1437183911        5.9101730468        8.3957897285
