 DBCSR| Multiplication driver                                               XSMM
 DBCSR| Multrec recursion limit                                              512
 DBCSR| Multiplication stack size                                           1000
 DBCSR| Maximum elements for images                                    UNLIMITED
 DBCSR| Multiplicative factor virtual images                                   1
 DBCSR| Multiplication size stacks                                             3
 DBCSR| Number of 3D layers                                               SINGLE
 DBCSR| Use MPI memory allocation                                              T
 DBCSR| Use RMA algorithm                                                      F
 DBCSR| Use Communication thread                                               T
 DBCSR| Communication thread load                                             87


  **** **** ******  **  PROGRAM STARTED AT               2020-09-22 09:33:16.625
 ***** ** ***  *** **   PROGRAM STARTED ON                             irene4085
 **    ****   ******    PROGRAM STARTED BY                              marticar
 ***** **    ** ** **   PROGRAM PROCESS ID                                144009
  **** **  *******  **  PROGRAM STARTED IN /ccc/scratch/cont003/gen0609/marticar
                                           /618225

 CP2K| version string:                                          CP2K version 6.1
 CP2K| source code revision number:                                    svn:18464
 CP2K| cp2kflags: libint fftw3 parallel mpi3 scalapack xsmm mkl                 
 CP2K| is freely available from                            https://www.cp2k.org/
 CP2K| Program compiled at                          Thu Dec 12 15:40:57 CET 2019
 CP2K| Program compiled on                                             cobalt175
 CP2K| Program compiled for                                   Linux-x86-64-iomkl
 CP2K| Data directory path          /tmp/cp2k/6.1/iomkl-195281.401/cp2k-6.1/data
 CP2K| Input file name                                              molecule.inp
 
 GLOBAL| Force Environment number                                              1
 GLOBAL| Basis set file name            /ccc/work/cont003/gen0609/marticar/data/
 GLOBAL| Potential file name            /ccc/work/cont003/gen0609/marticar/data/
 GLOBAL| MM Potential file name                                     MM_POTENTIAL
 GLOBAL| Coordinate file name                                      __STD_INPUT__
 GLOBAL| Method name                                                        CP2K
 GLOBAL| Project name                                              surf_molecule
 GLOBAL| Preferred FFT library                                             FFTW3
 GLOBAL| Preferred diagonalization lib.                                       SL
 GLOBAL| Run type                                                        GEO_OPT
 GLOBAL| All-to-all communication in single precision                          F
 GLOBAL| FFTs using library dependent lengths                                  F
 GLOBAL| Global print level                                                  LOW
 GLOBAL| Total number of message passing processes                             8
 GLOBAL| Number of threads for this process                                    1
 GLOBAL| This output is from process                                           0
 GLOBAL| CPU model name :  AMD EPYC 7H12 64-Core Processor

 MEMORY| system memory details [Kb]
 MEMORY|                        rank 0           min           max       average
 MEMORY| MemTotal            263246952     263246952     263246952     263246952
 MEMORY| MemFree             106463060     106462560     106463060     106462712
 MEMORY| Buffers                     0             0             0             0
 MEMORY| Cached                2663276       2663276       2663536       2663484
 MEMORY| Slab                  2169696       2169696       2169696       2169696
 MEMORY| SReclaimable           274928        274928        274928        274928
 MEMORY| MemLikelyFree       109401264     109401024     109401264     109401124

 
 GENERATE|  Preliminary Number of Bonds generated:                             0
 GENERATE|  Achieved consistency in connectivity generation.

 *******************************************************************************
 *******************************************************************************
 **                                                                           **
 **     #####                         ##              ##                      **
 **    ##   ##            ##          ##              ##                      **
 **   ##     ##                       ##            ######                    **
 **   ##     ##  ##   ##  ##   #####  ##  ##   ####   ##    #####    #####    **
 **   ##     ##  ##   ##  ##  ##      ## ##   ##      ##   ##   ##  ##   ##   **
 **   ##  ## ##  ##   ##  ##  ##      ####     ###    ##   ######   ######    **
 **    ##  ###   ##   ##  ##  ##      ## ##      ##   ##   ##       ##        **
 **     #######   #####   ##   #####  ##  ##  ####    ##    #####   ##        **
 **           ##                                                    ##        **
 **                                                                           **
 **                                                ... make the atoms dance   **
 **                                                                           **
 **            Copyright (C) by CP2K developers group (2000 - 2018)           **
 **                                                                           **
 *******************************************************************************


 TOTAL NUMBERS AND MAXIMUM NUMBERS

  Total number of            - Atomic kinds:                                   3
                             - Atoms:                                         26
                             - Shell sets:                                    26
                             - Shells:                                       102
                             - Primitive Cartesian functions:                182
                             - Cartesian basis functions:                    238
                             - Spherical basis functions:                    226

  Maximum angular momentum of- Orbital basis functions:                        2
                             - Local part of the GTH pseudopotential:          2
                             - Non-local part of the GTH pseudopotential:      0


 SCF PARAMETERS         Density guess:                                   RESTART
                        --------------------------------------------------------
                        max_scf:                                             500
                        max_scf_history:                                       0
                        max_diis:                                              4
                        --------------------------------------------------------
                        eps_scf:                                        1.00E-07
                        eps_scf_history:                                0.00E+00
                        eps_diis:                                       1.00E-01
                        eps_eigval:                                     1.00E-05
                        --------------------------------------------------------
                        level_shift [a.u.]:                                 0.00
                        --------------------------------------------------------
                        Outer loop SCF in use 
                        No variables optimised in outer loop
                        eps_scf                                         1.00E-07
                        max_scf                                               10
                        No outer loop optimization
                        step_size                                       5.00E-01

 BFGS| Use rational function optimization for step estimation:                NO
 BFGS| Use model Hessian for initial guess:                                  YES
 BFGS| Restart Hessian:                                                       NO
 BFGS| Trust radius:                                                       0.472

 *******************************************************************************
 ***                     STARTING GEOMETRY OPTIMIZATION                      ***
 ***                                   BFGS                                  ***
 *******************************************************************************

 Spin 1

 Number of electrons:                                                         37
 Number of occupied orbitals:                                                 37
 Number of molecular orbitals:                                                37

 Spin 2

 Number of electrons:                                                         37
 Number of occupied orbitals:                                                 37
 Number of molecular orbitals:                                                37

 Number of orbital functions:                                                226
 Number of independent orbital functions:                                    226

 Extrapolation method: initial_guess

 *** WARNING in qs_initial_guess.F:263 :: User requested to restart the    ***
 *** wavefunction from the file named: surf_molecule-RESTART.wfn. This     ***
 *** file does not exist. Please check the existence of the file or change ***
 *** properly the value of the keyword WFN_RESTART_FILE_NAME. Calculation  ***
 *** continues using ATOMIC GUESS.                                         ***



 SCF WAVEFUNCTION OPTIMIZATION

  ----------------------------------- OT ---------------------------------------
  Minimizer      : CG                  : conjugate gradient
  Preconditioner : FULL_ALL            : diagonalization, state selective
  Precond_solver : DEFAULT
  Line search    : 3PNT                : 3 energies
  stepsize       :    0.15000000                  energy_gap     :    0.08000000
  eps_taylor     :   0.10000E-15                  max_taylor     :             4
  ----------------------------------- OT ---------------------------------------

  Step     Update method      Time    Convergence         Total energy    Change
  ------------------------------------------------------------------------------
     1 OT CG       0.12E+00    7.8     0.05259300      -130.2835529292 -1.30E+02
     2 OT LS       0.17E+00    4.4                     -134.0391865878
     3 OT LS       0.17E+00    3.9                     -134.3491811522
     4 OT CG       0.13E+00    7.2     0.05358783      -134.3493844108 -4.07E+00
     5 OT LS       0.19E+00    4.2                     -136.2269080361
     6 OT LS       0.99E-01    4.2                     -134.8509788518
     7 OT CG       0.79E-01    9.6     0.02828090      -136.5396103789 -2.19E+00
     8 OT LS       0.11E+00    4.0                     -137.3204344107
     9 OT LS       0.16E+00    4.2                     -137.4861374318
    10 OT CG       0.13E+00    6.8     0.01784544      -137.5844434976 -1.04E+00
    11 OT LS       0.18E+00    4.0                     -138.0635638564
    12 OT LS       0.19E+00    3.6                     -138.1216272543
    13 OT CG       0.15E+00    7.7     0.01172309      -138.1228042052 -5.38E-01
    14 OT LS       0.21E+00    4.5                     -138.3544136990
    15 OT LS       0.22E+00    3.7                     -138.3794020086
    16 OT CG       0.18E+00    8.4     0.00751384      -138.3796053909 -2.57E-01
    17 OT LS       0.25E+00    4.1                     -138.4833860171
    18 OT LS       0.24E+00    3.6                     -138.4903869472
    19 OT CG       0.19E+00    6.8     0.00500116      -138.4905732372 -1.11E-01
    20 OT LS       0.27E+00    3.6                     -138.5316511712
    21 OT LS       0.19E+00    3.4                     -138.5259154546
    22 OT CG       0.16E+00    8.1     0.00307347      -138.5316692351 -4.11E-02
    23 OT LS       0.22E+00    4.2                     -138.5483680751
    24 OT LS       0.24E+00    3.6                     -138.5506654132
    25 OT CG       0.19E+00    8.6     0.00189777      -138.5508898663 -1.92E-02
    26 OT LS       0.27E+00    4.5                     -138.5574367645
    27 OT LS       0.22E+00    3.4                     -138.5571414982
    28 OT CG       0.18E+00    7.1     0.00122504      -138.5575235611 -6.63E-03
    29 OT LS       0.25E+00    4.1                     -138.5600347776
    30 OT LS       0.20E+00    4.1                     -138.5599748125
    31 OT CG       0.16E+00    6.1     0.00071494      -138.5600838035 -2.56E-03
    32 OT LS       0.23E+00    4.2                     -138.5609823151
    33 OT LS       0.23E+00    4.0                     -138.5610641745
    34 OT CG       0.18E+00    6.7     0.00041415      -138.5610641972 -9.80E-04
    35 OT LS       0.26E+00    4.7                     -138.5614117770
    36 OT LS       0.27E+00    4.9                     -138.5614504416
    37 OT CG       0.22E+00    6.9     0.00026415      -138.5614513108 -3.87E-04
    38 OT LS       0.30E+00    4.5                     -138.5615969255
    39 OT LS       0.26E+00    5.1                     -138.5615956662
    40 OT CG       0.20E+00    8.5     0.00017596      -138.5616005690 -1.49E-04
    41 OT LS       0.29E+00    4.4                     -138.5616635089
    42 OT LS       0.25E+00    3.8                     -138.5616645815
    43 OT CG       0.20E+00    7.8     0.00012760      -138.5616658087 -6.52E-05
    44 OT LS       0.28E+00    4.9                     -138.5616966834
    45 OT LS       0.23E+00    5.1                     -138.5616955843
    46 OT CG       0.18E+00    7.1     0.00009605      -138.5616971731 -3.14E-05
    47 OT LS       0.26E+00    4.7                     -138.5617154768
    48 OT LS       0.26E+00    3.4                     -138.5617171241
    49 OT CG       0.21E+00    6.5     0.00007321      -138.5617171242 -2.00E-05
    50 OT LS       0.29E+00    3.9                     -138.5617288497
    51 OT LS       0.28E+00    5.8                     -138.5617297201
    52 OT CG       0.23E+00    6.4     0.00005583      -138.5617297313 -1.26E-05
    53 OT LS       0.32E+00    4.4                     -138.5617373238
    54 OT LS       0.32E+00    3.7                     -138.5617380440
    55 OT CG       0.26E+00    7.2     0.00004299      -138.5617380453 -8.31E-06
    56 OT LS       0.36E+00    5.7                     -138.5617430150
    57 OT LS       0.34E+00    3.4                     -138.5617433680
    58 OT CG       0.28E+00    7.0     0.00003502      -138.5617433750 -5.33E-06
    59 OT LS       0.39E+00    5.1                     -138.5617462845
    60 OT LS       0.28E+00    4.2                     -138.5617459108
    61 OT CG       0.23E+00    6.8     0.00002979      -138.5617462869 -2.91E-06
    62 OT LS       0.32E+00    3.4                     -138.5617479331
    63 OT LS       0.22E+00    3.7                     -138.5617476247
    64 OT CG       0.18E+00    7.1     0.00002200      -138.5617479341 -1.65E-06
    65 OT LS       0.25E+00    3.6                     -138.5617488926
    66 OT LS       0.27E+00    3.8                     -138.5617490077
    67 OT CG       0.21E+00    7.2     0.00001595      -138.5617490125 -1.08E-06
    68 OT LS       0.30E+00    3.8                     -138.5617496354
    69 OT LS       0.34E+00    4.6                     -138.5617497258
    70 OT CG       0.27E+00    7.1     0.00001265      -138.5617497369 -7.24E-07
    71 OT LS       0.38E+00    4.1                     -138.5617501687
    72 OT LS       0.33E+00    3.8                     -138.5617501748
    73 OT CG       0.27E+00    7.2     0.00001150      -138.5617501838 -4.47E-07
    74 OT LS       0.37E+00    4.3                     -138.5617505268
    75 OT LS       0.32E+00    4.1                     -138.5617505250
    76 OT CG       0.25E+00    7.8     0.00001038      -138.5617505358 -3.52E-07
    77 OT LS       0.36E+00    4.0                     -138.5617508048
    78 OT LS       0.31E+00    4.0                     -138.5617508060
    79 OT CG       0.25E+00    7.5     0.00001001      -138.5617508130 -2.77E-07
    80 OT LS       0.34E+00    4.4                     -138.5617510549
    81 OT LS       0.30E+00    3.4                     -138.5617510564
    82 OT CG       0.24E+00    7.9     0.00000912      -138.5617510624 -2.49E-07
    83 OT LS       0.33E+00    5.4                     -138.5617512803
    84 OT LS       0.35E+00    6.1                     -138.5617513037
    85 OT CG       0.28E+00    8.1     0.00000932      -138.5617513041 -2.42E-07
    86 OT LS       0.39E+00    4.2                     -138.5617515470
    87 OT LS       0.35E+00    5.1                     -138.5617515544
    88 OT CG       0.28E+00    7.6     0.00000995      -138.5617515576 -2.54E-07
    89 OT LS       0.39E+00    5.0                     -138.5617518536
    90 OT LS       0.39E+00    5.4                     -138.5617518783
    91 OT CG       0.31E+00    7.9     0.00001064      -138.5617518784 -3.21E-07
    92 OT LS       0.43E+00    3.7                     -138.5617522571
    93 OT LS       0.44E+00    4.9                     -138.5617522926
    94 OT CG       0.35E+00    8.6     0.00001135      -138.5617522926 -4.14E-07
    95 OT LS       0.49E+00    4.9                     -138.5617526790
    96 OT LS       0.36E+00    4.2                     -138.5617526275
    97 OT CG       0.29E+00    7.6     0.00001049      -138.5617526793 -3.87E-07
    98 OT LS       0.40E+00    4.6                     -138.5617529485
    99 OT LS       0.29E+00    5.7                     -138.5617529108
   100 OT CG       0.23E+00    7.3     0.00000880      -138.5617529485 -2.69E-07
   101 OT LS       0.33E+00    4.0                     -138.5617530911
   102 OT LS       0.22E+00    5.5                     -138.5617530580
   103 OT CG       0.18E+00    6.5     0.00000616      -138.5617530916 -1.43E-07
   104 OT LS       0.25E+00    5.2                     -138.5617531625
   105 OT LS       0.24E+00    4.8                     -138.5617531678
   106 OT CG       0.19E+00    6.2     0.00000405      -138.5617531679 -7.62E-08
   107 OT LS       0.27E+00    4.4                     -138.5617532021
   108 OT LS       0.27E+00    4.3                     -138.5617532055
   109 OT CG       0.22E+00    6.6     0.00000283      -138.5617532055 -3.76E-08
   110 OT LS       0.31E+00    4.4                     -138.5617532242
   111 OT LS       0.30E+00    4.2                     -138.5617532257
   112 OT CG       0.24E+00    5.6     0.00000209      -138.5617532257 -2.02E-08
   113 OT LS       0.34E+00    3.0                     -138.5617532366
   114 OT LS       0.32E+00    3.1                     -138.5617532372
   115 OT CG       0.25E+00    6.6     0.00000170      -138.5617532373 -1.16E-08
   116 OT LS       0.36E+00    3.4                     -138.5617532437
   117 OT LS       0.26E+00    3.2                     -138.5617532429
   118 OT CG       0.21E+00    6.5     0.00000142      -138.5617532437 -6.41E-09
   119 OT LS       0.30E+00    3.2                     -138.5617532475
   120 OT LS       0.23E+00    3.5                     -138.5617532471
   121 OT CG       0.18E+00    5.3     0.00000100      -138.5617532475 -3.81E-09
   122 OT LS       0.25E+00    3.8                     -138.5617532495
   123 OT LS       0.26E+00    4.4                     -138.5617532497
   124 OT CG       0.21E+00    6.5     0.00000066      -138.5617532497 -2.17E-09
   125 OT LS       0.29E+00    3.6                     -138.5617532506
   126 OT LS       0.28E+00    3.0                     -138.5617532507
   127 OT CG       0.22E+00    6.3     0.00000041      -138.5617532507 -1.01E-09
   128 OT LS       0.31E+00    3.6                     -138.5617532510
   129 OT LS       0.26E+00    2.7                     -138.5617532510
   130 OT CG       0.21E+00    5.6     0.00000027      -138.5617532510 -3.71E-10
   131 OT LS       0.29E+00    4.0                     -138.5617532512
   132 OT LS       0.23E+00    3.2                     -138.5617532512
   133 OT CG       0.19E+00    5.7     0.00000018      -138.5617532512 -1.39E-10
   134 OT LS       0.26E+00    3.5                     -138.5617532512
   135 OT LS       0.23E+00    3.1                     -138.5617532513
   136 OT CG       0.18E+00    5.8     0.00000013      -138.5617532513 -6.31E-11
   137 OT LS       0.26E+00    3.3                     -138.5617532513
   138 OT LS       0.23E+00    3.6                     -138.5617532513
   139 OT CG       0.19E+00    6.0     0.00000009      -138.5617532513 -3.06E-11

  *** SCF run converged in   139 steps ***


  Electronic density on regular grids:        -73.9999999259        0.0000000741
  Core density on regular grids:               73.9999999651       -0.0000000349
  Total charge density on r-space grids:        0.0000000392
  Total charge density g-space grids:           0.0000000392

  Overlap energy of the core charge distribution:               0.00000187222833
  Self energy of the core charge distribution:               -348.91392545875595
  Core Hamiltonian energy:                                    103.33423439564240
  Hartree energy:                                             143.60125727783324
  Exchange-correlation energy:                                -36.56750291858016
  Dispersion energy:                                           -0.01581841964998

  Total energy:                                              -138.56175325128214

  outer SCF iter =    1 RMS gradient =   0.89E-07 energy =       -138.5617532513
  outer SCF loop converged in   1 iterations or  139 steps


  Integrated absolute spin density  :                               0.0000000000
  Ideal and single determinant S**2 :                    0.000000       0.000000

 ENERGY| Total FORCE_EVAL ( QS ) energy (a.u.):             -138.561753251298143


 --------  Informations at step =     0 ------------
  Optimization Method        =                 BFGS
  Total Energy               =      -138.5617532513
  Used time                  =              729.052
 ---------------------------------------------------

 --------------------------
 OPTIMIZATION STEP:      1
 --------------------------

 Spin 1

 Number of electrons:                                                         37
 Number of occupied orbitals:                                                 37
 Number of molecular orbitals:                                                37

 Spin 2

 Number of electrons:                                                         37
 Number of occupied orbitals:                                                 37
 Number of molecular orbitals:                                                37

 Number of orbital functions:                                                226
 Number of independent orbital functions:                                    226

 Extrapolation method: PS Nth order


 SCF WAVEFUNCTION OPTIMIZATION

  ----------------------------------- OT ---------------------------------------
  Minimizer      : CG                  : conjugate gradient
  Preconditioner : FULL_ALL            : diagonalization, state selective
  Precond_solver : DEFAULT
  Line search    : 3PNT                : 3 energies
  stepsize       :    0.15000000                  energy_gap     :    0.08000000
  eps_taylor     :   0.10000E-15                  max_taylor     :             4
  ----------------------------------- OT ---------------------------------------

  Step     Update method      Time    Convergence         Total energy    Change
  ------------------------------------------------------------------------------
     1 OT CG       0.12E+00    5.6     0.00001942      -138.5617544156 -1.39E+02
     2 OT LS       0.17E+00    3.8                     -138.5617550773
     3 OT LS       0.48E+00    3.6                     -138.5617552889
     4 OT CG       0.38E+00    6.7     0.00000439      -138.5617559239 -1.51E-06
     5 OT LS       0.19E+00    2.9                     -138.5617559206
     6 OT LS       0.19E+00    3.5                     -138.5617559540
     7 OT CG       0.15E+00    5.9     0.00000090      -138.5617559540 -3.00E-08
     8 OT LS       0.21E+00    3.3                     -138.5617559555
     9 OT LS       0.28E+00    3.9                     -138.5617559557
    10 OT CG       0.22E+00    5.6     0.00000026      -138.5617559559 -1.86E-09
    11 OT LS       0.31E+00    3.1                     -138.5617559560
    12 OT LS       0.25E+00    3.5                     -138.5617559560
    13 OT CG       0.20E+00    7.0     0.00000007      -138.5617559560 -1.46E-10

  *** SCF run converged in    13 steps ***


  Electronic density on regular grids:        -73.9999999259        0.0000000741
  Core density on regular grids:               73.9999999652       -0.0000000348
  Total charge density on r-space grids:        0.0000000393
  Total charge density g-space grids:           0.0000000393

  Overlap energy of the core charge distribution:               0.00000187273365
  Self energy of the core charge distribution:               -348.91392545875595
  Core Hamiltonian energy:                                    103.33479861391746
  Hartree energy:                                             143.60083335182748
  Exchange-correlation energy:                                -36.56764646740061
  Dispersion energy:                                           -0.01581786831859

  Total energy:                                              -138.56175595599655

  outer SCF iter =    1 RMS gradient =   0.75E-07 energy =       -138.5617559560
  outer SCF loop converged in   1 iterations or   13 steps


  Integrated absolute spin density  :                               0.0000000000
  Ideal and single determinant S**2 :                    0.000000       0.000000

 ENERGY| Total FORCE_EVAL ( QS ) energy (a.u.):             -138.561755956008057


 --------  Informations at step =     1 ------------
  Optimization Method        =                 BFGS
  Total Energy               =      -138.5617559560
  Real energy change         =        -0.0000027047
  Predicted change in energy =        -0.0000021154
  Scaling factor             =         0.0000000000
  Step size                  =         0.0019273700
  Trust radius               =         0.4724315332
  Decrease in energy         =                  YES
  Used time                  =               68.660

  Convergence check :
  Max. step size             =         0.0019273700
  Conv. limit for step size  =         0.0030000000
  Convergence in step size   =                  YES
  RMS step size              =         0.0006820868
  Conv. limit for RMS step   =         0.0015000000
  Convergence in RMS step    =                  YES
  Max. gradient              =         0.0002364530
  Conv. limit for gradients  =         0.0004500000
  Conv. in gradients         =                  YES
  RMS gradient               =         0.0000778325
  Conv. limit for RMS grad.  =         0.0003000000
  Conv. in RMS gradients     =                  YES
 ---------------------------------------------------

 *******************************************************************************
 ***                    GEOMETRY OPTIMIZATION COMPLETED                      ***
 *******************************************************************************

                    Reevaluating energy at the minimum

 Spin 1

 Number of electrons:                                                         37
 Number of occupied orbitals:                                                 37
 Number of molecular orbitals:                                                37

 Spin 2

 Number of electrons:                                                         37
 Number of occupied orbitals:                                                 37
 Number of molecular orbitals:                                                37

 Number of orbital functions:                                                226
 Number of independent orbital functions:                                    226

 Extrapolation method: PS Nth order


 SCF WAVEFUNCTION OPTIMIZATION

  ----------------------------------- OT ---------------------------------------
  Minimizer      : CG                  : conjugate gradient
  Preconditioner : FULL_ALL            : diagonalization, state selective
  Precond_solver : DEFAULT
  Line search    : 3PNT                : 3 energies
  stepsize       :    0.15000000                  energy_gap     :    0.08000000
  eps_taylor     :   0.10000E-15                  max_taylor     :             4
  ----------------------------------- OT ---------------------------------------

  Step     Update method      Time    Convergence         Total energy    Change
  ------------------------------------------------------------------------------
     1 OT CG       0.12E+00    5.0     0.00001942      -138.5617544156 -1.39E+02
     2 OT LS       0.17E+00    3.0                     -138.5617550773
     3 OT LS       0.48E+00    3.4                     -138.5617552889
     4 OT CG       0.38E+00    6.8     0.00000439      -138.5617559240 -1.51E-06
     5 OT LS       0.19E+00    3.4                     -138.5617559207
     6 OT LS       0.19E+00    3.9                     -138.5617559540
     7 OT CG       0.15E+00    5.8     0.00000089      -138.5617559540 -3.00E-08
     8 OT LS       0.21E+00    3.7                     -138.5617559555
     9 OT LS       0.28E+00    3.0                     -138.5617559557
    10 OT CG       0.22E+00    6.0     0.00000026      -138.5617559558 -1.84E-09
    11 OT LS       0.31E+00    3.5                     -138.5617559560
    12 OT LS       0.25E+00    3.9                     -138.5617559560
    13 OT CG       0.20E+00    7.0     0.00000007      -138.5617559560 -1.48E-10

  *** SCF run converged in    13 steps ***


  Electronic density on regular grids:        -73.9999999259        0.0000000741
  Core density on regular grids:               73.9999999652       -0.0000000348
  Total charge density on r-space grids:        0.0000000393
  Total charge density g-space grids:           0.0000000393

  Overlap energy of the core charge distribution:               0.00000187273365
  Self energy of the core charge distribution:               -348.91392545875595
  Core Hamiltonian energy:                                    103.33480225878185
  Hartree energy:                                             143.60083049219278
  Exchange-correlation energy:                                -36.56764725263046
  Dispersion energy:                                           -0.01581786831859

  Total energy:                                              -138.56175595599669

  outer SCF iter =    1 RMS gradient =   0.75E-07 energy =       -138.5617559560
  outer SCF loop converged in   1 iterations or   13 steps


  Integrated absolute spin density  :                               0.0000000000
  Ideal and single determinant S**2 :                    0.000000      -0.000000

 ENERGY| Total FORCE_EVAL ( QS ) energy (a.u.):             -138.561755955996688


 -------------------------------------------------------------------------------
 -                                                                             -
 -                                DBCSR STATISTICS                             -
 -                                                                             -
 -------------------------------------------------------------------------------
 COUNTER                                    TOTAL       BLAS       SMM       ACC
 flops     5 x     5 x    43              1457700       0.0%    100.0%      0.0%
 flops     5 x     5 x    46              1559400       0.0%    100.0%      0.0%
 flops    13 x    32 x    32              1916928       0.0%    100.0%      0.0%
 flops    32 x     5 x     5              1955200       0.0%    100.0%      0.0%
 flops     5 x     5 x    62              2101800       0.0%    100.0%      0.0%
 flops   108 x     5 x     5              5410800       0.0%    100.0%      0.0%
 flops   118 x     5 x     5              5911800       0.0%    100.0%      0.0%
 flops     5 x    32 x    43              9329280       0.0%    100.0%      0.0%
 flops    32 x     5 x    43              9329280       0.0%    100.0%      0.0%
 flops     5 x    32 x    46              9980160       0.0%    100.0%      0.0%
 flops    32 x     5 x    46              9980160       0.0%    100.0%      0.0%
 flops   108 x     5 x    43             11145600       0.0%    100.0%      0.0%
 flops   108 x     5 x    46             11923200       0.0%    100.0%      0.0%
 flops   118 x     5 x    43             12177600       0.0%    100.0%      0.0%
 flops    32 x    32 x     5             12513280       0.0%    100.0%      0.0%
 flops    32 x     5 x    32             12513280       0.0%    100.0%      0.0%
 flops   118 x     5 x    46             13027200       0.0%    100.0%      0.0%
 flops     5 x    32 x    32             13373440       0.0%    100.0%      0.0%
 flops     5 x    32 x    62             13451520       0.0%    100.0%      0.0%
 flops    32 x     5 x    62             13451520       0.0%    100.0%      0.0%
 flops   108 x     5 x    62             16070400       0.0%    100.0%      0.0%
 flops   118 x     5 x    62             17558400       0.0%    100.0%      0.0%
 flops     5 x    13 x     5             18122000       0.0%    100.0%      0.0%
 flops     5 x     5 x     5             33408500       0.0%    100.0%      0.0%
 flops   108 x     5 x    32             34629120       0.0%    100.0%      0.0%
 flops   108 x    32 x     5             34629120       0.0%    100.0%      0.0%
 flops   118 x    32 x     5             37835520       0.0%    100.0%      0.0%
 flops   118 x     5 x    32             37835520       0.0%    100.0%      0.0%
 flops    13 x    13 x     5             44818800       0.0%    100.0%      0.0%
 flops     5 x     5 x    13             53835600       0.0%    100.0%      0.0%
 flops     5 x     5 x    32             59075200       0.0%    100.0%      0.0%
 flops    32 x    32 x    43             59707392       0.0%    100.0%      0.0%
 flops    32 x    32 x    46             63873024       0.0%    100.0%      0.0%
 flops   108 x    32 x    43             71331840       0.0%    100.0%      0.0%
 flops    13 x     5 x     5             72888400       0.0%    100.0%      0.0%
 flops   108 x    32 x    46             76308480       0.0%    100.0%      0.0%
 flops   118 x    32 x    43             77936640       0.0%    100.0%      0.0%
 flops    32 x    32 x    32             80084992       0.0%    100.0%      0.0%
 flops   118 x    32 x    46             83374080       0.0%    100.0%      0.0%
 flops    32 x    32 x    62             86089728       0.0%    100.0%      0.0%
 flops   108 x    32 x    62            102850560       0.0%    100.0%      0.0%
 flops   118 x    32 x    62            112373760       0.0%    100.0%      0.0%
 flops     5 x    13 x    32            115980800       0.0%    100.0%      0.0%
 flops    13 x     5 x    13            119976480       0.0%    100.0%      0.0%
 flops    13 x     5 x    32            121638400       0.0%    100.0%      0.0%
 flops     5 x    32 x     5            156560000       0.0%    100.0%      0.0%
 flops   108 x    32 x    32            221626368       0.0%    100.0%      0.0%
 flops   118 x    32 x    32            242147328       0.0%    100.0%      0.0%
 flops    13 x    13 x    32            286840320       0.0%    100.0%      0.0%
 flops    13 x    32 x     5            344547840       0.0%    100.0%      0.0%
 flops     5 x    32 x    13            344547840       0.0%    100.0%      0.0%
 flops    13 x    32 x    13            767849472       0.0%    100.0%      0.0%
 flops inhomo. stacks                   440259300     100.0%      0.0%      0.0%
 flops total                         4.609120E+09       9.6%     90.4%      0.0%
 flops max/rank                      2.037217E+09      11.8%     88.2%      0.0%
 matmuls inhomo. stacks                      3672     100.0%      0.0%      0.0%
 matmuls total                             938008       0.4%     99.6%      0.0%
 number of processed stacks                 85840       4.3%     95.7%      0.0%
 average stack size                                     1.0      11.4       0.0
 marketing flops                     5.226345E+09
 -------------------------------------------------------------------------------
 # multiplications                           3987
 max memory usage/rank               1.208803E+09
 # max total images/rank                        2
 # max 3D layers                                1
 # MPI messages exchanged                  287064
 MPI messages size (bytes):
  total size                         1.769903E+09
  min size                           0.000000E+00
  max size                          70.800000E+03
  average size                       6.165536E+03
 MPI breakdown and total messages size (bytes):
             size <=      128              153612                        0
       128 < size <=     8192               78624                215805072
      8192 < size <=    32768               37236                655566336
     32768 < size <=   131072               17592                898528992
    131072 < size <=  4194304                   0                        0
   4194304 < size <= 16777216                   0                        0
  16777216 < size                               0                        0
 -------------------------------------------------------------------------------

 *** WARNING in dbcsr/mm/dbcsr_mm.F:268 :: Using a non-square number of ***
 *** MPI ranks might lead to poor performance.                          ***
 *** Used ranks: 8                                                      ***
 *** Suggested: 9 16                                                    ***

 -------------------------------------------------------------------------------
 
 MEMORY| Estimated peak process memory [MiB]                                1153

 -------------------------------------------------------------------------------
 -                                                                             -
 -                         MESSAGE PASSING PERFORMANCE                         -
 -                                                                             -
 -------------------------------------------------------------------------------

 ROUTINE             CALLS      AVE VOLUME [Bytes]
 MP_Group              387
 MP_Bcast            18498                  12112.
 MP_Allreduce        67635                    125.
 MP_Sync               303
 MP_Alltoall         19132                5284054.
 MP_SendRecv          3672                 544536.
 MP_ISendRecv         9534                 202240.
 MP_Wait            213228
 MP_comm_split         298
 MP_ISend           101230                 198065.
 MP_IRecv           101170                 197595.
 MP_Recv                57                  17785.
 MP_Memory          233416
 -------------------------------------------------------------------------------


 -------------------------------------------------------------------------------
 -                                                                             -
 -                           R E F E R E N C E S                               -
 -                                                                             -
 -------------------------------------------------------------------------------
 
 CP2K version 6.1, the CP2K developers group (2018).
 CP2K is freely available from https://www.cp2k.org/ .

 Schuett, Ole; Messmer, Peter; Hutter, Juerg; VandeVondele, Joost. 
 Electronic Structure Calculations on Graphics Processing Units, John Wiley & Sons, Ltd, 173-190 (2016). 
 GPU-Accelerated Sparse Matrix-Matrix Multiplication for Linear Scaling Density Functional Theory.
 http://dx.doi.org/10.1002/9781118670712.ch8


 Borstnik, U; VandeVondele, J; Weber, V; Hutter, J. 
 PARALLEL COMPUTING, 40 (5-6), 47-58 (2014). 
 Sparse matrix multiplication: The distributed block-compressed sparse
 row library.
 http://dx.doi.org/10.1016/j.parco.2014.03.012


 Hutter, J; Iannuzzi, M; Schiffmann, F; VandeVondele, J. 
 WILEY INTERDISCIPLINARY REVIEWS-COMPUTATIONAL MOLECULAR SCIENCE, 4 (1), 15-25 (2014). 
 CP2K: atomistic simulations of condensed matter systems.
 http://dx.doi.org/10.1002/wcms.1159


 Grimme, S; Ehrlich, S; Goerigk, L. 
 JOURNAL OF COMPUTATIONAL CHEMISTRY, 32, 1456 (2011). 
 Effect of the damping function in dispersion corrected density functional theory.
 http://dx.doi.org/10.1002/jcc.21759


 Grimme, S; Antony, J; Ehrlich, S; Krieg, H. 
 JOURNAL OF CHEMICAL PHYSICS, 132 (15), 154104 (2010). 
 A consistent and accurate ab initio parametrization of density
 functional dispersion correction (DFT-D) for the 94 elements H-Pu.
 http://dx.doi.org/10.1063/1.3382344


 VandeVondele, J; Hutter, J. 
 JOURNAL OF CHEMICAL PHYSICS, 127 (11), 114105 (2007). 
 Gaussian basis sets for accurate calculations on molecular systems in
 gas and condensed phases.
 http://dx.doi.org/10.1063/1.2770708


 Krack, M. 
 THEORETICAL CHEMISTRY ACCOUNTS, 114 (1-3), 145-152 (2005). 
 Pseudopotentials for H to Kr optimized for gradient-corrected
 exchange-correlation functionals.
 http://dx.doi.org/10.1007/s00214-005-0655-y


 VandeVondele, J; Krack, M; Mohamed, F; Parrinello, M; Chassaing, T;
 Hutter, J. COMPUTER PHYSICS COMMUNICATIONS, 167 (2), 103-128 (2005). 
 QUICKSTEP: Fast and accurate density functional calculations using a
 mixed Gaussian and plane waves approach.
 http://dx.doi.org/10.1016/j.cpc.2004.12.014


 Frigo, M; Johnson, SG. 
 PROCEEDINGS OF THE IEEE, 93 (2), 216-231 (2005). 
 The design and implementation of FFTW3.
 http://dx.doi.org/10.1109/JPROC.2004.840301


 VandeVondele, J; Hutter, J. 
 JOURNAL OF CHEMICAL PHYSICS, 118 (10), 4365-4369 (2003). 
 An efficient orbital transformation method for electronic structure
 calculations.
 http://dx.doi.org/10.1063/1.1543154


 Hartwigsen, C; Goedecker, S; Hutter, J. 
 PHYSICAL REVIEW B, 58 (7), 3641-3662 (1998). 
 Relativistic separable dual-space Gaussian pseudopotentials from H to Rn.
 http://dx.doi.org/10.1103/PhysRevB.58.3641


 Lippert, G; Hutter, J; Parrinello, M. 
 MOLECULAR PHYSICS, 92 (3), 477-487 (1997). 
 A hybrid Gaussian and plane wave density functional scheme.
 http://dx.doi.org/10.1080/002689797170220


 Perdew, JP; Burke, K; Ernzerhof, M. 
 PHYSICAL REVIEW LETTERS, 77 (18), 3865-3868 (1996). 
 Generalized gradient approximation made simple.
 http://dx.doi.org/10.1103/PhysRevLett.77.3865


 Goedecker, S; Teter, M; Hutter, J. 
 PHYSICAL REVIEW B, 54 (3), 1703-1710 (1996). 
 Separable dual-space Gaussian pseudopotentials.
 http://dx.doi.org/10.1103/PhysRevB.54.1703


 -------------------------------------------------------------------------------
 -                                                                             -
 -                                T I M I N G                                  -
 -                                                                             -
 -------------------------------------------------------------------------------
 SUBROUTINE                       CALLS  ASD         SELF TIME        TOTAL TIME
                                MAXIMUM       AVERAGE  MAXIMUM  AVERAGE  MAXIMUM
 CP2K                                 1  1.0    0.177    0.180  864.159  864.163
 cp_geo_opt                           1  2.0    0.005    0.005  861.994  861.995
 geoopt_bfgs                          1  3.0    0.041    0.043  861.989  861.991
 cp_eval_at                           3  4.0    0.021    0.021  860.931  860.933
 qs_energies                          3  5.7    0.038    0.038  850.395  850.397
 scf_env_do_scf                       3  6.7    0.053    0.053  839.658  839.660
 scf_env_do_scf_inner_loop          165  7.9    0.920    1.301  822.606  822.608
 qs_forces                            2  5.0    0.022    0.022  796.744  796.745
 qs_rho_update_rho                  168  8.9    0.239    0.250  411.738  411.740
 calculate_rho_elec                 336  9.9  103.881  113.823  411.498  411.503
 rebuild_ks_matrix                  167  9.9    0.103    0.104  328.026  328.027
 qs_ks_build_kohn_sham_matrix       167 10.9    3.501    3.534  327.923  327.924
 qs_ks_update_qs_env                168  8.9    0.339    0.349  318.627  318.641
 density_rs2pw                      336 10.9    0.596    0.836  291.702  297.310
 pw_transfer                       3002 12.6    4.349    4.907  286.262  287.432
 fft_wrap_pw1pw2                   2668 13.6    0.827    0.918  273.023  273.681
 fft_wrap_pw1pw2_200                852 14.3   33.488   34.109  239.056  240.535
 fft3d_ps                          2668 15.6  109.015  109.879  187.229  190.470
 qs_vxc_create                      167 11.9    0.416    0.425  151.672  151.705
 xc_rho_set_and_dset_create         167 13.9   13.689   13.746  111.266  115.644
 qs_scf_new_mos                     165  8.9    0.196    0.199  109.709  109.714
 qs_scf_loop_do_ot                  165  9.9    0.371    0.378  109.512  109.521
 sum_up_and_integrate                59 11.8    3.512    3.548  107.386  107.426
 ot_scf_mini                        165 10.9    0.940    1.021  106.436  106.460
 integrate_v_rspace                 118 12.8   30.805   33.484  103.845  103.925
 rs_pw_transfer                    2275 12.7    0.788    1.112   85.305   90.747
 qs_ot_get_p                        336 11.9    0.265    0.302   84.687   84.831
 xc_vxc_pw_create                    59 12.8   16.487   17.214   77.154   77.180
 xc_exc_calc                        108 12.9    0.909    1.149   74.102   74.107
 qs_ot_p2m_diag                     278 13.0    0.758    0.839   69.203   69.390
 potential_pw2rs                    118 13.8    0.483    0.507   68.827   68.885
 cp_dbcsr_syevd                     290 13.9    1.530    1.542   57.485   57.539
 xc_functional_eval                 167 14.9    0.338    0.371   48.625   53.000
 pbe_lsd_eval                       167 15.9   48.287   52.689   48.287   52.689
 rs_pw_transfer_RS2PW_200           339 12.9   29.602   31.761   44.871   49.347
 pw_nn_compose_r                   1808 14.6   36.568   36.936   44.999   46.860
 dbcsr_multiply_generic            3987 13.6    3.111    3.243   41.561   41.852
 cp_fm_syevd                        298 14.7    0.180    0.206   41.659   41.687
 yz_to_x                           1801 16.1   23.110   23.440   38.457   39.879
 x_to_yz                            867 17.5   25.518   26.108   35.672   36.574
 cp_fm_redistribute_end             298 15.7   19.747   33.844   20.009   34.137
 pw_poisson_solve                   167 11.9   18.622   18.679   29.730   29.734
 cp_fm_syevd_base                   298 15.7   14.057   28.144   14.057   28.144
 mp_alltoall_z22v                  2668 17.6   25.501   27.307   25.501   27.307
 fft_wrap_pw1pw2_70                 454 14.7    4.041    4.357   24.068   27.272
 pw_gather_p                       1801 15.1   25.583   26.751   25.583   26.751
 mp_waitany                       10038 14.7   19.435   22.724   19.435   22.724
 pw_axpy                           2371 12.2   21.311   22.398   21.311   22.398
 pw_scatter_p                       867 16.5   20.965   21.500   20.965   21.500
 rs_pw_transfer_PW2RS_200           120 15.7   12.409   12.619   18.744   18.947
 -------------------------------------------------------------------------------

 The number of warnings for this run is : 2
 
 -------------------------------------------------------------------------------
  **** **** ******  **  PROGRAM ENDED AT                 2020-09-22 09:47:46.994
 ***** ** ***  *** **   PROGRAM RAN ON                                 irene4085
 **    ****   ******    PROGRAM RAN BY                                  marticar
 ***** **    ** ** **   PROGRAM PROCESS ID                                144009
  **** **  *******  **  PROGRAM STOPPED IN /ccc/scratch/cont003/gen0609/marticar
                                           /618225
