      26
 i =        1, E =      -138.5617559560
  C         2.5969832633       -0.6428707732       -1.1906943788
  C         1.7185363321       -0.5322817658        0.0514648209
  H         2.3574389557       -1.5675141288       -1.7414618892
  O         2.3097384037        0.5254071763       -1.9885456014
  H         3.6566941665       -0.6576876119       -0.8860262763
  C         0.2237928961       -0.7251823897       -0.2806001315
  C        -0.6858073062       -0.4871137764        0.9622907684
  O        -0.0181109369       -2.0163136902       -0.8682240750
  H        -0.0429601617       -0.0119556780       -1.0755107455
  C        -1.8845053520        0.4174330966        0.6495197971
  H        -0.0986782324       -0.0267076471        1.7706746481
  O        -1.1531303343       -1.7382129197        1.5108080979
  C        -1.4815897166        1.8753916666        0.4453763621
  O        -2.8145056494        0.4087644949        1.7426713931
  H        -2.3913735176        0.0472419257       -0.2678306782
  H        -0.8330121350        1.9811272493       -0.4366783010
  O        -2.6165563590        2.7099285932        0.2139218056
  H        -0.9113410774        2.2076651742        1.3336025878
  H         2.9847502521        0.5986152954       -2.6832470717
  H         0.3140261328       -2.6825604186       -0.2353201973
  H        -1.5456639615       -2.2287296415        0.7590504741
  H        -2.7422693702       -0.4809947193        2.1438651847
  H        -3.2491587465        2.5042909683        0.9283374590
  O         1.9300673633        0.7274818079        0.6979032749
  H         2.0232428090       -1.3126261446        0.7736676511
  H         2.0396505430        1.3754915197       -0.0277273850
      26
 i =        2, E =      -138.5617559560
  C         2.5969832633       -0.6428707732       -1.1906943788
  C         1.7185363321       -0.5322817658        0.0514648209
  H         2.3574389557       -1.5675141288       -1.7414618892
  O         2.3097384037        0.5254071763       -1.9885456014
  H         3.6566941665       -0.6576876119       -0.8860262763
  C         0.2237928961       -0.7251823897       -0.2806001315
  C        -0.6858073062       -0.4871137764        0.9622907684
  O        -0.0181109369       -2.0163136902       -0.8682240750
  H        -0.0429601617       -0.0119556780       -1.0755107455
  C        -1.8845053520        0.4174330966        0.6495197971
  H        -0.0986782324       -0.0267076471        1.7706746481
  O        -1.1531303343       -1.7382129197        1.5108080979
  C        -1.4815897166        1.8753916666        0.4453763621
  O        -2.8145056494        0.4087644949        1.7426713931
  H        -2.3913735176        0.0472419257       -0.2678306782
  H        -0.8330121350        1.9811272493       -0.4366783010
  O        -2.6165563590        2.7099285932        0.2139218056
  H        -0.9113410774        2.2076651742        1.3336025878
  H         2.9847502521        0.5986152954       -2.6832470717
  H         0.3140261328       -2.6825604186       -0.2353201973
  H        -1.5456639615       -2.2287296415        0.7590504741
  H        -2.7422693702       -0.4809947193        2.1438651847
  H        -3.2491587465        2.5042909683        0.9283374590
  O         1.9300673633        0.7274818079        0.6979032749
  H         2.0232428090       -1.3126261446        0.7736676511
  H         2.0396505430        1.3754915197       -0.0277273850
