 DBCSR| Multiplication driver                                               XSMM
 DBCSR| Multrec recursion limit                                              512
 DBCSR| Multiplication stack size                                           1000
 DBCSR| Maximum elements for images                                    UNLIMITED
 DBCSR| Multiplicative factor virtual images                                   1
 DBCSR| Multiplication size stacks                                             3
 DBCSR| Number of 3D layers                                               SINGLE
 DBCSR| Use MPI memory allocation                                              T
 DBCSR| Use RMA algorithm                                                      F
 DBCSR| Use Communication thread                                               T
 DBCSR| Communication thread load                                             87


  **** **** ******  **  PROGRAM STARTED AT               2020-10-08 11:02:49.240
 ***** ** ***  *** **   PROGRAM STARTED ON                             irene6238
 **    ****   ******    PROGRAM STARTED BY                              marticar
 ***** **    ** ** **   PROGRAM PROCESS ID                                144241
  **** **  *******  **  PROGRAM STARTED IN /ccc/scratch/cont003/gen0609/marticar
                                           /685762

 CP2K| version string:                                          CP2K version 6.1
 CP2K| source code revision number:                                    svn:18464
 CP2K| cp2kflags: libint fftw3 parallel mpi3 scalapack xsmm mkl                 
 CP2K| is freely available from                            https://www.cp2k.org/
 CP2K| Program compiled at                          Thu Dec 12 15:40:57 CET 2019
 CP2K| Program compiled on                                             cobalt175
 CP2K| Program compiled for                                   Linux-x86-64-iomkl
 CP2K| Data directory path          /tmp/cp2k/6.1/iomkl-195281.401/cp2k-6.1/data
 CP2K| Input file name                                             screening.inp
 
 GLOBAL| Force Environment number                                              1
 GLOBAL| Basis set file name            /ccc/work/cont003/gen0609/marticar/data/
 GLOBAL| Potential file name            /ccc/work/cont003/gen0609/marticar/data/
 GLOBAL| MM Potential file name                                     MM_POTENTIAL
 GLOBAL| Coordinate file name                                          coord.xyz
 GLOBAL| Method name                                                        CP2K
 GLOBAL| Project name                                                    PROJECT
 GLOBAL| Preferred FFT library                                             FFTW3
 GLOBAL| Preferred diagonalization lib.                                       SL
 GLOBAL| Run type                                                        GEO_OPT
 GLOBAL| All-to-all communication in single precision                          F
 GLOBAL| FFTs using library dependent lengths                                  F
 GLOBAL| Global print level                                                  LOW
 GLOBAL| Total number of message passing processes                             8
 GLOBAL| Number of threads for this process                                    1
 GLOBAL| This output is from process                                           0
 GLOBAL| CPU model name :  AMD EPYC 7H12 64-Core Processor

 MEMORY| system memory details [Kb]
 MEMORY|                        rank 0           min           max       average
 MEMORY| MemTotal            263246932     263246932     263246932     263246932
 MEMORY| MemFree             232629208     232629208     232709808     232699733
 MEMORY| Buffers                     0             0             0             0
 MEMORY| Cached                1631564       1631564       1631564       1631564
 MEMORY| Slab                  2186896       2186896       2186896       2186896
 MEMORY| SReclaimable           315624        315624        315624        315624
 MEMORY| MemLikelyFree       234576396     234576396     234656996     234646921

 
 GENERATE|  Preliminary Number of Bonds generated:                             0
 GENERATE|  Achieved consistency in connectivity generation.

 *******************************************************************************
 *******************************************************************************
 **                                                                           **
 **     #####                         ##              ##                      **
 **    ##   ##            ##          ##              ##                      **
 **   ##     ##                       ##            ######                    **
 **   ##     ##  ##   ##  ##   #####  ##  ##   ####   ##    #####    #####    **
 **   ##     ##  ##   ##  ##  ##      ## ##   ##      ##   ##   ##  ##   ##   **
 **   ##  ## ##  ##   ##  ##  ##      ####     ###    ##   ######   ######    **
 **    ##  ###   ##   ##  ##  ##      ## ##      ##   ##   ##       ##        **
 **     #######   #####   ##   #####  ##  ##  ####    ##    #####   ##        **
 **           ##                                                    ##        **
 **                                                                           **
 **                                                ... make the atoms dance   **
 **                                                                           **
 **            Copyright (C) by CP2K developers group (2000 - 2018)           **
 **                                                                           **
 *******************************************************************************


 TOTAL NUMBERS AND MAXIMUM NUMBERS

  Total number of            - Atomic kinds:                                   3
                             - Atoms:                                         40
                             - Shell sets:                                    40
                             - Shells:                                       276
                             - Primitive Cartesian functions:                204
                             - Cartesian basis functions:                   1168
                             - Spherical basis functions:                    976

  Maximum angular momentum of- Orbital basis functions:                        3
                             - Local part of the GTH pseudopotential:          2
                             - Non-local part of the GTH pseudopotential:      4


 SCF PARAMETERS         Density guess:                                   RESTART
                        --------------------------------------------------------
                        max_scf:                                             300
                        max_scf_history:                                       0
                        max_diis:                                              4
                        --------------------------------------------------------
                        eps_scf:                                        1.00E-05
                        eps_scf_history:                                0.00E+00
                        eps_diis:                                       1.00E-01
                        eps_eigval:                                     1.00E-05
                        --------------------------------------------------------
                        level_shift [a.u.]:                                 0.00
                        added MOs                                        38    0
                        --------------------------------------------------------
                        Mixing method:                            BROYDEN_MIXING
                                                charge density mixing in g-space
                        --------------------------------------------------------
                        Smear method:                                FERMI_DIRAC
                        Electronic temperature [K]:                        300.0
                        Electronic temperature [a.u.]:                  9.50E-04
                        Accuracy threshold:                             1.00E-10
                        --------------------------------------------------------
                        No outer SCF

 BFGS| Use rational function optimization for step estimation:                NO
 BFGS| Use model Hessian for initial guess:                                  YES
 BFGS| Restart Hessian:                                                       NO
 BFGS| Trust radius:                                                       0.472

 *******************************************************************************
 ***                     STARTING GEOMETRY OPTIMIZATION                      ***
 ***                                   BFGS                                  ***
 *******************************************************************************

 Number of electrons:                                                        428
 Number of occupied orbitals:                                                214
 Number of molecular orbitals:                                               252

 Number of orbital functions:                                                976
 Number of independent orbital functions:                                    976

 Extrapolation method: initial_guess

 *** WARNING in qs_initial_guess.F:263 :: User requested to restart the    ***
 *** wavefunction from the file named: PROJECT-RESTART.wfn. This file does ***
 *** not exist. Please check the existence of the file or change properly  ***
 *** the value of the keyword WFN_RESTART_FILE_NAME. Calculation continues ***
 *** using ATOMIC GUESS.                                                   ***



 SCF WAVEFUNCTION OPTIMIZATION

  Step     Update method      Time    Convergence         Total energy    Change
  ------------------------------------------------------------------------------
     1 NoMix/Diag. 0.10E+00   30.1     1.05161252     -1284.3599840873 -1.28E+03
     2 Broy./Diag. 0.10E+00   52.3     0.03056915     -1314.1393396388 -2.98E+01
     3 Broy./Diag. 0.10E+00   55.7     0.21859546     -1302.5674867476  1.16E+01
     4 Broy./Diag. 0.10E+00   53.0     0.01214641     -1290.5279885501  1.20E+01
     5 Broy./Diag. 0.10E+00   52.3     0.07015085     -1287.3790324161  3.15E+00
     6 Broy./Diag. 0.10E+00   51.0     0.00174926     -1284.9469403779  2.43E+00
     7 Broy./Diag. 0.10E+00   51.6     0.01359531     -1284.7709102942  1.76E-01
     8 Broy./Diag. 0.10E+00   53.6     0.00053951     -1284.6979338832  7.30E-02
     9 Broy./Diag. 0.10E+00   55.4     0.00443552     -1284.6807688973  1.72E-02
    10 Broy./Diag. 0.10E+00   56.4     0.00040789     -1284.5616816480  1.19E-01
    11 Broy./Diag. 0.10E+00   56.1     0.00259571     -1284.5914305084 -2.97E-02
    12 Broy./Diag. 0.10E+00   54.3     0.00017354     -1284.5401773420  5.13E-02
    13 Broy./Diag. 0.10E+00   57.3     0.00111330     -1284.5231893729  1.70E-02
    14 Broy./Diag. 0.10E+00   56.7     0.00006949     -1284.4936517580  2.95E-02
    15 Broy./Diag. 0.10E+00   61.8     0.00071665     -1284.4930386499  6.13E-04
    16 Broy./Diag. 0.10E+00   64.2     0.00004477     -1284.4775790591  1.55E-02
    17 Broy./Diag. 0.10E+00   62.0     0.00027711     -1284.4787820737 -1.20E-03
    18 Broy./Diag. 0.10E+00   54.8     0.00009588     -1284.4782663706  5.16E-04
    19 Broy./Diag. 0.10E+00   56.5     0.00015246     -1284.4799802554 -1.71E-03
    20 Broy./Diag. 0.10E+00   57.4     0.00009010     -1284.4769736555  3.01E-03
    21 Broy./Diag. 0.10E+00   58.8     0.00004625     -1284.4760474260  9.26E-04
    22 Broy./Diag. 0.10E+00   60.2     0.00005804     -1284.4791612540 -3.11E-03
    23 Broy./Diag. 0.10E+00   58.7     0.00003440     -1284.4805510139 -1.39E-03
    24 Broy./Diag. 0.10E+00   60.0     0.00006191     -1284.4767174586  3.83E-03
    25 Broy./Diag. 0.10E+00   60.8     0.00002986     -1284.4731775202  3.54E-03
    26 Broy./Diag. 0.10E+00   61.5     0.00001707     -1284.4735567998 -3.79E-04
    27 Broy./Diag. 0.10E+00   57.6     0.00001633     -1284.4743391492 -7.82E-04
    28 Broy./Diag. 0.10E+00   60.3     0.00001183     -1284.4743098315  2.93E-05
    29 Broy./Diag. 0.10E+00   54.2     0.00001682     -1284.4743900544 -8.02E-05
    30 Broy./Diag. 0.10E+00   57.0     0.00001746     -1284.4748051000 -4.15E-04
    31 Broy./Diag. 0.10E+00   57.5     0.00001575     -1284.4749563108 -1.51E-04
    32 Broy./Diag. 0.10E+00   53.4     0.00000658     -1284.4745123716  4.44E-04

  *** SCF run converged in    32 steps ***


  Electronic density on regular grids:       -427.9999999917        0.0000000083
  Core density on regular grids:              427.9999993680       -0.0000006320
  Total charge density on r-space grids:       -0.0000006237
  Total charge density g-space grids:          -0.0000006237

  Overlap energy of the core charge distribution:               0.00000397701048
  Self energy of the core charge distribution:              -2253.28808377914038
  Core Hamiltonian energy:                                    718.25658811990843
  Hartree energy:                                             454.49462293233415
  Exchange-correlation energy:                               -203.61725069157313
  Dispersion energy:                                           -0.32039231147245
  Electronic entropic energy:                                  -0.00000061868623
  Fermi energy:                                                -0.16439149959985

  Total energy:                                             -1284.47451237161954

 ENERGY| Total FORCE_EVAL ( QS ) energy (a.u.):            -1284.474275073517902


 --------  Informations at step =     0 ------------
  Optimization Method        =                 BFGS
  Total Energy               =     -1284.4742750735
  Used time                  =             1863.540
 ---------------------------------------------------

 --------------------------
 OPTIMIZATION STEP:      1
 --------------------------

 Number of electrons:                                                        428
 Number of occupied orbitals:                                                219
 Number of molecular orbitals:                                               252

 Number of orbital functions:                                                976
 Number of independent orbital functions:                                    976

 Extrapolation method: PS Nth order


 SCF WAVEFUNCTION OPTIMIZATION

  Step     Update method      Time    Convergence         Total energy    Change
  ------------------------------------------------------------------------------
     1 Broy./Diag. 0.10E+00   32.0     0.03614630     -1284.4824675597 -1.28E+03
     2 Broy./Diag. 0.10E+00   46.6     0.00096154     -1283.3809048058  1.10E+00
     3 Broy./Diag. 0.10E+00   48.2     0.00849563     -1283.9106692512 -5.30E-01
     4 Broy./Diag. 0.10E+00   49.8     0.00076991     -1284.3775270455 -4.67E-01
     5 Broy./Diag. 0.10E+00   50.2     0.00338838     -1284.4510648747 -7.35E-02
     6 Broy./Diag. 0.10E+00   52.6     0.00036079     -1284.5043199848 -5.33E-02
     7 Broy./Diag. 0.10E+00   58.3     0.00133362     -1284.5056872763 -1.37E-03
     8 Broy./Diag. 0.10E+00   61.9     0.00006953     -1284.4983071541  7.38E-03
     9 Broy./Diag. 0.10E+00   57.1     0.00035708     -1284.4918295105  6.48E-03
    10 Broy./Diag. 0.10E+00   57.0     0.00002256     -1284.4897327553  2.10E-03
    11 Broy./Diag. 0.10E+00   57.1     0.00014199     -1284.4881149247  1.62E-03
    12 Broy./Diag. 0.10E+00   59.5     0.00001390     -1284.4866725545  1.44E-03
    13 Broy./Diag. 0.10E+00   63.3     0.00008998     -1284.4882185912 -1.55E-03
    14 Broy./Diag. 0.10E+00   63.2     0.00000720     -1284.4890126409 -7.94E-04

  *** SCF run converged in    14 steps ***


  Electronic density on regular grids:       -427.9999999914        0.0000000086
  Core density on regular grids:              427.9999993683       -0.0000006317
  Total charge density on r-space grids:       -0.0000006230
  Total charge density g-space grids:          -0.0000006230

  Overlap energy of the core charge distribution:               0.00000337925185
  Self energy of the core charge distribution:              -2253.28808377914038
  Core Hamiltonian energy:                                    717.78744246613087
  Hartree energy:                                             454.70651104540218
  Exchange-correlation energy:                               -203.37666482618968
  Dispersion energy:                                           -0.31822006203700
  Electronic entropic energy:                                  -0.00000086434282
  Fermi energy:                                                -0.16508370299267

  Total energy:                                             -1284.48901264094138

 ENERGY| Total FORCE_EVAL ( QS ) energy (a.u.):            -1284.489325999038101


 --------  Informations at step =     1 ------------
  Optimization Method        =                 BFGS
  Total Energy               =     -1284.4893259990
  Real energy change         =        -0.0150509255
  Predicted change in energy =        -0.0120932064
  Scaling factor             =         0.0000000000
  Step size                  =         0.1089193636
  Trust radius               =         0.4724315332
  Decrease in energy         =                  YES
  Used time                  =              830.643

  Convergence check :
  Max. step size             =         0.1089193636
  Conv. limit for step size  =         1.0000000000
  Convergence in step size   =                  YES
  RMS step size              =         0.0444599137
  Conv. limit for RMS step   =         1.0000000000
  Convergence in RMS step    =                  YES
  Max. gradient              =         0.0092386680
  Conv. limit for gradients  =         0.0100000000
  Conv. in gradients         =                  YES
  RMS gradient               =         0.0021669771
  Conv. limit for RMS grad.  =         1.0000000000
  Conv. in RMS gradients     =                  YES
 ---------------------------------------------------

 *******************************************************************************
 ***                    GEOMETRY OPTIMIZATION COMPLETED                      ***
 *******************************************************************************

                    Reevaluating energy at the minimum

 Number of electrons:                                                        428
 Number of occupied orbitals:                                                219
 Number of molecular orbitals:                                               252

 Number of orbital functions:                                                976
 Number of independent orbital functions:                                    976

 Extrapolation method: PS Nth order


 SCF WAVEFUNCTION OPTIMIZATION

  Step     Update method      Time    Convergence         Total energy    Change
  ------------------------------------------------------------------------------
     1 Broy./Diag. 0.10E+00   29.2     0.01910850     -1284.4853884224 -1.28E+03
     2 Broy./Diag. 0.10E+00   47.2     0.00092280     -1284.5269752599 -4.16E-02
     3 Broy./Diag. 0.10E+00   46.5     0.00736488     -1284.4799533362  4.70E-02
     4 Broy./Diag. 0.10E+00   46.6     0.00067480     -1284.5428087691 -6.29E-02
     5 Broy./Diag. 0.10E+00   46.9     0.00276696     -1284.4967358913  4.61E-02
     6 Broy./Diag. 0.10E+00   48.2     0.00028289     -1284.4712200845  2.55E-02
     7 Broy./Diag. 0.10E+00   49.1     0.00104493     -1284.4515183886  1.97E-02
     8 Broy./Diag. 0.10E+00   60.5     0.00007801     -1284.4553119837 -3.79E-03
     9 Broy./Diag. 0.10E+00   56.2     0.00033425     -1284.4633043311 -7.99E-03
    10 Broy./Diag. 0.10E+00   59.2     0.00001794     -1284.4787562557 -1.55E-02
    11 Broy./Diag. 0.10E+00   53.9     0.00016990     -1284.4823971560 -3.64E-03
    12 Broy./Diag. 0.10E+00   26.2     0.00001372     -1284.4901324471 -7.74E-03
    13 Broy./Diag. 0.10E+00   26.9     0.00008130     -1284.4868379702  3.29E-03
    14 Broy./Diag. 0.10E+00   25.3     0.00000855     -1284.4863224982  5.15E-04

  *** SCF run converged in    14 steps ***


  Electronic density on regular grids:       -427.9999999914        0.0000000086
  Core density on regular grids:              427.9999993683       -0.0000006317
  Total charge density on r-space grids:       -0.0000006230
  Total charge density g-space grids:          -0.0000006230

  Overlap energy of the core charge distribution:               0.00000337925185
  Self energy of the core charge distribution:              -2253.28808377914038
  Core Hamiltonian energy:                                    717.78906613160154
  Hartree energy:                                             454.70752258014124
  Exchange-correlation energy:                               -203.37660988427322
  Dispersion energy:                                           -0.31822006203700
  Electronic entropic energy:                                  -0.00000086379315
  Fermi energy:                                                -0.16505255795742

  Total energy:                                             -1284.48632249819525

 ENERGY| Total FORCE_EVAL ( QS ) energy (a.u.):            -1284.486322498195250


 -------------------------------------------------------------------------------
 -                                                                             -
 -                                DBCSR STATISTICS                             -
 -                                                                             -
 -------------------------------------------------------------------------------
 COUNTER                                    TOTAL       BLAS       SMM       ACC
 flops    13 x    28 x    13               113568       0.0%    100.0%      0.0%
 flops    13 x    32 x    13               908544       0.0%    100.0%      0.0%
 flops    13 x    13 x    60              3893760       0.0%    100.0%      0.0%
 flops    13 x    28 x    25              4149600       0.0%    100.0%      0.0%
 flops    25 x    28 x    13              4149600       0.0%    100.0%      0.0%
 flops    13 x    13 x    64             12460032       0.0%    100.0%      0.0%
 flops    25 x    32 x    13             33196800       0.0%    100.0%      0.0%
 flops    13 x    32 x    25             33196800       0.0%    100.0%      0.0%
 flops    13 x    25 x    60             94848000       0.0%    100.0%      0.0%
 flops    25 x    13 x    60             94848000       0.0%    100.0%      0.0%
 flops    25 x    28 x    25            151620000       0.0%    100.0%      0.0%
 flops    13 x    25 x    64            303513600       0.0%    100.0%      0.0%
 flops    25 x    13 x    64            303513600       0.0%    100.0%      0.0%
 flops    25 x    32 x    25           1212960000       0.0%    100.0%      0.0%
 flops    25 x    25 x    60           3556800000       0.0%    100.0%      0.0%
 flops    25 x    25 x    64          11381760000       0.0%    100.0%      0.0%
 flops inhomo. stacks                           0       0.0%      0.0%      0.0%
 flops total                        17.191932E+09       0.0%    100.0%      0.0%
 flops max/rank                      2.404992E+09       0.0%    100.0%      0.0%
 matmuls inhomo. stacks                         0       0.0%      0.0%      0.0%
 matmuls total                             248320       0.0%    100.0%      0.0%
 number of processed stacks                  4878       0.0%    100.0%      0.0%
 average stack size                                     0.0      50.9       0.0
 marketing flops                    28.142928E+09
 -------------------------------------------------------------------------------
 # multiplications                             67
 max memory usage/rank               5.219774E+09
 # max total images/rank                        2
 # max 3D layers                                1
 # MPI messages exchanged                    4824
 MPI messages size (bytes):
  total size                       841.858560E+06
  min size                         114.240000E+03
  max size                           1.000000E+06
  average size                     174.514625E+03
 MPI breakdown and total messages size (bytes):
             size <=      128                   0                        0
       128 < size <=     8192                   0                        0
      8192 < size <=    32768                   0                        0
     32768 < size <=   131072                3216                395490816
    131072 < size <=  4194304                1608                446367744
   4194304 < size <= 16777216                   0                        0
  16777216 < size                               0                        0
 -------------------------------------------------------------------------------

 *** WARNING in dbcsr/mm/dbcsr_mm.F:268 :: Using a non-square number of ***
 *** MPI ranks might lead to poor performance.                          ***
 *** Used ranks: 8                                                      ***
 *** Suggested: 9 16                                                    ***

 -------------------------------------------------------------------------------
 
 MEMORY| Estimated peak process memory [MiB]                                5105

 -------------------------------------------------------------------------------
 -                                                                             -
 -                         MESSAGE PASSING PERFORMANCE                         -
 -                                                                             -
 -------------------------------------------------------------------------------

 ROUTINE             CALLS      AVE VOLUME [Bytes]
 MP_Group               72
 MP_Bcast              197                3096972.
 MP_Allreduce         1349                   1928.
 MP_Sync                 7
 MP_Alltoall          2831               50999189.
 MP_SendRecv          1048                1064980.
 MP_ISendRecv         2625                 823483.
 MP_Wait              9666
 MP_comm_split           2
 MP_ISend             4668                3907867.
 MP_IRecv             4668                3907475.
 MP_Recv                31                 228463.
 MP_Memory            8090
 -------------------------------------------------------------------------------


 -------------------------------------------------------------------------------
 -                                                                             -
 -                           R E F E R E N C E S                               -
 -                                                                             -
 -------------------------------------------------------------------------------
 
 CP2K version 6.1, the CP2K developers group (2018).
 CP2K is freely available from https://www.cp2k.org/ .

 Schuett, Ole; Messmer, Peter; Hutter, Juerg; VandeVondele, Joost. 
 Electronic Structure Calculations on Graphics Processing Units, John Wiley & Sons, Ltd, 173-190 (2016). 
 GPU-Accelerated Sparse Matrix-Matrix Multiplication for Linear Scaling Density Functional Theory.
 http://dx.doi.org/10.1002/9781118670712.ch8


 Borstnik, U; VandeVondele, J; Weber, V; Hutter, J. 
 PARALLEL COMPUTING, 40 (5-6), 47-58 (2014). 
 Sparse matrix multiplication: The distributed block-compressed sparse
 row library.
 http://dx.doi.org/10.1016/j.parco.2014.03.012


 Hutter, J; Iannuzzi, M; Schiffmann, F; VandeVondele, J. 
 WILEY INTERDISCIPLINARY REVIEWS-COMPUTATIONAL MOLECULAR SCIENCE, 4 (1), 15-25 (2014). 
 CP2K: atomistic simulations of condensed matter systems.
 http://dx.doi.org/10.1002/wcms.1159


 Grimme, S; Ehrlich, S; Goerigk, L. 
 JOURNAL OF COMPUTATIONAL CHEMISTRY, 32, 1456 (2011). 
 Effect of the damping function in dispersion corrected density functional theory.
 http://dx.doi.org/10.1002/jcc.21759


 Grimme, S; Antony, J; Ehrlich, S; Krieg, H. 
 JOURNAL OF CHEMICAL PHYSICS, 132 (15), 154104 (2010). 
 A consistent and accurate ab initio parametrization of density
 functional dispersion correction (DFT-D) for the 94 elements H-Pu.
 http://dx.doi.org/10.1063/1.3382344


 VandeVondele, J; Hutter, J. 
 JOURNAL OF CHEMICAL PHYSICS, 127 (11), 114105 (2007). 
 Gaussian basis sets for accurate calculations on molecular systems in
 gas and condensed phases.
 http://dx.doi.org/10.1063/1.2770708


 Krack, M. 
 THEORETICAL CHEMISTRY ACCOUNTS, 114 (1-3), 145-152 (2005). 
 Pseudopotentials for H to Kr optimized for gradient-corrected
 exchange-correlation functionals.
 http://dx.doi.org/10.1007/s00214-005-0655-y


 VandeVondele, J; Krack, M; Mohamed, F; Parrinello, M; Chassaing, T;
 Hutter, J. COMPUTER PHYSICS COMMUNICATIONS, 167 (2), 103-128 (2005). 
 QUICKSTEP: Fast and accurate density functional calculations using a
 mixed Gaussian and plane waves approach.
 http://dx.doi.org/10.1016/j.cpc.2004.12.014


 Frigo, M; Johnson, SG. 
 PROCEEDINGS OF THE IEEE, 93 (2), 216-231 (2005). 
 The design and implementation of FFTW3.
 http://dx.doi.org/10.1109/JPROC.2004.840301


 Hartwigsen, C; Goedecker, S; Hutter, J. 
 PHYSICAL REVIEW B, 58 (7), 3641-3662 (1998). 
 Relativistic separable dual-space Gaussian pseudopotentials from H to Rn.
 http://dx.doi.org/10.1103/PhysRevB.58.3641


 Lippert, G; Hutter, J; Parrinello, M. 
 MOLECULAR PHYSICS, 92 (3), 477-487 (1997). 
 A hybrid Gaussian and plane wave density functional scheme.
 http://dx.doi.org/10.1080/002689797170220


 Perdew, JP; Burke, K; Ernzerhof, M. 
 PHYSICAL REVIEW LETTERS, 77 (18), 3865-3868 (1996). 
 Generalized gradient approximation made simple.
 http://dx.doi.org/10.1103/PhysRevLett.77.3865


 Goedecker, S; Teter, M; Hutter, J. 
 PHYSICAL REVIEW B, 54 (3), 1703-1710 (1996). 
 Separable dual-space Gaussian pseudopotentials.
 http://dx.doi.org/10.1103/PhysRevB.54.1703


 -------------------------------------------------------------------------------
 -                                                                             -
 -                                T I M I N G                                  -
 -                                                                             -
 -------------------------------------------------------------------------------
 SUBROUTINE                       CALLS  ASD         SELF TIME        TOTAL TIME
                                MAXIMUM       AVERAGE  MAXIMUM  AVERAGE  MAXIMUM
 CP2K                                 1  1.0    0.186    0.372 3360.696 3360.780
 cp_geo_opt                           1  2.0    0.004    0.004 3345.720 3345.799
 geoopt_bfgs                          1  3.0    0.067    0.072 3345.716 3345.795
 cp_eval_at                           3  4.0    0.065    0.066 3344.741 3344.832
 qs_energies                          3  5.7    0.074    0.084 3270.428 3270.517
 scf_env_do_scf                       3  6.7    0.064    0.108 3199.221 3199.313
 scf_env_do_scf_inner_loop           60  7.8    1.477    1.938 3199.134 3199.236
 qs_forces                            2  5.0    0.066    0.069 2693.392 2693.458
 rebuild_ks_matrix                   62  9.7    0.112    0.116 1606.544 1606.577
 qs_ks_build_kohn_sham_matrix        62 10.7    5.037    5.288 1606.432 1606.468
 qs_ks_update_qs_env                 60  8.8    0.469    0.486 1541.963 1542.070
 pw_transfer                        934 12.7   10.451   10.783  960.608  965.653
 fft_wrap_pw1pw2                    810 13.7    2.088    2.155  935.330  940.604
 qs_vxc_create                       62 11.7    0.456    0.514  854.289  855.232
 xc_vxc_pw_create                    62 12.7   86.813   87.879  853.833  854.718
 fft_wrap_pw1pw2_200                310 14.0   77.797   85.004  831.376  835.912
 gspace_mixing                       57  8.8   12.060   12.114  654.102  654.121
 qs_rho_update_rho                   63  8.8    0.260    0.267  646.737  646.811
 calculate_rho_elec                  63  9.8   79.822   85.036  646.478  646.562
 xc_rho_set_and_dset_create          62 13.7   15.964   16.396  576.214  642.426
 fft3d_ps                           810 15.7  405.202  414.832  597.579  609.983
 density_rs2pw                       63 10.8    0.541    0.641  534.118  538.142
 xc_functional_eval                  62 14.7    0.344    0.416  427.301  492.850
 pbe_lda_eval                        62 15.7  426.957  492.511  426.957  492.511
 sum_up_and_integrate                62 11.7   14.683   14.781  481.030  481.075
 broyden_mixing                      57  9.8  454.465  457.616  473.526  476.278
 integrate_v_rspace                  62 12.7   99.505  105.423  466.306  466.469
 qs_scf_new_mos                      60  8.8    0.638    0.655  382.161  382.179
 pw_nn_compose_r                    496 14.2  197.749  200.673  293.609  353.830
 potential_pw2rs                     62 13.7    2.990    3.026  353.311  353.460
 eigensolver                         60  9.8    1.560    1.612  345.697  346.000
 cp_fm_syevd                         64 10.6    0.224    0.250  310.127  310.198
 cp_fm_syevd_base                    64 11.7  309.378  309.637  309.378  309.637
 rs_pw_transfer                     630 13.2    1.203    1.430  270.234  273.912
 mp_sendrecv_dm2                    992 15.2   95.860  156.879   95.860  156.879
 pw_scatter_p                       430 16.2  154.994  155.698  154.994  155.698
 x_to_yz                            430 17.2   67.823   68.364  111.347  113.410
 rs_pw_transfer_PW2RS_200            64 15.5   46.200   50.450   96.597   98.308
 rs_pw_transfer_RS2PW_200            66 12.7   52.979   53.533   92.408   93.654
 pw_gather_p                        380 15.2   90.713   91.262   90.713   91.262
 mp_alltoall_z22v                   810 17.7   79.806   83.819   79.806   83.819
 yz_to_x                            380 16.2   37.912   38.352   74.193   78.896
 fft_wrap_pw1pw2_70                 125 15.2    9.236    9.898   72.794   74.057
 pw_poisson_solve                    62 11.7   41.737   42.026   67.367   67.380
 -------------------------------------------------------------------------------

 The number of warnings for this run is : 2
 
 -------------------------------------------------------------------------------
  **** **** ******  **  PROGRAM ENDED AT                 2020-10-08 11:58:54.008
 ***** ** ***  *** **   PROGRAM RAN ON                                 irene6238
 **    ****   ******    PROGRAM RAN BY                                  marticar
 ***** **    ** ** **   PROGRAM PROCESS ID                                144241
  **** **  *******  **  PROGRAM STOPPED IN /ccc/scratch/cont003/gen0609/marticar
                                           /685762
