 DBCSR| Multiplication driver                                               XSMM
 DBCSR| Multrec recursion limit                                              512
 DBCSR| Multiplication stack size                                           1000
 DBCSR| Maximum elements for images                                    UNLIMITED
 DBCSR| Multiplicative factor virtual images                                   1
 DBCSR| Multiplication size stacks                                             3
 DBCSR| Number of 3D layers                                               SINGLE
 DBCSR| Use MPI memory allocation                                              T
 DBCSR| Use RMA algorithm                                                      F
 DBCSR| Use Communication thread                                               T
 DBCSR| Communication thread load                                             87


  **** **** ******  **  PROGRAM STARTED AT               2020-10-07 12:26:08.954
 ***** ** ***  *** **   PROGRAM STARTED ON                             irene4926
 **    ****   ******    PROGRAM STARTED BY                              marticar
 ***** **    ** ** **   PROGRAM PROCESS ID                                249975
  **** **  *******  **  PROGRAM STARTED IN /ccc/scratch/cont003/gen0609/marticar
                                           /684158

 CP2K| version string:                                          CP2K version 6.1
 CP2K| source code revision number:                                    svn:18464
 CP2K| cp2kflags: libint fftw3 parallel mpi3 scalapack xsmm mkl                 
 CP2K| is freely available from                            https://www.cp2k.org/
 CP2K| Program compiled at                          Thu Dec 12 15:40:57 CET 2019
 CP2K| Program compiled on                                             cobalt175
 CP2K| Program compiled for                                   Linux-x86-64-iomkl
 CP2K| Data directory path          /tmp/cp2k/6.1/iomkl-195281.401/cp2k-6.1/data
 CP2K| Input file name                                             screening.inp
 
 GLOBAL| Force Environment number                                              1
 GLOBAL| Basis set file name            /ccc/work/cont003/gen0609/marticar/data/
 GLOBAL| Potential file name            /ccc/work/cont003/gen0609/marticar/data/
 GLOBAL| MM Potential file name                                     MM_POTENTIAL
 GLOBAL| Coordinate file name                                          coord.xyz
 GLOBAL| Method name                                                        CP2K
 GLOBAL| Project name                                                    PROJECT
 GLOBAL| Preferred FFT library                                             FFTW3
 GLOBAL| Preferred diagonalization lib.                                       SL
 GLOBAL| Run type                                                        GEO_OPT
 GLOBAL| All-to-all communication in single precision                          F
 GLOBAL| FFTs using library dependent lengths                                  F
 GLOBAL| Global print level                                                  LOW
 GLOBAL| Total number of message passing processes                            16
 GLOBAL| Number of threads for this process                                    1
 GLOBAL| This output is from process                                           0
 GLOBAL| CPU model name :  AMD EPYC 7H12 64-Core Processor

 MEMORY| system memory details [Kb]
 MEMORY|                        rank 0           min           max       average
 MEMORY| MemTotal            263246932     263246932     263246932     263246932
 MEMORY| MemFree             240116428     240116428     240116428     240116428
 MEMORY| Buffers                     0             0             0             0
 MEMORY| Cached                1632708       1632708       1632708       1632708
 MEMORY| Slab                  2120908       2120908       2120908       2120908
 MEMORY| SReclaimable           278112        278112        278112        278112
 MEMORY| MemLikelyFree       242027248     242027248     242027248     242027248

 
 GENERATE|  Preliminary Number of Bonds generated:                             0
 GENERATE|  Achieved consistency in connectivity generation.

 *******************************************************************************
 *******************************************************************************
 **                                                                           **
 **     #####                         ##              ##                      **
 **    ##   ##            ##          ##              ##                      **
 **   ##     ##                       ##            ######                    **
 **   ##     ##  ##   ##  ##   #####  ##  ##   ####   ##    #####    #####    **
 **   ##     ##  ##   ##  ##  ##      ## ##   ##      ##   ##   ##  ##   ##   **
 **   ##  ## ##  ##   ##  ##  ##      ####     ###    ##   ######   ######    **
 **    ##  ###   ##   ##  ##  ##      ## ##      ##   ##   ##       ##        **
 **     #######   #####   ##   #####  ##  ##  ####    ##    #####   ##        **
 **           ##                                                    ##        **
 **                                                                           **
 **                                                ... make the atoms dance   **
 **                                                                           **
 **            Copyright (C) by CP2K developers group (2000 - 2018)           **
 **                                                                           **
 *******************************************************************************


 TOTAL NUMBERS AND MAXIMUM NUMBERS

  Total number of            - Atomic kinds:                                   7
                             - Atoms:                                        168
                             - Shell sets:                                   168
                             - Shells:                                       960
                             - Primitive Cartesian functions:               1122
                             - Cartesian basis functions:                   3081
                             - Spherical basis functions:                   2718

  Maximum angular momentum of- Orbital basis functions:                        3
                             - Local part of the GTH pseudopotential:          2
                             - Non-local part of the GTH pseudopotential:      3


 SCF PARAMETERS         Density guess:                                   RESTART
                        --------------------------------------------------------
                        max_scf:                                             500
                        max_scf_history:                                       0
                        max_diis:                                              4
                        --------------------------------------------------------
                        eps_scf:                                        1.00E-05
                        eps_scf_history:                                0.00E+00
                        eps_diis:                                       1.00E-01
                        eps_eigval:                                     1.00E-05
                        --------------------------------------------------------
                        level_shift [a.u.]:                                 0.00
                        --------------------------------------------------------
                        Outer loop SCF in use 
                        No variables optimised in outer loop
                        eps_scf                                         1.00E-05
                        max_scf                                               10
                        No outer loop optimization
                        step_size                                       5.00E-01

 BFGS| Use rational function optimization for step estimation:                NO
 BFGS| Use model Hessian for initial guess:                                  YES
 BFGS| Restart Hessian:                                                       NO
 BFGS| Trust radius:                                                       0.472

 *******************************************************************************
 ***                     STARTING GEOMETRY OPTIMIZATION                      ***
 ***                                   BFGS                                  ***
 *******************************************************************************

 Spin 1

 Number of electrons:                                                        719
 Number of occupied orbitals:                                                719
 Number of molecular orbitals:                                               719

 Spin 2

 Number of electrons:                                                        719
 Number of occupied orbitals:                                                719
 Number of molecular orbitals:                                               719

 Number of orbital functions:                                               2718
 Number of independent orbital functions:                                   2718

 Extrapolation method: initial_guess

 *** WARNING in qs_initial_guess.F:263 :: User requested to restart the    ***
 *** wavefunction from the file named: PROJECT-RESTART.wfn. This file does ***
 *** not exist. Please check the existence of the file or change properly  ***
 *** the value of the keyword WFN_RESTART_FILE_NAME. Calculation continues ***
 *** using ATOMIC GUESS.                                                   ***



 SCF WAVEFUNCTION OPTIMIZATION

  ----------------------------------- OT ---------------------------------------
  Minimizer      : CG                  : conjugate gradient
  Preconditioner : FULL_ALL            : diagonalization, state selective
  Precond_solver : DEFAULT
  Line search    : 3PNT                : 3 energies
  stepsize       :    0.15000000                  energy_gap     :    0.08000000
  eps_taylor     :   0.10000E-15                  max_taylor     :             4
  ----------------------------------- OT ---------------------------------------

  Step     Update method      Time    Convergence         Total energy    Change
  ------------------------------------------------------------------------------
     1 OT CG       0.12E+00   11.4     0.01828177     -8056.2394066614 -8.06E+03
     2 OT LS       0.17E+00    6.9                    -8118.2121608531
     3 OT LS       0.12E+00    6.9                    -8109.2581723189
     4 OT CG       0.97E-01   13.4     0.00594836     -8118.1038533799 -6.19E+01
     5 OT LS       0.14E+00    6.9                    -8126.7045913029
     6 OT LS       0.16E+00    6.9                    -8127.9571465589
     7 OT CG       0.12E+00   13.4     0.00525062     -8128.1183290646 -1.00E+01
     8 OT LS       0.17E+00    6.9                    -8136.2164945080
     9 OT LS       0.17E+00    6.9                    -8136.7121679352
    10 OT CG       0.13E+00   13.4     0.00284888     -8136.7246633663 -8.61E+00
    11 OT LS       0.19E+00    7.0                    -8139.5560927728
    12 OT LS       0.20E+00    7.0                    -8139.9067187017
    13 OT CG       0.16E+00   13.4     0.00264480     -8139.9256300556 -3.20E+00
    14 OT LS       0.22E+00    7.0                    -8140.5118284172
    15 OT LS       0.93E-01    7.0                    -8138.6709770639
    16 OT CG       0.74E-01   13.4     0.00197490     -8141.1797505035 -1.25E+00
    17 OT LS       0.10E+00    7.0                    -8141.9940552187
    18 OT LS       0.13E+00    6.9                    -8142.1445212751
    19 OT CG       0.11E+00   13.4     0.00156047     -8142.1938585588 -1.01E+00
    20 OT LS       0.15E+00    7.0                    -8142.7134275828
    21 OT LS       0.11E+00    6.9                    -8142.6384081864
    22 OT CG       0.87E-01   13.4     0.00126058     -8142.7135726350 -5.20E-01
    23 OT LS       0.12E+00    6.9                    -8143.0711963641
    24 OT LS       0.13E+00    6.9                    -8143.1100810134
    25 OT CG       0.10E+00   13.4     0.00106831     -8143.1106934707 -3.97E-01
    26 OT LS       0.14E+00    7.0                    -8143.3381308522
    27 OT LS       0.10E+00    6.9                    -8143.3027348754
    28 OT CG       0.81E-01   13.4     0.00090742     -8143.3381362419 -2.27E-01
    29 OT LS       0.11E+00    7.0                    -8143.5211351007
    30 OT LS       0.13E+00    7.0                    -8143.5497475828
    31 OT CG       0.11E+00   13.4     0.00081603     -8143.5546685968 -2.17E-01
    32 OT LS       0.15E+00    7.0                    -8143.6994946939
    33 OT LS       0.11E+00    6.9                    -8143.6815873313
    34 OT CG       0.89E-01   13.4     0.00069084     -8143.6996647456 -1.45E-01
    35 OT LS       0.12E+00    6.9                    -8143.8076807033
    36 OT LS       0.13E+00    6.9                    -8143.8179704054
    37 OT CG       0.10E+00   13.4     0.00061341     -8143.8179853638 -1.18E-01
    38 OT LS       0.14E+00    6.9                    -8143.9002880908
    39 OT LS       0.11E+00    6.9                    -8143.8957042694
    40 OT CG       0.90E-01   13.3     0.00052349     -8143.9011926717 -8.32E-02
    41 OT LS       0.13E+00    6.9                    -8143.9663845710
    42 OT LS       0.14E+00    6.9                    -8143.9747459378
    43 OT CG       0.11E+00   13.4     0.00047488     -8143.9752627447 -7.41E-02
    44 OT LS       0.15E+00    6.9                    -8144.0277425598
    45 OT LS       0.12E+00    7.0                    -8144.0237299519
    46 OT CG       0.96E-01   13.4     0.00041055     -8144.0280897393 -5.28E-02
    47 OT LS       0.13E+00    6.9                    -8144.0671213413
    48 OT LS       0.13E+00    7.0                    -8144.0691614132
    49 OT CG       0.10E+00   13.4     0.00037058     -8144.0693804133 -4.13E-02
    50 OT LS       0.14E+00    6.9                    -8144.1006596810
    51 OT LS       0.12E+00    7.0                    -8144.1005250845
    52 OT CG       0.96E-01   13.4     0.00033186     -8144.1015004454 -3.21E-02
    53 OT LS       0.13E+00    6.9                    -8144.1273165087
    54 OT LS       0.13E+00    7.0                    -8144.1290079297
    55 OT CG       0.10E+00   13.4     0.00029748     -8144.1290708525 -2.76E-02
    56 OT LS       0.14E+00    6.9                    -8144.1495614448
    57 OT LS       0.12E+00    6.9                    -8144.1494009456
    58 OT CG       0.97E-01   13.4     0.00026718     -8144.1500833281 -2.10E-02
    59 OT LS       0.14E+00    6.9                    -8144.1666777403
    60 OT LS       0.13E+00    7.0                    -8144.1674309086
    61 OT CG       0.10E+00   13.4     0.00024298     -8144.1675597114 -1.75E-02
    62 OT LS       0.14E+00    6.9                    -8144.1810751656
    63 OT LS       0.12E+00    7.0                    -8144.1811082270
    64 OT CG       0.96E-01   13.4     0.00021144     -8144.1814760581 -1.39E-02
    65 OT LS       0.14E+00    6.9                    -8144.1920167256
    66 OT LS       0.13E+00    7.0                    -8144.1926924842
    67 OT CG       0.10E+00   13.4     0.00019193     -8144.1927205123 -1.12E-02
    68 OT LS       0.14E+00    6.9                    -8144.2016055401
    69 OT LS       0.13E+00    7.0                    -8144.2018326545
    70 OT CG       0.10E+00   13.4     0.00017578     -8144.2019706763 -9.25E-03
    71 OT LS       0.14E+00    6.9                    -8144.2094311004
    72 OT LS       0.13E+00    6.9                    -8144.2096403680
    73 OT CG       0.10E+00   13.4     0.00016008     -8144.2097480805 -7.78E-03
    74 OT LS       0.14E+00    6.9                    -8144.2159524103
    75 OT LS       0.13E+00    6.9                    -8144.2161299547
    76 OT CG       0.10E+00   13.4     0.00014834     -8144.2162180066 -6.47E-03
    77 OT LS       0.14E+00    6.9                    -8144.2216451014
    78 OT LS       0.13E+00    6.9                    -8144.2218757525
    79 OT CG       0.11E+00   13.4     0.00014132     -8144.2219232940 -5.71E-03
    80 OT LS       0.15E+00    7.0                    -8144.2267254664
    81 OT LS       0.13E+00    6.9                    -8144.2266939501
    82 OT CG       0.10E+00   13.4     0.00013256     -8144.2268501265 -4.93E-03
    83 OT LS       0.14E+00    6.9                    -8144.2311505068
    84 OT LS       0.13E+00    6.9                    -8144.2313937288
    85 OT CG       0.11E+00   13.4     0.00012756     -8144.2314130091 -4.56E-03
    86 OT LS       0.15E+00    7.0                    -8144.2355157480
    87 OT LS       0.13E+00    6.9                    -8144.2356687614
    88 OT CG       0.11E+00   13.4     0.00012389     -8144.2357128820 -4.30E-03
    89 OT LS       0.15E+00    6.9                    -8144.2396684086
    90 OT LS       0.14E+00    6.9                    -8144.2398291073
    91 OT CG       0.11E+00   13.4     0.00012343     -8144.2398668943 -4.15E-03
    92 OT LS       0.15E+00    6.9                    -8144.2438379157
    93 OT LS       0.14E+00    6.9                    -8144.2439492535
    94 OT CG       0.11E+00   13.4     0.00012376     -8144.2440077737 -4.14E-03
    95 OT LS       0.16E+00    7.0                    -8144.2480567493
    96 OT LS       0.14E+00    6.9                    -8144.2482033149
    97 OT CG       0.11E+00   13.5     0.00012460     -8144.2482500616 -4.24E-03
    98 OT LS       0.16E+00    6.9                    -8144.2523780515
    99 OT LS       0.14E+00    6.9                    -8144.2524821184
   100 OT CG       0.11E+00   13.4     0.00012791     -8144.2525496572 -4.30E-03
   101 OT LS       0.16E+00    6.9                    -8144.2569203409
   102 OT LS       0.14E+00    6.9                    -8144.2570547635
   103 OT CG       0.11E+00   13.4     0.00013353     -8144.2571160086 -4.57E-03
   104 OT LS       0.16E+00    6.9                    -8144.2618009992
   105 OT LS       0.14E+00    6.9                    -8144.2618358593
   106 OT CG       0.11E+00   13.4     0.00013602     -8144.2619550170 -4.84E-03
   107 OT LS       0.15E+00    6.9                    -8144.2667425846
   108 OT LS       0.14E+00    6.9                    -8144.2668421032
   109 OT CG       0.11E+00   13.4     0.00013871     -8144.2669311871 -4.98E-03
   110 OT LS       0.15E+00    6.9                    -8144.2718711628
   111 OT LS       0.13E+00    7.0                    -8144.2719815065
   112 OT CG       0.11E+00   13.4     0.00014048     -8144.2720699742 -5.14E-03
   113 OT LS       0.15E+00    7.0                    -8144.2771544676
   114 OT LS       0.14E+00    6.9                    -8144.2773219218
   115 OT CG       0.11E+00   13.4     0.00014118     -8144.2773888846 -5.32E-03
   116 OT LS       0.15E+00    6.9                    -8144.2824758520
   117 OT LS       0.13E+00    6.9                    -8144.2825653333
   118 OT CG       0.11E+00   13.4     0.00014118     -8144.2826668135 -5.28E-03
   119 OT LS       0.15E+00    6.9                    -8144.2876985319
   120 OT LS       0.13E+00    6.9                    -8144.2878143882
   121 OT CG       0.11E+00   13.4     0.00013887     -8144.2879006028 -5.23E-03
   122 OT LS       0.15E+00    6.9                    -8144.2927503576
   123 OT LS       0.13E+00    6.9                    -8144.2928792907
   124 OT CG       0.11E+00   13.4     0.00013418     -8144.2929539473 -5.05E-03
   125 OT LS       0.15E+00    6.9                    -8144.2974772654
   126 OT LS       0.13E+00    7.0                    -8144.2975971613
   127 OT CG       0.11E+00   13.4     0.00012985     -8144.2976666650 -4.71E-03
   128 OT LS       0.15E+00    7.0                    -8144.3018635011
   129 OT LS       0.13E+00    6.9                    -8144.3019405206
   130 OT CG       0.11E+00   13.5     0.00012368     -8144.3020207172 -4.35E-03
   131 OT LS       0.15E+00    6.9                    -8144.3057877022
   132 OT LS       0.13E+00    6.9                    -8144.3058704352
   133 OT CG       0.10E+00   13.4     0.00011761     -8144.3059355369 -3.91E-03
   134 OT LS       0.15E+00    6.9                    -8144.3093056066
   135 OT LS       0.13E+00    6.9                    -8144.3093729490
   136 OT CG       0.10E+00   13.4     0.00011006     -8144.3094340623 -3.50E-03
   137 OT LS       0.14E+00    6.9                    -8144.3123706122
   138 OT LS       0.13E+00    6.9                    -8144.3124460613
   139 OT CG       0.10E+00   13.4     0.00010175     -8144.3124914425 -3.06E-03
   140 OT LS       0.14E+00    6.9                    -8144.3150086520
   141 OT LS       0.13E+00    6.9                    -8144.3150837489
   142 OT CG       0.10E+00   13.4     0.00009371     -8144.3151180900 -2.63E-03
   143 OT LS       0.15E+00    6.9                    -8144.3172606285
   144 OT LS       0.13E+00    6.9                    -8144.3173211614
   145 OT CG       0.10E+00   13.4     0.00008655     -8144.3173518407 -2.23E-03
   146 OT LS       0.15E+00    7.0                    -8144.3191626139
   147 OT LS       0.13E+00    6.9                    -8144.3191940835
   148 OT CG       0.10E+00   13.4     0.00007952     -8144.3192290968 -1.88E-03
   149 OT LS       0.14E+00    7.0                    -8144.3207497929
   150 OT LS       0.13E+00    7.0                    -8144.3207900597
   151 OT CG       0.10E+00   13.4     0.00007277     -8144.3208129875 -1.58E-03
   152 OT LS       0.14E+00    7.0                    -8144.3220902785
   153 OT LS       0.13E+00    6.9                    -8144.3221279097
   154 OT CG       0.10E+00   13.4     0.00006714     -8144.3221455067 -1.33E-03
   155 OT LS       0.14E+00    7.0                    -8144.3232315668
   156 OT LS       0.13E+00    6.9                    -8144.3232578421
   157 OT CG       0.10E+00   13.4     0.00006195     -8144.3232753335 -1.13E-03
   158 OT LS       0.14E+00    7.0                    -8144.3242016222
   159 OT LS       0.13E+00    6.9                    -8144.3242288467
   160 OT CG       0.10E+00   13.4     0.00005713     -8144.3242416483 -9.66E-04
   161 OT LS       0.14E+00    7.0                    -8144.3250370750
   162 OT LS       0.13E+00    6.9                    -8144.3250643647
   163 OT CG       0.10E+00   13.4     0.00005336     -8144.3250737440 -8.32E-04
   164 OT LS       0.15E+00    7.0                    -8144.3257732027
   165 OT LS       0.13E+00    7.0                    -8144.3257942633
   166 OT CG       0.10E+00   13.4     0.00004973     -8144.3258037194 -7.30E-04
   167 OT LS       0.15E+00    7.0                    -8144.3264143372
   168 OT LS       0.13E+00    6.9                    -8144.3264324744
   169 OT CG       0.11E+00   13.3     0.00004643     -8144.3264408341 -6.37E-04
   170 OT LS       0.15E+00    6.9                    -8144.3269764410
   171 OT LS       0.13E+00    6.9                    -8144.3269928398
   172 OT CG       0.11E+00   13.4     0.00004391     -8144.3269999666 -5.59E-04
   173 OT LS       0.15E+00    6.9                    -8144.3274740148
   174 OT LS       0.13E+00    6.9                    -8144.3274810537
   175 OT CG       0.10E+00   13.4     0.00004126     -8144.3274908206 -4.91E-04
   176 OT LS       0.15E+00    6.9                    -8144.3279072565
   177 OT LS       0.13E+00    7.0                    -8144.3279186670
   178 OT CG       0.10E+00   13.4     0.00003880     -8144.3279247862 -4.34E-04
   179 OT LS       0.15E+00    6.9                    -8144.3282946937
   180 OT LS       0.13E+00    7.0                    -8144.3283060767
   181 OT CG       0.11E+00   13.4     0.00003645     -8144.3283109770 -3.86E-04
   182 OT LS       0.15E+00    6.9                    -8144.3286380639
   183 OT LS       0.13E+00    7.0                    -8144.3286466637
   184 OT CG       0.10E+00   13.4     0.00003429     -8144.3286516289 -3.41E-04
   185 OT LS       0.15E+00    6.9                    -8144.3289423516
   186 OT LS       0.13E+00    7.0                    -8144.3289513587
   187 OT CG       0.11E+00   13.4     0.00003217     -8144.3289551832 -3.04E-04
   188 OT LS       0.15E+00    6.9                    -8144.3292111495
   189 OT LS       0.13E+00    7.0                    -8144.3292173969
   190 OT CG       0.11E+00   13.4     0.00003012     -8144.3292214983 -2.66E-04
   191 OT LS       0.15E+00    6.9                    -8144.3294450154
   192 OT LS       0.13E+00    7.0                    -8144.3294504172
   193 OT CG       0.10E+00   13.4     0.00002827     -8144.3294540228 -2.33E-04
   194 OT LS       0.15E+00    6.9                    -8144.3296496550
   195 OT LS       0.13E+00    7.0                    -8144.3296540487
   196 OT CG       0.10E+00   13.4     0.00002630     -8144.3296573578 -2.03E-04
   197 OT LS       0.15E+00    6.9                    -8144.3298261443
   198 OT LS       0.13E+00    7.0                    -8144.3298304425
   199 OT CG       0.10E+00   13.4     0.00002456     -8144.3298330655 -1.76E-04
   200 OT LS       0.15E+00    6.9                    -8144.3299796666
   201 OT LS       0.13E+00    7.0                    -8144.3299830774
   202 OT CG       0.10E+00   13.4     0.00002286     -8144.3299855017 -1.52E-04
   203 OT LS       0.14E+00    6.9                    -8144.3301125571
   204 OT LS       0.13E+00    7.0                    -8144.3301162433
   205 OT CG       0.10E+00   13.4     0.00002120     -8144.3301180194 -1.33E-04
   206 OT LS       0.15E+00    6.9                    -8144.3302277114
   207 OT LS       0.13E+00    6.9                    -8144.3302309248
   208 OT CG       0.10E+00   13.4     0.00001978     -8144.3302324448 -1.14E-04
   209 OT LS       0.15E+00    6.9                    -8144.3303284800
   210 OT LS       0.13E+00    6.9                    -8144.3303313733
   211 OT CG       0.10E+00   13.4     0.00001837     -8144.3303326700 -1.00E-04
   212 OT LS       0.15E+00    6.9                    -8144.3304161458
   213 OT LS       0.13E+00    6.9                    -8144.3304188687
   214 OT CG       0.11E+00   13.4     0.00001724     -8144.3304199093 -8.72E-05
   215 OT LS       0.15E+00    7.0                    -8144.3304933984
   216 OT LS       0.13E+00    6.9                    -8144.3304950579
   217 OT CG       0.11E+00   13.5     0.00001626     -8144.3304962961 -7.64E-05
   218 OT LS       0.15E+00    6.9                    -8144.3305612100
   219 OT LS       0.13E+00    6.9                    -8144.3305626807
   220 OT CG       0.10E+00   13.4     0.00001529     -8144.3305637722 -6.75E-05
   221 OT LS       0.15E+00    6.9                    -8144.3306214000
   222 OT LS       0.13E+00    6.9                    -8144.3306232364
   223 OT CG       0.11E+00   13.4     0.00001448     -8144.3306239726 -6.02E-05
   224 OT LS       0.15E+00    6.9                    -8144.3306758989
   225 OT LS       0.13E+00    6.9                    -8144.3306773918
   226 OT CG       0.11E+00   13.4     0.00001371     -8144.3306781234 -5.42E-05
   227 OT LS       0.15E+00    6.9                    -8144.3307247944
   228 OT LS       0.13E+00    6.9                    -8144.3307260765
   229 OT CG       0.11E+00   13.5     0.00001297     -8144.3307267601 -4.86E-05
   230 OT LS       0.15E+00    7.0                    -8144.3307689911
   231 OT LS       0.13E+00    6.9                    -8144.3307705358
   232 OT CG       0.11E+00   13.4     0.00001237     -8144.3307709958 -4.42E-05
   233 OT LS       0.15E+00    6.9                    -8144.3308092805
   234 OT LS       0.13E+00    6.9                    -8144.3308100212
   235 OT CG       0.11E+00   13.5     0.00001173     -8144.3308107248 -3.97E-05
   236 OT LS       0.15E+00    6.9                    -8144.3308450002
   237 OT LS       0.13E+00    6.9                    -8144.3308458572
   238 OT CG       0.11E+00   13.4     0.00001115     -8144.3308463968 -3.57E-05
   239 OT LS       0.15E+00    6.9                    -8144.3308772932
   240 OT LS       0.13E+00    6.9                    -8144.3308780945
   241 OT CG       0.11E+00   13.4     0.00001057     -8144.3308785680 -3.22E-05
   242 OT LS       0.15E+00    6.9                    -8144.3309061583
   243 OT LS       0.13E+00    6.9                    -8144.3309067551
   244 OT CG       0.11E+00   13.4     0.00000995     -8144.3309072323 -2.87E-05

  *** SCF run converged in   244 steps ***


  Electronic density on regular grids:      -1437.9999923221        0.0000076779
  Core density on regular grids:             1437.9999996446       -0.0000003554
  Total charge density on r-space grids:        0.0000073225
  Total charge density g-space grids:           0.0000073225

  Overlap energy of the core charge distribution:               0.00000638850542
  Self energy of the core charge distribution:             -14650.93922905635191
  Core Hamiltonian energy:                                   4107.57091325124566
  Hartree energy:                                            3440.64744809959120
  Exchange-correlation energy:                              -1042.49244387605086
  Dispersion energy:                                           -0.57667184228645

  DFT+U energy:                                                 1.45906980308470

  Total energy:                                             -8144.33090723226269

  outer SCF iter =    1 RMS gradient =   0.10E-04 energy =      -8144.3309072323
  outer SCF loop converged in   1 iterations or  244 steps


  Integrated absolute spin density  :                             235.0838202021
  Ideal and single determinant S**2 :                    0.000000     127.897351

 ENERGY| Total FORCE_EVAL ( QS ) energy (a.u.):            -8144.330931752145261


 --------  Informations at step =     0 ------------
  Optimization Method        =                 BFGS
  Total Energy               =     -8144.3309317521
  Used time                  =             2256.343
 ---------------------------------------------------

 --------------------------
 OPTIMIZATION STEP:      1
 --------------------------

 Spin 1

 Number of electrons:                                                        719
 Number of occupied orbitals:                                                719
 Number of molecular orbitals:                                               719

 Spin 2

 Number of electrons:                                                        719
 Number of occupied orbitals:                                                719
 Number of molecular orbitals:                                               719

 Number of orbital functions:                                               2718
 Number of independent orbital functions:                                   2718

 Extrapolation method: PS Nth order


 SCF WAVEFUNCTION OPTIMIZATION

  ----------------------------------- OT ---------------------------------------
  Minimizer      : CG                  : conjugate gradient
  Preconditioner : FULL_ALL            : diagonalization, state selective
  Precond_solver : DEFAULT
  Line search    : 3PNT                : 3 energies
  stepsize       :    0.15000000                  energy_gap     :    0.08000000
  eps_taylor     :   0.10000E-15                  max_taylor     :             4
  ----------------------------------- OT ---------------------------------------

  Step     Update method      Time    Convergence         Total energy    Change
  ------------------------------------------------------------------------------
     1 OT CG       0.12E+00   11.5     0.00012649     -8144.3344606246 -8.14E+03
     2 OT LS       0.17E+00    6.8                    -8144.3409689374
     3 OT LS       0.45E+00    6.8                    -8144.3430144795
     4 OT CG       0.36E+00   13.6     0.00006358     -8144.3485948835 -1.41E-02
     5 OT LS       0.18E+00    6.8                    -8144.3449187117
     6 OT LS       0.11E+00    6.7                    -8144.3491038171
     7 OT CG       0.88E-01   13.6     0.00002087     -8144.3494639081 -8.69E-04
     8 OT LS       0.12E+00    6.8                    -8144.3495585886
     9 OT LS       0.12E+00    6.8                    -8144.3495655990
    10 OT CG       0.96E-01   13.6     0.00001037     -8144.3495656912 -1.02E-04
    11 OT LS       0.13E+00    6.8                    -8144.3495905381
    12 OT LS       0.13E+00    6.8                    -8144.3495918552
    13 OT CG       0.10E+00   13.6     0.00000554     -8144.3495919887 -2.63E-05

  *** SCF run converged in    13 steps ***


  Electronic density on regular grids:      -1437.9999923115        0.0000076885
  Core density on regular grids:             1437.9999996448       -0.0000003552
  Total charge density on r-space grids:        0.0000073333
  Total charge density g-space grids:           0.0000073333

  Overlap energy of the core charge distribution:               0.00000642785291
  Self energy of the core charge distribution:             -14650.93922905635191
  Core Hamiltonian energy:                                   4107.58786835028150
  Hartree energy:                                            3440.62126085760565
  Exchange-correlation energy:                              -1042.49960583130814
  Dispersion energy:                                           -0.57664517263563

  DFT+U energy:                                                 1.45675243582632

  Total energy:                                             -8144.34959198872821

  outer SCF iter =    1 RMS gradient =   0.55E-05 energy =      -8144.3495919887
  outer SCF loop converged in   1 iterations or   13 steps


  Integrated absolute spin density  :                             235.0951236672
  Ideal and single determinant S**2 :                    0.000000     127.896635

 ENERGY| Total FORCE_EVAL ( QS ) energy (a.u.):            -8144.349598970209627


 --------  Informations at step =     1 ------------
  Optimization Method        =                 BFGS
  Total Energy               =     -8144.3495989702
  Real energy change         =        -0.0186672181
  Predicted change in energy =        -0.0154220272
  Scaling factor             =         0.0000000000
  Step size                  =         0.2567300754
  Trust radius               =         0.4724315332
  Decrease in energy         =                  YES
  Used time                  =              152.690

  Convergence check :
  Max. step size             =         0.2567300754
  Conv. limit for step size  =         1.0000000000
  Convergence in step size   =                  YES
  RMS step size              =         0.0219040323
  Conv. limit for RMS step   =         1.0000000000
  Convergence in RMS step    =                  YES
  Max. gradient              =         0.0279059988
  Conv. limit for gradients  =         0.0100000000
  Conv. for gradients        =                   NO
  RMS gradient               =         0.0019981879
  Conv. limit for RMS grad.  =         1.0000000000
  Conv. in RMS gradients     =                  YES
 ---------------------------------------------------

 --------------------------
 OPTIMIZATION STEP:      2
 --------------------------

 Spin 1

 Number of electrons:                                                        719
 Number of occupied orbitals:                                                719
 Number of molecular orbitals:                                               719

 Spin 2

 Number of electrons:                                                        719
 Number of occupied orbitals:                                                719
 Number of molecular orbitals:                                               719

 Number of orbital functions:                                               2718
 Number of independent orbital functions:                                   2718

 Extrapolation method: PS Nth order


 SCF WAVEFUNCTION OPTIMIZATION

  ----------------------------------- OT ---------------------------------------
  Minimizer      : CG                  : conjugate gradient
  Preconditioner : FULL_ALL            : diagonalization, state selective
  Precond_solver : DEFAULT
  Line search    : 3PNT                : 3 energies
  stepsize       :    0.15000000                  energy_gap     :    0.08000000
  eps_taylor     :   0.10000E-15                  max_taylor     :             4
  ----------------------------------- OT ---------------------------------------

  Step     Update method      Time    Convergence         Total energy    Change
  ------------------------------------------------------------------------------
     1 OT CG       0.12E+00   11.6     0.00010764     -8144.3440495120 -8.14E+03
     2 OT LS       0.17E+00    6.8                    -8144.3485147405
     3 OT LS       0.34E+00    6.7                    -8144.3497596612
     4 OT CG       0.27E+00   13.6     0.00009223     -8144.3516980420 -7.65E-03
     5 OT LS       0.13E+00    6.8                    -8144.3516597927
     6 OT LS       0.13E+00    6.8                    -8144.3539552010
     7 OT CG       0.11E+00   13.6     0.00002402     -8144.3539551851 -2.26E-03
     8 OT LS       0.15E+00    6.8                    -8144.3540849421
     9 OT LS       0.12E+00    6.8                    -8144.3540733638
    10 OT CG       0.92E-01   13.6     0.00001131     -8144.3540855346 -1.30E-04
    11 OT LS       0.13E+00    6.8                    -8144.3541133692
    12 OT LS       0.12E+00    6.8                    -8144.3541143000
    13 OT CG       0.93E-01   13.6     0.00000639     -8144.3541146374 -2.91E-05

  *** SCF run converged in    13 steps ***


  Electronic density on regular grids:      -1437.9999923049        0.0000076951
  Core density on regular grids:             1437.9999996450       -0.0000003550
  Total charge density on r-space grids:        0.0000073401
  Total charge density g-space grids:           0.0000073401

  Overlap energy of the core charge distribution:               0.00000803085693
  Self energy of the core charge distribution:             -14650.93922905635191
  Core Hamiltonian energy:                                   4107.66823870478220
  Hartree energy:                                            3440.56043369013287
  Exchange-correlation energy:                              -1042.52181763793715
  Dispersion energy:                                           -0.57614825857506

  DFT+U energy:                                                 1.45439988970325

  Total energy:                                             -8144.35411463738910

  outer SCF iter =    1 RMS gradient =   0.64E-05 energy =      -8144.3541146374
  outer SCF loop converged in   1 iterations or   13 steps


  Integrated absolute spin density  :                             235.0941765320
  Ideal and single determinant S**2 :                    0.000000     127.895391

 ENERGY| Total FORCE_EVAL ( QS ) energy (a.u.):            -8144.354123876334597


 --------  Informations at step =     2 ------------
  Optimization Method        =                 BFGS
  Total Energy               =     -8144.3541238763
  Real energy change         =        -0.0045249061
  Predicted change in energy =        -0.0042626174
  Scaling factor             =         0.0000000000
  Step size                  =         0.1609966177
  Trust radius               =         0.4724315332
  Decrease in energy         =                  YES
  Used time                  =              152.934

  Convergence check :
  Max. step size             =         0.1609966177
  Conv. limit for step size  =         1.0000000000
  Convergence in step size   =                  YES
  RMS step size              =         0.0148876585
  Conv. limit for RMS step   =         1.0000000000
  Convergence in RMS step    =                  YES
  Max. gradient              =         0.0156458930
  Conv. limit for gradients  =         0.0100000000
  Conv. for gradients        =                   NO
  RMS gradient               =         0.0025654777
  Conv. limit for RMS grad.  =         1.0000000000
  Conv. in RMS gradients     =                  YES
 ---------------------------------------------------

 --------------------------
 OPTIMIZATION STEP:      3
 --------------------------

  Step is scaled; Scaling factor =  0.90265

 Spin 1

 Number of electrons:                                                        719
 Number of occupied orbitals:                                                719
 Number of molecular orbitals:                                               719

 Spin 2

 Number of electrons:                                                        719
 Number of occupied orbitals:                                                719
 Number of molecular orbitals:                                               719

 Number of orbital functions:                                               2718
 Number of independent orbital functions:                                   2718

 Extrapolation method: PS Nth order


 SCF WAVEFUNCTION OPTIMIZATION

  ----------------------------------- OT ---------------------------------------
  Minimizer      : CG                  : conjugate gradient
  Preconditioner : FULL_ALL            : diagonalization, state selective
  Precond_solver : DEFAULT
  Line search    : 3PNT                : 3 energies
  stepsize       :    0.15000000                  energy_gap     :    0.08000000
  eps_taylor     :   0.10000E-15                  max_taylor     :             4
  ----------------------------------- OT ---------------------------------------

  Step     Update method      Time    Convergence         Total energy    Change
  ------------------------------------------------------------------------------
     1 OT CG       0.12E+00   11.6     0.00019534     -8144.3109825679 -8.14E+03
     2 OT LS       0.17E+00    6.7                    -8144.3257369888
     3 OT LS       0.34E+00    6.8                    -8144.3298741979
     4 OT CG       0.27E+00   13.6     0.00017111     -8144.3363793042 -2.54E-02
     5 OT LS       0.14E+00    6.7                    -8144.3353077700
     6 OT LS       0.13E+00    6.8                    -8144.3438128100
     7 OT CG       0.11E+00   13.6     0.00004227     -8144.3438243430 -7.45E-03
     8 OT LS       0.15E+00    6.8                    -8144.3441999894
     9 OT LS       0.11E+00    6.8                    -8144.3441500511
    10 OT CG       0.86E-01   13.6     0.00001792     -8144.3442002221 -3.76E-04
    11 OT LS       0.12E+00    6.8                    -8144.3442731200
    12 OT LS       0.13E+00    6.8                    -8144.3442822912
    13 OT CG       0.11E+00   13.6     0.00001079     -8144.3442828153 -8.26E-05
    14 OT LS       0.15E+00    6.8                    -8144.3443101633
    15 OT LS       0.12E+00    6.8                    -8144.3443095902
    16 OT CG       0.98E-01   13.6     0.00000394     -8144.3443107240 -2.79E-05

  *** SCF run converged in    16 steps ***


  Electronic density on regular grids:      -1437.9999922988        0.0000077012
  Core density on regular grids:             1437.9999996451       -0.0000003549
  Total charge density on r-space grids:        0.0000073463
  Total charge density g-space grids:           0.0000073463

  Overlap energy of the core charge distribution:               0.00000974620036
  Self energy of the core charge distribution:             -14650.93922905635191
  Core Hamiltonian energy:                                   4107.80644864003807
  Hartree energy:                                            3440.46058303887821
  Exchange-correlation energy:                              -1042.54487836409385
  Dispersion energy:                                           -0.57672123477258

  DFT+U energy:                                                 1.44947650608357

  Total energy:                                             -8144.34431072401912

  outer SCF iter =    1 RMS gradient =   0.39E-05 energy =      -8144.3443107240
  outer SCF loop converged in   1 iterations or   16 steps


  Integrated absolute spin density  :                             235.0644581541
  Ideal and single determinant S**2 :                    0.000000     127.882934

 ENERGY| Total FORCE_EVAL ( QS ) energy (a.u.):            -8144.344314720759030


 --------  Informations at step =     3 ------------
  Optimization Method        =                 BFGS
  Total Energy               =     -8144.3443147208
  Real energy change         =         0.0098091556
  Predicted change in energy =        -0.0112077142
  Scaling factor             =         0.9026521456
  Step size                  =         0.4724315332
  Trust radius               =         0.4724315332
  Decrease in energy         =                   NO
  Used time                  =              180.343

  Convergence check :
  Max. step size             =         0.4724315332
  Conv. limit for step size  =         1.0000000000
  Convergence in step size   =                  YES
  RMS step size              =         0.0415267113
  Conv. limit for RMS step   =         1.0000000000
  Convergence in RMS step    =                  YES
  Max. gradient              =         0.0557153101
  Conv. limit for gradients  =         0.0100000000
  Conv. for gradients        =                   NO
  RMS gradient               =         0.0046855209
  Conv. limit for RMS grad.  =         1.0000000000
  Conv. in RMS gradients     =                  YES
 ---------------------------------------------------

 --------------------------
 OPTIMIZATION STEP:      4
 --------------------------

 Spin 1

 Number of electrons:                                                        719
 Number of occupied orbitals:                                                719
 Number of molecular orbitals:                                               719

 Spin 2

 Number of electrons:                                                        719
 Number of occupied orbitals:                                                719
 Number of molecular orbitals:                                               719

 Number of orbital functions:                                               2718
 Number of independent orbital functions:                                   2718

 Extrapolation method: PS Nth order


 SCF WAVEFUNCTION OPTIMIZATION

  ----------------------------------- OT ---------------------------------------
  Minimizer      : CG                  : conjugate gradient
  Preconditioner : FULL_ALL            : diagonalization, state selective
  Precond_solver : DEFAULT
  Line search    : 3PNT                : 3 energies
  stepsize       :    0.15000000                  energy_gap     :    0.08000000
  eps_taylor     :   0.10000E-15                  max_taylor     :             4
  ----------------------------------- OT ---------------------------------------

  Step     Update method      Time    Convergence         Total energy    Change
  ------------------------------------------------------------------------------
     1 OT CG       0.12E+00   11.6     0.00034255     -8144.2557796215 -8.14E+03
     2 OT LS       0.17E+00    6.8                    -8144.3004980975
     3 OT LS       0.32E+00    6.8                    -8144.3126013697
     4 OT CG       0.26E+00   13.9     0.00029064     -8144.3290811595 -7.33E-02
     5 OT LS       0.36E+00    6.9                    -8144.3379143841
     6 OT LS       0.14E+00    6.9                    -8144.2989657691
     7 OT CG       0.11E+00   13.8     0.00009088     -8144.3526719288 -2.36E-02
     8 OT LS       0.16E+00    6.8                    -8144.3543434502
     9 OT LS       0.10E+00    6.8                    -8144.3538809424
    10 OT CG       0.84E-01   13.8     0.00003928     -8144.3543584578 -1.69E-03
    11 OT LS       0.12E+00    6.9                    -8144.3546904838
    12 OT LS       0.12E+00    6.9                    -8144.3547272302
    13 OT CG       0.98E-01   13.7     0.00002171     -8144.3547280175 -3.70E-04
    14 OT LS       0.14E+00    6.8                    -8144.3548470568
    15 OT LS       0.14E+00    6.8                    -8144.3548602217
    16 OT CG       0.12E+00   13.7     0.00000865     -8144.3548605020 -1.32E-04

  *** SCF run converged in    16 steps ***


  Electronic density on regular grids:      -1437.9999922941        0.0000077059
  Core density on regular grids:             1437.9999996445       -0.0000003555
  Total charge density on r-space grids:        0.0000073504
  Total charge density g-space grids:           0.0000073504

  Overlap energy of the core charge distribution:               0.00000548881580
  Self energy of the core charge distribution:             -14650.93922905635191
  Core Hamiltonian energy:                                   4107.59021234587453
  Hartree energy:                                            3440.61629630808784
  Exchange-correlation energy:                              -1042.49922794437043
  Dispersion energy:                                           -0.57592542727300

  DFT+U energy:                                                 1.45300778317348

  Total energy:                                             -8144.35486050204509

  outer SCF iter =    1 RMS gradient =   0.86E-05 energy =      -8144.3548605020
  outer SCF loop converged in   1 iterations or   16 steps


  Integrated absolute spin density  :                             235.0838441303
  Ideal and single determinant S**2 :                    0.000000     127.893401

 ENERGY| Total FORCE_EVAL ( QS ) energy (a.u.):            -8144.354880506502923


 --------  Informations at step =     4 ------------
  Optimization Method        =                 BFGS
  Total Energy               =     -8144.3548805065
  Real energy change         =        -0.0105657857
  Predicted change in energy =        -0.0101854356
  Scaling factor             =         0.9026521456
  Step size                  =         0.1725982096
  Trust radius               =         0.4724315332
  Decrease in energy         =                  YES
  Used time                  =              181.740

  Convergence check :
  Max. step size             =         0.1725982096
  Conv. limit for step size  =         1.0000000000
  Convergence in step size   =                  YES
  RMS step size              =         0.0171905269
  Conv. limit for RMS step   =         1.0000000000
  Convergence in RMS step    =                  YES
  Max. gradient              =         0.0284805163
  Conv. limit for gradients  =         0.0100000000
  Conv. for gradients        =                   NO
  RMS gradient               =         0.0035454249
  Conv. limit for RMS grad.  =         1.0000000000
  Conv. in RMS gradients     =                  YES
 ---------------------------------------------------

 --------------------------
 OPTIMIZATION STEP:      5
 --------------------------

 Spin 1

 Number of electrons:                                                        719
 Number of occupied orbitals:                                                719
 Number of molecular orbitals:                                               719

 Spin 2

 Number of electrons:                                                        719
 Number of occupied orbitals:                                                719
 Number of molecular orbitals:                                               719

 Number of orbital functions:                                               2718
 Number of independent orbital functions:                                   2718

 Extrapolation method: PS Nth order


 SCF WAVEFUNCTION OPTIMIZATION

  ----------------------------------- OT ---------------------------------------
  Minimizer      : CG                  : conjugate gradient
  Preconditioner : FULL_ALL            : diagonalization, state selective
  Precond_solver : DEFAULT
  Line search    : 3PNT                : 3 energies
  stepsize       :    0.15000000                  energy_gap     :    0.08000000
  eps_taylor     :   0.10000E-15                  max_taylor     :             4
  ----------------------------------- OT ---------------------------------------

  Step     Update method      Time    Convergence         Total energy    Change
  ------------------------------------------------------------------------------
     1 OT CG       0.12E+00   11.6     0.00022646     -8144.2936419994 -8.14E+03
     2 OT LS       0.17E+00    6.7                    -8144.3118160843
     3 OT LS       0.25E+00    6.8                    -8144.3157955476
     4 OT CG       0.20E+00   13.6     0.00019185     -8144.3182572599 -2.46E-02
     5 OT LS       0.28E+00    6.7                    -8144.3303506409
     6 OT LS       0.17E+00    6.7                    -8144.3261625009
     7 OT CG       0.14E+00   13.6     0.00006694     -8144.3306047291 -1.23E-02
     8 OT LS       0.19E+00    6.8                    -8144.3315366925
     9 OT LS       0.11E+00    6.7                    -8144.3310831043
    10 OT CG       0.90E-01   13.6     0.00003126     -8144.3315867236 -9.82E-04
    11 OT LS       0.13E+00    6.8                    -8144.3318115678
    12 OT LS       0.13E+00    6.7                    -8144.3318353269
    13 OT CG       0.10E+00   13.7     0.00001858     -8144.3318356368 -2.49E-04
    14 OT LS       0.15E+00    6.8                    -8144.3319199496
    15 OT LS       0.13E+00    6.7                    -8144.3319221414
    16 OT CG       0.10E+00   13.6     0.00000648     -8144.3319234309 -8.78E-05

  *** SCF run converged in    16 steps ***


  Electronic density on regular grids:      -1437.9999922910        0.0000077090
  Core density on regular grids:             1437.9999996450       -0.0000003550
  Total charge density on r-space grids:        0.0000073540
  Total charge density g-space grids:           0.0000073540

  Overlap energy of the core charge distribution:               0.00000467653982
  Self energy of the core charge distribution:             -14650.93922905635191
  Core Hamiltonian energy:                                   4107.40413861345041
  Hartree energy:                                            3440.75781667480669
  Exchange-correlation energy:                              -1042.44514647632809
  Dispersion energy:                                           -0.57029568433625

  DFT+U energy:                                                 1.46078782134902

  Total energy:                                             -8144.33192343087012

  outer SCF iter =    1 RMS gradient =   0.65E-05 energy =      -8144.3319234309
  outer SCF loop converged in   1 iterations or   16 steps


  Integrated absolute spin density  :                             235.0949171040
  Ideal and single determinant S**2 :                    0.000000     127.898588

 ENERGY| Total FORCE_EVAL ( QS ) energy (a.u.):            -8144.331934564219409


 --------  Informations at step =     5 ------------
  Optimization Method        =                 BFGS
  Total Energy               =     -8144.3319345642
  Real energy change         =         0.0229459423
  Predicted change in energy =        -0.0144783580
  Scaling factor             =         0.9026521456
  Step size                  =         0.3931511930
  Trust radius               =         0.4724315332
  Decrease in energy         =                   NO
  Used time                  =              180.814

  Convergence check :
  Max. step size             =         0.3931511930
  Conv. limit for step size  =         1.0000000000
  Convergence in step size   =                  YES
  RMS step size              =         0.0404178863
  Conv. limit for RMS step   =         1.0000000000
  Convergence in RMS step    =                  YES
  Max. gradient              =         0.0506448607
  Conv. limit for gradients  =         0.0100000000
  Conv. for gradients        =                   NO
  RMS gradient               =         0.0083917056
  Conv. limit for RMS grad.  =         1.0000000000
  Conv. in RMS gradients     =                  YES
 ---------------------------------------------------

 --------------------------
 OPTIMIZATION STEP:      6
 --------------------------

 Spin 1

 Number of electrons:                                                        719
 Number of occupied orbitals:                                                719
 Number of molecular orbitals:                                               719

 Spin 2

 Number of electrons:                                                        719
 Number of occupied orbitals:                                                719
 Number of molecular orbitals:                                               719

 Number of orbital functions:                                               2718
 Number of independent orbital functions:                                   2718

 Extrapolation method: PS Nth order


 SCF WAVEFUNCTION OPTIMIZATION

  ----------------------------------- OT ---------------------------------------
  Minimizer      : CG                  : conjugate gradient
  Preconditioner : FULL_ALL            : diagonalization, state selective
  Precond_solver : DEFAULT
  Line search    : 3PNT                : 3 energies
  stepsize       :    0.15000000                  energy_gap     :    0.08000000
  eps_taylor     :   0.10000E-15                  max_taylor     :             4
  ----------------------------------- OT ---------------------------------------

  Step     Update method      Time    Convergence         Total energy    Change
  ------------------------------------------------------------------------------
     1 OT CG       0.12E+00   11.6     0.00042684     -8144.1994510099 -8.14E+03
     2 OT LS       0.17E+00    6.8                    -8144.2667859109
     3 OT LS       0.28E+00    6.8                    -8144.2836273835
     4 OT CG       0.23E+00   13.8     0.00037460     -8144.3007414096 -1.01E-01
     5 OT LS       0.32E+00    7.0                    -8144.3347949714
     6 OT LS       0.16E+00    6.8                    -8144.2969394478
     7 OT CG       0.12E+00   13.7     0.00012675     -8144.3438424908 -4.31E-02
     8 OT LS       0.17E+00    6.8                    -8144.3467564162
     9 OT LS       0.99E-01    6.8                    -8144.3451449986
    10 OT CG       0.79E-01   13.6     0.00005116     -8144.3469648097 -3.12E-03
    11 OT LS       0.11E+00    6.8                    -8144.3474966079
    12 OT LS       0.12E+00    6.8                    -8144.3475533081
    13 OT CG       0.92E-01   13.7     0.00002660     -8144.3475541423 -5.89E-04
    14 OT LS       0.13E+00    6.8                    -8144.3477274003
    15 OT LS       0.14E+00    6.8                    -8144.3477511165
    16 OT CG       0.12E+00   13.6     0.00001288     -8144.3477533091 -1.99E-04
    17 OT LS       0.16E+00    6.8                    -8144.3477985310
    18 OT LS       0.15E+00    6.8                    -8144.3478000899
    19 OT CG       0.12E+00   13.6     0.00000687     -8144.3478006198 -4.73E-05

  *** SCF run converged in    19 steps ***


  Electronic density on regular grids:      -1437.9999922929        0.0000077071
  Core density on regular grids:             1437.9999996439       -0.0000003561
  Total charge density on r-space grids:        0.0000073510
  Total charge density g-space grids:           0.0000073510

  Overlap energy of the core charge distribution:               0.00000701425384
  Self energy of the core charge distribution:             -14650.93922905635191
  Core Hamiltonian energy:                                   4107.61371821033572
  Hartree energy:                                            3440.59147747401948
  Exchange-correlation energy:                              -1042.49394491579119
  Dispersion energy:                                           -0.57690560868358

  DFT+U energy:                                                 1.45707626238583

  Total energy:                                             -8144.34780061983110

  outer SCF iter =    1 RMS gradient =   0.69E-05 energy =      -8144.3478006198
  outer SCF loop converged in   1 iterations or   19 steps


  Integrated absolute spin density  :                             235.0545272557
  Ideal and single determinant S**2 :                    0.000000     127.879871

 ENERGY| Total FORCE_EVAL ( QS ) energy (a.u.):            -8144.347813365202455


 --------  Informations at step =     6 ------------
  Optimization Method        =                 BFGS
  Total Energy               =     -8144.3478133652
  Real energy change         =        -0.0158788010
  Predicted change in energy =        -0.0314562206
  Scaling factor             =         0.9026521456
  Step size                  =         0.2100124124
  Trust radius               =         0.4724315332
  Decrease in energy         =                   NO
  Used time                  =              208.356

  Convergence check :
  Max. step size             =         0.2100124124
  Conv. limit for step size  =         1.0000000000
  Convergence in step size   =                  YES
  RMS step size              =         0.0251072663
  Conv. limit for RMS step   =         1.0000000000
  Convergence in RMS step    =                  YES
  Max. gradient              =         0.0199662968
  Conv. limit for gradients  =         0.0100000000
  Conv. for gradients        =                   NO
  RMS gradient               =         0.0026497746
  Conv. limit for RMS grad.  =         1.0000000000
  Conv. in RMS gradients     =                  YES
 ---------------------------------------------------

 --------------------------
 OPTIMIZATION STEP:      7
 --------------------------

 Spin 1

 Number of electrons:                                                        719
 Number of occupied orbitals:                                                719
 Number of molecular orbitals:                                               719

 Spin 2

 Number of electrons:                                                        719
 Number of occupied orbitals:                                                719
 Number of molecular orbitals:                                               719

 Number of orbital functions:                                               2718
 Number of independent orbital functions:                                   2718

 Extrapolation method: PS Nth order


 SCF WAVEFUNCTION OPTIMIZATION

  ----------------------------------- OT ---------------------------------------
  Minimizer      : CG                  : conjugate gradient
  Preconditioner : FULL_ALL            : diagonalization, state selective
  Precond_solver : DEFAULT
  Line search    : 3PNT                : 3 energies
  stepsize       :    0.15000000                  energy_gap     :    0.08000000
  eps_taylor     :   0.10000E-15                  max_taylor     :             4
  ----------------------------------- OT ---------------------------------------

  Step     Update method      Time    Convergence         Total energy    Change
  ------------------------------------------------------------------------------
     1 OT CG       0.12E+00   11.6     0.00033218     -8144.2586493183 -8.14E+03
     2 OT LS       0.17E+00    6.8                    -8144.2973100624
     3 OT LS       0.24E+00    6.8                    -8144.3054511313
     4 OT CG       0.19E+00   13.7     0.00027539     -8144.3098365941 -5.12E-02
     5 OT LS       0.27E+00    6.8                    -8144.3377359862
     6 OT LS       0.19E+00    6.8                    -8144.3329426682
     7 OT CG       0.15E+00   13.7     0.00010207     -8144.3377388831 -2.79E-02
     8 OT LS       0.21E+00    6.8                    -8144.3398602053
     9 OT LS       0.12E+00    6.8                    -8144.3384708815
    10 OT CG       0.92E-01   13.7     0.00003711     -8144.3400806594 -2.34E-03
    11 OT LS       0.13E+00    6.8                    -8144.3403727668
    12 OT LS       0.11E+00    6.8                    -8144.3403756799
    13 OT CG       0.90E-01   13.6     0.00002292     -8144.3403824370 -3.02E-04
    14 OT LS       0.13E+00    6.8                    -8144.3405103770
    15 OT LS       0.15E+00    6.8                    -8144.3405300775
    16 OT CG       0.12E+00   13.6     0.00000914     -8144.3405332679 -1.51E-04

  *** SCF run converged in    16 steps ***


  Electronic density on regular grids:      -1437.9999923073        0.0000076927
  Core density on regular grids:             1437.9999996445       -0.0000003555
  Total charge density on r-space grids:        0.0000073372
  Total charge density g-space grids:           0.0000073372

  Overlap energy of the core charge distribution:               0.00000982054967
  Self energy of the core charge distribution:             -14650.93922905635191
  Core Hamiltonian energy:                                   4107.49714699163815
  Hartree energy:                                            3440.68270501047709
  Exchange-correlation energy:                              -1042.47499393115277
  Dispersion energy:                                           -0.56535557463537

  DFT+U energy:                                                 1.45918347158822

  Total energy:                                             -8144.34053326788853

  outer SCF iter =    1 RMS gradient =   0.91E-05 energy =      -8144.3405332679
  outer SCF loop converged in   1 iterations or   16 steps


  Integrated absolute spin density  :                             235.1286910987
  Ideal and single determinant S**2 :                    0.000000     127.910852

 ENERGY| Total FORCE_EVAL ( QS ) energy (a.u.):            -8144.340555547131771


 --------  Informations at step =     7 ------------
  Optimization Method        =                 BFGS
  Total Energy               =     -8144.3405555471
  Real energy change         =         0.0072578181
  Predicted change in energy =        -0.0137087993
  Scaling factor             =         0.9026521456
  Step size                  =         0.3049409570
  Trust radius               =         0.4724315332
  Decrease in energy         =                   NO
  Used time                  =              180.584

  Convergence check :
  Max. step size             =         0.3049409570
  Conv. limit for step size  =         1.0000000000
  Convergence in step size   =                  YES
  RMS step size              =         0.0357599900
  Conv. limit for RMS step   =         1.0000000000
  Convergence in RMS step    =                  YES
  Max. gradient              =         0.0465652835
  Conv. limit for gradients  =         0.0100000000
  Conv. for gradients        =                   NO
  RMS gradient               =         0.0081218287
  Conv. limit for RMS grad.  =         1.0000000000
  Conv. in RMS gradients     =                  YES
 ---------------------------------------------------

 --------------------------
 OPTIMIZATION STEP:      8
 --------------------------

 Spin 1

 Number of electrons:                                                        719
 Number of occupied orbitals:                                                719
 Number of molecular orbitals:                                               719

 Spin 2

 Number of electrons:                                                        719
 Number of occupied orbitals:                                                719
 Number of molecular orbitals:                                               719

 Number of orbital functions:                                               2718
 Number of independent orbital functions:                                   2718

 Extrapolation method: PS Nth order


 SCF WAVEFUNCTION OPTIMIZATION

  ----------------------------------- OT ---------------------------------------
  Minimizer      : CG                  : conjugate gradient
  Preconditioner : FULL_ALL            : diagonalization, state selective
  Precond_solver : DEFAULT
  Line search    : 3PNT                : 3 energies
  stepsize       :    0.15000000                  energy_gap     :    0.08000000
  eps_taylor     :   0.10000E-15                  max_taylor     :             4
  ----------------------------------- OT ---------------------------------------

  Step     Update method      Time    Convergence         Total energy    Change
  ------------------------------------------------------------------------------
     1 OT CG       0.12E+00   11.6     0.00043092     -8144.2252518469 -8.14E+03
     2 OT LS       0.17E+00    6.8                    -8144.2873868908
     3 OT LS       0.21E+00    6.8                    -8144.2981974822
     4 OT CG       0.17E+00   13.7     0.00035341     -8144.3010421706 -7.58E-02
     5 OT LS       0.23E+00    6.8                    -8144.3479675624
     6 OT LS       0.20E+00    6.8                    -8144.3478105973
     7 OT CG       0.16E+00   13.7     0.00013834     -8144.3492219188 -4.82E-02
     8 OT LS       0.22E+00    6.8                    -8144.3519467912
     9 OT LS       0.10E+00    6.7                    -8144.3478436465
    10 OT CG       0.83E-01   13.7     0.00005458     -8144.3530939738 -3.87E-03
    11 OT LS       0.12E+00    6.8                    -8144.3537299941
    12 OT LS       0.12E+00    6.8                    -8144.3538014052
    13 OT CG       0.97E-01   13.7     0.00003336     -8144.3538031573 -7.09E-04
    14 OT LS       0.14E+00    6.7                    -8144.3540904910
    15 OT LS       0.15E+00    6.8                    -8144.3541294123
    16 OT CG       0.12E+00   13.7     0.00001229     -8144.3541328239 -3.30E-04
    17 OT LS       0.17E+00    6.7                    -8144.3541735152
    18 OT LS       0.14E+00    6.8                    -8144.3541724652
    19 OT CG       0.11E+00   13.6     0.00000640     -8144.3541742840 -4.15E-05

  *** SCF run converged in    19 steps ***


  Electronic density on regular grids:      -1437.9999922795        0.0000077205
  Core density on regular grids:             1437.9999996435       -0.0000003565
  Total charge density on r-space grids:        0.0000073640
  Total charge density g-space grids:           0.0000073640

  Overlap energy of the core charge distribution:               0.00000662619509
  Self energy of the core charge distribution:             -14650.93922905635191
  Core Hamiltonian energy:                                   4107.49121193760129
  Hartree energy:                                            3440.67626386325082
  Exchange-correlation energy:                              -1042.46624252928564
  Dispersion energy:                                           -0.57693378764210

  DFT+U energy:                                                 1.46074866224215

  Total energy:                                             -8144.35417428399160

  outer SCF iter =    1 RMS gradient =   0.64E-05 energy =      -8144.3541742840
  outer SCF loop converged in   1 iterations or   19 steps


  Integrated absolute spin density  :                             235.0968536165
  Ideal and single determinant S**2 :                    0.000000     127.896275

 ENERGY| Total FORCE_EVAL ( QS ) energy (a.u.):            -8144.354187778878440


 --------  Informations at step =     8 ------------
  Optimization Method        =                 BFGS
  Total Energy               =     -8144.3541877789
  Real energy change         =        -0.0136322317
  Predicted change in energy =        -0.0282243784
  Scaling factor             =         0.9026521456
  Step size                  =         0.1344061555
  Trust radius               =         0.4724315332
  Decrease in energy         =                   NO
  Used time                  =              207.903

  Convergence check :
  Max. step size             =         0.1344061555
  Conv. limit for step size  =         1.0000000000
  Convergence in step size   =                  YES
  RMS step size              =         0.0194399834
  Conv. limit for RMS step   =         1.0000000000
  Convergence in RMS step    =                  YES
  Max. gradient              =         0.0086776946
  Conv. limit for gradients  =         0.0100000000
  Conv. in gradients         =                  YES
  RMS gradient               =         0.0017604268
  Conv. limit for RMS grad.  =         1.0000000000
  Conv. in RMS gradients     =                  YES
 ---------------------------------------------------

 *******************************************************************************
 ***                    GEOMETRY OPTIMIZATION COMPLETED                      ***
 *******************************************************************************

                    Reevaluating energy at the minimum

 Spin 1

 Number of electrons:                                                        719
 Number of occupied orbitals:                                                719
 Number of molecular orbitals:                                               719

 Spin 2

 Number of electrons:                                                        719
 Number of occupied orbitals:                                                719
 Number of molecular orbitals:                                               719

 Number of orbital functions:                                               2718
 Number of independent orbital functions:                                   2718

 Extrapolation method: PS Nth order


 SCF WAVEFUNCTION OPTIMIZATION

  ----------------------------------- OT ---------------------------------------
  Minimizer      : CG                  : conjugate gradient
  Preconditioner : FULL_ALL            : diagonalization, state selective
  Precond_solver : DEFAULT
  Line search    : 3PNT                : 3 energies
  stepsize       :    0.15000000                  energy_gap     :    0.08000000
  eps_taylor     :   0.10000E-15                  max_taylor     :             4
  ----------------------------------- OT ---------------------------------------

  Step     Update method      Time    Convergence         Total energy    Change
  ------------------------------------------------------------------------------
     1 OT CG       0.12E+00   11.6     0.00037607     -8144.2515202903 -8.14E+03
     2 OT LS       0.17E+00    6.8                    -8144.3005474173
     3 OT LS       0.23E+00    6.8                    -8144.3104935274
     4 OT CG       0.18E+00   13.7     0.00030787     -8144.3152009119 -6.37E-02
     5 OT LS       0.26E+00    6.8                    -8144.3500559776
     6 OT LS       0.19E+00    6.8                    -8144.3451389773
     7 OT CG       0.15E+00   13.7     0.00012532     -8144.3500668348 -3.49E-02
     8 OT LS       0.21E+00    6.8                    -8144.3528556467
     9 OT LS       0.11E+00    6.8                    -8144.3503609273
    10 OT CG       0.86E-01   13.6     0.00005041     -8144.3533725676 -3.31E-03
    11 OT LS       0.12E+00    6.8                    -8144.3538830060
    12 OT LS       0.11E+00    6.8                    -8144.3538947367
    13 OT CG       0.85E-01   13.6     0.00002736     -8144.3539032209 -5.31E-04
    14 OT LS       0.12E+00    6.8                    -8144.3540900588
    15 OT LS       0.17E+00    6.8                    -8144.3541293358
    16 OT CG       0.14E+00   13.6     0.00001140     -8144.3541502893 -2.47E-04
    17 OT LS       0.19E+00    6.8                    -8144.3541799291
    18 OT LS       0.12E+00    6.8                    -8144.3541699753
    19 OT CG       0.95E-01   13.6     0.00000585     -8144.3541804853 -3.02E-05

  *** SCF run converged in    19 steps ***


  Electronic density on regular grids:      -1437.9999922795        0.0000077205
  Core density on regular grids:             1437.9999996435       -0.0000003565
  Total charge density on r-space grids:        0.0000073640
  Total charge density g-space grids:           0.0000073640

  Overlap energy of the core charge distribution:               0.00000662619509
  Self energy of the core charge distribution:             -14650.93922905635191
  Core Hamiltonian energy:                                   4107.50508830681429
  Hartree energy:                                            3440.66493079253723
  Exchange-correlation energy:                              -1042.46813646839541
  Dispersion energy:                                           -0.57693378764210

  DFT+U energy:                                                 1.46009310159042

  Total energy:                                             -8144.35418048525298

  outer SCF iter =    1 RMS gradient =   0.58E-05 energy =      -8144.3541804853
  outer SCF loop converged in   1 iterations or   19 steps


  Integrated absolute spin density  :                             235.0923691054
  Ideal and single determinant S**2 :                    0.000000     127.895001

 ENERGY| Total FORCE_EVAL ( QS ) energy (a.u.):            -8144.354180485252982


 -------------------------------------------------------------------------------
 -                                                                             -
 -                                DBCSR STATISTICS                             -
 -                                                                             -
 -------------------------------------------------------------------------------
 COUNTER                                    TOTAL       BLAS       SMM       ACC
 flops     5 x    15 x    15               945000       0.0%    100.0%      0.0%
 flops    13 x    15 x    15             10881000       0.0%    100.0%      0.0%
 flops    26 x    15 x    15             12636000       0.0%    100.0%      0.0%
 flops     5 x    32 x    32             94617600       0.0%    100.0%      0.0%
 flops     5 x    15 x     5            409468500       0.0%    100.0%      0.0%
 flops    13 x    32 x    32           1089454080       0.0%    100.0%      0.0%
 flops    26 x    32 x    32           1265172480       0.0%    100.0%      0.0%
 flops     5 x     5 x   160           1515360000       0.0%    100.0%      0.0%
 flops     5 x     5 x   175           1657425000       0.0%    100.0%      0.0%
 flops     5 x     5 x   192           3636864000       0.0%    100.0%      0.0%
 flops     5 x    15 x    13           4714737300       0.0%    100.0%      0.0%
 flops    13 x    15 x     5           4714737300       0.0%    100.0%      0.0%
 flops     5 x    15 x    26           5475178800       0.0%    100.0%      0.0%
 flops    26 x    15 x     5           5475178800       0.0%    100.0%      0.0%
 flops    13 x     5 x   160          16646656000       0.0%    100.0%      0.0%
 flops     5 x    13 x   160          16663712000       0.0%    100.0%      0.0%
 flops    13 x     5 x   175          18207280000       0.0%    100.0%      0.0%
 flops     5 x    13 x   175          18225935000       0.0%    100.0%      0.0%
 flops     5 x    32 x     5          19217721600       0.0%    100.0%      0.0%
 flops     5 x    26 x   160          19307392000       0.0%    100.0%      0.0%
 flops    26 x     5 x   160          19375616000       0.0%    100.0%      0.0%
 flops     5 x    26 x   175          21117460000       0.0%    100.0%      0.0%
 flops    26 x     5 x   175          21192080000       0.0%    100.0%      0.0%
 flops   160 x   160 x   160          26755072000     100.0%      0.0%      0.0%
 flops   160 x   160 x   175          29263360000     100.0%      0.0%      0.0%
 flops   160 x   175 x   160          29263360000     100.0%      0.0%      0.0%
 flops   175 x   160 x   160          29263360000     100.0%      0.0%      0.0%
 flops   160 x   175 x   175          32006800000     100.0%      0.0%      0.0%
 flops   175 x   160 x   175          32006800000     100.0%      0.0%      0.0%
 flops   175 x   175 x   160          32006800000     100.0%      0.0%      0.0%
 flops   175 x   175 x   175          35007437500     100.0%      0.0%      0.0%
 flops    13 x     5 x   192          39951974400       0.0%    100.0%      0.0%
 flops     5 x    13 x   192          39992908800       0.0%    100.0%      0.0%
 flops     5 x    26 x   192          46337740800       0.0%    100.0%      0.0%
 flops    26 x     5 x   192          46501478400       0.0%    100.0%      0.0%
 flops    13 x    15 x    13          54281123520       0.0%    100.0%      0.0%
 flops   160 x   160 x   678          56374886400     100.0%      0.0%      0.0%
 flops   160 x   175 x   678          61660032000     100.0%      0.0%      0.0%
 flops   175 x   160 x   678          61660032000     100.0%      0.0%      0.0%
 flops    26 x    15 x    13          63030219720       0.0%    100.0%      0.0%
 flops    13 x    15 x    26          63030219720       0.0%    100.0%      0.0%
 flops   160 x   160 x   192          64212172800     100.0%      0.0%      0.0%
 flops   160 x   192 x   160          64212172800     100.0%      0.0%      0.0%
 flops   192 x   160 x   160          64212172800     100.0%      0.0%      0.0%
 flops   175 x   175 x   678          67440660000     100.0%      0.0%      0.0%
 flops   160 x   175 x   192          70232064000     100.0%      0.0%      0.0%
 flops   160 x   192 x   175          70232064000     100.0%      0.0%      0.0%
 flops   175 x   160 x   192          70232064000     100.0%      0.0%      0.0%
 flops   175 x   192 x   160          70232064000     100.0%      0.0%      0.0%
 flops   192 x   160 x   175          70232064000     100.0%      0.0%      0.0%
 flops   192 x   175 x   160          70232064000     100.0%      0.0%      0.0%
 flops    26 x    15 x    26          73210962240       0.0%    100.0%      0.0%
 flops   175 x   175 x   192          76816320000     100.0%      0.0%      0.0%
 flops   175 x   192 x   175          76816320000     100.0%      0.0%      0.0%
 flops   192 x   175 x   175          76816320000     100.0%      0.0%      0.0%
 flops   678 x   160 x   160          82826649600     100.0%      0.0%      0.0%
 flops   678 x   160 x   678          86494141440     100.0%      0.0%      0.0%
 flops   678 x   160 x   175          90591648000     100.0%      0.0%      0.0%
 flops   678 x   175 x   160          90591648000     100.0%      0.0%      0.0%
 flops   678 x   175 x   678          94602967200     100.0%      0.0%      0.0%
 flops   678 x   175 x   175          99084615000     100.0%      0.0%      0.0%
 flops   160 x   192 x   678         135299727360     100.0%      0.0%      0.0%
 flops   192 x   160 x   678         135299727360     100.0%      0.0%      0.0%
 flops   175 x   192 x   678         147984076800     100.0%      0.0%      0.0%
 flops   192 x   175 x   678         147984076800     100.0%      0.0%      0.0%
 flops   192 x   192 x   160         154109214720     100.0%      0.0%      0.0%
 flops   160 x   192 x   192         154109214720     100.0%      0.0%      0.0%
 flops   192 x   160 x   192         154109214720     100.0%      0.0%      0.0%
 flops   192 x   192 x   175         168556953600     100.0%      0.0%      0.0%
 flops   175 x   192 x   192         168556953600     100.0%      0.0%      0.0%
 flops   192 x   175 x   192         168556953600     100.0%      0.0%      0.0%
 flops   160 x   160 x   680         169623552000     100.0%      0.0%      0.0%
 flops   160 x   175 x   680         185525760000     100.0%      0.0%      0.0%
 flops   175 x   160 x   680         185525760000     100.0%      0.0%      0.0%
 flops    13 x    13 x   160         193816879360       0.0%    100.0%      0.0%
 flops   678 x   160 x   192         198783959040     100.0%      0.0%      0.0%
 flops   678 x   192 x   160         198783959040     100.0%      0.0%      0.0%
 flops   175 x   175 x   680         202918800000     100.0%      0.0%      0.0%
 flops   678 x   192 x   678         207585939456     100.0%      0.0%      0.0%
 flops    13 x    13 x   175         211987211800       0.0%    100.0%      0.0%
 flops   678 x   175 x   192         217419955200     100.0%      0.0%      0.0%
 flops   678 x   192 x   175         217419955200     100.0%      0.0%      0.0%
 flops     5 x    32 x    13         221278337280       0.0%    100.0%      0.0%
 flops    13 x    32 x     5         221278337280       0.0%    100.0%      0.0%
 flops    26 x    13 x   160         222526220800       0.0%    100.0%      0.0%
 flops    13 x    26 x   160         222792294400       0.0%    100.0%      0.0%
 flops    26 x    13 x   175         243388054000       0.0%    100.0%      0.0%
 flops    13 x    26 x   175         243679072000       0.0%    100.0%      0.0%
 flops   680 x   160 x   160         249212928000     100.0%      0.0%      0.0%
 flops     5 x    32 x    26         256968391680       0.0%    100.0%      0.0%
 flops    26 x    32 x     5         256968391680       0.0%    100.0%      0.0%
 flops   678 x   160 x   680         260247859200     100.0%      0.0%      0.0%
 flops   680 x   160 x   678         260247859200     100.0%      0.0%      0.0%
 flops    26 x    26 x   160         263412864000       0.0%    100.0%      0.0%
 flops   680 x   160 x   175         272576640000     100.0%      0.0%      0.0%
 flops   680 x   175 x   160         272576640000     100.0%      0.0%      0.0%
 flops   678 x   175 x   680         284646096000     100.0%      0.0%      0.0%
 flops   680 x   175 x   678         284646096000     100.0%      0.0%      0.0%
 flops    26 x    26 x   175         288107820000       0.0%    100.0%      0.0%
 flops   680 x   175 x   175         298130700000     100.0%      0.0%      0.0%
 flops   192 x   192 x   678         324719345664     100.0%      0.0%      0.0%
 flops   192 x   192 x   192         369862115328     100.0%      0.0%      0.0%
 flops   160 x   192 x   680         407096524800     100.0%      0.0%      0.0%
 flops   192 x   160 x   680         407096524800     100.0%      0.0%      0.0%
 flops   175 x   192 x   680         445261824000     100.0%      0.0%      0.0%
 flops   192 x   175 x   680         445261824000     100.0%      0.0%      0.0%
 flops    13 x    13 x   192         465160510464       0.0%    100.0%      0.0%
 flops   678 x   192 x   192         477081501696     100.0%      0.0%      0.0%
 flops    26 x    13 x   192         534062929920       0.0%    100.0%      0.0%
 flops    13 x    26 x   192         534701506560       0.0%    100.0%      0.0%
 flops   680 x   192 x   160         598111027200     100.0%      0.0%      0.0%
 flops   680 x   160 x   192         598111027200     100.0%      0.0%      0.0%
 flops   680 x   192 x   678         624594862080     100.0%      0.0%      0.0%
 flops   678 x   192 x   680         624594862080     100.0%      0.0%      0.0%
 flops    26 x    26 x   192         632190873600       0.0%    100.0%      0.0%
 flops   680 x   192 x   175         654183936000     100.0%      0.0%      0.0%
 flops   680 x   175 x   192         654183936000     100.0%      0.0%      0.0%
 flops   680 x   160 x   680         783046656000     100.0%      0.0%      0.0%
 flops   680 x   175 x   680         856457280000     100.0%      0.0%      0.0%
 flops   192 x   192 x   680         977031659520     100.0%      0.0%      0.0%
 flops   680 x   192 x   192        1435466465280     100.0%      0.0%      0.0%
 flops   680 x   192 x   680        1879311974400     100.0%      0.0%      0.0%
 flops    13 x    32 x    13        2547594063872       0.0%    100.0%      0.0%
 flops    26 x    32 x    13        2958218312192       0.0%    100.0%      0.0%
 flops    13 x    32 x    26        2958218312192       0.0%    100.0%      0.0%
 flops    26 x    32 x    26        3436034494464       0.0%    100.0%      0.0%
 flops inhomo. stacks                           0       0.0%      0.0%      0.0%
 flops total                        37.482038E+12      53.2%     46.8%      0.0%
 flops max/rank                      2.525135E+12      54.0%     46.0%      0.0%
 matmuls inhomo. stacks                         0       0.0%      0.0%      0.0%
 matmuls total                          850706194       0.1%     99.9%      0.0%
 number of processed stacks               2313856      21.8%     78.2%      0.0%
 average stack size                                     1.0     469.6       0.0
 marketing flops                    41.917966E+12
 -------------------------------------------------------------------------------
 # multiplications                           9962
 max memory usage/rank             982.827008E+06
 # max total images/rank                        1
 # max 3D layers                                1
 # MPI messages exchanged                  956352
 MPI messages size (bytes):
  total size                       862.107599E+09
  min size                           0.000000E+00
  max size                           3.699200E+06
  average size                     901.454250E+03
 MPI breakdown and total messages size (bytes):
             size <=      128                2640                        0
       128 < size <=     8192                   0                        0
      8192 < size <=    32768                   0                        0
     32768 < size <=   131072                 240                 10921440
    131072 < size <=  4194304              953472             862116885120
   4194304 < size <= 16777216                   0                        0
  16777216 < size                               0                        0
 -------------------------------------------------------------------------------
 
 MEMORY| Estimated peak process memory [MiB]                                 944

 -------------------------------------------------------------------------------
 -                                                                             -
 -                         MESSAGE PASSING PERFORMANCE                         -
 -                                                                             -
 -------------------------------------------------------------------------------

 ROUTINE             CALLS      AVE VOLUME [Bytes]
 MP_Group              859
 MP_Bcast            33973                  39230.
 MP_Allreduce       140142                    599.
 MP_Sync               561
 MP_Alltoall         45927                3076105.
 MP_SendRecv          9276                 521298.
 MP_ISendRecv        49230                 105472.
 MP_Wait            584731
 MP_comm_split         556
 MP_ISend           207828                 464697.
 MP_IRecv           207828                 460206.
 MP_Recv              1044                 630660.
 MP_Memory          435424
 -------------------------------------------------------------------------------


 -------------------------------------------------------------------------------
 -                                                                             -
 -                           R E F E R E N C E S                               -
 -                                                                             -
 -------------------------------------------------------------------------------
 
 CP2K version 6.1, the CP2K developers group (2018).
 CP2K is freely available from https://www.cp2k.org/ .

 Schuett, Ole; Messmer, Peter; Hutter, Juerg; VandeVondele, Joost. 
 Electronic Structure Calculations on Graphics Processing Units, John Wiley & Sons, Ltd, 173-190 (2016). 
 GPU-Accelerated Sparse Matrix-Matrix Multiplication for Linear Scaling Density Functional Theory.
 http://dx.doi.org/10.1002/9781118670712.ch8


 Borstnik, U; VandeVondele, J; Weber, V; Hutter, J. 
 PARALLEL COMPUTING, 40 (5-6), 47-58 (2014). 
 Sparse matrix multiplication: The distributed block-compressed sparse
 row library.
 http://dx.doi.org/10.1016/j.parco.2014.03.012


 Hutter, J; Iannuzzi, M; Schiffmann, F; VandeVondele, J. 
 WILEY INTERDISCIPLINARY REVIEWS-COMPUTATIONAL MOLECULAR SCIENCE, 4 (1), 15-25 (2014). 
 CP2K: atomistic simulations of condensed matter systems.
 http://dx.doi.org/10.1002/wcms.1159


 Grimme, S; Ehrlich, S; Goerigk, L. 
 JOURNAL OF COMPUTATIONAL CHEMISTRY, 32, 1456 (2011). 
 Effect of the damping function in dispersion corrected density functional theory.
 http://dx.doi.org/10.1002/jcc.21759


 Grimme, S; Antony, J; Ehrlich, S; Krieg, H. 
 JOURNAL OF CHEMICAL PHYSICS, 132 (15), 154104 (2010). 
 A consistent and accurate ab initio parametrization of density
 functional dispersion correction (DFT-D) for the 94 elements H-Pu.
 http://dx.doi.org/10.1063/1.3382344


 VandeVondele, J; Hutter, J. 
 JOURNAL OF CHEMICAL PHYSICS, 127 (11), 114105 (2007). 
 Gaussian basis sets for accurate calculations on molecular systems in
 gas and condensed phases.
 http://dx.doi.org/10.1063/1.2770708


 Krack, M. 
 THEORETICAL CHEMISTRY ACCOUNTS, 114 (1-3), 145-152 (2005). 
 Pseudopotentials for H to Kr optimized for gradient-corrected
 exchange-correlation functionals.
 http://dx.doi.org/10.1007/s00214-005-0655-y


 VandeVondele, J; Krack, M; Mohamed, F; Parrinello, M; Chassaing, T;
 Hutter, J. COMPUTER PHYSICS COMMUNICATIONS, 167 (2), 103-128 (2005). 
 QUICKSTEP: Fast and accurate density functional calculations using a
 mixed Gaussian and plane waves approach.
 http://dx.doi.org/10.1016/j.cpc.2004.12.014


 Frigo, M; Johnson, SG. 
 PROCEEDINGS OF THE IEEE, 93 (2), 216-231 (2005). 
 The design and implementation of FFTW3.
 http://dx.doi.org/10.1109/JPROC.2004.840301


 VandeVondele, J; Hutter, J. 
 JOURNAL OF CHEMICAL PHYSICS, 118 (10), 4365-4369 (2003). 
 An efficient orbital transformation method for electronic structure
 calculations.
 http://dx.doi.org/10.1063/1.1543154


 Hartwigsen, C; Goedecker, S; Hutter, J. 
 PHYSICAL REVIEW B, 58 (7), 3641-3662 (1998). 
 Relativistic separable dual-space Gaussian pseudopotentials from H to Rn.
 http://dx.doi.org/10.1103/PhysRevB.58.3641


 Dudarev, SL; Botton, GA; Savrasov, SY; Humphreys, CJ; Sutton, AP. 
 PHYSICAL REVIEW B, 57 (3), 1505-1509 (1998). 
 Electron-energy-loss spectra and the structural stability of
 nickel oxide: An LSDA+U study.
 http://dx.doi.org/10.1103/PhysRevB.57.1505


 Lippert, G; Hutter, J; Parrinello, M. 
 MOLECULAR PHYSICS, 92 (3), 477-487 (1997). 
 A hybrid Gaussian and plane wave density functional scheme.
 http://dx.doi.org/10.1080/002689797170220


 Dudarev, SL; Manh, DN; Sutton, AP. 
 PHILOSOPHICAL MAGAZINE B, 75 (5), 613-628 (1997). 
 Effect of Mott-Hubbard correlations on the electronic
 structure and structural stability of uranium dioxide.
 http://dx.doi.org/10.1080/13642819708202343


 Perdew, JP; Burke, K; Ernzerhof, M. 
 PHYSICAL REVIEW LETTERS, 77 (18), 3865-3868 (1996). 
 Generalized gradient approximation made simple.
 http://dx.doi.org/10.1103/PhysRevLett.77.3865


 Goedecker, S; Teter, M; Hutter, J. 
 PHYSICAL REVIEW B, 54 (3), 1703-1710 (1996). 
 Separable dual-space Gaussian pseudopotentials.
 http://dx.doi.org/10.1103/PhysRevB.54.1703


 -------------------------------------------------------------------------------
 -                                                                             -
 -                                T I M I N G                                  -
 -                                                                             -
 -------------------------------------------------------------------------------
 SUBROUTINE                       CALLS  ASD         SELF TIME        TOTAL TIME
                                MAXIMUM       AVERAGE  MAXIMUM  AVERAGE  MAXIMUM
 CP2K                                 1  1.0    0.023    0.036 3891.492 3891.546
 cp_geo_opt                           1  2.0    0.000    0.000 3890.608 3890.661
 geoopt_bfgs                          1  3.0    0.022    0.025 3890.608 3890.661
 cp_eval_at                          10  4.0    0.002    0.004 3889.883 3889.937
 qs_energies                         10  5.9    0.002    0.003 3747.804 3747.862
 qs_forces                            9  5.0    0.002    0.002 3701.044 3701.095
 scf_env_do_scf                      10  6.9    0.002    0.003 3639.509 3639.557
 scf_env_do_scf_inner_loop          391  8.0    0.035    0.194 3533.902 3534.013
 qs_rho_update_rho                  401  9.0    0.006    0.006 2329.586 2329.747
 calculate_rho_elec                 802 10.0 1719.217 1840.663 2329.580 2329.741
 rebuild_ks_matrix                  400  9.9    0.003    0.003 1202.196 1202.493
 qs_ks_build_kohn_sham_matrix       400 10.9    0.082    0.089 1202.193 1202.490
 qs_ks_update_qs_env                401  9.0    0.006    0.009 1076.493 1076.786
 sum_up_and_integrate               146 11.8    5.751    5.823  817.159  817.294
 integrate_v_rspace                 292 12.8  604.573  667.158  811.406  811.506
 density_rs2pw                      802 11.0    0.064    0.070  560.635  640.662
 pw_transfer                       7228 12.6    0.799    0.833  456.412  459.012
 fft_wrap_pw1pw2                   6428 13.6    0.071    0.078  441.952  444.614
 fft_wrap_pw1pw2_200               2052 14.3   55.988   57.690  413.009  415.912
 rs_pw_transfer                    5489 12.7    0.072    0.080  262.824  342.554
 fft3d_ps                          6428 15.6  180.459  181.702  313.792  317.445
 qs_vxc_create                      400 11.9    0.009    0.009  270.273  270.686
 qs_scf_new_mos                     391  9.0    0.005    0.008  251.225  251.996
 qs_scf_loop_do_ot                  391 10.0    0.008    0.013  251.220  251.991
 rs_pw_transfer_RS2PW_200           812 12.9   38.160   49.966  166.809  245.486
 dbcsr_multiply_generic            9962 13.6    0.572    0.605  231.178  232.587
 ot_scf_mini                        391 11.0    0.044    0.053  223.100  223.658
 mp_waitany                       48516 14.7  144.866  223.096  144.866  223.096
 xc_rho_set_and_dset_create         400 13.9   21.799   21.940  190.674  192.947
 multiply_cannon                   9962 14.6    1.303    1.579  156.555  165.326
 xc_vxc_pw_create                   146 12.8   42.120   43.316  150.337  150.749
 potential_pw2rs                    292 13.8    0.250    0.262  135.898  136.186
 qs_ks_update_qs_env_forces           9  6.0    0.000    0.000  127.732  127.749
 xc_exc_calc                        254 13.0    0.782    0.784  119.928  119.929
 rs_distribute_matrix              1112 11.7    9.203   14.536   87.396  113.865
 multiply_cannon_multrec          39848 15.6  108.121  112.758  108.212  112.846
 init_scf_loop                       10  7.9    0.001    0.001  105.343  105.346
 mp_alltoall_d11v                  9693 15.7   74.855  102.994   74.855  102.994
 pw_nn_compose_r                   4368 14.6   73.566   76.018   82.494   85.139
 xc_functional_eval                 400 14.9    0.006    0.007   80.037   82.109
 pbe_lsd_eval                       400 15.9   80.031   82.103   80.031   82.103
 ot_mini                            391 12.0    0.004    0.005   80.463   80.959
 -------------------------------------------------------------------------------

 The number of warnings for this run is : 1
 
 -------------------------------------------------------------------------------
  **** **** ******  **  PROGRAM ENDED AT                 2020-10-07 13:31:01.775
 ***** ** ***  *** **   PROGRAM RAN ON                                 irene4926
 **    ****   ******    PROGRAM RAN BY                                  marticar
 ***** **    ** ** **   PROGRAM PROCESS ID                                249975
  **** **  *******  **  PROGRAM STOPPED IN /ccc/scratch/cont003/gen0609/marticar
                                           /684158
