     161
 i =        1, E =     -8104.5180624580
 Fe         5.0938794100       11.8196869300        0.3885799900
 Fe         7.6575796300        7.3792284900        0.3885799900
 Fe        10.2212798400        2.9387700600        0.3885799900
 Fe        -0.0335205200       11.8196869300        0.3885799900
 Fe         2.5301797000        7.3792284900        0.3885799900
 Fe         5.0938799200        2.9387700600        0.3885799900
 Fe        -5.1609204400       11.8196869300        0.3885799900
 Fe        -2.5972202200        7.3792284900        0.3885799900
 Fe        -0.0335200000        2.9387700600        0.3885799900
  O         8.4519195100        8.9577468800        1.1642700400
  O        11.0156197300        4.5172884400        1.1642700400
  O        13.5793199500        0.0768300000        1.1642700400
  O         3.3245195900        8.9577468800        1.1642700400
  O         5.8882198100        4.5172884400        1.1642700400
  O         8.4519200300        0.0768300000        1.1642700400
  O        -1.8028803300        8.9577468800        1.1642700400
  O         0.7608198900        4.5172884400        1.1642700400
  O         3.3245201100        0.0768300000        1.1642700400
  O         8.4568493000       11.7183869300        1.1650400200
  O        11.0205495200        7.2779284900        1.1650400200
  O        13.5842497300        2.8374700500        1.1650400200
  O         3.3294493700       11.7183869300        1.1650400200
  O         5.8931495900        7.2779284900        1.1650400200
  O         8.4568498100        2.8374700500        1.1650400200
  O        -1.7979505500       11.7183869300        1.1650400200
  O         0.7657496700        7.2779284900        1.1650400200
  O         3.3294498900        2.8374700500        1.1650400200
  O         6.0627194200       10.3425368500        1.1660399400
  O         8.6264196400        5.9020784100        1.1660399400
  O        11.1901198600        1.4616199700        1.1660399400
  O         0.9353195000       10.3425368500        1.1660399400
  O         3.4990197200        5.9020784100        1.1660399400
  O         6.0627199400        1.4616199700        1.1660399400
  O        -4.1920804200       10.3425368500        1.1660399400
  O        -1.6283802000        5.9020784100        1.1660399400
  O         0.9353200200        1.4616199700        1.1660399400
 Fe         7.6576695000       13.2997167500        1.9292099500
 Fe        10.2213697200        8.8592583200        1.9292099500
 Fe        12.7850699400        4.4187998800        1.9292099500
 Fe         2.5302695800       13.2997167500        1.9292099500
 Fe         5.0939698000        8.8592583200        1.9292099500
 Fe         7.6576700200        4.4187998800        1.9292099500
 Fe        -2.5971303400       13.2997167500        1.9292099500
 Fe        -0.0334301200        8.8592583200        1.9292099500
 Fe         2.5302701000        4.4187998800        1.9292099500
 Fe         7.6573893600       10.3392168700        2.7128999200
 Fe        10.2210895800        5.8987584300        2.7128999200
 Fe        12.7847898000        1.4582999900        2.7128999200
 Fe         2.5299894400       10.3392168700        2.7128999200
 Fe         5.0936896600        5.8987584300        2.7128999200
 Fe         7.6573898800        1.4582999900        2.7128999200
 Fe        -2.5974104800       10.3392168700        2.7128999200
 Fe        -0.0337102600        5.8987584300        2.7128999200
 Fe         2.5299899600        1.4582999900        2.7128999200
  O         4.1324285053       13.3038215930        3.4997103701
  O         6.7067116077        8.8627249714        3.4935822000
  O         9.2619567402        4.4251242092        3.5004145383
  O        -0.9942583995       13.3020238432        3.4998486593
  O         1.5710470278        8.8662985036        3.5019694707
  O         4.1317891160        4.4219514100        3.4967752133
  O        -6.1224947646       13.3035453962        3.4989849981
  O        -3.5562438122        8.8642387431        3.5000314872
  O        -0.9942089294        4.4238577258        3.5011593979
  O         6.8605486657       11.9093809574        3.5021732568
  O         9.4369456015        7.4717394730        3.4932698040
  O        11.9883669488        3.0288526707        3.5014161735
  O         1.7333091082       11.9082547326        3.5037532473
  O         4.2889190245        7.4638499405        3.4896602655
  O         6.8608294176        3.0283884221        3.4991314262
  O        -3.3935016677       11.9093909896        3.5019712002
  O        -0.8319874820        7.4688033920        3.5004905091
  O         1.7350039317        3.0277104232        3.5029081133
  O         9.4164441518       10.2454549008        3.4997005163
  O        11.9807671846        5.8050726397        3.5012261738
  O        14.5428151566        1.3640042583        3.5023906099
  O         4.2780032692       10.2555896094        3.4980572268
  O         6.8530129245        5.8048388808        3.4981351378
  O         9.4158532049        1.3636716122        3.5012191687
  O        -0.8400809542       10.2462220527        3.5025583196
  O         1.7223514191        5.8051149710        3.5027527460
  O         4.2883271921        1.3652177897        3.5014164862
 Fe         5.0937881864       11.8189596099        4.4844419857
 Fe         7.6778979752        7.3770917388        4.4683964457
 Fe        10.2211923266        2.9393907234        4.4861992264
 Fe        -0.0320131131       11.8169779252        4.4897508385
 Fe         2.5310746559        7.3814039397        4.4820991946
 Fe         5.0944938283        2.9389418601        4.4866974874
 Fe        -5.1618446180       11.8190634308        4.4869384024
 Fe        -2.5969069207        7.3799978618        4.4877214837
 Fe        -0.0318136489        2.9384194456        4.4863478147
 Fe         7.6596465881       13.2982154864        4.8243036728
 Fe        10.2239573316        8.8564906245        4.8197150710
 Fe        12.7862316862        4.4177571053        4.8229010225
 Fe         2.5308391481       13.3003221884        4.8229566060
 Fe         5.0887153489        8.8651937334        4.7686942207
 Fe         7.6615572403        4.4183960271        4.8197170929
 Fe        -2.5965890570       13.2994077694        4.8229853369
 Fe        -0.0328460470        8.8601921233        4.8149658297
 Fe         2.5308080022        4.4159010471        4.8205943684
  O         5.8604843540       10.3723841783        5.7153528273
  O         8.4277107278        5.9490643185        5.7259256005
  O        10.9940279541        1.5082325218        5.7260837677
  O         0.7430887414       10.3788298695        5.7460520167
  O         3.2752964363        5.9535537737        5.7155217660
  O         5.8669166292        1.5063417901        5.7249994133
  O        -4.3900946005       10.3860096068        5.7238165254
  O        -1.8251981323        5.9484788762        5.7293283026
  O         0.7385666572        1.5084470922        5.7276560642
  O         5.9459390103       13.2012070339        5.7249167340
  O         8.5130884084        8.7664597455        5.7133113888
  O        11.0758619450        4.3241906123        5.7274615059
  O         0.8198896909       13.2027178979        5.7274822501
  O         3.4068982041        8.7627417861        5.7212044573
  O         5.9546712937        4.3157751350        5.7137952994
  O        -4.3072036476       13.2024802583        5.7271299759
  O        -1.7363938121        8.7637930619        5.7343056037
  O         0.8215840778        4.3217510412        5.7330648259
  O         3.4698639615       11.8654678632        5.7287575764
  O         5.9882481445        7.3712105729        5.5931593968
  O         8.5975622989        2.9836048500        5.7279538581
  O        -1.6575089645       11.8640223860        5.7304227353
  O         0.9036154178        7.4291746299        5.7224743609
  O         3.4677005389        2.9835378901        5.7271471760
  O        -6.7911564764       11.8571384068        5.7274221769
  O        -4.2204229116        7.4236224414        5.7292294300
  O        -1.6566671154        2.9847567568        5.7319822112
 Fe         7.6535660436       10.3316596392        6.0145077201
 Fe        10.2186753745        5.8993419977        5.9841764404
 Fe        12.7854857911        1.4571947717        5.9792069539
 Fe         2.5433234537       10.3340570042        5.9839988521
 Fe         5.0580449471        5.8613033343        5.9882144198
 Fe         7.6574671338        1.4588530628        5.9847539151
 Fe        -2.5999205944       10.3388354589        5.9762957021
 Fe        -0.0324473903        5.8994460040        5.9650906849
 Fe         2.5308717109        1.4575137243        5.9822476389
  C         5.3744474419        8.2640659175        9.0240697178
  C         4.3875445429        7.1112630885        8.8345677570
  H         4.8399080359        9.2063696627        9.2205872472
  O         6.1916030286        8.4648923744        7.8656090263
  H         6.1159376382        8.0356031491        9.7973395130
  C         3.6198081802        6.8035842899       10.1208070334
  C         2.5490740419        7.8583009010       10.4852751500
  O         4.5372631861        6.6919008592       11.2145390290
  H         3.1060409302        5.8337100117        9.9638648850
  C         1.4023686757        8.0987030502        9.4805404752
  H         3.0467391808        8.8278280701       10.6498433099
  O         2.0029272809        7.4956846129       11.7713451497
  C         0.7715885770        6.8065492858        8.9410623853
  O         1.8987391858        8.9209825571        8.4087773784
  H         0.6357888428        8.6590302491       10.0467045231
  H        -0.0669668968        7.0892336287        8.2732977140
  O         0.2793013508        6.0538257294       10.0703335001
  H         1.5254412322        6.2464048786        8.3631843067
  H         5.6010623462        8.7219282843        7.1217331188
  H         3.9696567575        6.7334724689       12.0108924749
  H         1.3690445968        6.7673355228       11.5910193097
  H         1.1228913473        9.2841509269        7.9373010364
  H         0.0484867445        5.1600181423        9.7629520495
  O         5.0656436621        5.9078561239        8.3981398442
  H         3.6645370312        7.3607196984        8.0364614129
  H         5.9055587480        6.2254712309        7.9554464073
     161
 i =        2, E =     -8104.5269173483
 Fe         5.0938794100       11.8196869300        0.3885799900
 Fe         7.6575796300        7.3792284900        0.3885799900
 Fe        10.2212798400        2.9387700600        0.3885799900
 Fe        -0.0335205200       11.8196869300        0.3885799900
 Fe         2.5301797000        7.3792284900        0.3885799900
 Fe         5.0938799200        2.9387700600        0.3885799900
 Fe        -5.1609204400       11.8196869300        0.3885799900
 Fe        -2.5972202200        7.3792284900        0.3885799900
 Fe        -0.0335200000        2.9387700600        0.3885799900
  O         8.4519195100        8.9577468800        1.1642700400
  O        11.0156197300        4.5172884400        1.1642700400
  O        13.5793199500        0.0768300000        1.1642700400
  O         3.3245195900        8.9577468800        1.1642700400
  O         5.8882198100        4.5172884400        1.1642700400
  O         8.4519200300        0.0768300000        1.1642700400
  O        -1.8028803300        8.9577468800        1.1642700400
  O         0.7608198900        4.5172884400        1.1642700400
  O         3.3245201100        0.0768300000        1.1642700400
  O         8.4568493000       11.7183869300        1.1650400200
  O        11.0205495200        7.2779284900        1.1650400200
  O        13.5842497300        2.8374700500        1.1650400200
  O         3.3294493700       11.7183869300        1.1650400200
  O         5.8931495900        7.2779284900        1.1650400200
  O         8.4568498100        2.8374700500        1.1650400200
  O        -1.7979505500       11.7183869300        1.1650400200
  O         0.7657496700        7.2779284900        1.1650400200
  O         3.3294498900        2.8374700500        1.1650400200
  O         6.0627194200       10.3425368500        1.1660399400
  O         8.6264196400        5.9020784100        1.1660399400
  O        11.1901198600        1.4616199700        1.1660399400
  O         0.9353195000       10.3425368500        1.1660399400
  O         3.4990197200        5.9020784100        1.1660399400
  O         6.0627199400        1.4616199700        1.1660399400
  O        -4.1920804200       10.3425368500        1.1660399400
  O        -1.6283802000        5.9020784100        1.1660399400
  O         0.9353200200        1.4616199700        1.1660399400
 Fe         7.6576695000       13.2997167500        1.9292099500
 Fe        10.2213697200        8.8592583200        1.9292099500
 Fe        12.7850699400        4.4187998800        1.9292099500
 Fe         2.5302695800       13.2997167500        1.9292099500
 Fe         5.0939698000        8.8592583200        1.9292099500
 Fe         7.6576700200        4.4187998800        1.9292099500
 Fe        -2.5971303400       13.2997167500        1.9292099500
 Fe        -0.0334301200        8.8592583200        1.9292099500
 Fe         2.5302701000        4.4187998800        1.9292099500
 Fe         7.6573893600       10.3392168700        2.7128999200
 Fe        10.2210895800        5.8987584300        2.7128999200
 Fe        12.7847898000        1.4582999900        2.7128999200
 Fe         2.5299894400       10.3392168700        2.7128999200
 Fe         5.0936896600        5.8987584300        2.7128999200
 Fe         7.6573898800        1.4582999900        2.7128999200
 Fe        -2.5974104800       10.3392168700        2.7128999200
 Fe        -0.0337102600        5.8987584300        2.7128999200
 Fe         2.5299899600        1.4582999900        2.7128999200
  O         4.1313099288       13.3017618405        3.4976353180
  O         6.7277725706        8.8714258151        3.5100314443
  O         9.2655894137        4.4237082832        3.5023017982
  O        -0.9934623168       13.2972683947        3.4985459261
  O         1.5737907001        8.8665425434        3.5038224771
  O         4.1306375925        4.4194490990        3.4957861336
  O        -6.1226606615       13.3027682668        3.4995703646
  O        -3.5480927400        8.8640232966        3.5078989891
  O        -0.9918591199        4.4224277902        3.5044207708
  O         6.8566665147       11.9126688526        3.4968776461
  O         9.4280241781        7.4677615958        3.5004586991
  O        11.9886476006        3.0301464760        3.5016764708
  O         1.7314201740       11.9063407571        3.5068858490
  O         4.2597597302        7.4547018713        3.4815969829
  O         6.8626655387        3.0272981457        3.4956386720
  O        -3.3951705908       11.9094456940        3.5028130590
  O        -0.8346228302        7.4698788887        3.4991192100
  O         1.7304434466        3.0271413880        3.5011672630
  O         9.4200899809       10.2483191255        3.4954180007
  O        11.9845404425        5.8049865211        3.4992152430
  O        14.5453520372        1.3644937072        3.5019459292
  O         4.2662766322       10.2711456579        3.5263147232
  O         6.8717758463        5.7953572869        3.4645943196
  O         9.4196016448        1.3635301877        3.4987142799
  O        -0.8381169667       10.2489152397        3.5040755317
  O         1.7202212109        5.8058797478        3.4985649369
  O         4.2907234277        1.3644443508        3.4993321279
 Fe         5.0998844203       11.8301526117        4.4965518774
 Fe         7.6654253546        7.3606668960        4.4744441238
 Fe        10.2216879881        2.9387106158        4.4914448636
 Fe        -0.0299705052       11.8157844659        4.4980679439
 Fe         2.5227588743        7.3787274873        4.4903142992
 Fe         5.0974869894        2.9372363265        4.4887962379
 Fe        -5.1659523830       11.8176347211        4.4916713616
 Fe        -2.5961587854        7.3773164590        4.4941968145
 Fe        -0.0315346183        2.9359601148        4.4934610594
 Fe         7.6615090498       13.2945698629        4.8230462474
 Fe        10.2238918010        8.8600971321        4.8167497144
 Fe        12.7862060974        4.4178932459        4.8212701223
 Fe         2.5305643878       13.3005863900        4.8209371384
 Fe         5.0930409976        8.8495244186        4.7449830615
 Fe         7.6586128699        4.4206186268        4.8128152546
 Fe        -2.5963993201       13.2989968884        4.8210863092
 Fe        -0.0334002460        8.8635574207        4.8024239597
 Fe         2.5259098828        4.4135047720        4.8126768640
  O         5.8566774872       10.3569782469        5.7086290173
  O         8.4298534883        5.9451850949        5.7315382987
  O        10.9943811991        1.5057043762        5.7296689159
  O         0.7490727066       10.3657758509        5.7718703771
  O         3.2473971549        5.9537663166        5.7097353577
  O         5.8682433606        1.5018427755        5.7279723584
  O        -4.3897385664       10.3869238610        5.7296289498
  O        -1.8249989822        5.9463302726        5.7370554576
  O         0.7393415560        1.5043836073        5.7335282130
  O         5.9512508545       13.2049865326        5.7343628480
  O         8.5088556804        8.7638251027        5.6975372569
  O        11.0779051991        4.3253651674        5.7310321549
  O         0.8207208317       13.2026952141        5.7312250652
  O         3.4253425414        8.7607379161        5.7185968297
  O         5.9558501377        4.3102750671        5.7028130541
  O        -4.3077576763       13.2016540705        5.7291984766
  O        -1.7286830348        8.7643417280        5.7439897576
  O         0.8213057383        4.3203336027        5.7434942428
  O         3.4688120875       11.8657743492        5.7325299402
  O         5.9544652426        7.3210827778        5.5388937555
  O         8.5965216177        2.9858567590        5.7293109408
  O        -1.6572061301       11.8630526396        5.7360219084
  O         0.8936469720        7.4373696847        5.7227981431
  O         3.4653499169        2.9864659449        5.7279642719
  O        -6.8004370435       11.8473097582        5.7318470228
  O        -4.2210844518        7.4266147407        5.7315256669
  O        -1.6581480189        2.9869228553        5.7395033169
 Fe         7.6495177085       10.3208941966        6.0547735609
 Fe        10.2210934175        5.9005197909        5.9919616078
 Fe        12.7849092281        1.4580273671        5.9878522171
 Fe         2.5578318325       10.3283776273        6.0009664848
 Fe         5.0208417351        5.8257938547        6.0390849895
 Fe         7.6583772784        1.4603462966        5.9933563848
 Fe        -2.6007001545       10.3381917182        5.9849201695
 Fe        -0.0318874754        5.8997793762        5.9598303034
 Fe         2.5329898079        1.4581967331        5.9901794417
  C         5.3886146272        8.2892868933        9.0359778474
  C         4.3896389557        7.1411037842        8.8290640515
  H         4.8095594876        9.1925708989        9.2830082999
  O         6.2368009146        8.4994463313        7.9158442591
  H         6.0696195257        8.0383655930        9.8560433073
  C         3.6182910283        6.7955403952       10.1069754178
  C         2.5549933981        7.8551925964       10.4901560751
  O         4.5310154184        6.6867040101       11.2068438425
  H         3.1032390964        5.8242170085        9.9665541605
  C         1.4093368393        8.1093417945        9.4879095045
  H         3.0475283720        8.8283828535       10.6452515343
  O         2.0011001144        7.4921509170       11.7733984612
  C         0.7763703604        6.8186054452        8.9364650728
  O         1.8792322481        8.9528551704        8.4232592903
  H         0.6271755139        8.6493776104       10.0513239024
  H        -0.0719842120        7.0947468371        8.2766501374
  O         0.2891838955        6.0554486241       10.0614697586
  H         1.5226645118        6.2439409504        8.3605391725
  H         5.6355009718        8.7101549385        7.1595699893
  H         3.9698013348        6.7336597080       12.0083833166
  H         1.3660243967        6.7661140571       11.5877379673
  H         1.0910396731        9.2559444577        7.9140135097
  H         0.0486927924        5.1596456719        9.7653779149
  O         5.0629715142        5.9394580474        8.3052302336
  H         3.6561794209        7.3905315266        8.0447679992
  H         6.0351876933        6.2785755462        8.0602691439
     161
 i =        3, E =     -8104.5258602804
 Fe         5.0938794100       11.8196869300        0.3885799900
 Fe         7.6575796300        7.3792284900        0.3885799900
 Fe        10.2212798400        2.9387700600        0.3885799900
 Fe        -0.0335205200       11.8196869300        0.3885799900
 Fe         2.5301797000        7.3792284900        0.3885799900
 Fe         5.0938799200        2.9387700600        0.3885799900
 Fe        -5.1609204400       11.8196869300        0.3885799900
 Fe        -2.5972202200        7.3792284900        0.3885799900
 Fe        -0.0335200000        2.9387700600        0.3885799900
  O         8.4519195100        8.9577468800        1.1642700400
  O        11.0156197300        4.5172884400        1.1642700400
  O        13.5793199500        0.0768300000        1.1642700400
  O         3.3245195900        8.9577468800        1.1642700400
  O         5.8882198100        4.5172884400        1.1642700400
  O         8.4519200300        0.0768300000        1.1642700400
  O        -1.8028803300        8.9577468800        1.1642700400
  O         0.7608198900        4.5172884400        1.1642700400
  O         3.3245201100        0.0768300000        1.1642700400
  O         8.4568493000       11.7183869300        1.1650400200
  O        11.0205495200        7.2779284900        1.1650400200
  O        13.5842497300        2.8374700500        1.1650400200
  O         3.3294493700       11.7183869300        1.1650400200
  O         5.8931495900        7.2779284900        1.1650400200
  O         8.4568498100        2.8374700500        1.1650400200
  O        -1.7979505500       11.7183869300        1.1650400200
  O         0.7657496700        7.2779284900        1.1650400200
  O         3.3294498900        2.8374700500        1.1650400200
  O         6.0627194200       10.3425368500        1.1660399400
  O         8.6264196400        5.9020784100        1.1660399400
  O        11.1901198600        1.4616199700        1.1660399400
  O         0.9353195000       10.3425368500        1.1660399400
  O         3.4990197200        5.9020784100        1.1660399400
  O         6.0627199400        1.4616199700        1.1660399400
  O        -4.1920804200       10.3425368500        1.1660399400
  O        -1.6283802000        5.9020784100        1.1660399400
  O         0.9353200200        1.4616199700        1.1660399400
 Fe         7.6576695000       13.2997167500        1.9292099500
 Fe        10.2213697200        8.8592583200        1.9292099500
 Fe        12.7850699400        4.4187998800        1.9292099500
 Fe         2.5302695800       13.2997167500        1.9292099500
 Fe         5.0939698000        8.8592583200        1.9292099500
 Fe         7.6576700200        4.4187998800        1.9292099500
 Fe        -2.5971303400       13.2997167500        1.9292099500
 Fe        -0.0334301200        8.8592583200        1.9292099500
 Fe         2.5302701000        4.4187998800        1.9292099500
 Fe         7.6573893600       10.3392168700        2.7128999200
 Fe        10.2210895800        5.8987584300        2.7128999200
 Fe        12.7847898000        1.4582999900        2.7128999200
 Fe         2.5299894400       10.3392168700        2.7128999200
 Fe         5.0936896600        5.8987584300        2.7128999200
 Fe         7.6573898800        1.4582999900        2.7128999200
 Fe        -2.5974104800       10.3392168700        2.7128999200
 Fe        -0.0337102600        5.8987584300        2.7128999200
 Fe         2.5299899600        1.4582999900        2.7128999200
  O         4.1310221055       13.3008741683        3.4984787304
  O         6.7352625991        8.8763494626        3.5049664008
  O         9.3167305771        4.4419492238        3.5822012335
  O        -0.9929190368       13.2931856958        3.4981595545
  O         1.5740885072        8.8675626462        3.5075465139
  O         4.1277375557        4.4179744809        3.4945120303
  O        -6.1231760684       13.3023193667        3.5029079042
  O        -3.5408238769        8.8659009539        3.5178077090
  O        -0.9884765137        4.4226305229        3.5111147637
  O         6.8523016907       11.9186967153        3.4900885579
  O         9.4161245463        7.4636106827        3.5075870757
  O        11.9925968708        3.0316728375        3.5022025060
  O         1.7297875225       11.9027479420        3.5120196414
  O         4.2221747320        7.4623613120        3.4402266214
  O         6.8612160007        2.9733196327        3.5692810813
  O        -3.3959791832       11.9084135934        3.5047859016
  O        -0.8353970619        7.4719666546        3.4995759599
  O         1.7229525552        3.0252713507        3.4990896443
  O         9.4297215967       10.2503245379        3.4829946179
  O        11.9886702460        5.8033560912        3.4977829708
  O        14.5462337295        1.3624810932        3.5042496537
  O         4.2651490922       10.2779975044        3.5375304047
  O         6.8574890350        5.8094790763        3.4970635102
  O         9.4235935273        1.3601572831        3.4957813108
  O        -0.8339130209       10.2511547308        3.5074012246
  O         1.7114374590        5.8043627804        3.4962779792
  O         4.2920960960        1.3593075183        3.4968271135
 Fe         5.1046342488       11.8337762749        4.5042558981
 Fe         7.6474320020        7.3634292211        4.4940415823
 Fe        10.2341856646        2.9209241760        4.5064710425
 Fe        -0.0260451361       11.8157603337        4.5046591244
 Fe         2.5207651194        7.3726382087        4.4925288221
 Fe         5.0815332168        2.9325313941        4.4994011629
 Fe        -5.1714858617       11.8127861269        4.4938828686
 Fe        -2.5968423492        7.3746989728        4.4971097196
 Fe        -0.0328605744        2.9310053338        4.4985092630
 Fe         7.6633310971       13.2884048656        4.8220272408
 Fe        10.2200300109        8.8648176348        4.8110335813
 Fe        12.7860312024        4.4178842212        4.8181740188
 Fe         2.5295805898       13.2980492504        4.8165348042
 Fe         5.0994266417        8.8223376236        4.7122831818
 Fe         7.6520466052        4.4224302337        4.8347548550
 Fe        -2.5962759702       13.2966979074        4.8169421488
 Fe        -0.0336805857        8.8682608876        4.7900018349
 Fe         2.5172798251        4.4120062831        4.7982110467
  O         5.8535492458       10.3335089787        5.7052989872
  O         8.4291377239        5.9498935722        5.7427363814
  O        10.9975217947        1.4939336257        5.7393268270
  O         0.7594323699       10.3504284090        5.8048388600
  O         3.2160008293        5.9512626992        5.7075777103
  O         5.8679654762        1.4952175888        5.7310207660
  O        -4.3889867377       10.3867890253        5.7378294584
  O        -1.8267542770        5.9452190361        5.7460517299
  O         0.7400345358        1.4993890801        5.7401547807
  O         5.9540656493       13.2042336896        5.7431986221
  O         8.5050932453        8.7640822387        5.6916854027
  O        11.0804497590        4.3260208184        5.7359620301
  O         0.8215526415       13.2020669144        5.7357663617
  O         3.4477340560        8.7514189927        5.7205862122
  O         5.9432203036        4.3052679502        5.6906023455
  O        -4.3095268701       13.1989228974        5.7303117628
  O        -1.7213830197        8.7615824792        5.7563783638
  O         0.8191704051        4.3156261472        5.7556647100
  O         3.4703424929       11.8699451230        5.7414831062
  O         5.9173141181        7.2623329226        5.5007513091
  O         8.6022221760        2.9829628522        5.7335329661
  O        -1.6536679618       11.8625914405        5.7425506756
  O         0.8868497809        7.4456984676        5.7220618348
  O         3.4546832373        2.9946758808        5.7348359147
  O        -6.8123999018       11.8325679661        5.7363242401
  O        -4.2219283343        7.4310993464        5.7349479484
  O        -1.6587541366        2.9906009565        5.7492143254
 Fe         7.6440167178       10.3081264371        6.1155430612
 Fe        10.2226285211        5.9019226962        5.9925290662
 Fe        12.7873629329        1.4586459447        5.9923529517
 Fe         2.5808734949       10.3205915615        6.0091249816
 Fe         4.9756128513        5.7872517710        6.1501729234
 Fe         7.6582958722        1.4612432981        5.9954631027
 Fe        -2.5985949844       10.3369726218        5.9864909909
 Fe        -0.0315633353        5.8996800955        5.9476725452
 Fe         2.5355450487        1.4582008624        5.9916610841
  C         5.3943030139        8.3098373856        9.0701729453
  C         4.3787841857        7.1722129983        8.8103453715
  H         4.7775457907        9.1780560166        9.3662630894
  O         6.2745444608        8.5384939207        7.9932339890
  H         6.0040152267        8.0450150071        9.9500244255
  C         3.6218715281        6.7960376792       10.0947566926
  C         2.5530793722        7.8553452180       10.4828528062
  O         4.5321252881        6.6709632829       11.1972802766
  H         3.1081564921        5.8229101752        9.9587505270
  C         1.4016266785        8.1201915455        9.4907062352
  H         3.0535472643        8.8227167641       10.6446729588
  O         2.0067720111        7.4847405536       11.7674180475
  C         0.7783093423        6.8241761071        8.9297277206
  O         1.8484332040        8.9967080438        8.4449585705
  H         0.6150777983        8.6350313935       10.0693397196
  H        -0.0748699741        7.1059204469        8.2782875027
  O         0.3047812041        6.0589603042       10.0604542946
  H         1.5196860837        6.2458830747        8.3488647951
  H         5.7010894360        8.6984340507        7.1950113266
  H         3.9694686385        6.7333544597       11.9985131958
  H         1.3617456568        6.7668149102       11.5822088616
  H         1.0484624946        9.2115618200        7.8786901099
  H         0.0519558481        5.1661153312        9.7632906538
  O         5.1379355181        6.0050706995        8.2345366559
  H         3.6377047632        7.4569613464        8.0510487910
  H         6.1708534920        6.3439066938        8.1504423041
     161
 i =        4, E =     -8104.5332601122
 Fe         5.0938794100       11.8196869300        0.3885799900
 Fe         7.6575796300        7.3792284900        0.3885799900
 Fe        10.2212798400        2.9387700600        0.3885799900
 Fe        -0.0335205200       11.8196869300        0.3885799900
 Fe         2.5301797000        7.3792284900        0.3885799900
 Fe         5.0938799200        2.9387700600        0.3885799900
 Fe        -5.1609204400       11.8196869300        0.3885799900
 Fe        -2.5972202200        7.3792284900        0.3885799900
 Fe        -0.0335200000        2.9387700600        0.3885799900
  O         8.4519195100        8.9577468800        1.1642700400
  O        11.0156197300        4.5172884400        1.1642700400
  O        13.5793199500        0.0768300000        1.1642700400
  O         3.3245195900        8.9577468800        1.1642700400
  O         5.8882198100        4.5172884400        1.1642700400
  O         8.4519200300        0.0768300000        1.1642700400
  O        -1.8028803300        8.9577468800        1.1642700400
  O         0.7608198900        4.5172884400        1.1642700400
  O         3.3245201100        0.0768300000        1.1642700400
  O         8.4568493000       11.7183869300        1.1650400200
  O        11.0205495200        7.2779284900        1.1650400200
  O        13.5842497300        2.8374700500        1.1650400200
  O         3.3294493700       11.7183869300        1.1650400200
  O         5.8931495900        7.2779284900        1.1650400200
  O         8.4568498100        2.8374700500        1.1650400200
  O        -1.7979505500       11.7183869300        1.1650400200
  O         0.7657496700        7.2779284900        1.1650400200
  O         3.3294498900        2.8374700500        1.1650400200
  O         6.0627194200       10.3425368500        1.1660399400
  O         8.6264196400        5.9020784100        1.1660399400
  O        11.1901198600        1.4616199700        1.1660399400
  O         0.9353195000       10.3425368500        1.1660399400
  O         3.4990197200        5.9020784100        1.1660399400
  O         6.0627199400        1.4616199700        1.1660399400
  O        -4.1920804200       10.3425368500        1.1660399400
  O        -1.6283802000        5.9020784100        1.1660399400
  O         0.9353200200        1.4616199700        1.1660399400
 Fe         7.6576695000       13.2997167500        1.9292099500
 Fe        10.2213697200        8.8592583200        1.9292099500
 Fe        12.7850699400        4.4187998800        1.9292099500
 Fe         2.5302695800       13.2997167500        1.9292099500
 Fe         5.0939698000        8.8592583200        1.9292099500
 Fe         7.6576700200        4.4187998800        1.9292099500
 Fe        -2.5971303400       13.2997167500        1.9292099500
 Fe        -0.0334301200        8.8592583200        1.9292099500
 Fe         2.5302701000        4.4187998800        1.9292099500
 Fe         7.6573893600       10.3392168700        2.7128999200
 Fe        10.2210895800        5.8987584300        2.7128999200
 Fe        12.7847898000        1.4582999900        2.7128999200
 Fe         2.5299894400       10.3392168700        2.7128999200
 Fe         5.0936896600        5.8987584300        2.7128999200
 Fe         7.6573898800        1.4582999900        2.7128999200
 Fe        -2.5974104800       10.3392168700        2.7128999200
 Fe        -0.0337102600        5.8987584300        2.7128999200
 Fe         2.5299899600        1.4582999900        2.7128999200
  O         4.1326762727       13.3021883286        3.5021435612
  O         6.7150828269        8.8691042905        3.4901816539
  O         9.3043433776        4.4392567293        3.5688354873
  O        -0.9932904171       13.2933845219        3.4974242638
  O         1.5689546621        8.8696947289        3.5093372600
  O         4.1260148842        4.4182997730        3.4957584503
  O        -6.1228757878       13.3026110463        3.5055899939
  O        -3.5456122480        8.8654120261        3.5142847104
  O        -0.9886291340        4.4247512194        3.5123366787
  O         6.8540196357       11.9189861521        3.4911404624
  O         9.4161306581        7.4646098065        3.5060098427
  O        11.9959677999        3.0301944527        3.5045677594
  O         1.7292126741       11.9028326744        3.5112372320
  O         4.2301175564        7.4780256749        3.4252363360
  O         6.8656462976        2.9827649701        3.5569957223
  O        -3.3944024946       11.9069480640        3.5051720019
  O        -0.8313046849        7.4731020375        3.5031267269
  O         1.7230284909        3.0226402930        3.5033381511
  O         9.4326525501       10.2470637229        3.4795671235
  O        11.9901876621        5.8035430556        3.4967999016
  O        14.5429832178        1.3604427374        3.5077011703
  O         4.2758981847       10.2638955954        3.5188596847
  O         6.8704928027        5.7926438636        3.4776494938
  O         9.4246241467        1.3587627548        3.4974398527
  O        -0.8325483957       10.2479304334        3.5104682253
  O         1.7069289435        5.8023857953        3.5010298547
  O         4.2889978430        1.3570350658        3.5000208064
 Fe         5.1027694770       11.8214635954        4.4964305029
 Fe         7.6350143544        7.3583893399        4.4884395980
 Fe        10.2310464804        2.9289957013        4.4997795540
 Fe        -0.0256712594       11.8176630935        4.5003414993
 Fe         2.5286138542        7.3713680730        4.4849576540
 Fe         5.0889601573        2.9324433613        4.4917292709
 Fe        -5.1707723177       11.8099630183        4.4894126856
 Fe        -2.5980085656        7.3764206310        4.4924067159
 Fe        -0.0356521792        2.9294893536        4.4937472305
 Fe         7.6620363575       13.2863904085        4.8223223787
 Fe        10.2134441696        8.8628767164        4.8117276353
 Fe        12.7857794606        4.4180483024        4.8178486015
 Fe         2.5304825314       13.2949468611        4.8170375276
 Fe         5.0960382802        8.8187942959        4.7281849158
 Fe         7.6491660267        4.4204197058        4.8470036859
 Fe        -2.5956234161       13.2942826820        4.8156747868
 Fe        -0.0322303319        8.8677901991        4.8013539201
 Fe         2.5160729824        4.4123245500        4.8002372801
  O         5.8590836546       10.3336910754        5.7157955265
  O         8.4210759480        5.9549300184        5.7560606644
  O        10.9964402875        1.4981626800        5.7349505651
  O         0.7628772257       10.3551730309        5.7999081877
  O         3.2238631112        5.9489382568        5.7166760186
  O         5.8602431187        1.4934259393        5.7365962229
  O        -4.3910156826       10.3856675507        5.7373190706
  O        -1.8299141272        5.9476169449        5.7442965994
  O         0.7383616719        1.4991492910        5.7385845831
  O         5.9501672088       13.1972124315        5.7405749063
  O         8.4948795094        8.7585799883        5.7001476126
  O        11.0848520696        4.3220897440        5.7436495293
  O         0.8211641822       13.2016524193        5.7348001627
  O         3.4374800283        8.7427358587        5.7304767092
  O         5.9330970508        4.3054102950        5.7026870966
  O        -4.3109862867       13.1978400088        5.7290717015
  O        -1.7261427062        8.7595913039        5.7558077898
  O         0.8153368011        4.3112469086        5.7533124220
  O         3.4756697681       11.8713054649        5.7447647585
  O         5.9342922676        7.2840952821        5.5496383421
  O         8.6072255706        2.9805453455        5.7436514588
  O        -1.6512169038       11.8617842382        5.7413975388
  O         0.8954767576        7.4412573269        5.7240667019
  O         3.4599853894        2.9940346613        5.7336419215
  O        -6.8105932771       11.8319640936        5.7352185750
  O        -4.2221081531        7.4307724094        5.7351608603
  O        -1.6579384324        2.9892815431        5.7484011434
 Fe         7.6466243982       10.3101086517        6.1191440506
 Fe        10.2207060446        5.8988201803        5.9755577104
 Fe        12.7878818649        1.4566716843        5.9850069789
 Fe         2.5830013607       10.3212026189        5.9992833132
 Fe         4.9883472254        5.8033711887        6.1382397251
 Fe         7.6538872990        1.4604790436        5.9813608489
 Fe        -2.5982143882       10.3365852268        5.9799404783
 Fe        -0.0329032248        5.8986260242        5.9354587546
 Fe         2.5345993194        1.4583761906        5.9834863759
  C         5.3791152129        8.3136050905        9.0910303962
  C         4.3828110973        7.1704439355        8.8132734584
  H         4.7846348661        9.1986134004        9.3607960221
  O         6.2566388210        8.5318222808        8.0068699470
  H         6.0031137240        8.0430179521        9.9548620203
  C         3.6238111580        6.7986346003       10.0962247907
  C         2.5500288340        7.8579829926       10.4744235845
  O         4.5390321538        6.6673574278       11.1933219129
  H         3.1120169404        5.8278596352        9.9429166246
  C         1.3912113672        8.1164857717        9.4889524417
  H         3.0566811623        8.8200062084       10.6490142889
  O         2.0143705767        7.4818342688       11.7611979424
  C         0.7739862805        6.8196048034        8.9295385165
  O         1.8365093294        8.9871014398        8.4390267966
  H         0.6140891099        8.6304355682       10.0809607207
  H        -0.0729300212        7.1059705851        8.2749135735
  O         0.3069945527        6.0597409791       10.0667014706
  H         1.5183458341        6.2536583466        8.3416509479
  H         5.7209713047        8.7031087165        7.1890810502
  H         3.9684265864        6.7325626768       11.9886782931
  H         1.3620444624        6.7689721456       11.5795802269
  H         1.0531879262        9.2146699065        7.8755664654
  H         0.0538751043        5.1713320164        9.7587396308
  O         5.2202850031        6.0249416188        8.3203022269
  H         3.6491350376        7.4676239162        8.0470756570
  H         6.0961396514        6.3411704332        8.0878012326
     161
 i =        5, E =     -8104.5356833818
 Fe         5.0938794100       11.8196869300        0.3885799900
 Fe         7.6575796300        7.3792284900        0.3885799900
 Fe        10.2212798400        2.9387700600        0.3885799900
 Fe        -0.0335205200       11.8196869300        0.3885799900
 Fe         2.5301797000        7.3792284900        0.3885799900
 Fe         5.0938799200        2.9387700600        0.3885799900
 Fe        -5.1609204400       11.8196869300        0.3885799900
 Fe        -2.5972202200        7.3792284900        0.3885799900
 Fe        -0.0335200000        2.9387700600        0.3885799900
  O         8.4519195100        8.9577468800        1.1642700400
  O        11.0156197300        4.5172884400        1.1642700400
  O        13.5793199500        0.0768300000        1.1642700400
  O         3.3245195900        8.9577468800        1.1642700400
  O         5.8882198100        4.5172884400        1.1642700400
  O         8.4519200300        0.0768300000        1.1642700400
  O        -1.8028803300        8.9577468800        1.1642700400
  O         0.7608198900        4.5172884400        1.1642700400
  O         3.3245201100        0.0768300000        1.1642700400
  O         8.4568493000       11.7183869300        1.1650400200
  O        11.0205495200        7.2779284900        1.1650400200
  O        13.5842497300        2.8374700500        1.1650400200
  O         3.3294493700       11.7183869300        1.1650400200
  O         5.8931495900        7.2779284900        1.1650400200
  O         8.4568498100        2.8374700500        1.1650400200
  O        -1.7979505500       11.7183869300        1.1650400200
  O         0.7657496700        7.2779284900        1.1650400200
  O         3.3294498900        2.8374700500        1.1650400200
  O         6.0627194200       10.3425368500        1.1660399400
  O         8.6264196400        5.9020784100        1.1660399400
  O        11.1901198600        1.4616199700        1.1660399400
  O         0.9353195000       10.3425368500        1.1660399400
  O         3.4990197200        5.9020784100        1.1660399400
  O         6.0627199400        1.4616199700        1.1660399400
  O        -4.1920804200       10.3425368500        1.1660399400
  O        -1.6283802000        5.9020784100        1.1660399400
  O         0.9353200200        1.4616199700        1.1660399400
 Fe         7.6576695000       13.2997167500        1.9292099500
 Fe        10.2213697200        8.8592583200        1.9292099500
 Fe        12.7850699400        4.4187998800        1.9292099500
 Fe         2.5302695800       13.2997167500        1.9292099500
 Fe         5.0939698000        8.8592583200        1.9292099500
 Fe         7.6576700200        4.4187998800        1.9292099500
 Fe        -2.5971303400       13.2997167500        1.9292099500
 Fe        -0.0334301200        8.8592583200        1.9292099500
 Fe         2.5302701000        4.4187998800        1.9292099500
 Fe         7.6573893600       10.3392168700        2.7128999200
 Fe        10.2210895800        5.8987584300        2.7128999200
 Fe        12.7847898000        1.4582999900        2.7128999200
 Fe         2.5299894400       10.3392168700        2.7128999200
 Fe         5.0936896600        5.8987584300        2.7128999200
 Fe         7.6573898800        1.4582999900        2.7128999200
 Fe        -2.5974104800       10.3392168700        2.7128999200
 Fe        -0.0337102600        5.8987584300        2.7128999200
 Fe         2.5299899600        1.4582999900        2.7128999200
  O         4.1352083874       13.3035075523        3.5053990333
  O         6.7324687759        8.8749239458        3.5464011859
  O         9.2899749044        4.4364672073        3.5532982542
  O        -0.9929481501       13.2953058739        3.4992624760
  O         1.5631189161        8.8724760982        3.5086723800
  O         4.1233511890        4.4198695042        3.4951508369
  O        -6.1216909189       13.3033811598        3.5091681182
  O        -3.5533669837        8.8646818585        3.5072343013
  O        -0.9886922241        4.4272934631        3.5135694200
  O         6.8589856263       11.9173899164        3.4935511975
  O         9.4256307404        7.4672776636        3.4986454991
  O        11.9988670028        3.0285236333        3.5074029847
  O         1.7302713952       11.9028561769        3.5111357140
  O         4.2463889817        7.4394213620        3.5033420962
  O         6.8697925933        2.9936998228        3.5456970755
  O        -3.3930918594       11.9044759135        3.5058701900
  O        -0.8272703371        7.4724712556        3.5078152636
  O         1.7244419578        3.0204761760        3.5072028753
  O         9.4332816128       10.2421421902        3.4795965452
  O        11.9900574386        5.8044679406        3.4988116158
  O        14.5387585135        1.3589453507        3.5117852648
  O         4.2486250652       10.2734887261        3.5659630511
  O         6.8738694685        5.7765505175        3.4756467540
  O         9.4236254148        1.3575163922        3.5008768188
  O        -0.8341359213       10.2436845706        3.5147425157
  O         1.7043898905        5.7986124197        3.5063231630
  O         4.2857612687        1.3569516345        3.5041931186
 Fe         5.1088304367       11.8209169855        4.4969298218
 Fe         7.6454607744        7.3422918832        4.4919659873
 Fe        10.2264217295        2.9380139501        4.4926808852
 Fe        -0.0257175887       11.8187329730        4.4944184583
 Fe         2.5164839020        7.3697609291        4.4904110821
 Fe         5.0949528754        2.9346746606        4.4857981645
 Fe        -5.1689107518       11.8074674862        4.4860504872
 Fe        -2.5998930410        7.3810496512        4.4885162313
 Fe        -0.0382597108        2.9278825887        4.4889360326
 Fe         7.6608662400       13.2842299872        4.8223091480
 Fe        10.2051323191        8.8570036950        4.8117655170
 Fe        12.7858317593        4.4176450016        4.8195087380
 Fe         2.5327544898       13.2920587600        4.8183148138
 Fe         5.0882255218        8.8239448255        4.7823109224
 Fe         7.6485831124        4.4153181639        4.8641645589
 Fe        -2.5957599764       13.2911043109        4.8156724985
 Fe        -0.0302677701        8.8676192594        4.8141129692
 Fe         2.5171287433        4.4117338776        4.8044080903
  O         5.8700181430       10.3434711669        5.7311898856
  O         8.4120780802        5.9519319026        5.7750895548
  O        10.9958998160        1.5035990371        5.7274069782
  O         0.7662399690       10.3625049505        5.7844490401
  O         3.2452404653        5.9445452302        5.7264806192
  O         5.8527452108        1.4925981431        5.7399158893
  O        -4.3950066504       10.3807088734        5.7316754178
  O        -1.8340773917        5.9513664358        5.7381598361
  O         0.7364120394        1.4976899902        5.7340847320
  O         5.9502148530       13.1940931177        5.7394183169
  O         8.4847767451        8.7580258457        5.7122984627
  O        11.0879244526        4.3202654352        5.7481673455
  O         0.8204337200       13.2023074346        5.7294921832
  O         3.4134951622        8.7312760959        5.7444496934
  O         5.9230870654        4.3115908852        5.7160086931
  O        -4.3127952580       13.1975654453        5.7269781599
  O        -1.7313665274        8.7602047843        5.7510906332
  O         0.8132128094        4.3064651930        5.7459540463
  O         3.4815713221       11.8710152523        5.7440054998
  O         5.9621779720        7.3120980317        5.6054058820
  O         8.6111176734        2.9770422619        5.7554175007
  O        -1.6496677618       11.8593582810        5.7373773999
  O         0.8971589436        7.4371318686        5.7321682119
  O         3.4645324410        2.9909652862        5.7320019874
  O        -6.8074965798       11.8320619835        5.7308385389
  O        -4.2247314244        7.4275800784        5.7322916374
  O        -1.6572340426        2.9851586453        5.7435496499
 Fe         7.6507607207       10.3164866210        6.1243529972
 Fe        10.2163945493        5.8951210325        5.9640933260
 Fe        12.7877403096        1.4542695124        5.9776539763
 Fe         2.5804771511       10.3235792340        5.9843277978
 Fe         5.0130596587        5.8284345278        6.1357771157
 Fe         7.6490292312        1.4588775733        5.9705523489
 Fe        -2.6000615688       10.3358649280        5.9725390230
 Fe        -0.0356289918        5.8952715066        5.9111215747
 Fe         2.5318785632        1.4575260772        5.9770677601
  C         5.3607201598        8.3263360401        9.1129000622
  C         4.4095183634        7.1632482224        8.8299591420
  H         4.7981770013        9.2416648673        9.3340339922
  O         6.2412806954        8.5348342159        8.0192736228
  H         6.0180185023        8.0414872009        9.9406094343
  C         3.6259645257        6.7999010562       10.0951346604
  C         2.5473358536        7.8589743949       10.4661921787
  O         4.5426771245        6.6665512997       11.1888224444
  H         3.1149903738        5.8333647276        9.9215509734
  C         1.3822049359        8.1106538741        9.4841183781
  H         3.0577182742        8.8175634562       10.6521297519
  O         2.0219304497        7.4804503020       11.7560947055
  C         0.7688482397        6.8145126571        8.9311737124
  O         1.8311861433        8.9721631068        8.4290907328
  H         0.6160378243        8.6260840989       10.0915628206
  H        -0.0723108641        7.1031321332        8.2728961094
  O         0.3043576129        6.0583890741       10.0713135195
  H         1.5179289408        6.2651557869        8.3352615047
  H         5.7321804364        8.7093649233        7.1891785418
  H         3.9668230478        6.7305454553       11.9793772414
  H         1.3644861463        6.7714229478       11.5756855461
  H         1.0643897920        9.2198385320        7.8781833698
  H         0.0544369207        5.1735783138        9.7539932469
  O         5.1956480040        6.0040543272        8.3230520866
  H         3.6890188444        7.4477694996        8.0396739793
  H         6.0460907739        6.3675063410        8.0878185953
     161
 i =        6, E =     -8104.5408979257
 Fe         5.0938794100       11.8196869300        0.3885799900
 Fe         7.6575796300        7.3792284900        0.3885799900
 Fe        10.2212798400        2.9387700600        0.3885799900
 Fe        -0.0335205200       11.8196869300        0.3885799900
 Fe         2.5301797000        7.3792284900        0.3885799900
 Fe         5.0938799200        2.9387700600        0.3885799900
 Fe        -5.1609204400       11.8196869300        0.3885799900
 Fe        -2.5972202200        7.3792284900        0.3885799900
 Fe        -0.0335200000        2.9387700600        0.3885799900
  O         8.4519195100        8.9577468800        1.1642700400
  O        11.0156197300        4.5172884400        1.1642700400
  O        13.5793199500        0.0768300000        1.1642700400
  O         3.3245195900        8.9577468800        1.1642700400
  O         5.8882198100        4.5172884400        1.1642700400
  O         8.4519200300        0.0768300000        1.1642700400
  O        -1.8028803300        8.9577468800        1.1642700400
  O         0.7608198900        4.5172884400        1.1642700400
  O         3.3245201100        0.0768300000        1.1642700400
  O         8.4568493000       11.7183869300        1.1650400200
  O        11.0205495200        7.2779284900        1.1650400200
  O        13.5842497300        2.8374700500        1.1650400200
  O         3.3294493700       11.7183869300        1.1650400200
  O         5.8931495900        7.2779284900        1.1650400200
  O         8.4568498100        2.8374700500        1.1650400200
  O        -1.7979505500       11.7183869300        1.1650400200
  O         0.7657496700        7.2779284900        1.1650400200
  O         3.3294498900        2.8374700500        1.1650400200
  O         6.0627194200       10.3425368500        1.1660399400
  O         8.6264196400        5.9020784100        1.1660399400
  O        11.1901198600        1.4616199700        1.1660399400
  O         0.9353195000       10.3425368500        1.1660399400
  O         3.4990197200        5.9020784100        1.1660399400
  O         6.0627199400        1.4616199700        1.1660399400
  O        -4.1920804200       10.3425368500        1.1660399400
  O        -1.6283802000        5.9020784100        1.1660399400
  O         0.9353200200        1.4616199700        1.1660399400
 Fe         7.6576695000       13.2997167500        1.9292099500
 Fe        10.2213697200        8.8592583200        1.9292099500
 Fe        12.7850699400        4.4187998800        1.9292099500
 Fe         2.5302695800       13.2997167500        1.9292099500
 Fe         5.0939698000        8.8592583200        1.9292099500
 Fe         7.6576700200        4.4187998800        1.9292099500
 Fe        -2.5971303400       13.2997167500        1.9292099500
 Fe        -0.0334301200        8.8592583200        1.9292099500
 Fe         2.5302701000        4.4187998800        1.9292099500
 Fe         7.6573893600       10.3392168700        2.7128999200
 Fe        10.2210895800        5.8987584300        2.7128999200
 Fe        12.7847898000        1.4582999900        2.7128999200
 Fe         2.5299894400       10.3392168700        2.7128999200
 Fe         5.0936896600        5.8987584300        2.7128999200
 Fe         7.6573898800        1.4582999900        2.7128999200
 Fe        -2.5974104800       10.3392168700        2.7128999200
 Fe        -0.0337102600        5.8987584300        2.7128999200
 Fe         2.5299899600        1.4582999900        2.7128999200
  O         4.1368937525       13.3014080123        3.5046822041
  O         6.7119743556        8.8631132038        3.5182142142
  O         9.2845034211        4.4332712065        3.5436626763
  O        -0.9932677568       13.2954253051        3.5000809092
  O         1.5633943238        8.8695427752        3.5071383908
  O         4.1201743559        4.4163563006        3.4874730289
  O        -6.1220585243       13.3005211971        3.5067819536
  O        -3.5490451908        8.8659774854        3.5133999108
  O        -0.9874303707        4.4270855273        3.5146856659
  O         6.8577320016       11.9179026718        3.4916134946
  O         9.4260073556        7.4586884748        3.5095496865
  O        11.9980627663        3.0301848737        3.5060778737
  O         1.7294322639       11.9041463668        3.5098670495
  O         4.2550458629        7.4531163935        3.4883515179
  O         6.8681485291        3.0000623604        3.5355788049
  O        -3.3930909622       11.9037876529        3.5052822585
  O        -0.8267268845        7.4714737597        3.5097390874
  O         1.7235547647        3.0202638542        3.5057070955
  O         9.4296628660       10.2440912754        3.4871296232
  O        11.9902993146        5.8042263769        3.4991114505
  O        14.5390196646        1.3581234402        3.5113900206
  O         4.2569237635       10.2612932956        3.5495662320
  O         6.8794597597        5.7706382870        3.4705425126
  O         9.4241824730        1.3569449512        3.4997059422
  O        -0.8336234972       10.2433562681        3.5143326727
  O         1.7037904364        5.7980454106        3.5097105380
  O         4.2870176003        1.3578170295        3.5027132745
 Fe         5.1066768788       11.8090605701        4.4939596819
 Fe         7.6346361906        7.3494672600        4.4900056715
 Fe        10.2231114511        2.9405571819        4.4922275327
 Fe        -0.0253643897       11.8184722468        4.4947282955
 Fe         2.5272589545        7.3685408926        4.4898663762
 Fe         5.0957835075        2.9367512772        4.4869410231
 Fe        -5.1683788623       11.8077935407        4.4889539470
 Fe        -2.6005096045        7.3809493662        4.4918271435
 Fe        -0.0384881329        2.9250782915        4.4910594903
 Fe         7.6606463332       13.2805346485        4.8232422671
 Fe        10.2001156086        8.8552871257        4.8129727585
 Fe        12.7855879002        4.4173253778        4.8213213051
 Fe         2.5348884659       13.2913847749        4.8189398772
 Fe         5.0891070146        8.8228296116        4.7883104430
 Fe         7.6476702211        4.4133308756        4.8665244664
 Fe        -2.5969779795       13.2896816994        4.8156658885
 Fe        -0.0286862327        8.8688339343        4.8169783305
 Fe         2.5193192049        4.4088681902        4.8044691247
  O         5.8725728843       10.3399370078        5.7439686791
  O         8.4059064108        5.9549305251        5.7747986083
  O        10.9971004424        1.5057475106        5.7256030139
  O         0.7708943545       10.3622083588        5.7824434209
  O         3.2485612077        5.9385157055        5.7347763811
  O         5.8514536145        1.4911681503        5.7406740062
  O        -4.3979260641       10.3783777270        5.7301759190
  O        -1.8356942346        5.9522398315        5.7386772835
  O         0.7358305608        1.4943021904        5.7346225104
  O         5.9474643736       13.1882895965        5.7374233428
  O         8.4828437862        8.7578816413        5.7196697452
  O        11.0879043879        4.3209240899        5.7494308916
  O         0.8201995200       13.2026457191        5.7264651303
  O         3.4135326462        8.7271637708        5.7532921964
  O         5.9222451712        4.3149418651        5.7179185788
  O        -4.3134724651       13.1965124967        5.7277039486
  O        -1.7326359274        8.7618656671        5.7508720671
  O         0.8144444103        4.3031544235        5.7452546416
  O         3.4838420370       11.8734414051        5.7491553230
  O         5.9625319423        7.3164552438        5.6281516590
  O         8.6083107753        2.9767979124        5.7598921176
  O        -1.6501328779       11.8571678995        5.7362433953
  O         0.9018665488        7.4355897956        5.7306079109
  O         3.4643998981        2.9879243623        5.7331832769
  O        -6.8088937890       11.8269553517        5.7308773403
  O        -4.2291368234        7.4249670848        5.7297931099
  O        -1.6575901911        2.9829930086        5.7432875110
 Fe         7.6513472407       10.3148813681        6.1426499767
 Fe        10.2119938926        5.8932756542        5.9675350114
 Fe        12.7884282514        1.4516785407        5.9808980098
 Fe         2.5844504528       10.3239750945        5.9849659928
 Fe         5.0153518411        5.8304203891        6.1567908419
 Fe         7.6474691041        1.4571969552        5.9761673248
 Fe        -2.6030408683       10.3355382384        5.9756883175
 Fe        -0.0351282931        5.8934648665        5.8928462076
 Fe         2.5307606475        1.4555372435        5.9804297200
  C         5.3711967652        8.3353335700        9.1107545849
  C         4.4104234610        7.1863450489        8.8323790341
  H         4.7947670968        9.2434539999        9.3450490475
  O         6.2769633065        8.5566612770        8.0333578183
  H         6.0041542710        8.0572142470        9.9611534675
  C         3.6257992498        6.7906522744       10.0855413978
  C         2.5555965788        7.8553017782       10.4714317840
  O         4.5347435008        6.6628233282       11.1858200852
  H         3.1129057377        5.8266091252        9.9083285319
  C         1.3897231760        8.1149092156        9.4894834995
  H         3.0560754409        8.8207035157       10.6455272371
  O         2.0212812759        7.4782880714       11.7580122800
  C         0.7697193006        6.8269630618        8.9291874264
  O         1.8253506924        8.9819695701        8.4337585054
  H         0.6126925871        8.6191268117       10.0953325422
  H        -0.0793926975        7.0988126694        8.2743774060
  O         0.3068425321        6.0557967183       10.0594471237
  H         1.5140085122        6.2701114671        8.3342347091
  H         5.7462244540        8.7046130671        7.2153968383
  H         3.9648612008        6.7274911089       11.9797599230
  H         1.3651089708        6.7701004990       11.5712284827
  H         1.0551555259        9.2027351702        7.8675317071
  H         0.0518511818        5.1684135610        9.7549560079
  O         5.1494060853        6.0194061874        8.2670442351
  H         3.7019038414        7.4480367710        8.0260845657
  H         6.1021386340        6.4165695561        8.1617028760
     161
 i =        7, E =     -8104.5449008970
 Fe         5.0938794100       11.8196869300        0.3885799900
 Fe         7.6575796300        7.3792284900        0.3885799900
 Fe        10.2212798400        2.9387700600        0.3885799900
 Fe        -0.0335205200       11.8196869300        0.3885799900
 Fe         2.5301797000        7.3792284900        0.3885799900
 Fe         5.0938799200        2.9387700600        0.3885799900
 Fe        -5.1609204400       11.8196869300        0.3885799900
 Fe        -2.5972202200        7.3792284900        0.3885799900
 Fe        -0.0335200000        2.9387700600        0.3885799900
  O         8.4519195100        8.9577468800        1.1642700400
  O        11.0156197300        4.5172884400        1.1642700400
  O        13.5793199500        0.0768300000        1.1642700400
  O         3.3245195900        8.9577468800        1.1642700400
  O         5.8882198100        4.5172884400        1.1642700400
  O         8.4519200300        0.0768300000        1.1642700400
  O        -1.8028803300        8.9577468800        1.1642700400
  O         0.7608198900        4.5172884400        1.1642700400
  O         3.3245201100        0.0768300000        1.1642700400
  O         8.4568493000       11.7183869300        1.1650400200
  O        11.0205495200        7.2779284900        1.1650400200
  O        13.5842497300        2.8374700500        1.1650400200
  O         3.3294493700       11.7183869300        1.1650400200
  O         5.8931495900        7.2779284900        1.1650400200
  O         8.4568498100        2.8374700500        1.1650400200
  O        -1.7979505500       11.7183869300        1.1650400200
  O         0.7657496700        7.2779284900        1.1650400200
  O         3.3294498900        2.8374700500        1.1650400200
  O         6.0627194200       10.3425368500        1.1660399400
  O         8.6264196400        5.9020784100        1.1660399400
  O        11.1901198600        1.4616199700        1.1660399400
  O         0.9353195000       10.3425368500        1.1660399400
  O         3.4990197200        5.9020784100        1.1660399400
  O         6.0627199400        1.4616199700        1.1660399400
  O        -4.1920804200       10.3425368500        1.1660399400
  O        -1.6283802000        5.9020784100        1.1660399400
  O         0.9353200200        1.4616199700        1.1660399400
 Fe         7.6576695000       13.2997167500        1.9292099500
 Fe        10.2213697200        8.8592583200        1.9292099500
 Fe        12.7850699400        4.4187998800        1.9292099500
 Fe         2.5302695800       13.2997167500        1.9292099500
 Fe         5.0939698000        8.8592583200        1.9292099500
 Fe         7.6576700200        4.4187998800        1.9292099500
 Fe        -2.5971303400       13.2997167500        1.9292099500
 Fe        -0.0334301200        8.8592583200        1.9292099500
 Fe         2.5302701000        4.4187998800        1.9292099500
 Fe         7.6573893600       10.3392168700        2.7128999200
 Fe        10.2210895800        5.8987584300        2.7128999200
 Fe        12.7847898000        1.4582999900        2.7128999200
 Fe         2.5299894400       10.3392168700        2.7128999200
 Fe         5.0936896600        5.8987584300        2.7128999200
 Fe         7.6573898800        1.4582999900        2.7128999200
 Fe        -2.5974104800       10.3392168700        2.7128999200
 Fe        -0.0337102600        5.8987584300        2.7128999200
 Fe         2.5299899600        1.4582999900        2.7128999200
  O         4.1368822726       13.2982012387        3.5015811774
  O         6.7088438224        8.8597924321        3.5083129246
  O         9.2860900313        4.4301748367        3.5405366869
  O        -0.9937013174       13.2945014107        3.5002386219
  O         1.5672496703        8.8670278210        3.5061338117
  O         4.1176411076        4.4149079600        3.4832673196
  O        -6.1229959763       13.2986167246        3.5052216806
  O        -3.5479063025        8.8656969181        3.5128970948
  O        -0.9859934410        4.4268922612        3.5175817815
  O         6.8552566103       11.9172326052        3.4887077101
  O         9.4213568931        7.4567187905        3.5121390749
  O        11.9965400782        3.0331057946        3.5036734439
  O         1.7304974733       11.9039398297        3.5115295743
  O         4.2516938806        7.4556110911        3.4806631290
  O         6.8661709075        3.0005505489        3.5311729267
  O        -3.3941984705       11.9038890733        3.5051671713
  O        -0.8279276778        7.4696963070        3.5106700471
  O         1.7222954552        3.0196712741        3.5039303869
  O         9.4304242270       10.2408592923        3.4837694526
  O        11.9904615444        5.8026965175        3.4991668786
  O        14.5407018639        1.3575492768        3.5098868429
  O         4.2579459662       10.2618112476        3.5511838716
  O         6.8817331644        5.7700430863        3.4650015726
  O         9.4244503225        1.3566271141        3.4977237428
  O        -0.8327488478       10.2443163595        3.5128976971
  O         1.7041431006        5.7991860228        3.5111984185
  O         4.2891744677        1.3577841869        3.4998405733
 Fe         5.1090994693       11.8090461580        4.4978109631
 Fe         7.6262785044        7.3503792149        4.4921304247
 Fe        10.2218546670        2.9384392162        4.4942829048
 Fe        -0.0246806517       11.8175830219        4.4968485067
 Fe         2.5305137737        7.3674488257        4.4950517828
 Fe         5.0942014375        2.9375817587        4.4887617666
 Fe        -5.1714957247       11.8047764393        4.4901310922
 Fe        -2.6027286738        7.3815937363        4.4942768969
 Fe        -0.0376243746        2.9218952230        4.4951898518
 Fe         7.6603094103       13.2758712419        4.8230490718
 Fe        10.1978602526        8.8555917209        4.8104613740
 Fe        12.7846292178        4.4171216511        4.8237703991
 Fe         2.5366330433       13.2926173250        4.8184690546
 Fe         5.0927880953        8.8178125404        4.7802603918
 Fe         7.6454263144        4.4144327904        4.8579008223
 Fe        -2.5983906190       13.2894740564        4.8155344467
 Fe        -0.0270496696        8.8703433455        4.8119202972
 Fe         2.5198743756        4.4052137142        4.8027279919
  O         5.8715823846       10.3316311595        5.7463285776
  O         8.4045601872        5.9518082992        5.7714656106
  O        10.9982414158        1.5053314632        5.7268301102
  O         0.7748069844       10.3573013084        5.7872117708
  O         3.2454776019        5.9341570269        5.7329458119
  O         5.8541947705        1.4904101427        5.7395109306
  O        -4.4002268178       10.3773671489        5.7322611221
  O        -1.8366045306        5.9534079226        5.7410284499
  O         0.7358412295        1.4888009482        5.7368262992
  O         5.9493267594       13.1869156673        5.7415937123
  O         8.4820909755        8.7586206606        5.7165405094
  O        11.0845723022        4.3229602448        5.7476341645
  O         0.8206570549       13.2024418151        5.7253452674
  O         3.4228559441        8.7273873128        5.7544045217
  O         5.9253484606        4.3150863137        5.7106380431
  O        -4.3152971898       13.1930861907        5.7279447247
  O        -1.7294574129        8.7629268622        5.7531636708
  O         0.8156429623        4.3014353040        5.7480297397
  O         3.4831686320       11.8728586769        5.7498977610
  O         5.9534622369        7.3094233241        5.6262731294
  O         8.6016574931        2.9800132511        5.7570732678
  O        -1.6511147535       11.8554657110        5.7368154692
  O         0.8999664787        7.4380028187        5.7307731034
  O         3.4629677947        2.9859457947        5.7348395464
  O        -6.8118849623       11.8221838340        5.7339212121
  O        -4.2329188066        7.4249953438        5.7287977596
  O        -1.6582450150        2.9817458581        5.7447828239
 Fe         7.6503146460       10.3115850256        6.1520283087
 Fe        10.2100395203        5.8941968430        5.9765918575
 Fe        12.7885336785        1.4499810190        5.9845158460
 Fe         2.5894036262       10.3218980137        5.9944896613
 Fe         5.0086285034        5.8214506553        6.1783431264
 Fe         7.6489169299        1.4564147417        5.9851018279
 Fe        -2.6054552374       10.3345135769        5.9798496305
 Fe        -0.0348455986        5.8926878563        5.8834690177
 Fe         2.5311555475        1.4534201707        5.9844102657
  C         5.3801749569        8.3418780096        9.1196157942
  C         4.3939100103        7.2138526919        8.8164737405
  H         4.7845155064        9.2359788713        9.3707373320
  O         6.3068963040        8.5738357202        8.0614310786
  H         5.9814820423        8.0740103655       10.0007693732
  C         3.6257604801        6.7972265732       10.0746900218
  C         2.5520879087        7.8543119243       10.4717666889
  O         4.5267421747        6.6498553208       11.1802561189
  H         3.1186643211        5.8286326268        9.8980408524
  C         1.3868368752        8.1170753616        9.4892713044
  H         3.0576951438        8.8179326572       10.6396989933
  O         2.0217662532        7.4748523467       11.7590833105
  C         0.7696060399        6.8292678330        8.9254382404
  O         1.8181299075        9.0010515916        8.4459870164
  H         0.6100883176        8.6148994336       10.1009926690
  H        -0.0847289522        7.1021263372        8.2769093301
  O         0.3123219161        6.0546094036       10.0561720524
  H         1.5130713302        6.2730156184        8.3286498639
  H         5.7743736475        8.6946811273        7.2358426637
  H         3.9627079883        6.7242960001       11.9782508043
  H         1.3649755923        6.7688085884       11.5672027114
  H         1.0394681166        9.1764693438        7.8540772461
  H         0.0516064423        5.1682720801        9.7521123478
  O         5.2016605480        6.0715277052        8.2842221057
  H         3.6851759418        7.4812613581        8.0184720106
  H         6.1408485979        6.4278480311        8.1792456857
     161
 i =        8, E =     -8104.5483284229
 Fe         5.0938794100       11.8196869300        0.3885799900
 Fe         7.6575796300        7.3792284900        0.3885799900
 Fe        10.2212798400        2.9387700600        0.3885799900
 Fe        -0.0335205200       11.8196869300        0.3885799900
 Fe         2.5301797000        7.3792284900        0.3885799900
 Fe         5.0938799200        2.9387700600        0.3885799900
 Fe        -5.1609204400       11.8196869300        0.3885799900
 Fe        -2.5972202200        7.3792284900        0.3885799900
 Fe        -0.0335200000        2.9387700600        0.3885799900
  O         8.4519195100        8.9577468800        1.1642700400
  O        11.0156197300        4.5172884400        1.1642700400
  O        13.5793199500        0.0768300000        1.1642700400
  O         3.3245195900        8.9577468800        1.1642700400
  O         5.8882198100        4.5172884400        1.1642700400
  O         8.4519200300        0.0768300000        1.1642700400
  O        -1.8028803300        8.9577468800        1.1642700400
  O         0.7608198900        4.5172884400        1.1642700400
  O         3.3245201100        0.0768300000        1.1642700400
  O         8.4568493000       11.7183869300        1.1650400200
  O        11.0205495200        7.2779284900        1.1650400200
  O        13.5842497300        2.8374700500        1.1650400200
  O         3.3294493700       11.7183869300        1.1650400200
  O         5.8931495900        7.2779284900        1.1650400200
  O         8.4568498100        2.8374700500        1.1650400200
  O        -1.7979505500       11.7183869300        1.1650400200
  O         0.7657496700        7.2779284900        1.1650400200
  O         3.3294498900        2.8374700500        1.1650400200
  O         6.0627194200       10.3425368500        1.1660399400
  O         8.6264196400        5.9020784100        1.1660399400
  O        11.1901198600        1.4616199700        1.1660399400
  O         0.9353195000       10.3425368500        1.1660399400
  O         3.4990197200        5.9020784100        1.1660399400
  O         6.0627199400        1.4616199700        1.1660399400
  O        -4.1920804200       10.3425368500        1.1660399400
  O        -1.6283802000        5.9020784100        1.1660399400
  O         0.9353200200        1.4616199700        1.1660399400
 Fe         7.6576695000       13.2997167500        1.9292099500
 Fe        10.2213697200        8.8592583200        1.9292099500
 Fe        12.7850699400        4.4187998800        1.9292099500
 Fe         2.5302695800       13.2997167500        1.9292099500
 Fe         5.0939698000        8.8592583200        1.9292099500
 Fe         7.6576700200        4.4187998800        1.9292099500
 Fe        -2.5971303400       13.2997167500        1.9292099500
 Fe        -0.0334301200        8.8592583200        1.9292099500
 Fe         2.5302701000        4.4187998800        1.9292099500
 Fe         7.6573893600       10.3392168700        2.7128999200
 Fe        10.2210895800        5.8987584300        2.7128999200
 Fe        12.7847898000        1.4582999900        2.7128999200
 Fe         2.5299894400       10.3392168700        2.7128999200
 Fe         5.0936896600        5.8987584300        2.7128999200
 Fe         7.6573898800        1.4582999900        2.7128999200
 Fe        -2.5974104800       10.3392168700        2.7128999200
 Fe        -0.0337102600        5.8987584300        2.7128999200
 Fe         2.5299899600        1.4582999900        2.7128999200
  O         4.1369779909       13.2960253151        3.4995316686
  O         6.6929339410        8.8517764311        3.4883039814
  O         9.2807097355        4.4244376067        3.5289363311
  O        -0.9944181243       13.2945476478        3.5001360491
  O         1.5716768005        8.8644532339        3.5045967565
  O         4.1153351445        4.4153722986        3.4821719047
  O        -6.1242076984       13.2957803954        3.5042356450
  O        -3.5499990000        8.8651650635        3.5091042882
  O        -0.9847030440        4.4286208513        3.5225656288
  O         6.8535826541       11.9129665233        3.4896003838
  O         9.4171509460        7.4562027772        3.5111299264
  O        11.9962800612        3.0359790433        3.5016792820
  O         1.7323772827       11.9035231097        3.5126600893
  O         4.2581738782        7.4665737832        3.4679088123
  O         6.8646059466        3.0067530276        3.5194832710
  O        -3.3950987197       11.9028045620        3.5053446700
  O        -0.8279693496        7.4665613010        3.5126917896
  O         1.7225763721        3.0173392322        3.5055372978
  O         9.4306683751       10.2343590327        3.4790296654
  O        11.9897093415        5.8003665119        3.4991842074
  O        14.5405875743        1.3551441350        3.5098513446
  O         4.2670336144       10.2537700981        3.5398147177
  O         6.8817518307        5.7677567589        3.4616654975
  O         9.4234746973        1.3560941130        3.4967162467
  O        -0.8305353598       10.2447372528        3.5100170932
  O         1.7027241537        5.8003554559        3.5178827639
  O         4.2898982719        1.3566722969        3.4983291751
 Fe         5.1089155273       11.8042032132        4.4961924629
 Fe         7.6171649751        7.3532678227        4.4892208677
 Fe        10.2192484776        2.9379010047        4.4915795646
 Fe        -0.0238883480       11.8181716613        4.4966166990
 Fe         2.5396209599        7.3659660060        4.4961186689
 Fe         5.0939091624        2.9388367706        4.4868764914
 Fe        -5.1743279658       11.8000210992        4.4893610248
 Fe        -2.6063219973        7.3830575303        4.4938352999
 Fe        -0.0376208336        2.9174762811        4.4966466362
 Fe         7.6586029573       13.2698430888        4.8235787139
 Fe        10.1927610622        8.8536497967        4.8066812936
 Fe        12.7821066476        4.4170856261        4.8285057981
 Fe         2.5387633447       13.2933702198        4.8177404657
 Fe         5.0948332920        8.8147580625        4.7797506551
 Fe         7.6411344160        4.4154812802        4.8497781187
 Fe        -2.6002813988       13.2876190092        4.8142796022
 Fe        -0.0236544646        8.8704159021        4.8074545594
 Fe         2.5222605931        4.4018404508        4.8049708814
  O         5.8721300421       10.3256559339        5.7492889400
  O         8.4014821835        5.9491773018        5.7668218269
  O        10.9987099678        1.5062758920        5.7260414514
  O         0.7783184097       10.3538596689        5.7847395986
  O         3.2548176939        5.9290709528        5.7340701761
  O         5.8512316953        1.4906123620        5.7369581678
  O        -4.4045421940       10.3745809950        5.7330202363
  O        -1.8392875900        5.9557997985        5.7435340023
  O         0.7354442575        1.4822932816        5.7376451304
  O         5.9490306501       13.1817491280        5.7440389857
  O         8.4787741122        8.7581298656        5.7143725748
  O        11.0779398016        4.3244475612        5.7448626691
  O         0.8205196205       13.2043508257        5.7235071549
  O         3.4276592056        8.7257416033        5.7584071199
  O         5.9241457529        4.3183379785        5.7043929996
  O        -4.3173936961       13.1878847195        5.7276107291
  O        -1.7271989638        8.7638696383        5.7526149520
  O         0.8161286221        4.2978749930        5.7491002552
  O         3.4836847920       11.8721862860        5.7499008078
  O         5.9530671010        7.3142696361        5.6420400252
  O         8.5938007084        2.9824586259        5.7519254524
  O        -1.6521649289       11.8527791607        5.7357684216
  O         0.9034618783        7.4393476596        5.7324708834
  O         3.4638688312        2.9816787725        5.7354539437
  O        -6.8129286098       11.8184552267        5.7358189796
  O        -4.2370979545        7.4248654700        5.7272103274
  O        -1.6589309512        2.9791531509        5.7449831272
 Fe         7.6505315128       10.3101131563        6.1461034737
 Fe        10.2066601027        5.8956626952        5.9833869019
 Fe        12.7885583198        1.4465156131        5.9839271167
 Fe         2.5921005424       10.3209448421        5.9972208004
 Fe         5.0134103873        5.8211612175        6.2169236858
 Fe         7.6440430378        1.4562044318        5.9832847424
 Fe        -2.6090702530       10.3326564564        5.9790513774
 Fe        -0.0347173042        5.8919426885        5.8648738911
 Fe         2.5312830693        1.4500069677        5.9843619171
  C         5.3758093279        8.3765544048        9.1483133419
  C         4.4145739431        7.2319962758        8.8163776928
  H         4.7754676431        9.2679618396        9.3915745701
  O         6.3226408477        8.5849554821        8.1036175253
  H         5.9556874640        8.0872531000       10.0400477224
  C         3.6248710967        6.8086634176       10.0594340985
  C         2.5477225288        7.8563368322       10.4669587451
  O         4.5231661076        6.6352605755       11.1645213765
  H         3.1270010259        5.8370291235        9.8684126357
  C         1.3756191118        8.1164172572        9.4921154486
  H         3.0591074461        8.8165946761       10.6364204641
  O         2.0244248679        7.4696784242       11.7544895120
  C         0.7667207829        6.8286432441        8.9208396168
  O         1.7998573083        9.0049919300        8.4511051547
  H         0.6040911677        8.6106762774       10.1117367802
  H        -0.0905744783        7.1060452412        8.2780505477
  O         0.3199178341        6.0534132095       10.0562095862
  H         1.5105745751        6.2804745332        8.3168961832
  H         5.8227809645        8.6864008018        7.2520513619
  H         3.9564986441        6.7190364984       11.9609281356
  H         1.3648722623        6.7659827250       11.5638849529
  H         1.0309448540        9.1552249285        7.8423723437
  H         0.0527107715        5.1714305323        9.7436868486
  O         5.2451549817        6.1013431289        8.2888370758
  H         3.6988913733        7.5152014292        8.0269732183
  H         6.1609423804        6.4608095973        8.2074587544
     161
 i =        9, E =     -8104.5483244205
 Fe         5.0938794100       11.8196869300        0.3885799900
 Fe         7.6575796300        7.3792284900        0.3885799900
 Fe        10.2212798400        2.9387700600        0.3885799900
 Fe        -0.0335205200       11.8196869300        0.3885799900
 Fe         2.5301797000        7.3792284900        0.3885799900
 Fe         5.0938799200        2.9387700600        0.3885799900
 Fe        -5.1609204400       11.8196869300        0.3885799900
 Fe        -2.5972202200        7.3792284900        0.3885799900
 Fe        -0.0335200000        2.9387700600        0.3885799900
  O         8.4519195100        8.9577468800        1.1642700400
  O        11.0156197300        4.5172884400        1.1642700400
  O        13.5793199500        0.0768300000        1.1642700400
  O         3.3245195900        8.9577468800        1.1642700400
  O         5.8882198100        4.5172884400        1.1642700400
  O         8.4519200300        0.0768300000        1.1642700400
  O        -1.8028803300        8.9577468800        1.1642700400
  O         0.7608198900        4.5172884400        1.1642700400
  O         3.3245201100        0.0768300000        1.1642700400
  O         8.4568493000       11.7183869300        1.1650400200
  O        11.0205495200        7.2779284900        1.1650400200
  O        13.5842497300        2.8374700500        1.1650400200
  O         3.3294493700       11.7183869300        1.1650400200
  O         5.8931495900        7.2779284900        1.1650400200
  O         8.4568498100        2.8374700500        1.1650400200
  O        -1.7979505500       11.7183869300        1.1650400200
  O         0.7657496700        7.2779284900        1.1650400200
  O         3.3294498900        2.8374700500        1.1650400200
  O         6.0627194200       10.3425368500        1.1660399400
  O         8.6264196400        5.9020784100        1.1660399400
  O        11.1901198600        1.4616199700        1.1660399400
  O         0.9353195000       10.3425368500        1.1660399400
  O         3.4990197200        5.9020784100        1.1660399400
  O         6.0627199400        1.4616199700        1.1660399400
  O        -4.1920804200       10.3425368500        1.1660399400
  O        -1.6283802000        5.9020784100        1.1660399400
  O         0.9353200200        1.4616199700        1.1660399400
 Fe         7.6576695000       13.2997167500        1.9292099500
 Fe        10.2213697200        8.8592583200        1.9292099500
 Fe        12.7850699400        4.4187998800        1.9292099500
 Fe         2.5302695800       13.2997167500        1.9292099500
 Fe         5.0939698000        8.8592583200        1.9292099500
 Fe         7.6576700200        4.4187998800        1.9292099500
 Fe        -2.5971303400       13.2997167500        1.9292099500
 Fe        -0.0334301200        8.8592583200        1.9292099500
 Fe         2.5302701000        4.4187998800        1.9292099500
 Fe         7.6573893600       10.3392168700        2.7128999200
 Fe        10.2210895800        5.8987584300        2.7128999200
 Fe        12.7847898000        1.4582999900        2.7128999200
 Fe         2.5299894400       10.3392168700        2.7128999200
 Fe         5.0936896600        5.8987584300        2.7128999200
 Fe         7.6573898800        1.4582999900        2.7128999200
 Fe        -2.5974104800       10.3392168700        2.7128999200
 Fe        -0.0337102600        5.8987584300        2.7128999200
 Fe         2.5299899600        1.4582999900        2.7128999200
  O         4.1369779909       13.2960253151        3.4995316686
  O         6.6929339410        8.8517764311        3.4883039814
  O         9.2807097355        4.4244376067        3.5289363311
  O        -0.9944181243       13.2945476478        3.5001360491
  O         1.5716768005        8.8644532339        3.5045967565
  O         4.1153351445        4.4153722986        3.4821719047
  O        -6.1242076984       13.2957803954        3.5042356450
  O        -3.5499990000        8.8651650635        3.5091042882
  O        -0.9847030440        4.4286208513        3.5225656288
  O         6.8535826541       11.9129665233        3.4896003838
  O         9.4171509460        7.4562027772        3.5111299264
  O        11.9962800612        3.0359790433        3.5016792820
  O         1.7323772827       11.9035231097        3.5126600893
  O         4.2581738782        7.4665737832        3.4679088123
  O         6.8646059466        3.0067530276        3.5194832710
  O        -3.3950987197       11.9028045620        3.5053446700
  O        -0.8279693496        7.4665613010        3.5126917896
  O         1.7225763721        3.0173392322        3.5055372978
  O         9.4306683751       10.2343590327        3.4790296654
  O        11.9897093415        5.8003665119        3.4991842074
  O        14.5405875743        1.3551441350        3.5098513446
  O         4.2670336144       10.2537700981        3.5398147177
  O         6.8817518307        5.7677567589        3.4616654975
  O         9.4234746973        1.3560941130        3.4967162467
  O        -0.8305353598       10.2447372528        3.5100170932
  O         1.7027241537        5.8003554559        3.5178827639
  O         4.2898982719        1.3566722969        3.4983291751
 Fe         5.1089155273       11.8042032132        4.4961924629
 Fe         7.6171649751        7.3532678227        4.4892208677
 Fe        10.2192484776        2.9379010047        4.4915795646
 Fe        -0.0238883480       11.8181716613        4.4966166990
 Fe         2.5396209599        7.3659660060        4.4961186689
 Fe         5.0939091624        2.9388367706        4.4868764914
 Fe        -5.1743279658       11.8000210992        4.4893610248
 Fe        -2.6063219973        7.3830575303        4.4938352999
 Fe        -0.0376208336        2.9174762811        4.4966466362
 Fe         7.6586029573       13.2698430888        4.8235787139
 Fe        10.1927610622        8.8536497967        4.8066812936
 Fe        12.7821066476        4.4170856261        4.8285057981
 Fe         2.5387633447       13.2933702198        4.8177404657
 Fe         5.0948332920        8.8147580625        4.7797506551
 Fe         7.6411344160        4.4154812802        4.8497781187
 Fe        -2.6002813988       13.2876190092        4.8142796022
 Fe        -0.0236544646        8.8704159021        4.8074545594
 Fe         2.5222605931        4.4018404508        4.8049708814
  O         5.8721300421       10.3256559339        5.7492889400
  O         8.4014821835        5.9491773018        5.7668218269
  O        10.9987099678        1.5062758920        5.7260414514
  O         0.7783184097       10.3538596689        5.7847395986
  O         3.2548176939        5.9290709528        5.7340701761
  O         5.8512316953        1.4906123620        5.7369581678
  O        -4.4045421940       10.3745809950        5.7330202363
  O        -1.8392875900        5.9557997985        5.7435340023
  O         0.7354442575        1.4822932816        5.7376451304
  O         5.9490306501       13.1817491280        5.7440389857
  O         8.4787741122        8.7581298656        5.7143725748
  O        11.0779398016        4.3244475612        5.7448626691
  O         0.8205196205       13.2043508257        5.7235071549
  O         3.4276592056        8.7257416033        5.7584071199
  O         5.9241457529        4.3183379785        5.7043929996
  O        -4.3173936961       13.1878847195        5.7276107291
  O        -1.7271989638        8.7638696383        5.7526149520
  O         0.8161286221        4.2978749930        5.7491002552
  O         3.4836847920       11.8721862860        5.7499008078
  O         5.9530671010        7.3142696361        5.6420400252
  O         8.5938007084        2.9824586259        5.7519254524
  O        -1.6521649289       11.8527791607        5.7357684216
  O         0.9034618783        7.4393476596        5.7324708834
  O         3.4638688312        2.9816787725        5.7354539437
  O        -6.8129286098       11.8184552267        5.7358189796
  O        -4.2370979545        7.4248654700        5.7272103274
  O        -1.6589309512        2.9791531509        5.7449831272
 Fe         7.6505315128       10.3101131563        6.1461034737
 Fe        10.2066601027        5.8956626952        5.9833869019
 Fe        12.7885583198        1.4465156131        5.9839271167
 Fe         2.5921005424       10.3209448421        5.9972208004
 Fe         5.0134103873        5.8211612175        6.2169236858
 Fe         7.6440430378        1.4562044318        5.9832847424
 Fe        -2.6090702530       10.3326564564        5.9790513774
 Fe        -0.0347173042        5.8919426885        5.8648738911
 Fe         2.5312830693        1.4500069677        5.9843619171
  C         5.3758093279        8.3765544048        9.1483133419
  C         4.4145739431        7.2319962758        8.8163776928
  H         4.7754676431        9.2679618396        9.3915745701
  O         6.3226408477        8.5849554821        8.1036175253
  H         5.9556874640        8.0872531000       10.0400477224
  C         3.6248710967        6.8086634176       10.0594340985
  C         2.5477225288        7.8563368322       10.4669587451
  O         4.5231661076        6.6352605755       11.1645213765
  H         3.1270010259        5.8370291235        9.8684126357
  C         1.3756191118        8.1164172572        9.4921154486
  H         3.0591074461        8.8165946761       10.6364204641
  O         2.0244248679        7.4696784242       11.7544895120
  C         0.7667207829        6.8286432441        8.9208396168
  O         1.7998573083        9.0049919300        8.4511051547
  H         0.6040911677        8.6106762774       10.1117367802
  H        -0.0905744783        7.1060452412        8.2780505477
  O         0.3199178341        6.0534132095       10.0562095862
  H         1.5105745751        6.2804745332        8.3168961832
  H         5.8227809645        8.6864008018        7.2520513619
  H         3.9564986441        6.7190364984       11.9609281356
  H         1.3648722623        6.7659827250       11.5638849529
  H         1.0309448540        9.1552249285        7.8423723437
  H         0.0527107715        5.1714305323        9.7436868486
  O         5.2451549817        6.1013431289        8.2888370758
  H         3.6988913733        7.5152014292        8.0269732183
  H         6.1609423804        6.4608095973        8.2074587544
