40
Properties=species:S:1:pos:R:3 energy=-34952.81346099516 pbc="F F F"
Au      15.07441351      14.87170972      16.45225574
Au      17.26532399      11.38517994      14.35169252
Au      14.43527001      12.07688600      17.38186071
Au      18.03627064      15.30838659      17.13793153
Au      12.43959918      14.01207932      17.31689461
Au      11.25758069      14.84088730      14.99654288
Au      12.96115658      18.07683040      13.36537240
Au      15.31446963      18.83749147      14.53234615
Au      14.89363432      15.98769958      13.92283213
Au      14.24635891      13.86900273      19.41188674
Au      14.89342808      12.32490082      13.16436680
Au      12.84153231      14.15985800      12.80111590
Au      15.18010467      14.28997604      11.29469019
Au      16.82522686      14.20688461      14.42887252
Au      12.84139918      12.52589623      15.01267984
Au      14.71586667      10.45885615      15.20855641
Au      17.67777473      16.86819478      14.90347816
Au      19.60965108      14.74105883      14.78848274
Au      15.98941930      17.59430515      17.08328715
Au      18.98180402      16.21924262      12.57267453
Au      13.29234266      17.92387085      16.18402590
Au      16.85947443      10.69114855      17.05364355
Au      10.96372970      16.25811811      12.57475658
Au      15.29701723      18.08963415      11.82661781
Au      11.21882407      16.44384888      17.38232654
Au      10.72909796      17.67266408      14.97623729
Au      16.86147975      13.11915444      18.43836164
Au      15.54568256      16.44165751       9.53916714
Au      18.72067881      12.68025624      16.34052505
Au      16.43907939      15.82917505      19.25266488
Au      17.76985407      14.95268359      10.43842513
Au      14.47004536      15.89814805      21.20484816
Au      13.73876574      16.63637437      18.57007380
Au      13.23053055      16.32649126      11.04857714
Au      17.52349282      12.83476611      12.05882118
Au      17.79674528      17.77405405      10.50573777
Au      17.75137111      18.87741222      13.00026315
Au      17.65904027      19.54623502      15.77727758
C       16.44332025      19.36938430      18.64819528
O       16.64597022      20.20726645      19.39861261
