     168
 i =        1, E =     -8144.3597620533
 Fe         5.0938794100       11.8196869300        0.3885799900
 Fe         7.6575796300        7.3792284900        0.3885799900
 Fe        10.2212798400        2.9387700600        0.3885799900
 Fe        -0.0335205200       11.8196869300        0.3885799900
 Fe         2.5301797000        7.3792284900        0.3885799900
 Fe         5.0938799200        2.9387700600        0.3885799900
 Fe        -5.1609204400       11.8196869300        0.3885799900
 Fe        -2.5972202200        7.3792284900        0.3885799900
 Fe        -0.0335200000        2.9387700600        0.3885799900
  O         8.4519195100        8.9577468800        1.1642700400
  O        11.0156197300        4.5172884400        1.1642700400
  O        13.5793199500        0.0768300000        1.1642700400
  O         3.3245195900        8.9577468800        1.1642700400
  O         5.8882198100        4.5172884400        1.1642700400
  O         8.4519200300        0.0768300000        1.1642700400
  O        -1.8028803300        8.9577468800        1.1642700400
  O         0.7608198900        4.5172884400        1.1642700400
  O         3.3245201100        0.0768300000        1.1642700400
  O         8.4568493000       11.7183869300        1.1650400200
  O        11.0205495200        7.2779284900        1.1650400200
  O        13.5842497300        2.8374700500        1.1650400200
  O         3.3294493700       11.7183869300        1.1650400200
  O         5.8931495900        7.2779284900        1.1650400200
  O         8.4568498100        2.8374700500        1.1650400200
  O        -1.7979505500       11.7183869300        1.1650400200
  O         0.7657496700        7.2779284900        1.1650400200
  O         3.3294498900        2.8374700500        1.1650400200
  O         6.0627194200       10.3425368500        1.1660399400
  O         8.6264196400        5.9020784100        1.1660399400
  O        11.1901198600        1.4616199700        1.1660399400
  O         0.9353195000       10.3425368500        1.1660399400
  O         3.4990197200        5.9020784100        1.1660399400
  O         6.0627199400        1.4616199700        1.1660399400
  O        -4.1920804200       10.3425368500        1.1660399400
  O        -1.6283802000        5.9020784100        1.1660399400
  O         0.9353200200        1.4616199700        1.1660399400
 Fe         7.6576695000       13.2997167500        1.9292099500
 Fe        10.2213697200        8.8592583200        1.9292099500
 Fe        12.7850699400        4.4187998800        1.9292099500
 Fe         2.5302695800       13.2997167500        1.9292099500
 Fe         5.0939698000        8.8592583200        1.9292099500
 Fe         7.6576700200        4.4187998800        1.9292099500
 Fe        -2.5971303400       13.2997167500        1.9292099500
 Fe        -0.0334301200        8.8592583200        1.9292099500
 Fe         2.5302701000        4.4187998800        1.9292099500
 Fe         7.6573893600       10.3392168700        2.7128999200
 Fe        10.2210895800        5.8987584300        2.7128999200
 Fe        12.7847898000        1.4582999900        2.7128999200
 Fe         2.5299894400       10.3392168700        2.7128999200
 Fe         5.0936896600        5.8987584300        2.7128999200
 Fe         7.6573898800        1.4582999900        2.7128999200
 Fe        -2.5974104800       10.3392168700        2.7128999200
 Fe        -0.0337102600        5.8987584300        2.7128999200
 Fe         2.5299899600        1.4582999900        2.7128999200
  O         4.0923403743       13.3154243831        3.5121439466
  O         6.6569227807        8.8762983113        3.5125825247
  O         9.2192119963        4.4339902792        3.5121180089
  O        -1.0341973084       13.3151117650        3.5130803677
  O         1.5351202107        8.8719893511        3.5132673760
  O         4.0925580820        4.4280889224        3.5012098057
  O        -6.1622654224       13.3149655945        3.5121426062
  O        -3.5983740977        8.8748271216        3.5125051078
  O        -1.0358802722        4.4338684650        3.5112897000
  O         6.8121373072       11.8718017519        3.4952017918
  O         9.3746241263        7.4315368320        3.4949934892
  O        11.9393851331        2.9911229907        3.4951727558
  O         1.6846552261       11.8727148024        3.4942398329
  O         4.2486930100        7.4361377575        3.4876562877
  O         6.8123655440        2.9905661930        3.4946456837
  O        -3.4428733686       11.8713139280        3.4954908461
  O        -0.8805743915        7.4319057373        3.4928382222
  O         1.6889510213        2.9882425552        3.4986866025
  O         9.4281577624       10.2243961109        3.4869049671
  O        11.9915407034        5.7835610574        3.4868068607
  O        14.5549286683        1.3431282384        3.4872005663
  O         4.3022307937       10.2244970621        3.4859335065
  O         6.8659210304        5.7834936533        3.4849241129
  O         9.4282126847        1.3431870396        3.4867229455
  O        -0.8285371244       10.2248315722        3.4871042303
  O         1.7358517541        5.7826090233        3.4804562840
  O         4.3013820124        1.3445410364        3.4880287339
 Fe         5.0352542516       11.8361613839        4.4200355219
 Fe         7.5966358867        7.3954675921        4.4211331598
 Fe        10.1626005186        2.9554564254        4.4197067825
 Fe        -0.0914425590       11.8352066970        4.4196334609
 Fe         2.4734646977        7.3915522790        4.4225884333
 Fe         5.0360560250        2.9600329043        4.4218685386
 Fe        -5.2192677729       11.8364457022        4.4199105458
 Fe        -2.6544905270        7.3953277891        4.4203176843
 Fe        -0.0895233634        2.9559319916        4.4182811478
 Fe         7.6084468227       13.1854102119        4.8061151224
 Fe        10.1723029529        8.7445559699        4.8062282945
 Fe        12.7367791891        4.3049309276        4.8074056083
 Fe         2.4810014720       13.1848747778        4.8065680583
 Fe         5.0465274325        8.7400855878        4.8078842990
 Fe         7.6055937437        4.3047365518        4.8081167768
 Fe        -2.6466620827       13.1853866876        4.8066555234
 Fe        -0.0816045797        8.7461636243        4.8032644648
 Fe         2.4820470155        4.3058298677        4.8068605704
  O         5.8556842527       10.3471773206        5.8709440655
  O         8.4198401417        5.9067241055        5.8710366641
  O        10.9829661809        1.4649465989        5.8715435992
  O         0.7278772691       10.3471259423        5.8712063302
  O         3.3055278353        5.9210447226        5.7583555034
  O         5.8558713763        1.4641651209        5.8714557561
  O        -4.3993743661       10.3463325113        5.8713214576
  O        -1.8315226324        5.9056404373        5.8718689555
  O         0.7278732847        1.4635721101        5.8715837380
  O         5.9253483237       13.1744567411        5.6864383493
  O         8.4895232339        8.7340598847        5.6863121314
  O        11.0525278816        4.2933071301        5.6861161864
  O         0.7972331715       13.1743371530        5.6858431958
  O         3.3631273559        8.7403314579        5.6827464452
  O         5.9242266513        4.2987289219        5.6893726885
  O        -4.3298504186       13.1740543935        5.6871098316
  O        -1.7647829297        8.7344594427        5.6857015745
  O         0.7945574153        4.2908836179        5.6841543723
  O         3.4665055383       11.7741990977        5.6697808236
  O         6.0310888769        7.3288810958        5.6723769374
  O         8.5945443023        2.8938572344        5.6690705833
  O        -1.6600943795       11.7742467836        5.6691161489
  O         0.8954903627        7.3362599639        5.6642061258
  O         3.4670574953        2.8892742200        5.6664216128
  O        -6.7881439897       11.7744556875        5.6689869502
  O        -4.2238898385        7.3337597639        5.6686587109
  O        -1.6594865298        2.8923314250        5.6672377030
 Fe         7.7823586211       10.2718489414        6.4328908836
 Fe        10.3461552929        5.8315936760        6.4330052447
 Fe        12.9101678663        1.3915999376        6.4328387993
 Fe         2.6541670209       10.2716644362        6.4350506067
 Fe         5.1870650530        5.8328248677        6.4213389665
 Fe         7.7824675340        1.3914762949        6.4328995900
 Fe        -2.4721043135       10.2717223625        6.4329642494
 Fe         0.0987338740        5.8314633120        6.4382334602
 Fe         2.6547537385        1.3916654922        6.4338947085
  O         7.8380168618       10.3825615734        8.2635382875
  H         7.8876025342        9.5545083419        8.7740455574
  H         5.3478839589       10.6136138794        6.6701432527
  O        10.4037817600        5.9423439451        8.2634146888
  H        10.4519572164        5.1141931013        8.7739817757
  H         7.9107366148        6.1741018131        6.6692790887
  O        12.9674353796        1.5018652792        8.2633940902
  H        13.0136964333        0.6739570495        8.7745309997
  H        10.4752688411        1.7322557188        6.6704075696
  O         2.7113872588       10.3844047563        8.2663961661
  H         2.7601346711        9.5520728060        8.7691371702
  H         0.2206502521       10.6136916169        6.6705183822
  O         5.3826539134        5.9360623195        8.2509236413
  H         5.3323530162        5.1052970782        8.7653276357
  H         2.8638275619        6.1322462847        6.6537873043
  O         7.8400303482        1.5021296655        8.2633867730
  H         7.8866638930        0.6744199464        8.7747089571
  H         5.3477212453        1.7319741718        6.6698580956
  O        -2.4156796513       10.3825301450        8.2635599739
  H        -2.3682444254        9.5546198830        8.7743608881
  H        -4.9070152484       10.6127769782        6.6705653929
  O         0.0689470202        5.9404586474        8.2705996146
  H         0.1904609700        5.1077356160        8.7655303056
  H        -2.3421959043        6.1729839607        6.6692268214
  O         2.7120115092        1.5031533045        8.2652671137
  H         2.7585971461        0.6737198905        8.7738093209
  H         0.2207991462        1.7330040655        6.6701083924
  C         2.7879256248        6.1697682299       10.8320447284
  C         2.7636583422        6.1862819637        9.3901044669
  H         3.8230336774        6.0333293682       11.1752804057
  H         2.3838687173        7.1336363044       11.1730971581
  H         2.1450275164        5.3454818899       11.1724141833
  N         2.6983364452        6.2126887620        8.2345269236
     168
 i =        2, E =     -8144.3621518410
 Fe         5.0938794100       11.8196869300        0.3885799900
 Fe         7.6575796300        7.3792284900        0.3885799900
 Fe        10.2212798400        2.9387700600        0.3885799900
 Fe        -0.0335205200       11.8196869300        0.3885799900
 Fe         2.5301797000        7.3792284900        0.3885799900
 Fe         5.0938799200        2.9387700600        0.3885799900
 Fe        -5.1609204400       11.8196869300        0.3885799900
 Fe        -2.5972202200        7.3792284900        0.3885799900
 Fe        -0.0335200000        2.9387700600        0.3885799900
  O         8.4519195100        8.9577468800        1.1642700400
  O        11.0156197300        4.5172884400        1.1642700400
  O        13.5793199500        0.0768300000        1.1642700400
  O         3.3245195900        8.9577468800        1.1642700400
  O         5.8882198100        4.5172884400        1.1642700400
  O         8.4519200300        0.0768300000        1.1642700400
  O        -1.8028803300        8.9577468800        1.1642700400
  O         0.7608198900        4.5172884400        1.1642700400
  O         3.3245201100        0.0768300000        1.1642700400
  O         8.4568493000       11.7183869300        1.1650400200
  O        11.0205495200        7.2779284900        1.1650400200
  O        13.5842497300        2.8374700500        1.1650400200
  O         3.3294493700       11.7183869300        1.1650400200
  O         5.8931495900        7.2779284900        1.1650400200
  O         8.4568498100        2.8374700500        1.1650400200
  O        -1.7979505500       11.7183869300        1.1650400200
  O         0.7657496700        7.2779284900        1.1650400200
  O         3.3294498900        2.8374700500        1.1650400200
  O         6.0627194200       10.3425368500        1.1660399400
  O         8.6264196400        5.9020784100        1.1660399400
  O        11.1901198600        1.4616199700        1.1660399400
  O         0.9353195000       10.3425368500        1.1660399400
  O         3.4990197200        5.9020784100        1.1660399400
  O         6.0627199400        1.4616199700        1.1660399400
  O        -4.1920804200       10.3425368500        1.1660399400
  O        -1.6283802000        5.9020784100        1.1660399400
  O         0.9353200200        1.4616199700        1.1660399400
 Fe         7.6576695000       13.2997167500        1.9292099500
 Fe        10.2213697200        8.8592583200        1.9292099500
 Fe        12.7850699400        4.4187998800        1.9292099500
 Fe         2.5302695800       13.2997167500        1.9292099500
 Fe         5.0939698000        8.8592583200        1.9292099500
 Fe         7.6576700200        4.4187998800        1.9292099500
 Fe        -2.5971303400       13.2997167500        1.9292099500
 Fe        -0.0334301200        8.8592583200        1.9292099500
 Fe         2.5302701000        4.4187998800        1.9292099500
 Fe         7.6573893600       10.3392168700        2.7128999200
 Fe        10.2210895800        5.8987584300        2.7128999200
 Fe        12.7847898000        1.4582999900        2.7128999200
 Fe         2.5299894400       10.3392168700        2.7128999200
 Fe         5.0936896600        5.8987584300        2.7128999200
 Fe         7.6573898800        1.4582999900        2.7128999200
 Fe        -2.5974104800       10.3392168700        2.7128999200
 Fe        -0.0337102600        5.8987584300        2.7128999200
 Fe         2.5299899600        1.4582999900        2.7128999200
  O         4.0937870888       13.3157806506        3.5146489539
  O         6.6682252272        8.8800731530        3.5307263248
  O         9.2209597353        4.4344423462        3.5149048508
  O        -1.0369186771       13.3131246345        3.5072727879
  O         1.5305261071        8.8717819065        3.5092800579
  O         4.1128425222        4.4281588319        3.5188915040
  O        -6.1628695317       13.3146193742        3.5122812408
  O        -3.5989722447        8.8739418562        3.5113802881
  O        -1.0361897179        4.4335718420        3.5107763635
  O         6.8123544202       11.8728091944        3.4944222439
  O         9.3758058106        7.4325776168        3.4929199684
  O        11.9393690845        2.9902574559        3.4966861702
  O         1.6841834173       11.8717740850        3.4968197091
  O         4.2523979433        7.4326694146        3.4946130017
  O         6.8145205145        2.9893344373        3.4995366076
  O        -3.4424037240       11.8750449658        3.4912775974
  O        -0.8817654603        7.4369365123        3.4849963390
  O         1.6852661789        2.9709515243        3.5246790447
  O         9.4291487080       10.2241479357        3.4856879963
  O        11.9900864567        5.7835035244        3.4888386798
  O        14.5559803684        1.3436379068        3.4868557530
  O         4.2936640959       10.2325744454        3.4996332151
  O         6.8639055999        5.7830828665        3.4881427539
  O         9.4270747835        1.3439651741        3.4893634158
  O        -0.8253107723       10.2238323706        3.4828437944
  O         1.7174604886        5.7899737848        3.5004815636
  O         4.3029491789        1.3377589592        3.4810811169
 Fe         5.0372660983       11.8381086878        4.4232574014
 Fe         7.6016700987        7.3901573072        4.4244855462
 Fe        10.1631148419        2.9559668172        4.4214772664
 Fe        -0.0934068992       11.8359320197        4.4191031145
 Fe         2.4756174819        7.3907084579        4.4281300731
 Fe         5.0365730466        2.9486415331        4.4223098381
 Fe        -5.2183721248       11.8364077617        4.4190427130
 Fe        -2.6525377998        7.3952539027        4.4197934061
 Fe        -0.0951686670        2.9577444055        4.4258921583
 Fe         7.6082276992       13.1854391948        4.8061272098
 Fe        10.1720817969        8.7435932991        4.8055792429
 Fe        12.7374341602        4.3056017284        4.8077595197
 Fe         2.4807717162       13.1852045942        4.8073799748
 Fe         5.0441472126        8.7433053185        4.8106030736
 Fe         7.6056719602        4.3068067110        4.8115010896
 Fe        -2.6466403592       13.1869644867        4.8042037882
 Fe        -0.0821529407        8.7450893689        4.8025491875
 Fe         2.4857854075        4.3128625816        4.8139597917
  O         5.8568763610       10.3466917391        5.8717181880
  O         8.4207985819        5.9072285364        5.8724853768
  O        10.9834566559        1.4644850579        5.8717865294
  O         0.7287514512       10.3481685010        5.8713860704
  O         3.3298364130        5.9177492339        5.7378893158
  O         5.8569424198        1.4636949138        5.8721477373
  O        -4.3993001076       10.3457233239        5.8714216642
  O        -1.8320062086        5.9065434029        5.8670029481
  O         0.7290319952        1.4625191673        5.8729250546
  O         5.9260140472       13.1753763792        5.6880784398
  O         8.4896803499        8.7348330703        5.6876487719
  O        11.0534632587        4.2940287469        5.6870406454
  O         0.7971384201       13.1746786380        5.6870220382
  O         3.3621658119        8.7438448994        5.6807917464
  O         5.9211997874        4.2897106815        5.6852445157
  O        -4.3291112645       13.1741692424        5.6883297289
  O        -1.7661533428        8.7353016380        5.6860302821
  O         0.7962281487        4.2936272156        5.6881321205
  O         3.4661767266       11.7749728187        5.6708449856
  O         6.0322531024        7.3343985958        5.6676354006
  O         8.5939399832        2.8932288316        5.6691239247
  O        -1.6619180444       11.7757345153        5.6694267812
  O         0.8915204596        7.3370737816        5.6614411659
  O         3.4679706675        2.8924319646        5.6711578386
  O        -6.7875534538       11.7744500387        5.6695918236
  O        -4.2234346176        7.3334210781        5.6688138463
  O        -1.6639048117        2.8917941920        5.6699540786
 Fe         7.7820791268       10.2724382368        6.4330779368
 Fe        10.3453088360        5.8318817898        6.4330491135
 Fe        12.9090727086        1.3911311445        6.4331786562
 Fe         2.6547441836       10.2717330673        6.4336053965
 Fe         5.2060056818        5.8328722811        6.4186948096
 Fe         7.7821078026        1.3920361315        6.4328402963
 Fe        -2.4720928491       10.2723168692        6.4328841621
 Fe         0.0982037477        5.8354815338        6.4389356353
 Fe         2.6558478290        1.3929426187        6.4328878918
  O         7.8369089113       10.3831767912        8.2651112715
  H         7.8886505022        9.5529207108        8.7716577782
  H         5.3475178067       10.6139136783        6.6691835762
  O        10.4041144887        5.9428749634        8.2643031012
  H        10.4518690514        5.1130884020        8.7720075589
  H         7.9061251244        6.1707219794        6.6688462848
  O        12.9684434268        1.5024175769        8.2644271787
  H        13.0133051673        0.6727009974        8.7723437973
  H        10.4752184000        1.7328490804        6.6698117836
  O         2.7108123932       10.3849100972        8.2680689049
  H         2.7605215946        9.5474628315        8.7616753817
  H         0.2195235405       10.6142668538        6.6696290212
  O         5.4652390142        5.9320658910        8.2474285684
  H         5.3504972268        5.0933364756        8.7456611206
  H         2.8913926925        6.1143837945        6.6473825121
  O         7.8391862258        1.5024306023        8.2645218432
  H         7.8869714107        0.6730468552        8.7727635250
  H         5.3475813560        1.7326616847        6.6690638615
  O        -2.4147205604       10.3832156137        8.2649835099
  H        -2.3692077944        9.5529833526        8.7720943815
  H        -4.9071039320       10.6131302520        6.6701976774
  O        -0.0275192110        5.9332305624        8.2758596765
  H         0.1773285314        5.0986823934        8.7540200021
  H        -2.3363788435        6.1710723799        6.6692387297
  O         2.7119059019        1.5054859682        8.2673677740
  H         2.7585137944        0.6727740199        8.7709417523
  H         0.2194135224        1.7336447796        6.6691167683
  C         2.7858253059        6.1719914914       10.8363621353
  C         2.7528769621        6.2013510941        9.4019325365
  H         3.8157347071        6.0354019805       11.1913178051
  H         2.3867041083        7.1260824843       11.2026861453
  H         2.1518294696        5.3513549861       11.1964404040
  N         2.6552652347        6.2405819304        8.2515904649
     168
 i =        3, E =     -8144.3567050203
 Fe         5.0938794100       11.8196869300        0.3885799900
 Fe         7.6575796300        7.3792284900        0.3885799900
 Fe        10.2212798400        2.9387700600        0.3885799900
 Fe        -0.0335205200       11.8196869300        0.3885799900
 Fe         2.5301797000        7.3792284900        0.3885799900
 Fe         5.0938799200        2.9387700600        0.3885799900
 Fe        -5.1609204400       11.8196869300        0.3885799900
 Fe        -2.5972202200        7.3792284900        0.3885799900
 Fe        -0.0335200000        2.9387700600        0.3885799900
  O         8.4519195100        8.9577468800        1.1642700400
  O        11.0156197300        4.5172884400        1.1642700400
  O        13.5793199500        0.0768300000        1.1642700400
  O         3.3245195900        8.9577468800        1.1642700400
  O         5.8882198100        4.5172884400        1.1642700400
  O         8.4519200300        0.0768300000        1.1642700400
  O        -1.8028803300        8.9577468800        1.1642700400
  O         0.7608198900        4.5172884400        1.1642700400
  O         3.3245201100        0.0768300000        1.1642700400
  O         8.4568493000       11.7183869300        1.1650400200
  O        11.0205495200        7.2779284900        1.1650400200
  O        13.5842497300        2.8374700500        1.1650400200
  O         3.3294493700       11.7183869300        1.1650400200
  O         5.8931495900        7.2779284900        1.1650400200
  O         8.4568498100        2.8374700500        1.1650400200
  O        -1.7979505500       11.7183869300        1.1650400200
  O         0.7657496700        7.2779284900        1.1650400200
  O         3.3294498900        2.8374700500        1.1650400200
  O         6.0627194200       10.3425368500        1.1660399400
  O         8.6264196400        5.9020784100        1.1660399400
  O        11.1901198600        1.4616199700        1.1660399400
  O         0.9353195000       10.3425368500        1.1660399400
  O         3.4990197200        5.9020784100        1.1660399400
  O         6.0627199400        1.4616199700        1.1660399400
  O        -4.1920804200       10.3425368500        1.1660399400
  O        -1.6283802000        5.9020784100        1.1660399400
  O         0.9353200200        1.4616199700        1.1660399400
 Fe         7.6576695000       13.2997167500        1.9292099500
 Fe        10.2213697200        8.8592583200        1.9292099500
 Fe        12.7850699400        4.4187998800        1.9292099500
 Fe         2.5302695800       13.2997167500        1.9292099500
 Fe         5.0939698000        8.8592583200        1.9292099500
 Fe         7.6576700200        4.4187998800        1.9292099500
 Fe        -2.5971303400       13.2997167500        1.9292099500
 Fe        -0.0334301200        8.8592583200        1.9292099500
 Fe         2.5302701000        4.4187998800        1.9292099500
 Fe         7.6573893600       10.3392168700        2.7128999200
 Fe        10.2210895800        5.8987584300        2.7128999200
 Fe        12.7847898000        1.4582999900        2.7128999200
 Fe         2.5299894400       10.3392168700        2.7128999200
 Fe         5.0936896600        5.8987584300        2.7128999200
 Fe         7.6573898800        1.4582999900        2.7128999200
 Fe        -2.5974104800       10.3392168700        2.7128999200
 Fe        -0.0337102600        5.8987584300        2.7128999200
 Fe         2.5299899600        1.4582999900        2.7128999200
  O         4.0925100133       13.3158784138        3.5132197272
  O         6.6781276965        8.8827104464        3.5447668429
  O         9.2195975617        4.4363271359        3.5124239796
  O        -1.0073836495       13.3261871347        3.5584694040
  O         1.5457815368        8.8815403124        3.5456818565
  O         4.1350053067        4.4210491562        3.5217841793
  O        -6.1631593830       13.3128139120        3.5120166819
  O        -3.5962318142        8.8753587647        3.5163033566
  O        -1.0386936310        4.4312434538        3.5072587191
  O         6.8119103438       11.8742661430        3.4946869410
  O         9.3782234169        7.4301712956        3.4962711027
  O        11.9392542121        2.9902197223        3.4970667065
  O         1.6847052061       11.8748645418        3.4931244777
  O         4.2621432651        7.4407824137        3.4869228322
  O         6.8192740203        2.9919596623        3.4994204408
  O        -3.4451844654       11.8439826781        3.5403970593
  O        -0.8860511124        7.4206244912        3.5108893098
  O         1.6802724333        2.9529712612        3.5524718097
  O         9.4267422718       10.2253195254        3.4901236156
  O        11.9895422020        5.7826596621        3.4875706401
  O        14.5558529774        1.3450002526        3.4901695254
  O         4.2860739905       10.2421218809        3.5082232647
  O         6.8652150849        5.7810473009        3.4873380349
  O         9.4287399302        1.3434867091        3.4873703082
  O        -0.8399020340       10.2341015739        3.5139941824
  O         1.6939778204        5.7934219135        3.5149832098
  O         4.2767262796        1.3455586841        3.5276092104
 Fe         5.0360368333       11.8389472551        4.4238595300
 Fe         7.6068792109        7.3853109114        4.4248694710
 Fe        10.1616041187        2.9591463479        4.4197101496
 Fe        -0.0802355641       11.8313550970        4.4365221714
 Fe         2.4908246834        7.3682627284        4.4421149774
 Fe         5.0412019057        2.9505490809        4.4246552146
 Fe        -5.2291405967       11.8357637230        4.4278567525
 Fe        -2.6578367731        7.3923829477        4.4255227796
 Fe        -0.0981796326        2.9641600237        4.4367637044
 Fe         7.6077298977       13.1865795018        4.8067768835
 Fe        10.1717993749        8.7432580467        4.8067722354
 Fe        12.7372751597        4.3069148337        4.8081669950
 Fe         2.4809098211       13.1852698431        4.8054464208
 Fe         5.0387451184        8.7513303745        4.8097694016
 Fe         7.6095358505        4.3094444937        4.8129318029
 Fe        -2.6461607463       13.1874767462        4.8239929836
 Fe        -0.0826311482        8.7412773739        4.8198566342
 Fe         2.4948119046        4.3265356446        4.8227142835
  O         5.8592529566       10.3465907704        5.8740249808
  O         8.4202283448        5.9087681082        5.8747566013
  O        10.9831721521        1.4635438536        5.8722207347
  O         0.7319759286       10.3492869818        5.8734476583
  O         3.3866105787        5.8979305543        5.7257341630
  O         5.8588142833        1.4660401987        5.8728211678
  O        -4.3981077995       10.3453151905        5.8714148529
  O        -1.8353602568        5.9105101235        5.8510748697
  O         0.7301747653        1.4618168358        5.8767031586
  O         5.9256203582       13.1742357997        5.6902644578
  O         8.4908754130        8.7343109584        5.6912760289
  O        11.0533705865        4.2938057722        5.6891679371
  O         0.8016755558       13.1797360559        5.6931279496
  O         3.3591361155        8.7495389791        5.6761733936
  O         5.9262335107        4.2726883845        5.6804014512
  O        -4.3332059599       13.1743300154        5.6935169447
  O        -1.7745346323        8.7367933332        5.6871529052
  O         0.8039715733        4.3025221951        5.7021102807
  O         3.4654877923       11.7784171642        5.6758064960
  O         6.0357582789        7.3499240988        5.6569875418
  O         8.5942150375        2.8919203924        5.6700835447
  O        -1.6605752105       11.7731117676        5.6713649262
  O         0.8896151623        7.3358625922        5.6581708451
  O         3.4718191356        2.9003538241        5.6841609622
  O        -6.7924874646       11.7751795056        5.6749548227
  O        -4.2275009406        7.3337211777        5.6719672453
  O        -1.6685477402        2.8907428728        5.6732558531
 Fe         7.7822208437       10.2712797445        6.4336619403
 Fe        10.3431793955        5.8318271454        6.4342305331
 Fe        12.9079511194        1.3902002392        6.4340493392
 Fe         2.6542824067       10.2726819986        6.4293901559
 Fe         5.2620331476        5.8337920658        6.4145444717
 Fe         7.7805762987        1.3946991281        6.4336341332
 Fe        -2.4732254446       10.2734470685        6.4332573663
 Fe         0.0918363158        5.8464855881        6.4399908531
 Fe         2.6563060743        1.3963815342        6.4314947000
  O         7.8339861908       10.3844758819        8.2682227221
  H         7.8913578854        9.5489824979        8.7654028848
  H         5.3465994393       10.6153034848        6.6682467724
  O        10.4046769083        5.9442988433        8.2667163068
  H        10.4518498968        5.1102846040        8.7672522059
  H         7.8963546223        6.1614903458        6.6703008808
  O        12.9707585527        1.5035340502        8.2677300370
  H        13.0124388625        0.6689842322        8.7676320322
  H        10.4746565755        1.7344479523        6.6693275612
  O         2.7095994368       10.3849441315        8.2708812059
  H         2.7613574286        9.5356820911        8.7438102359
  H         0.2173184313       10.6158267938        6.6672393015
  O         5.6442441932        5.9196484681        8.2395059003
  H         5.4035124118        5.0661000788        8.6964841064
  H         2.9348808839        6.0864160108        6.6341044139
  O         7.8370426833        1.5028598212        8.2675011213
  H         7.8877573972        0.6693094013        8.7682686670
  H         5.3477224724        1.7340538988        6.6679737406
  O        -2.4121513445       10.3843865253        8.2675987979
  H        -2.3717065606        9.5488728310        8.7664398736
  H        -4.9071407025       10.6137998886        6.6687470349
  O        -0.2521004714        5.9108465679        8.2857904125
  H         0.1350233658        5.0789577024        8.7272704428
  H        -2.3198098564        6.1647527320        6.6695623562
  O         2.7119825274        1.5113438569        8.2724546212
  H         2.7581680642        0.6706852118        8.7639098740
  H         0.2157740454        1.7341935603        6.6689662318
  C         2.7810237702        6.1792442736       10.8459148007
  C         2.7273488164        6.2355438727        9.4239942241
  H         3.7990065382        6.0407476619       11.2284540391
  H         2.3939962974        7.1090060274       11.2784966078
  H         2.1690153121        5.3652511771       11.2528850339
  N         2.5648638126        6.3040083160        8.2809008505
     168
 i =        4, E =     -8144.3665188031
 Fe         5.0938794100       11.8196869300        0.3885799900
 Fe         7.6575796300        7.3792284900        0.3885799900
 Fe        10.2212798400        2.9387700600        0.3885799900
 Fe        -0.0335205200       11.8196869300        0.3885799900
 Fe         2.5301797000        7.3792284900        0.3885799900
 Fe         5.0938799200        2.9387700600        0.3885799900
 Fe        -5.1609204400       11.8196869300        0.3885799900
 Fe        -2.5972202200        7.3792284900        0.3885799900
 Fe        -0.0335200000        2.9387700600        0.3885799900
  O         8.4519195100        8.9577468800        1.1642700400
  O        11.0156197300        4.5172884400        1.1642700400
  O        13.5793199500        0.0768300000        1.1642700400
  O         3.3245195900        8.9577468800        1.1642700400
  O         5.8882198100        4.5172884400        1.1642700400
  O         8.4519200300        0.0768300000        1.1642700400
  O        -1.8028803300        8.9577468800        1.1642700400
  O         0.7608198900        4.5172884400        1.1642700400
  O         3.3245201100        0.0768300000        1.1642700400
  O         8.4568493000       11.7183869300        1.1650400200
  O        11.0205495200        7.2779284900        1.1650400200
  O        13.5842497300        2.8374700500        1.1650400200
  O         3.3294493700       11.7183869300        1.1650400200
  O         5.8931495900        7.2779284900        1.1650400200
  O         8.4568498100        2.8374700500        1.1650400200
  O        -1.7979505500       11.7183869300        1.1650400200
  O         0.7657496700        7.2779284900        1.1650400200
  O         3.3294498900        2.8374700500        1.1650400200
  O         6.0627194200       10.3425368500        1.1660399400
  O         8.6264196400        5.9020784100        1.1660399400
  O        11.1901198600        1.4616199700        1.1660399400
  O         0.9353195000       10.3425368500        1.1660399400
  O         3.4990197200        5.9020784100        1.1660399400
  O         6.0627199400        1.4616199700        1.1660399400
  O        -4.1920804200       10.3425368500        1.1660399400
  O        -1.6283802000        5.9020784100        1.1660399400
  O         0.9353200200        1.4616199700        1.1660399400
 Fe         7.6576695000       13.2997167500        1.9292099500
 Fe        10.2213697200        8.8592583200        1.9292099500
 Fe        12.7850699400        4.4187998800        1.9292099500
 Fe         2.5302695800       13.2997167500        1.9292099500
 Fe         5.0939698000        8.8592583200        1.9292099500
 Fe         7.6576700200        4.4187998800        1.9292099500
 Fe        -2.5971303400       13.2997167500        1.9292099500
 Fe        -0.0334301200        8.8592583200        1.9292099500
 Fe         2.5302701000        4.4187998800        1.9292099500
 Fe         7.6573893600       10.3392168700        2.7128999200
 Fe        10.2210895800        5.8987584300        2.7128999200
 Fe        12.7847898000        1.4582999900        2.7128999200
 Fe         2.5299894400       10.3392168700        2.7128999200
 Fe         5.0936896600        5.8987584300        2.7128999200
 Fe         7.6573898800        1.4582999900        2.7128999200
 Fe        -2.5974104800       10.3392168700        2.7128999200
 Fe        -0.0337102600        5.8987584300        2.7128999200
 Fe         2.5299899600        1.4582999900        2.7128999200
  O         4.0931826498       13.3158218403        3.5132718709
  O         6.6643167617        8.8787448635        3.5194981871
  O         9.2198458100        4.4351120380        3.5091259935
  O        -1.0209413416       13.3237889357        3.5393358163
  O         1.5361554753        8.8793230470        3.5278046123
  O         4.1107060868        4.4189081039        3.4969053687
  O        -6.1632469248       13.3102887595        3.5094485284
  O        -3.5994474406        8.8725683212        3.5087849011
  O        -1.0360146234        4.4312022329        3.5113609519
  O         6.8124539663       11.8746948105        3.4937459085
  O         9.3790689223        7.4329363478        3.4923762913
  O        11.9399201264        2.9891881652        3.4976838286
  O         1.6846846812       11.8742152644        3.4949058050
  O         4.2579143892        7.4480353318        3.4753493638
  O         6.8161264071        2.9927640931        3.4927140336
  O        -3.4444176407       11.8555517944        3.5212949449
  O        -0.8851702939        7.4278660156        3.4990591340
  O         1.6822576834        2.9738941388        3.5194042355
  O         9.4288368904       10.2239095622        3.4849514347
  O        11.9895295717        5.7836014382        3.4871831905
  O        14.5554905977        1.3443832191        3.4888054576
  O         4.2981604378       10.2345030704        3.4886194708
  O         6.8673093187        5.7829411140        3.4859544422
  O         9.4291203116        1.3443473321        3.4863109743
  O        -0.8310597065       10.2293491466        3.4986548153
  O         1.7184827338        5.7852210314        3.4914348154
  O         4.2893518206        1.3428257350        3.5101648120
 Fe         5.0347597709       11.8355551090        4.4198148295
 Fe         7.6048454518        7.3954225832        4.4169313847
 Fe        10.1622373462        2.9587895181        4.4188781517
 Fe        -0.0873917975       11.8345456949        4.4274836053
 Fe         2.4843118948        7.3758249040        4.4316304369
 Fe         5.0357803451        2.9571503154        4.4168517486
 Fe        -5.2238660447       11.8348111354        4.4236992060
 Fe        -2.6560201310        7.3954118530        4.4221147104
 Fe        -0.0886609267        2.9622660303        4.4299847748
 Fe         7.6075842136       13.1869751497        4.8064835698
 Fe        10.1727932044        8.7446593437        4.8051677742
 Fe        12.7357065942        4.3057881649        4.8088152623
 Fe         2.4809570267       13.1865525165        4.8064618787
 Fe         5.0419081495        8.7500617286        4.8043540365
 Fe         7.6113919006        4.3052652908        4.8078268692
 Fe        -2.6463875565       13.1827795182        4.8235816014
 Fe        -0.0799280929        8.7389554508        4.8165728050
 Fe         2.4917516638        4.3152859096        4.8192234147
  O         5.8570809553       10.3476634081        5.8739031211
  O         8.4161432788        5.9089599351        5.8731333051
  O        10.9830987865        1.4653625368        5.8721026214
  O         0.7292732850       10.3503502506        5.8740628496
  O         3.3717670218        5.8960756923        5.7607238963
  O         5.8570229271        1.4661720830        5.8742530951
  O        -4.4005125047       10.3456270816        5.8720416059
  O        -1.8406426184        5.9124257149        5.8473060756
  O         0.7270051358        1.4633141744        5.8762943696
  O         5.9239458479       13.1733810476        5.6888399718
  O         8.4930080040        8.7336777303        5.6922441989
  O        11.0514309463        4.2935802725        5.6888464706
  O         0.8016608185       13.1747433059        5.6941768068
  O         3.3631610307        8.7420855821        5.6827894596
  O         5.9306591634        4.2741131448        5.6817650913
  O        -4.3338461605       13.1741241832        5.6955388312
  O        -1.7698960516        8.7358308584        5.6886850187
  O         0.8039681562        4.3038042187        5.7050806292
  O         3.4666003685       11.7792926703        5.6762049327
  O         6.0394764578        7.3487152665        5.6597649333
  O         8.5967997773        2.8926635070        5.6712046094
  O        -1.6560653716       11.7733519608        5.6788763846
  O         0.8964455612        7.3332301151        5.6678112353
  O         3.4754180383        2.8992425083        5.6888802378
  O        -6.7901928520       11.7751691714        5.6721074069
  O        -4.2268979287        7.3340564732        5.6696951182
  O        -1.6618410769        2.8915465624        5.6698413746
 Fe         7.7825035794       10.2715275585        6.4333476887
 Fe        10.3436063736        5.8327896377        6.4351845541
 Fe        12.9090232420        1.3919836460        6.4337609699
 Fe         2.6552109738       10.2726415871        6.4308622357
 Fe         5.2640171331        5.8337859029        6.4176469229
 Fe         7.7831515204        1.3930845241        6.4340063865
 Fe        -2.4751322827       10.2720809627        6.4336218640
 Fe         0.0814110753        5.8442755815        6.4402184384
 Fe         2.6529527885        1.3958329445        6.4335318548
  O         7.8339562444       10.3834490944        8.2673579847
  H         7.8913139319        9.5490404941        8.7667576055
  H         5.3467988691       10.6162184913        6.6702436130
  O        10.4037716525        5.9438121907        8.2667850791
  H        10.4523187288        5.1104169463        8.7686685392
  H         7.9011560471        6.1613805314        6.6745669489
  O        12.9703299866        1.5023731812        8.2671036134
  H        13.0126395178        0.6688014991        8.7691118372
  H        10.4742904465        1.7340847400        6.6698178143
  O         2.7102657857       10.3834734183        8.2706191074
  H         2.7610321050        9.5359472669        8.7471125627
  H         0.2175663304       10.6165402613        6.6705381480
  O         5.5847325700        5.9135583774        8.2412466060
  H         5.4192439565        5.0746401470        8.7049899481
  H         2.9058902017        6.1073870050        6.6402286949
  O         7.8368354751        1.5027640572        8.2675259711
  H         7.8877505349        0.6693498806        8.7690393008
  H         5.3471155614        1.7350409535        6.6707329504
  O        -2.4120177065       10.3838758943        8.2671018690
  H        -2.3716554653        9.5488979137        8.7671812998
  H        -4.9075815057       10.6132486395        6.6707681013
  O        -0.1766702301        5.9028223310        8.2769659274
  H         0.1022979070        5.0894012514        8.7361515094
  H        -2.3193550248        6.1621518276        6.6708378430
  O         2.7125380175        1.5109967010        8.2722592846
  H         2.7579955336        0.6711916812        8.7648410115
  H         0.2164830555        1.7328546938        6.6719737632
  C         2.7839576648        6.1798557211       10.8554575133
  C         2.7242840217        6.2294733629        9.4232775596
  H         3.8113177631        6.0397387301       11.2151670869
  H         2.3911631454        7.1185853031       11.2650527039
  H         2.1628107576        5.3576238392       11.2345407647
  N         2.5925747157        6.2901136480        8.2742179430
     168
 i =        5, E =     -8144.3665024212
 Fe         5.0938794100       11.8196869300        0.3885799900
 Fe         7.6575796300        7.3792284900        0.3885799900
 Fe        10.2212798400        2.9387700600        0.3885799900
 Fe        -0.0335205200       11.8196869300        0.3885799900
 Fe         2.5301797000        7.3792284900        0.3885799900
 Fe         5.0938799200        2.9387700600        0.3885799900
 Fe        -5.1609204400       11.8196869300        0.3885799900
 Fe        -2.5972202200        7.3792284900        0.3885799900
 Fe        -0.0335200000        2.9387700600        0.3885799900
  O         8.4519195100        8.9577468800        1.1642700400
  O        11.0156197300        4.5172884400        1.1642700400
  O        13.5793199500        0.0768300000        1.1642700400
  O         3.3245195900        8.9577468800        1.1642700400
  O         5.8882198100        4.5172884400        1.1642700400
  O         8.4519200300        0.0768300000        1.1642700400
  O        -1.8028803300        8.9577468800        1.1642700400
  O         0.7608198900        4.5172884400        1.1642700400
  O         3.3245201100        0.0768300000        1.1642700400
  O         8.4568493000       11.7183869300        1.1650400200
  O        11.0205495200        7.2779284900        1.1650400200
  O        13.5842497300        2.8374700500        1.1650400200
  O         3.3294493700       11.7183869300        1.1650400200
  O         5.8931495900        7.2779284900        1.1650400200
  O         8.4568498100        2.8374700500        1.1650400200
  O        -1.7979505500       11.7183869300        1.1650400200
  O         0.7657496700        7.2779284900        1.1650400200
  O         3.3294498900        2.8374700500        1.1650400200
  O         6.0627194200       10.3425368500        1.1660399400
  O         8.6264196400        5.9020784100        1.1660399400
  O        11.1901198600        1.4616199700        1.1660399400
  O         0.9353195000       10.3425368500        1.1660399400
  O         3.4990197200        5.9020784100        1.1660399400
  O         6.0627199400        1.4616199700        1.1660399400
  O        -4.1920804200       10.3425368500        1.1660399400
  O        -1.6283802000        5.9020784100        1.1660399400
  O         0.9353200200        1.4616199700        1.1660399400
 Fe         7.6576695000       13.2997167500        1.9292099500
 Fe        10.2213697200        8.8592583200        1.9292099500
 Fe        12.7850699400        4.4187998800        1.9292099500
 Fe         2.5302695800       13.2997167500        1.9292099500
 Fe         5.0939698000        8.8592583200        1.9292099500
 Fe         7.6576700200        4.4187998800        1.9292099500
 Fe        -2.5971303400       13.2997167500        1.9292099500
 Fe        -0.0334301200        8.8592583200        1.9292099500
 Fe         2.5302701000        4.4187998800        1.9292099500
 Fe         7.6573893600       10.3392168700        2.7128999200
 Fe        10.2210895800        5.8987584300        2.7128999200
 Fe        12.7847898000        1.4582999900        2.7128999200
 Fe         2.5299894400       10.3392168700        2.7128999200
 Fe         5.0936896600        5.8987584300        2.7128999200
 Fe         7.6573898800        1.4582999900        2.7128999200
 Fe        -2.5974104800       10.3392168700        2.7128999200
 Fe        -0.0337102600        5.8987584300        2.7128999200
 Fe         2.5299899600        1.4582999900        2.7128999200
  O         4.0931826498       13.3158218403        3.5132718709
  O         6.6643167617        8.8787448635        3.5194981871
  O         9.2198458100        4.4351120380        3.5091259935
  O        -1.0209413416       13.3237889357        3.5393358163
  O         1.5361554753        8.8793230470        3.5278046123
  O         4.1107060868        4.4189081039        3.4969053687
  O        -6.1632469248       13.3102887595        3.5094485284
  O        -3.5994474406        8.8725683212        3.5087849011
  O        -1.0360146234        4.4312022329        3.5113609519
  O         6.8124539663       11.8746948105        3.4937459085
  O         9.3790689223        7.4329363478        3.4923762913
  O        11.9399201264        2.9891881652        3.4976838286
  O         1.6846846812       11.8742152644        3.4949058050
  O         4.2579143892        7.4480353318        3.4753493638
  O         6.8161264071        2.9927640931        3.4927140336
  O        -3.4444176407       11.8555517944        3.5212949449
  O        -0.8851702939        7.4278660156        3.4990591340
  O         1.6822576834        2.9738941388        3.5194042355
  O         9.4288368904       10.2239095622        3.4849514347
  O        11.9895295717        5.7836014382        3.4871831905
  O        14.5554905977        1.3443832191        3.4888054576
  O         4.2981604378       10.2345030704        3.4886194708
  O         6.8673093187        5.7829411140        3.4859544422
  O         9.4291203116        1.3443473321        3.4863109743
  O        -0.8310597065       10.2293491466        3.4986548153
  O         1.7184827338        5.7852210314        3.4914348154
  O         4.2893518206        1.3428257350        3.5101648120
 Fe         5.0347597709       11.8355551090        4.4198148295
 Fe         7.6048454518        7.3954225832        4.4169313847
 Fe        10.1622373462        2.9587895181        4.4188781517
 Fe        -0.0873917975       11.8345456949        4.4274836053
 Fe         2.4843118948        7.3758249040        4.4316304369
 Fe         5.0357803451        2.9571503154        4.4168517486
 Fe        -5.2238660447       11.8348111354        4.4236992060
 Fe        -2.6560201310        7.3954118530        4.4221147104
 Fe        -0.0886609267        2.9622660303        4.4299847748
 Fe         7.6075842136       13.1869751497        4.8064835698
 Fe        10.1727932044        8.7446593437        4.8051677742
 Fe        12.7357065942        4.3057881649        4.8088152623
 Fe         2.4809570267       13.1865525165        4.8064618787
 Fe         5.0419081495        8.7500617286        4.8043540365
 Fe         7.6113919006        4.3052652908        4.8078268692
 Fe        -2.6463875565       13.1827795182        4.8235816014
 Fe        -0.0799280929        8.7389554508        4.8165728050
 Fe         2.4917516638        4.3152859096        4.8192234147
  O         5.8570809553       10.3476634081        5.8739031211
  O         8.4161432788        5.9089599351        5.8731333051
  O        10.9830987865        1.4653625368        5.8721026214
  O         0.7292732850       10.3503502506        5.8740628496
  O         3.3717670218        5.8960756923        5.7607238963
  O         5.8570229271        1.4661720830        5.8742530951
  O        -4.4005125047       10.3456270816        5.8720416059
  O        -1.8406426184        5.9124257149        5.8473060756
  O         0.7270051358        1.4633141744        5.8762943696
  O         5.9239458479       13.1733810476        5.6888399718
  O         8.4930080040        8.7336777303        5.6922441989
  O        11.0514309463        4.2935802725        5.6888464706
  O         0.8016608185       13.1747433059        5.6941768068
  O         3.3631610307        8.7420855821        5.6827894596
  O         5.9306591634        4.2741131448        5.6817650913
  O        -4.3338461605       13.1741241832        5.6955388312
  O        -1.7698960516        8.7358308584        5.6886850187
  O         0.8039681562        4.3038042187        5.7050806292
  O         3.4666003685       11.7792926703        5.6762049327
  O         6.0394764578        7.3487152665        5.6597649333
  O         8.5967997773        2.8926635070        5.6712046094
  O        -1.6560653716       11.7733519608        5.6788763846
  O         0.8964455612        7.3332301151        5.6678112353
  O         3.4754180383        2.8992425083        5.6888802378
  O        -6.7901928520       11.7751691714        5.6721074069
  O        -4.2268979287        7.3340564732        5.6696951182
  O        -1.6618410769        2.8915465624        5.6698413746
 Fe         7.7825035794       10.2715275585        6.4333476887
 Fe        10.3436063736        5.8327896377        6.4351845541
 Fe        12.9090232420        1.3919836460        6.4337609699
 Fe         2.6552109738       10.2726415871        6.4308622357
 Fe         5.2640171331        5.8337859029        6.4176469229
 Fe         7.7831515204        1.3930845241        6.4340063865
 Fe        -2.4751322827       10.2720809627        6.4336218640
 Fe         0.0814110753        5.8442755815        6.4402184384
 Fe         2.6529527885        1.3958329445        6.4335318548
  O         7.8339562444       10.3834490944        8.2673579847
  H         7.8913139319        9.5490404941        8.7667576055
  H         5.3467988691       10.6162184913        6.6702436130
  O        10.4037716525        5.9438121907        8.2667850791
  H        10.4523187288        5.1104169463        8.7686685392
  H         7.9011560471        6.1613805314        6.6745669489
  O        12.9703299866        1.5023731812        8.2671036134
  H        13.0126395178        0.6688014991        8.7691118372
  H        10.4742904465        1.7340847400        6.6698178143
  O         2.7102657857       10.3834734183        8.2706191074
  H         2.7610321050        9.5359472669        8.7471125627
  H         0.2175663304       10.6165402613        6.6705381480
  O         5.5847325700        5.9135583774        8.2412466060
  H         5.4192439565        5.0746401470        8.7049899481
  H         2.9058902017        6.1073870050        6.6402286949
  O         7.8368354751        1.5027640572        8.2675259711
  H         7.8877505349        0.6693498806        8.7690393008
  H         5.3471155614        1.7350409535        6.6707329504
  O        -2.4120177065       10.3838758943        8.2671018690
  H        -2.3716554653        9.5488979137        8.7671812998
  H        -4.9075815057       10.6132486395        6.6707681013
  O        -0.1766702301        5.9028223310        8.2769659274
  H         0.1022979070        5.0894012514        8.7361515094
  H        -2.3193550248        6.1621518276        6.6708378430
  O         2.7125380175        1.5109967010        8.2722592846
  H         2.7579955336        0.6711916812        8.7648410115
  H         0.2164830555        1.7328546938        6.6719737632
  C         2.7839576648        6.1798557211       10.8554575133
  C         2.7242840217        6.2294733629        9.4232775596
  H         3.8113177631        6.0397387301       11.2151670869
  H         2.3911631454        7.1185853031       11.2650527039
  H         2.1628107576        5.3576238392       11.2345407647
  N         2.5925747157        6.2901136480        8.2742179430
