 DBCSR| Multiplication driver                                               XSMM
 DBCSR| Multrec recursion limit                                              512
 DBCSR| Multiplication stack size                                           1000
 DBCSR| Maximum elements for images                                    UNLIMITED
 DBCSR| Multiplicative factor virtual images                                   1
 DBCSR| Multiplication size stacks                                             3
 DBCSR| Number of 3D layers                                               SINGLE
 DBCSR| Use MPI memory allocation                                              T
 DBCSR| Use RMA algorithm                                                      F
 DBCSR| Use Communication thread                                               T
 DBCSR| Communication thread load                                             87


  **** **** ******  **  PROGRAM STARTED AT               2020-10-07 12:07:22.794
 ***** ** ***  *** **   PROGRAM STARTED ON                             irene6007
 **    ****   ******    PROGRAM STARTED BY                              marticar
 ***** **    ** ** **   PROGRAM PROCESS ID                                 67000
  **** **  *******  **  PROGRAM STARTED IN /ccc/scratch/cont003/gen0609/marticar
                                           /684120

 CP2K| version string:                                          CP2K version 6.1
 CP2K| source code revision number:                                    svn:18464
 CP2K| cp2kflags: libint fftw3 parallel mpi3 scalapack xsmm mkl                 
 CP2K| is freely available from                            https://www.cp2k.org/
 CP2K| Program compiled at                          Thu Dec 12 15:40:57 CET 2019
 CP2K| Program compiled on                                             cobalt175
 CP2K| Program compiled for                                   Linux-x86-64-iomkl
 CP2K| Data directory path          /tmp/cp2k/6.1/iomkl-195281.401/cp2k-6.1/data
 CP2K| Input file name                                             screening.inp
 
 GLOBAL| Force Environment number                                              1
 GLOBAL| Basis set file name            /ccc/work/cont003/gen0609/marticar/data/
 GLOBAL| Potential file name            /ccc/work/cont003/gen0609/marticar/data/
 GLOBAL| MM Potential file name                                     MM_POTENTIAL
 GLOBAL| Coordinate file name                                          coord.xyz
 GLOBAL| Method name                                                        CP2K
 GLOBAL| Project name                                                    PROJECT
 GLOBAL| Preferred FFT library                                             FFTW3
 GLOBAL| Preferred diagonalization lib.                                       SL
 GLOBAL| Run type                                                        GEO_OPT
 GLOBAL| All-to-all communication in single precision                          F
 GLOBAL| FFTs using library dependent lengths                                  F
 GLOBAL| Global print level                                                  LOW
 GLOBAL| Total number of message passing processes                            16
 GLOBAL| Number of threads for this process                                    1
 GLOBAL| This output is from process                                           0
 GLOBAL| CPU model name :  AMD EPYC 7H12 64-Core Processor

 MEMORY| system memory details [Kb]
 MEMORY|                        rank 0           min           max       average
 MEMORY| MemTotal            263246932     263246932     263246932     263246932
 MEMORY| MemFree             170600004     170600004     170603104     170602910
 MEMORY| Buffers                     0             0             0             0
 MEMORY| Cached                7829980       7829980       7829980       7829980
 MEMORY| Slab                  4510412       4510412       4510412       4510412
 MEMORY| SReclaimable          1988904       1988904       1988904       1988904
 MEMORY| MemLikelyFree       180418888     180418888     180421988     180421794

 
 GENERATE|  Preliminary Number of Bonds generated:                             0
 GENERATE|  Achieved consistency in connectivity generation.

 *******************************************************************************
 *******************************************************************************
 **                                                                           **
 **     #####                         ##              ##                      **
 **    ##   ##            ##          ##              ##                      **
 **   ##     ##                       ##            ######                    **
 **   ##     ##  ##   ##  ##   #####  ##  ##   ####   ##    #####    #####    **
 **   ##     ##  ##   ##  ##  ##      ## ##   ##      ##   ##   ##  ##   ##   **
 **   ##  ## ##  ##   ##  ##  ##      ####     ###    ##   ######   ######    **
 **    ##  ###   ##   ##  ##  ##      ## ##      ##   ##   ##       ##        **
 **     #######   #####   ##   #####  ##  ##  ####    ##    #####   ##        **
 **           ##                                                    ##        **
 **                                                                           **
 **                                                ... make the atoms dance   **
 **                                                                           **
 **            Copyright (C) by CP2K developers group (2000 - 2018)           **
 **                                                                           **
 *******************************************************************************


 TOTAL NUMBERS AND MAXIMUM NUMBERS

  Total number of            - Atomic kinds:                                   7
                             - Atoms:                                        168
                             - Shell sets:                                   168
                             - Shells:                                       960
                             - Primitive Cartesian functions:               1122
                             - Cartesian basis functions:                   3081
                             - Spherical basis functions:                   2718

  Maximum angular momentum of- Orbital basis functions:                        3
                             - Local part of the GTH pseudopotential:          2
                             - Non-local part of the GTH pseudopotential:      3


 SCF PARAMETERS         Density guess:                                   RESTART
                        --------------------------------------------------------
                        max_scf:                                             500
                        max_scf_history:                                       0
                        max_diis:                                              4
                        --------------------------------------------------------
                        eps_scf:                                        1.00E-05
                        eps_scf_history:                                0.00E+00
                        eps_diis:                                       1.00E-01
                        eps_eigval:                                     1.00E-05
                        --------------------------------------------------------
                        level_shift [a.u.]:                                 0.00
                        --------------------------------------------------------
                        Outer loop SCF in use 
                        No variables optimised in outer loop
                        eps_scf                                         1.00E-05
                        max_scf                                               10
                        No outer loop optimization
                        step_size                                       5.00E-01

 BFGS| Use rational function optimization for step estimation:                NO
 BFGS| Use model Hessian for initial guess:                                  YES
 BFGS| Restart Hessian:                                                       NO
 BFGS| Trust radius:                                                       0.472

 *******************************************************************************
 ***                     STARTING GEOMETRY OPTIMIZATION                      ***
 ***                                   BFGS                                  ***
 *******************************************************************************

 Spin 1

 Number of electrons:                                                        719
 Number of occupied orbitals:                                                719
 Number of molecular orbitals:                                               719

 Spin 2

 Number of electrons:                                                        719
 Number of occupied orbitals:                                                719
 Number of molecular orbitals:                                               719

 Number of orbital functions:                                               2718
 Number of independent orbital functions:                                   2718

 Extrapolation method: initial_guess

 *** WARNING in qs_initial_guess.F:263 :: User requested to restart the    ***
 *** wavefunction from the file named: PROJECT-RESTART.wfn. This file does ***
 *** not exist. Please check the existence of the file or change properly  ***
 *** the value of the keyword WFN_RESTART_FILE_NAME. Calculation continues ***
 *** using ATOMIC GUESS.                                                   ***



 SCF WAVEFUNCTION OPTIMIZATION

  ----------------------------------- OT ---------------------------------------
  Minimizer      : CG                  : conjugate gradient
  Preconditioner : FULL_ALL            : diagonalization, state selective
  Precond_solver : DEFAULT
  Line search    : 3PNT                : 3 energies
  stepsize       :    0.15000000                  energy_gap     :    0.08000000
  eps_taylor     :   0.10000E-15                  max_taylor     :             4
  ----------------------------------- OT ---------------------------------------

  Step     Update method      Time    Convergence         Total energy    Change
  ------------------------------------------------------------------------------
     1 OT CG       0.12E+00   12.4     0.01752389     -8057.4327280209 -8.06E+03
     2 OT LS       0.17E+00    7.7                    -8118.9273480523
     3 OT LS       0.13E+00    7.8                    -8113.1863877310
     4 OT CG       0.10E+00   14.9     0.00592428     -8118.6028126316 -6.12E+01
     5 OT LS       0.14E+00    7.7                    -8127.4433179292
     6 OT LS       0.16E+00    7.6                    -8128.5364089774
     7 OT CG       0.12E+00   14.5     0.00483972     -8128.5960453313 -9.99E+00
     8 OT LS       0.17E+00    7.5                    -8136.1722898147
     9 OT LS       0.19E+00    7.5                    -8137.1508881048
    10 OT CG       0.15E+00   14.4     0.00265209     -8137.2346131280 -8.64E+00
    11 OT LS       0.21E+00    7.5                    -8139.9047243842
    12 OT LS       0.21E+00    7.5                    -8140.0901494995
    13 OT CG       0.16E+00   14.4     0.00259851     -8140.0946161157 -2.86E+00
    14 OT LS       0.23E+00    7.5                    -8140.8427897235
    15 OT LS       0.10E+00    7.6                    -8139.1872398096
    16 OT CG       0.80E-01   14.6     0.00182022     -8141.3935305176 -1.30E+00
    17 OT LS       0.11E+00    7.8                    -8142.1459302881
    18 OT LS       0.15E+00    7.8                    -8142.2930943559
    19 OT CG       0.12E+00   14.9     0.00151694     -8142.3530857095 -9.60E-01
    20 OT LS       0.17E+00    7.8                    -8142.8756083423
    21 OT LS       0.12E+00    7.7                    -8142.7731913830
    22 OT CG       0.92E-01   14.6     0.00113871     -8142.8760398171 -5.23E-01
    23 OT LS       0.13E+00    7.5                    -8143.2050079614
    24 OT LS       0.15E+00    7.6                    -8143.2564531367
    25 OT CG       0.12E+00   14.4     0.00099304     -8143.2649354715 -3.89E-01
    26 OT LS       0.17E+00    7.5                    -8143.4977098569
    27 OT LS       0.12E+00    7.6                    -8143.4574247599
    28 OT CG       0.97E-01   14.4     0.00083196     -8143.4977307272 -2.33E-01
    29 OT LS       0.14E+00    7.5                    -8143.6795728202
    30 OT LS       0.16E+00    7.6                    -8143.7074669856
    31 OT CG       0.13E+00   14.4     0.00077527     -8143.7118274797 -2.14E-01
    32 OT LS       0.18E+00    7.5                    -8143.8545634315
    33 OT LS       0.12E+00    7.8                    -8143.8248832730
    34 OT CG       0.97E-01   14.9     0.00063799     -8143.8547819495 -1.43E-01
    35 OT LS       0.14E+00    7.8                    -8143.9603885188
    36 OT LS       0.15E+00    7.8                    -8143.9747807348
    37 OT CG       0.12E+00   14.9     0.00057499     -8143.9760040678 -1.21E-01
    38 OT LS       0.17E+00    7.8                    -8144.0600555666
    39 OT LS       0.13E+00    7.8                    -8144.0526946296
    40 OT CG       0.10E+00   14.4     0.00048901     -8144.0604843312 -8.45E-02
    41 OT LS       0.15E+00    7.6                    -8144.1239595180
    42 OT LS       0.15E+00    7.5                    -8144.1301635225
    43 OT CG       0.12E+00   14.3     0.00044462     -8144.1301846408 -6.97E-02
    44 OT LS       0.17E+00    7.6                    -8144.1795465467
    45 OT LS       0.13E+00    7.5                    -8144.1754909851
    46 OT CG       0.10E+00   14.3     0.00037162     -8144.1798264237 -4.96E-02
    47 OT LS       0.14E+00    7.6                    -8144.2157119875
    48 OT LS       0.15E+00    7.5                    -8144.2190630036
    49 OT CG       0.12E+00   14.3     0.00033130     -8144.2190661299 -3.92E-02
    50 OT LS       0.16E+00    7.7                    -8144.2481039478
    51 OT LS       0.14E+00    7.8                    -8144.2480238283
    52 OT CG       0.11E+00   14.9     0.00028714     -8144.2489034844 -2.98E-02
    53 OT LS       0.16E+00    7.8                    -8144.2708758771
    54 OT LS       0.14E+00    7.8                    -8144.2718932704
    55 OT CG       0.11E+00   15.0     0.00025319     -8144.2720576748 -2.32E-02
    56 OT LS       0.16E+00    7.6                    -8144.2888773922
    57 OT LS       0.14E+00    7.6                    -8144.2889167187
    58 OT CG       0.11E+00   14.3     0.00022001     -8144.2893752573 -1.73E-02
    59 OT LS       0.15E+00    7.6                    -8144.3020539262
    60 OT LS       0.14E+00    7.5                    -8144.3025121466
    61 OT CG       0.11E+00   14.3     0.00019174     -8144.3026522326 -1.33E-02
    62 OT LS       0.16E+00    7.5                    -8144.3120196284
    63 OT LS       0.13E+00    7.5                    -8144.3119723954
    64 OT CG       0.11E+00   14.3     0.00016472     -8144.3122676495 -9.62E-03
    65 OT LS       0.15E+00    7.6                    -8144.3193350720
    66 OT LS       0.14E+00    7.8                    -8144.3197603118
    67 OT CG       0.11E+00   14.8     0.00014393     -8144.3197852271 -7.52E-03
    68 OT LS       0.16E+00    7.7                    -8144.3252727798
    69 OT LS       0.14E+00    7.8                    -8144.3253994772
    70 OT CG       0.11E+00   14.8     0.00012554     -8144.3254907337 -5.71E-03
    71 OT LS       0.16E+00    7.7                    -8144.3296899302
    72 OT LS       0.14E+00    7.5                    -8144.3298325806
    73 OT CG       0.11E+00   14.3     0.00010960     -8144.3298826242 -4.39E-03
    74 OT LS       0.16E+00    7.5                    -8144.3330403908
    75 OT LS       0.14E+00    7.5                    -8144.3330726505
    76 OT CG       0.11E+00   14.3     0.00009522     -8144.3331451697 -3.26E-03
    77 OT LS       0.16E+00    7.5                    -8144.3355511406
    78 OT LS       0.14E+00    7.5                    -8144.3356541761
    79 OT CG       0.11E+00   14.3     0.00008355     -8144.3356748559 -2.53E-03
    80 OT LS       0.16E+00    7.5                    -8144.3374977817
    81 OT LS       0.14E+00    7.5                    -8144.3375026463
    82 OT CG       0.11E+00   14.7     0.00007186     -8144.3375519883 -1.88E-03
    83 OT LS       0.15E+00    7.8                    -8144.3388918828
    84 OT LS       0.14E+00    7.8                    -8144.3389341838
    85 OT CG       0.11E+00   14.9     0.00006230     -8144.3389514702 -1.40E-03
    86 OT LS       0.16E+00    7.7                    -8144.3399666286
    87 OT LS       0.14E+00    7.6                    -8144.3399986789
    88 OT CG       0.11E+00   14.5     0.00005387     -8144.3400117746 -1.06E-03
    89 OT LS       0.16E+00    7.6                    -8144.3407702996
    90 OT LS       0.14E+00    7.5                    -8144.3407880199
    91 OT CG       0.11E+00   14.5     0.00004661     -8144.3408005302 -7.89E-04
    92 OT LS       0.16E+00    7.5                    -8144.3413603972
    93 OT LS       0.14E+00    7.5                    -8144.3413688426
    94 OT CG       0.11E+00   14.4     0.00004015     -8144.3413803041 -5.80E-04
    95 OT LS       0.15E+00    7.5                    -8144.3418028246
    96 OT LS       0.14E+00    7.5                    -8144.3418229272
    97 OT CG       0.11E+00   14.4     0.00003525     -8144.3418258869 -4.46E-04
    98 OT LS       0.16E+00    7.6                    -8144.3421544956
    99 OT LS       0.14E+00    7.7                    -8144.3421623038
   100 OT CG       0.11E+00   14.9     0.00003102     -8144.3421676620 -3.42E-04
   101 OT LS       0.16E+00    7.8                    -8144.3424221014
   102 OT LS       0.14E+00    7.8                    -8144.3424292057
   103 OT CG       0.11E+00   14.8     0.00002739     -8144.3424328822 -2.65E-04
   104 OT LS       0.16E+00    7.7                    -8144.3426336498
   105 OT LS       0.14E+00    7.7                    -8144.3426411269
   106 OT CG       0.11E+00   14.3     0.00002427     -8144.3426432626 -2.10E-04
   107 OT LS       0.16E+00    7.5                    -8144.3428038351
   108 OT LS       0.15E+00    7.5                    -8144.3428100186
   109 OT CG       0.12E+00   14.3     0.00002176     -8144.3428116498 -1.68E-04
   110 OT LS       0.16E+00    7.5                    -8144.3429414052
   111 OT LS       0.15E+00    7.5                    -8144.3429446796
   112 OT CG       0.12E+00   14.4     0.00001964     -8144.3429467088 -1.35E-04
   113 OT LS       0.16E+00    7.5                    -8144.3430528286
   114 OT LS       0.15E+00    7.6                    -8144.3430560654
   115 OT CG       0.12E+00   14.3     0.00001798     -8144.3430574814 -1.11E-04
   116 OT LS       0.16E+00    7.6                    -8144.3431465525
   117 OT LS       0.15E+00    7.8                    -8144.3431489337
   118 OT CG       0.12E+00   14.8     0.00001651     -8144.3431502670 -9.28E-05
   119 OT LS       0.16E+00    7.8                    -8144.3432254885
   120 OT LS       0.15E+00    7.8                    -8144.3432275666
   121 OT CG       0.12E+00   14.6     0.00001538     -8144.3432286633 -7.84E-05
   122 OT LS       0.16E+00    7.5                    -8144.3432940173
   123 OT LS       0.15E+00    7.6                    -8144.3432957701
   124 OT CG       0.12E+00   14.4     0.00001436     -8144.3432967462 -6.81E-05
   125 OT LS       0.16E+00    7.6                    -8144.3433541534
   126 OT LS       0.15E+00    7.6                    -8144.3433561287
   127 OT CG       0.12E+00   14.3     0.00001337     -8144.3433568030 -6.01E-05
   128 OT LS       0.17E+00    7.5                    -8144.3434073683
   129 OT LS       0.15E+00    7.5                    -8144.3434092546
   130 OT CG       0.12E+00   14.3     0.00001259     -8144.3434097910 -5.30E-05
   131 OT LS       0.17E+00    7.6                    -8144.3434552269
   132 OT LS       0.15E+00    7.8                    -8144.3434567570
   133 OT CG       0.12E+00   14.9     0.00001198     -8144.3434573038 -4.75E-05
   134 OT LS       0.17E+00    7.8                    -8144.3434984215
   135 OT LS       0.15E+00    7.8                    -8144.3434993541
   136 OT CG       0.12E+00   14.7     0.00001131     -8144.3435000451 -4.27E-05
   137 OT LS       0.17E+00    7.7                    -8144.3435370533
   138 OT LS       0.16E+00    7.5                    -8144.3435384369
   139 OT CG       0.12E+00   14.3     0.00001085     -8144.3435388286 -3.88E-05
   140 OT LS       0.17E+00    7.5                    -8144.3435727407
   141 OT LS       0.15E+00    7.5                    -8144.3435733411
   142 OT CG       0.12E+00   14.3     0.00001046     -8144.3435739914 -3.52E-05
   143 OT LS       0.17E+00    7.5                    -8144.3436049900
   144 OT LS       0.15E+00    7.5                    -8144.3436054316
   145 OT CG       0.12E+00   14.3     0.00000997     -8144.3436060792 -3.21E-05

  *** SCF run converged in   145 steps ***


  Electronic density on regular grids:      -1437.9999923217        0.0000076783
  Core density on regular grids:             1437.9999996447       -0.0000003553
  Total charge density on r-space grids:        0.0000073230
  Total charge density g-space grids:           0.0000073230

  Overlap energy of the core charge distribution:               0.00000638850661
  Self energy of the core charge distribution:             -14650.93922905635191
  Core Hamiltonian energy:                                   4107.64169823815155
  Hartree energy:                                            3440.60933767854021
  Exchange-correlation energy:                              -1042.52665163082952
  Dispersion energy:                                           -0.58344312396223

  DFT+U energy:                                                 1.45467542679317

  Total energy:                                             -8144.34360607915187

  outer SCF iter =    1 RMS gradient =   0.10E-04 energy =      -8144.3436060792
  outer SCF loop converged in   1 iterations or  145 steps


  Integrated absolute spin density  :                             235.0151204963
  Ideal and single determinant S**2 :                    0.000000     127.898282

 ENERGY| Total FORCE_EVAL ( QS ) energy (a.u.):            -8144.343634365413891


 --------  Informations at step =     0 ------------
  Optimization Method        =                 BFGS
  Total Energy               =     -8144.3436343654
  Used time                  =             1477.592
 ---------------------------------------------------

 --------------------------
 OPTIMIZATION STEP:      1
 --------------------------

 Spin 1

 Number of electrons:                                                        719
 Number of occupied orbitals:                                                719
 Number of molecular orbitals:                                               719

 Spin 2

 Number of electrons:                                                        719
 Number of occupied orbitals:                                                719
 Number of molecular orbitals:                                               719

 Number of orbital functions:                                               2718
 Number of independent orbital functions:                                   2718

 Extrapolation method: PS Nth order


 SCF WAVEFUNCTION OPTIMIZATION

  ----------------------------------- OT ---------------------------------------
  Minimizer      : CG                  : conjugate gradient
  Preconditioner : FULL_ALL            : diagonalization, state selective
  Precond_solver : DEFAULT
  Line search    : 3PNT                : 3 energies
  stepsize       :    0.15000000                  energy_gap     :    0.08000000
  eps_taylor     :   0.10000E-15                  max_taylor     :             4
  ----------------------------------- OT ---------------------------------------

  Step     Update method      Time    Convergence         Total energy    Change
  ------------------------------------------------------------------------------
     1 OT CG       0.12E+00   12.5     0.00012295     -8144.3463473631 -8.14E+03
     2 OT LS       0.17E+00    7.6                    -8144.3523113869
     3 OT LS       0.38E+00    7.6                    -8144.3540658714
     4 OT CG       0.30E+00   14.8     0.00008838     -8144.3574902742 -1.11E-02
     5 OT LS       0.15E+00    7.4                    -8144.3562675132
     6 OT LS       0.13E+00    7.4                    -8144.3594726336
     7 OT CG       0.11E+00   14.6     0.00002778     -8144.3595100778 -2.02E-03
     8 OT LS       0.15E+00    7.3                    -8144.3597062268
     9 OT LS       0.14E+00    7.3                    -8144.3597148986
    10 OT CG       0.11E+00   14.6     0.00001267     -8144.3597164975 -2.06E-04
    11 OT LS       0.15E+00    7.2                    -8144.3597536321
    12 OT LS       0.12E+00    7.3                    -8144.3597507260
    13 OT CG       0.95E-01   14.5     0.00000649     -8144.3597538634 -3.74E-05

  *** SCF run converged in    13 steps ***


  Electronic density on regular grids:      -1437.9999923146        0.0000076854
  Core density on regular grids:             1437.9999996454       -0.0000003546
  Total charge density on r-space grids:        0.0000073308
  Total charge density g-space grids:           0.0000073308

  Overlap energy of the core charge distribution:               0.00000775080942
  Self energy of the core charge distribution:             -14650.93922905635191
  Core Hamiltonian energy:                                   4107.56812317405274
  Hartree energy:                                            3440.65382686582279
  Exchange-correlation energy:                              -1042.51180755420796
  Dispersion energy:                                           -0.58330807281037

  DFT+U energy:                                                 1.45263302932238

  Total energy:                                             -8144.35975386336304

  outer SCF iter =    1 RMS gradient =   0.65E-05 energy =      -8144.3597538634
  outer SCF loop converged in   1 iterations or   13 steps


  Integrated absolute spin density  :                             234.9857321851
  Ideal and single determinant S**2 :                    0.000000     127.891001

 ENERGY| Total FORCE_EVAL ( QS ) energy (a.u.):            -8144.359762053269151


 --------  Informations at step =     1 ------------
  Optimization Method        =                 BFGS
  Total Energy               =     -8144.3597620533
  Real energy change         =        -0.0161276879
  Predicted change in energy =        -0.0137208518
  Scaling factor             =         0.0000000000
  Step size                  =         0.2118714388
  Trust radius               =         0.4724315332
  Decrease in energy         =                  YES
  Used time                  =              166.574

  Convergence check :
  Max. step size             =         0.2118714388
  Conv. limit for step size  =         1.0000000000
  Convergence in step size   =                  YES
  RMS step size              =         0.0208087713
  Conv. limit for RMS step   =         1.0000000000
  Convergence in RMS step    =                  YES
  Max. gradient              =         0.0119866369
  Conv. limit for gradients  =         0.0100000000
  Conv. for gradients        =                   NO
  RMS gradient               =         0.0012658625
  Conv. limit for RMS grad.  =         1.0000000000
  Conv. in RMS gradients     =                  YES
 ---------------------------------------------------

 --------------------------
 OPTIMIZATION STEP:      2
 --------------------------

 Spin 1

 Number of electrons:                                                        719
 Number of occupied orbitals:                                                719
 Number of molecular orbitals:                                               719

 Spin 2

 Number of electrons:                                                        719
 Number of occupied orbitals:                                                719
 Number of molecular orbitals:                                               719

 Number of orbital functions:                                               2718
 Number of independent orbital functions:                                   2718

 Extrapolation method: PS Nth order


 SCF WAVEFUNCTION OPTIMIZATION

  ----------------------------------- OT ---------------------------------------
  Minimizer      : CG                  : conjugate gradient
  Preconditioner : FULL_ALL            : diagonalization, state selective
  Precond_solver : DEFAULT
  Line search    : 3PNT                : 3 energies
  stepsize       :    0.15000000                  energy_gap     :    0.08000000
  eps_taylor     :   0.10000E-15                  max_taylor     :             4
  ----------------------------------- OT ---------------------------------------

  Step     Update method      Time    Convergence         Total energy    Change
  ------------------------------------------------------------------------------
     1 OT CG       0.12E+00   12.5     0.00009844     -8144.3545117596 -8.14E+03
     2 OT LS       0.17E+00    7.6                    -8144.3580336647
     3 OT LS       0.27E+00    7.5                    -8144.3588717372
     4 OT CG       0.21E+00   14.8     0.00008565     -8144.3595764252 -5.06E-03
     5 OT LS       0.30E+00    7.3                    -8144.3617087663
     6 OT LS       0.16E+00    7.3                    -8144.3602878538
     7 OT CG       0.13E+00   14.6     0.00002673     -8144.3619344093 -2.36E-03
     8 OT LS       0.18E+00    7.3                    -8144.3620933676
     9 OT LS       0.12E+00    7.4                    -8144.3620416369
    10 OT CG       0.92E-01   14.5     0.00001399     -8144.3620960555 -1.62E-04
    11 OT LS       0.13E+00    7.2                    -8144.3621387676
    12 OT LS       0.12E+00    7.3                    -8144.3621401310
    13 OT CG       0.93E-01   14.5     0.00000698     -8144.3621406761 -4.46E-05

  *** SCF run converged in    13 steps ***


  Electronic density on regular grids:      -1437.9999923110        0.0000076890
  Core density on regular grids:             1437.9999996449       -0.0000003551
  Total charge density on r-space grids:        0.0000073340
  Total charge density g-space grids:           0.0000073340

  Overlap energy of the core charge distribution:               0.00000819720941
  Self energy of the core charge distribution:             -14650.93922905635191
  Core Hamiltonian energy:                                   4107.54651231693515
  Hartree energy:                                            3440.66297179865614
  Exchange-correlation energy:                              -1042.50180551219546
  Dispersion energy:                                           -0.58290848028452

  DFT+U energy:                                                 1.45231005997360

  Total energy:                                             -8144.36214067605761

  outer SCF iter =    1 RMS gradient =   0.70E-05 energy =      -8144.3621406761
  outer SCF loop converged in   1 iterations or   13 steps


  Integrated absolute spin density  :                             234.9605917553
  Ideal and single determinant S**2 :                    0.000000     127.884192

 ENERGY| Total FORCE_EVAL ( QS ) energy (a.u.):            -8144.362151841047307


 --------  Informations at step =     2 ------------
  Optimization Method        =                 BFGS
  Total Energy               =     -8144.3621518410
  Real energy change         =        -0.0023897878
  Predicted change in energy =        -0.0037861056
  Scaling factor             =         0.0000000000
  Step size                  =         0.1822947580
  Trust radius               =         0.4724315332
  Decrease in energy         =                  YES
  Used time                  =              166.494

  Convergence check :
  Max. step size             =         0.1822947580
  Conv. limit for step size  =         1.0000000000
  Convergence in step size   =                  YES
  RMS step size              =         0.0146467878
  Conv. limit for RMS step   =         1.0000000000
  Convergence in RMS step    =                  YES
  Max. gradient              =         0.0155539510
  Conv. limit for gradients  =         0.0100000000
  Conv. for gradients        =                   NO
  RMS gradient               =         0.0026894693
  Conv. limit for RMS grad.  =         1.0000000000
  Conv. in RMS gradients     =                  YES
 ---------------------------------------------------

 --------------------------
 OPTIMIZATION STEP:      3
 --------------------------

 Spin 1

 Number of electrons:                                                        719
 Number of occupied orbitals:                                                719
 Number of molecular orbitals:                                               719

 Spin 2

 Number of electrons:                                                        719
 Number of occupied orbitals:                                                719
 Number of molecular orbitals:                                               719

 Number of orbital functions:                                               2718
 Number of independent orbital functions:                                   2718

 Extrapolation method: PS Nth order


 SCF WAVEFUNCTION OPTIMIZATION

  ----------------------------------- OT ---------------------------------------
  Minimizer      : CG                  : conjugate gradient
  Preconditioner : FULL_ALL            : diagonalization, state selective
  Precond_solver : DEFAULT
  Line search    : 3PNT                : 3 energies
  stepsize       :    0.15000000                  energy_gap     :    0.08000000
  eps_taylor     :   0.10000E-15                  max_taylor     :             4
  ----------------------------------- OT ---------------------------------------

  Step     Update method      Time    Convergence         Total energy    Change
  ------------------------------------------------------------------------------
     1 OT CG       0.12E+00   12.6     0.00015486     -8144.3378608010 -8.14E+03
     2 OT LS       0.17E+00    7.6                    -8144.3465702050
     3 OT LS       0.26E+00    7.6                    -8144.3486258534
     4 OT CG       0.21E+00   14.8     0.00013679     -8144.3502715513 -1.24E-02
     5 OT LS       0.30E+00    7.4                    -8144.3556316303
     6 OT LS       0.16E+00    7.4                    -8144.3522258054
     7 OT CG       0.13E+00   14.6     0.00004319     -8144.3561672465 -5.90E-03
     8 OT LS       0.18E+00    7.4                    -8144.3565743600
     9 OT LS       0.11E+00    7.3                    -8144.3564333190
    10 OT CG       0.91E-01   14.7     0.00001906     -8144.3565827782 -4.16E-04
    11 OT LS       0.13E+00    7.3                    -8144.3566660000
    12 OT LS       0.13E+00    7.4                    -8144.3566731772
    13 OT CG       0.10E+00   14.6     0.00001101     -8144.3566731798 -9.04E-05
    14 OT LS       0.14E+00    7.3                    -8144.3567004353
    15 OT LS       0.12E+00    7.6                    -8144.3566995753
    16 OT CG       0.94E-01   15.1     0.00000403     -8144.3567009005 -2.77E-05

  *** SCF run converged in    16 steps ***


  Electronic density on regular grids:      -1437.9999923083        0.0000076917
  Core density on regular grids:             1437.9999996443       -0.0000003557
  Total charge density on r-space grids:        0.0000073360
  Total charge density g-space grids:           0.0000073360

  Overlap energy of the core charge distribution:               0.00000800010773
  Self energy of the core charge distribution:             -14650.93922905635191
  Core Hamiltonian energy:                                   4107.43852648694337
  Hartree energy:                                            3440.73649945038869
  Exchange-correlation energy:                              -1042.46121137569639
  Dispersion energy:                                           -0.58340853791571

  DFT+U energy:                                                 1.45211413198590

  Total energy:                                             -8144.35670090053827

  outer SCF iter =    1 RMS gradient =   0.40E-05 energy =      -8144.3567009005
  outer SCF loop converged in   1 iterations or   16 steps


  Integrated absolute spin density  :                             234.9054880165
  Ideal and single determinant S**2 :                    0.000000     127.865001

 ENERGY| Total FORCE_EVAL ( QS ) energy (a.u.):            -8144.356705020266418


 --------  Informations at step =     3 ------------
  Optimization Method        =                 BFGS
  Total Energy               =     -8144.3567050203
  Real energy change         =         0.0054468208
  Predicted change in energy =        -0.0078725370
  Scaling factor             =         0.0000000000
  Step size                  =         0.4243970767
  Trust radius               =         0.4724315332
  Decrease in energy         =                   NO
  Used time                  =              197.933

  Convergence check :
  Max. step size             =         0.4243970767
  Conv. limit for step size  =         1.0000000000
  Convergence in step size   =                  YES
  RMS step size              =         0.0329300359
  Conv. limit for RMS step   =         1.0000000000
  Convergence in RMS step    =                  YES
  Max. gradient              =         0.0307258557
  Conv. limit for gradients  =         0.0100000000
  Conv. for gradients        =                   NO
  RMS gradient               =         0.0037341685
  Conv. limit for RMS grad.  =         1.0000000000
  Conv. in RMS gradients     =                  YES
 ---------------------------------------------------

 --------------------------
 OPTIMIZATION STEP:      4
 --------------------------

 Spin 1

 Number of electrons:                                                        719
 Number of occupied orbitals:                                                719
 Number of molecular orbitals:                                               719

 Spin 2

 Number of electrons:                                                        719
 Number of occupied orbitals:                                                719
 Number of molecular orbitals:                                               719

 Number of orbital functions:                                               2718
 Number of independent orbital functions:                                   2718

 Extrapolation method: PS Nth order


 SCF WAVEFUNCTION OPTIMIZATION

  ----------------------------------- OT ---------------------------------------
  Minimizer      : CG                  : conjugate gradient
  Preconditioner : FULL_ALL            : diagonalization, state selective
  Precond_solver : DEFAULT
  Line search    : 3PNT                : 3 energies
  stepsize       :    0.15000000                  energy_gap     :    0.08000000
  eps_taylor     :   0.10000E-15                  max_taylor     :             4
  ----------------------------------- OT ---------------------------------------

  Step     Update method      Time    Convergence         Total energy    Change
  ------------------------------------------------------------------------------
     1 OT CG       0.12E+00   12.5     0.00035744     -8144.2685954093 -8.14E+03
     2 OT LS       0.17E+00    7.4                    -8144.3135829264
     3 OT LS       0.25E+00    7.3                    -8144.3234090616
     4 OT CG       0.20E+00   14.7     0.00030602     -8144.3297716023 -6.12E-02
     5 OT LS       0.27E+00    7.5                    -8144.3630337159
     6 OT LS       0.18E+00    7.4                    -8144.3532048346
     7 OT CG       0.14E+00   14.6     0.00010857     -8144.3633762224 -3.36E-02
     8 OT LS       0.20E+00    7.4                    -8144.3655746365
     9 OT LS       0.11E+00    7.4                    -8144.3639861130
    10 OT CG       0.85E-01   14.8     0.00004496     -8144.3658491641 -2.47E-03
    11 OT LS       0.12E+00    7.4                    -8144.3662550118
    12 OT LS       0.11E+00    7.7                    -8144.3662689038
    13 OT CG       0.86E-01   15.2     0.00002329     -8144.3662736784 -4.25E-04
    14 OT LS       0.12E+00    7.7                    -8144.3664110691
    15 OT LS       0.17E+00    7.6                    -8144.3664409892
    16 OT CG       0.14E+00   15.2     0.00001265     -8144.3664591121 -1.85E-04
    17 OT LS       0.20E+00    7.7                    -8144.3665032377
    18 OT LS       0.14E+00    7.6                    -8144.3664965800
    19 OT CG       0.11E+00   14.9     0.00000727     -8144.3665032408 -4.41E-05

  *** SCF run converged in    19 steps ***


  Electronic density on regular grids:      -1437.9999923002        0.0000076998
  Core density on regular grids:             1437.9999996445       -0.0000003555
  Total charge density on r-space grids:        0.0000073443
  Total charge density g-space grids:           0.0000073443

  Overlap energy of the core charge distribution:               0.00000773833502
  Self energy of the core charge distribution:             -14650.93922905635191
  Core Hamiltonian energy:                                   4107.46294903697162
  Hartree energy:                                            3440.71910012316130
  Exchange-correlation energy:                              -1042.48091184721034
  Dispersion energy:                                           -0.58312518150640

  DFT+U energy:                                                 1.45470594583676

  Total energy:                                             -8144.36650324076345

  outer SCF iter =    1 RMS gradient =   0.73E-05 energy =      -8144.3665032408
  outer SCF loop converged in   1 iterations or   19 steps


  Integrated absolute spin density  :                             234.9518578401
  Ideal and single determinant S**2 :                    0.000000     127.881756

 ENERGY| Total FORCE_EVAL ( QS ) energy (a.u.):            -8144.366518803059989


 --------  Informations at step =     4 ------------
  Optimization Method        =                 BFGS
  Total Energy               =     -8144.3665188031
  Real energy change         =        -0.0098137828
  Predicted change in energy =        -0.0079412185
  Scaling factor             =         0.0000000000
  Step size                  =         0.1425424981
  Trust radius               =         0.4724315332
  Decrease in energy         =                  YES
  Used time                  =              228.080

  Convergence check :
  Max. step size             =         0.1425424981
  Conv. limit for step size  =         1.0000000000
  Convergence in step size   =                  YES
  RMS step size              =         0.0137138016
  Conv. limit for RMS step   =         1.0000000000
  Convergence in RMS step    =                  YES
  Max. gradient              =         0.0089552055
  Conv. limit for gradients  =         0.0100000000
  Conv. in gradients         =                  YES
  RMS gradient               =         0.0015585991
  Conv. limit for RMS grad.  =         1.0000000000
  Conv. in RMS gradients     =                  YES
 ---------------------------------------------------

 *******************************************************************************
 ***                    GEOMETRY OPTIMIZATION COMPLETED                      ***
 *******************************************************************************

                    Reevaluating energy at the minimum

 Spin 1

 Number of electrons:                                                        719
 Number of occupied orbitals:                                                719
 Number of molecular orbitals:                                               719

 Spin 2

 Number of electrons:                                                        719
 Number of occupied orbitals:                                                719
 Number of molecular orbitals:                                               719

 Number of orbital functions:                                               2718
 Number of independent orbital functions:                                   2718

 Extrapolation method: PS Nth order


 SCF WAVEFUNCTION OPTIMIZATION

  ----------------------------------- OT ---------------------------------------
  Minimizer      : CG                  : conjugate gradient
  Preconditioner : FULL_ALL            : diagonalization, state selective
  Precond_solver : DEFAULT
  Line search    : 3PNT                : 3 energies
  stepsize       :    0.15000000                  energy_gap     :    0.08000000
  eps_taylor     :   0.10000E-15                  max_taylor     :             4
  ----------------------------------- OT ---------------------------------------

  Step     Update method      Time    Convergence         Total energy    Change
  ------------------------------------------------------------------------------
     1 OT CG       0.12E+00   12.2     0.00032956     -8144.2760213591 -8.14E+03
     2 OT LS       0.17E+00    7.2                    -8144.3170017106
     3 OT LS       0.31E+00    7.3                    -8144.3278353810
     4 OT CG       0.25E+00   14.6     0.00028894     -8144.3413897285 -6.54E-02
     5 OT LS       0.34E+00    7.5                    -8144.3515247358
     6 OT LS       0.14E+00    7.4                    -8144.3160930691
     7 OT CG       0.11E+00   15.1     0.00008587     -8144.3644423712 -2.31E-02
     8 OT LS       0.16E+00    7.7                    -8144.3660754359
     9 OT LS       0.11E+00    7.6                    -8144.3658251796
    10 OT CG       0.91E-01   15.1     0.00003549     -8144.3660754962 -1.63E-03
    11 OT LS       0.13E+00    7.6                    -8144.3663607436
    12 OT LS       0.13E+00    7.6                    -8144.3663845756
    13 OT CG       0.10E+00   14.8     0.00002154     -8144.3663846140 -3.09E-04
    14 OT LS       0.14E+00    7.4                    -8144.3664963197
    15 OT LS       0.13E+00    7.4                    -8144.3665016423
    16 OT CG       0.10E+00   14.6     0.00000870     -8144.3665024212 -1.18E-04

  *** SCF run converged in    16 steps ***


  Electronic density on regular grids:      -1437.9999923003        0.0000076997
  Core density on regular grids:             1437.9999996445       -0.0000003555
  Total charge density on r-space grids:        0.0000073442
  Total charge density g-space grids:           0.0000073442

  Overlap energy of the core charge distribution:               0.00000773833502
  Self energy of the core charge distribution:             -14650.93922905635191
  Core Hamiltonian energy:                                   4107.47501130390265
  Hartree energy:                                            3440.71024994703384
  Exchange-correlation energy:                              -1042.48421346829787
  Dispersion energy:                                           -0.58312518150640

  DFT+U energy:                                                 1.45479629572202

  Total energy:                                             -8144.36650242116139

  outer SCF iter =    1 RMS gradient =   0.87E-05 energy =      -8144.3665024212
  outer SCF loop converged in   1 iterations or   16 steps


  Integrated absolute spin density  :                             234.9691342683
  Ideal and single determinant S**2 :                    0.000000     127.887123

 ENERGY| Total FORCE_EVAL ( QS ) energy (a.u.):            -8144.366502421161385


 -------------------------------------------------------------------------------
 -                                                                             -
 -                                DBCSR STATISTICS                             -
 -                                                                             -
 -------------------------------------------------------------------------------
 COUNTER                                    TOTAL       BLAS       SMM       ACC
 flops     5 x    15 x    15               567000       0.0%    100.0%      0.0%
 flops    13 x    15 x    15              6528600       0.0%    100.0%      0.0%
 flops    26 x    15 x    15              7581600       0.0%    100.0%      0.0%
 flops     5 x    32 x    32             56770560       0.0%    100.0%      0.0%
 flops     5 x    15 x     5            233509500       0.0%    100.0%      0.0%
 flops    13 x    32 x    32            653672448       0.0%    100.0%      0.0%
 flops    26 x    32 x    32            759103488       0.0%    100.0%      0.0%
 flops     5 x     5 x   160            861168000       0.0%    100.0%      0.0%
 flops     5 x     5 x   175            941902500       0.0%    100.0%      0.0%
 flops     5 x     5 x   192           2066803200       0.0%    100.0%      0.0%
 flops     5 x    15 x    13           2688695100       0.0%    100.0%      0.0%
 flops    13 x    15 x     5           2688695100       0.0%    100.0%      0.0%
 flops     5 x    15 x    26           3122355600       0.0%    100.0%      0.0%
 flops    26 x    15 x     5           3122355600       0.0%    100.0%      0.0%
 flops    13 x     5 x   160           9460172800       0.0%    100.0%      0.0%
 flops     5 x    13 x   160           9469865600       0.0%    100.0%      0.0%
 flops    13 x     5 x   175          10347064000       0.0%    100.0%      0.0%
 flops     5 x    13 x   175          10357665500       0.0%    100.0%      0.0%
 flops     5 x    32 x     5          10959379200       0.0%    100.0%      0.0%
 flops     5 x    26 x   160          10972249600       0.0%    100.0%      0.0%
 flops    26 x     5 x   160          11011020800       0.0%    100.0%      0.0%
 flops     5 x    26 x   175          12000898000       0.0%    100.0%      0.0%
 flops    26 x     5 x   175          12043304000       0.0%    100.0%      0.0%
 flops   160 x   160 x   160          14622720000     100.0%      0.0%      0.0%
 flops   160 x   160 x   175          15993600000     100.0%      0.0%      0.0%
 flops   160 x   175 x   160          15993600000     100.0%      0.0%      0.0%
 flops   175 x   160 x   160          15993600000     100.0%      0.0%      0.0%
 flops   160 x   175 x   175          17493000000     100.0%      0.0%      0.0%
 flops   175 x   160 x   175          17493000000     100.0%      0.0%      0.0%
 flops   175 x   175 x   160          17493000000     100.0%      0.0%      0.0%
 flops   175 x   175 x   175          19132968750     100.0%      0.0%      0.0%
 flops    13 x     5 x   192          22704414720       0.0%    100.0%      0.0%
 flops     5 x    13 x   192          22727677440       0.0%    100.0%      0.0%
 flops     5 x    26 x   192          26333399040       0.0%    100.0%      0.0%
 flops    26 x     5 x   192          26426449920       0.0%    100.0%      0.0%
 flops    13 x    15 x    13          30958403580       0.0%    100.0%      0.0%
 flops   160 x   160 x   678          32075366400     100.0%      0.0%      0.0%
 flops   160 x   175 x   678          35082432000     100.0%      0.0%      0.0%
 flops   175 x   160 x   678          35082432000     100.0%      0.0%      0.0%
 flops   160 x   160 x   192          35094528000     100.0%      0.0%      0.0%
 flops   160 x   192 x   160          35094528000     100.0%      0.0%      0.0%
 flops   192 x   160 x   160          35094528000     100.0%      0.0%      0.0%
 flops    26 x    15 x    13          35951694480       0.0%    100.0%      0.0%
 flops    13 x    15 x    26          35951694480       0.0%    100.0%      0.0%
 flops   175 x   175 x   678          38371410000     100.0%      0.0%      0.0%
 flops   160 x   175 x   192          38384640000     100.0%      0.0%      0.0%
 flops   160 x   192 x   175          38384640000     100.0%      0.0%      0.0%
 flops   175 x   160 x   192          38384640000     100.0%      0.0%      0.0%
 flops   175 x   192 x   160          38384640000     100.0%      0.0%      0.0%
 flops   192 x   160 x   175          38384640000     100.0%      0.0%      0.0%
 flops   192 x   175 x   160          38384640000     100.0%      0.0%      0.0%
 flops    26 x    15 x    26          41750354880       0.0%    100.0%      0.0%
 flops   175 x   175 x   192          41983200000     100.0%      0.0%      0.0%
 flops   175 x   192 x   175          41983200000     100.0%      0.0%      0.0%
 flops   192 x   175 x   175          41983200000     100.0%      0.0%      0.0%
 flops   678 x   160 x   160          47071641600     100.0%      0.0%      0.0%
 flops   678 x   160 x   678          49425223680     100.0%      0.0%      0.0%
 flops   678 x   160 x   175          51484608000     100.0%      0.0%      0.0%
 flops   678 x   175 x   160          51484608000     100.0%      0.0%      0.0%
 flops   678 x   175 x   678          54058838400     100.0%      0.0%      0.0%
 flops   678 x   175 x   175          56311290000     100.0%      0.0%      0.0%
 flops   160 x   192 x   678          76980879360     100.0%      0.0%      0.0%
 flops   192 x   160 x   678          76980879360     100.0%      0.0%      0.0%
 flops   175 x   192 x   678          84197836800     100.0%      0.0%      0.0%
 flops   192 x   175 x   678          84197836800     100.0%      0.0%      0.0%
 flops   192 x   192 x   160          84226867200     100.0%      0.0%      0.0%
 flops   160 x   192 x   192          84226867200     100.0%      0.0%      0.0%
 flops   192 x   160 x   192          84226867200     100.0%      0.0%      0.0%
 flops   192 x   192 x   175          92123136000     100.0%      0.0%      0.0%
 flops   175 x   192 x   192          92123136000     100.0%      0.0%      0.0%
 flops   192 x   175 x   192          92123136000     100.0%      0.0%      0.0%
 flops   160 x   160 x   680          96509952000     100.0%      0.0%      0.0%
 flops   160 x   175 x   680         105557760000     100.0%      0.0%      0.0%
 flops   175 x   160 x   680         105557760000     100.0%      0.0%      0.0%
 flops    13 x    13 x   160         110154794880       0.0%    100.0%      0.0%
 flops   678 x   160 x   192         112971939840     100.0%      0.0%      0.0%
 flops   678 x   192 x   160         112971939840     100.0%      0.0%      0.0%
 flops   175 x   175 x   680         115453800000     100.0%      0.0%      0.0%
 flops   678 x   192 x   678         118620536832     100.0%      0.0%      0.0%
 flops    13 x    13 x   175         120481806900       0.0%    100.0%      0.0%
 flops   678 x   175 x   192         123563059200     100.0%      0.0%      0.0%
 flops   678 x   192 x   175         123563059200     100.0%      0.0%      0.0%
 flops     5 x    32 x    13         126189423360       0.0%    100.0%      0.0%
 flops    13 x    32 x     5         126189423360       0.0%    100.0%      0.0%
 flops    26 x    13 x   160         126460023040       0.0%    100.0%      0.0%
 flops    13 x    26 x   160         126661633280       0.0%    100.0%      0.0%
 flops    26 x    13 x   175         138315650200       0.0%    100.0%      0.0%
 flops    13 x    26 x   175         138536161400       0.0%    100.0%      0.0%
 flops   680 x   160 x   160         141631488000     100.0%      0.0%      0.0%
 flops     5 x    32 x    26         146542556160       0.0%    100.0%      0.0%
 flops    26 x    32 x     5         146542556160       0.0%    100.0%      0.0%
 flops   678 x   160 x   680         148713062400     100.0%      0.0%      0.0%
 flops   680 x   160 x   678         148713062400     100.0%      0.0%      0.0%
 flops    26 x    26 x   160         149695603200       0.0%    100.0%      0.0%
 flops   680 x   160 x   175         154909440000     100.0%      0.0%      0.0%
 flops   680 x   175 x   160         154909440000     100.0%      0.0%      0.0%
 flops   678 x   175 x   680         162654912000     100.0%      0.0%      0.0%
 flops   680 x   175 x   678         162654912000     100.0%      0.0%      0.0%
 flops    26 x    26 x   175         163729566000       0.0%    100.0%      0.0%
 flops   680 x   175 x   175         169432200000     100.0%      0.0%      0.0%
 flops   192 x   192 x   678         184754110464     100.0%      0.0%      0.0%
 flops   192 x   192 x   192         202144481280     100.0%      0.0%      0.0%
 flops   160 x   192 x   680         231623884800     100.0%      0.0%      0.0%
 flops   192 x   160 x   680         231623884800     100.0%      0.0%      0.0%
 flops   175 x   192 x   680         253338624000     100.0%      0.0%      0.0%
 flops   192 x   175 x   680         253338624000     100.0%      0.0%      0.0%
 flops    13 x    13 x   192         264371507712       0.0%    100.0%      0.0%
 flops   678 x   192 x   192         271132655616     100.0%      0.0%      0.0%
 flops    26 x    13 x   192         303504055296       0.0%    100.0%      0.0%
 flops    13 x    26 x   192         303987919872       0.0%    100.0%      0.0%
 flops   680 x   192 x   160         339915571200     100.0%      0.0%      0.0%
 flops   680 x   160 x   192         339915571200     100.0%      0.0%      0.0%
 flops   680 x   192 x   678         356911349760     100.0%      0.0%      0.0%
 flops   678 x   192 x   680         356911349760     100.0%      0.0%      0.0%
 flops    26 x    26 x   192         359269447680       0.0%    100.0%      0.0%
 flops   680 x   192 x   175         371782656000     100.0%      0.0%      0.0%
 flops   680 x   175 x   192         371782656000     100.0%      0.0%      0.0%
 flops   680 x   160 x   680         447455232000     100.0%      0.0%      0.0%
 flops   680 x   175 x   680         489404160000     100.0%      0.0%      0.0%
 flops   192 x   192 x   680         555897323520     100.0%      0.0%      0.0%
 flops   680 x   192 x   192         815797370880     100.0%      0.0%      0.0%
 flops   680 x   192 x   680        1073892556800     100.0%      0.0%      0.0%
 flops    13 x    32 x    13        1452981074688       0.0%    100.0%      0.0%
 flops    26 x    32 x    13        1687332860928       0.0%    100.0%      0.0%
 flops    13 x    32 x    26        1687332860928       0.0%    100.0%      0.0%
 flops    26 x    32 x    26        1959483322368       0.0%    100.0%      0.0%
 flops inhomo. stacks                           0       0.0%      0.0%      0.0%
 flops total                        21.298020E+12      53.1%     46.9%      0.0%
 flops max/rank                      1.434646E+12      53.9%     46.1%      0.0%
 matmuls inhomo. stacks                         0       0.0%      0.0%      0.0%
 matmuls total                          485090688       0.1%     99.9%      0.0%
 number of processed stacks               1313280      21.4%     78.6%      0.0%
 average stack size                                     1.0     470.0       0.0
 marketing flops                    23.821430E+12
 -------------------------------------------------------------------------------
 # multiplications                           5597
 max memory usage/rank             944.480256E+06
 # max total images/rank                        1
 # max 3D layers                                1
 # MPI messages exchanged                  537312
 MPI messages size (bytes):
  total size                       489.288008E+09
  min size                           0.000000E+00
  max size                           3.699200E+06
  average size                     910.621750E+03
 MPI breakdown and total messages size (bytes):
             size <=      128                1584                        0
       128 < size <=     8192                   0                        0
      8192 < size <=    32768                   0                        0
     32768 < size <=   131072                 144                  6552864
    131072 < size <=  4194304              535584             489284780976
   4194304 < size <= 16777216                   0                        0
  16777216 < size                               0                        0
 -------------------------------------------------------------------------------
 
 MEMORY| Estimated peak process memory [MiB]                                 912

 -------------------------------------------------------------------------------
 -                                                                             -
 -                         MESSAGE PASSING PERFORMANCE                         -
 -                                                                             -
 -------------------------------------------------------------------------------

 ROUTINE             CALLS      AVE VOLUME [Bytes]
 MP_Group              530
 MP_Bcast            20455                  64466.
 MP_Allreduce        82075                    607.
 MP_Sync               354
 MP_Alltoall         26638                3024285.
 MP_SendRecv          5260                 521941.
 MP_ISendRecv        27990                 105472.
 MP_Wait            329243
 MP_comm_split         349
 MP_ISend           117092                 468423.
 MP_IRecv           117092                 463953.
 MP_Recv               606                 639691.
 MP_Memory          244592
 -------------------------------------------------------------------------------


 -------------------------------------------------------------------------------
 -                                                                             -
 -                           R E F E R E N C E S                               -
 -                                                                             -
 -------------------------------------------------------------------------------
 
 CP2K version 6.1, the CP2K developers group (2018).
 CP2K is freely available from https://www.cp2k.org/ .

 Schuett, Ole; Messmer, Peter; Hutter, Juerg; VandeVondele, Joost. 
 Electronic Structure Calculations on Graphics Processing Units, John Wiley & Sons, Ltd, 173-190 (2016). 
 GPU-Accelerated Sparse Matrix-Matrix Multiplication for Linear Scaling Density Functional Theory.
 http://dx.doi.org/10.1002/9781118670712.ch8


 Borstnik, U; VandeVondele, J; Weber, V; Hutter, J. 
 PARALLEL COMPUTING, 40 (5-6), 47-58 (2014). 
 Sparse matrix multiplication: The distributed block-compressed sparse
 row library.
 http://dx.doi.org/10.1016/j.parco.2014.03.012


 Hutter, J; Iannuzzi, M; Schiffmann, F; VandeVondele, J. 
 WILEY INTERDISCIPLINARY REVIEWS-COMPUTATIONAL MOLECULAR SCIENCE, 4 (1), 15-25 (2014). 
 CP2K: atomistic simulations of condensed matter systems.
 http://dx.doi.org/10.1002/wcms.1159


 Grimme, S; Ehrlich, S; Goerigk, L. 
 JOURNAL OF COMPUTATIONAL CHEMISTRY, 32, 1456 (2011). 
 Effect of the damping function in dispersion corrected density functional theory.
 http://dx.doi.org/10.1002/jcc.21759


 Grimme, S; Antony, J; Ehrlich, S; Krieg, H. 
 JOURNAL OF CHEMICAL PHYSICS, 132 (15), 154104 (2010). 
 A consistent and accurate ab initio parametrization of density
 functional dispersion correction (DFT-D) for the 94 elements H-Pu.
 http://dx.doi.org/10.1063/1.3382344


 VandeVondele, J; Hutter, J. 
 JOURNAL OF CHEMICAL PHYSICS, 127 (11), 114105 (2007). 
 Gaussian basis sets for accurate calculations on molecular systems in
 gas and condensed phases.
 http://dx.doi.org/10.1063/1.2770708


 Krack, M. 
 THEORETICAL CHEMISTRY ACCOUNTS, 114 (1-3), 145-152 (2005). 
 Pseudopotentials for H to Kr optimized for gradient-corrected
 exchange-correlation functionals.
 http://dx.doi.org/10.1007/s00214-005-0655-y


 VandeVondele, J; Krack, M; Mohamed, F; Parrinello, M; Chassaing, T;
 Hutter, J. COMPUTER PHYSICS COMMUNICATIONS, 167 (2), 103-128 (2005). 
 QUICKSTEP: Fast and accurate density functional calculations using a
 mixed Gaussian and plane waves approach.
 http://dx.doi.org/10.1016/j.cpc.2004.12.014


 Frigo, M; Johnson, SG. 
 PROCEEDINGS OF THE IEEE, 93 (2), 216-231 (2005). 
 The design and implementation of FFTW3.
 http://dx.doi.org/10.1109/JPROC.2004.840301


 VandeVondele, J; Hutter, J. 
 JOURNAL OF CHEMICAL PHYSICS, 118 (10), 4365-4369 (2003). 
 An efficient orbital transformation method for electronic structure
 calculations.
 http://dx.doi.org/10.1063/1.1543154


 Hartwigsen, C; Goedecker, S; Hutter, J. 
 PHYSICAL REVIEW B, 58 (7), 3641-3662 (1998). 
 Relativistic separable dual-space Gaussian pseudopotentials from H to Rn.
 http://dx.doi.org/10.1103/PhysRevB.58.3641


 Dudarev, SL; Botton, GA; Savrasov, SY; Humphreys, CJ; Sutton, AP. 
 PHYSICAL REVIEW B, 57 (3), 1505-1509 (1998). 
 Electron-energy-loss spectra and the structural stability of
 nickel oxide: An LSDA+U study.
 http://dx.doi.org/10.1103/PhysRevB.57.1505


 Lippert, G; Hutter, J; Parrinello, M. 
 MOLECULAR PHYSICS, 92 (3), 477-487 (1997). 
 A hybrid Gaussian and plane wave density functional scheme.
 http://dx.doi.org/10.1080/002689797170220


 Dudarev, SL; Manh, DN; Sutton, AP. 
 PHILOSOPHICAL MAGAZINE B, 75 (5), 613-628 (1997). 
 Effect of Mott-Hubbard correlations on the electronic
 structure and structural stability of uranium dioxide.
 http://dx.doi.org/10.1080/13642819708202343


 Perdew, JP; Burke, K; Ernzerhof, M. 
 PHYSICAL REVIEW LETTERS, 77 (18), 3865-3868 (1996). 
 Generalized gradient approximation made simple.
 http://dx.doi.org/10.1103/PhysRevLett.77.3865


 Goedecker, S; Teter, M; Hutter, J. 
 PHYSICAL REVIEW B, 54 (3), 1703-1710 (1996). 
 Separable dual-space Gaussian pseudopotentials.
 http://dx.doi.org/10.1103/PhysRevB.54.1703


 -------------------------------------------------------------------------------
 -                                                                             -
 -                                T I M I N G                                  -
 -                                                                             -
 -------------------------------------------------------------------------------
 SUBROUTINE                       CALLS  ASD         SELF TIME        TOTAL TIME
                                MAXIMUM       AVERAGE  MAXIMUM  AVERAGE  MAXIMUM
 CP2K                                 1  1.0    0.022    0.038 2414.014 2414.043
 cp_geo_opt                           1  2.0    0.000    0.000 2413.063 2413.092
 geoopt_bfgs                          1  3.0    0.022    0.026 2413.063 2413.092
 cp_eval_at                           6  4.0    0.001    0.001 2412.701 2412.731
 qs_energies                          6  5.8    0.001    0.002 2325.070 2325.088
 scf_env_do_scf                       6  6.8    0.001    0.001 2253.485 2253.512
 qs_forces                            5  5.0    0.001    0.002 2236.311 2236.338
 scf_env_do_scf_inner_loop          222  7.9    0.020    0.092 2185.089 2185.176
 qs_rho_update_rho                  228  8.9    0.003    0.004 1463.147 1463.256
 calculate_rho_elec                 456  9.9 1104.488 1182.934 1463.144 1463.252
 rebuild_ks_matrix                  227  9.9    0.002    0.008  730.059  730.243
 qs_ks_build_kohn_sham_matrix       227 10.9    0.049    0.057  730.057  730.241
 qs_ks_update_qs_env                228  8.9    0.003    0.005  652.635  652.816
 sum_up_and_integrate                83 11.7    3.272    3.316  506.330  506.405
 integrate_v_rspace                 166 12.7  381.815  421.977  503.057  503.131
 density_rs2pw                      456 10.9    0.037    0.042  329.716  385.194
 pw_transfer                       4109 12.6    0.468    0.497  260.067  261.666
 fft_wrap_pw1pw2                   3655 13.6    0.040    0.044  251.825  253.446
 fft_wrap_pw1pw2_200               1167 14.3   31.844   32.709  235.001  236.972
 rs_pw_transfer                    3121 12.7    0.040    0.047  160.253  214.937
 fft3d_ps                          3655 15.6  103.511  104.351  178.845  180.836
 rs_pw_transfer_RS2PW_200           462 12.9   21.318   28.477  105.223  159.300
 qs_vxc_create                      227 11.9    0.005    0.005  157.763  158.127
 qs_scf_new_mos                     222  8.9    0.003    0.005  152.227  152.710
 qs_scf_loop_do_ot                  222  9.9    0.005    0.012  152.224  152.707
 mp_waitany                       27588 14.7   92.893  147.402   92.893  147.402
 dbcsr_multiply_generic            5597 13.6    0.339    0.355  137.000  137.784
 ot_scf_mini                        222 10.9    0.029    0.036  135.403  135.818
 xc_rho_set_and_dset_create         227 13.9   12.406   12.505  112.219  113.437
 multiply_cannon                   5597 14.6    0.766    0.927   94.092   99.025
 xc_vxc_pw_create                    83 12.7   23.223   23.729   87.134   87.497
 qs_ks_update_qs_env_forces           5  6.0    0.000    0.000   78.592   78.605
 potential_pw2rs                    166 13.7    0.208    0.220   77.682   77.850
 xc_exc_calc                        144 12.9    0.471    0.473   70.624   70.625
 multiply_cannon_multrec          22388 15.6   66.386   69.291   66.438   69.349
 rs_distribute_matrix               632 11.7    5.409    8.418   53.383   68.949
 init_scf_loop                        6  7.8    0.000    0.001   68.231   68.233
 mp_alltoall_d11v                  5825 15.7   45.786   62.563   45.786   62.563
 pw_nn_compose_r                   2480 14.6   45.216   46.059   50.205   51.582
 qs_ot_get_p                        456 11.9    0.006    0.010   46.288   48.385
 -------------------------------------------------------------------------------

 The number of warnings for this run is : 1
 
 -------------------------------------------------------------------------------
  **** **** ******  **  PROGRAM ENDED AT                 2020-10-07 12:47:38.053
 ***** ** ***  *** **   PROGRAM RAN ON                                 irene6007
 **    ****   ******    PROGRAM RAN BY                                  marticar
 ***** **    ** ** **   PROGRAM PROCESS ID                                 67000
  **** **  *******  **  PROGRAM STOPPED IN /ccc/scratch/cont003/gen0609/marticar
                                           /684120
