40
Properties=species:S:1:pos:R:3 energy=-34953.22046875043 pbc="F F F"
Au      15.05999991      14.83131090      16.44853214
Au      17.28855572      11.34976362      14.35470724
Au      14.46779851      12.07575731      17.38370264
Au      18.05653423      15.29871468      17.16771890
Au      12.42207258      14.01071036      17.34097347
Au      11.24874744      14.85967584      15.00322442
Au      12.94307211      18.08353478      13.34835734
Au      15.32422752      18.87710357      14.54161664
Au      14.85559253      15.99962279      13.91259142
Au      14.23724571      13.85510898      19.46053886
Au      14.89974725      12.30453912      13.15477534
Au      12.82842221      14.16108249      12.77966174
Au      15.18729794      14.29911562      11.26479643
Au      16.84008801      14.17423590      14.42920940
Au      12.80928248      12.49800561      15.01519766
Au      14.70885673      10.41264817      15.19553249
Au      17.66982426      16.87835160      14.88277329
Au      19.63620892      14.73126590      14.77842175
Au      15.97989722      17.57133647      17.05007117
Au      18.98835616      16.21997172      12.54974762
Au      13.26837020      17.93694993      16.19611986
Au      16.86679909      10.63961750      17.03569369
Au      10.92079593      16.25996019      12.56202710
Au      15.30978454      18.08365767      11.81629786
Au      11.18094140      16.45793703      17.40636641
Au      10.70713675      17.69262662      14.97192668
Au      16.98207241      13.03842010      18.64519088
Au      15.55340932      16.46670767       9.49116601
Au      18.73618116      12.66212890      16.34198753
Au      16.45899217      15.86628013      19.28267886
Au      17.77651451      14.95333178      10.41402203
Au      14.46627442      15.90858950      21.22800522
Au      13.74851753      16.65850208      18.60060476
Au      13.20789069      16.33966344      11.00301014
Au      17.56163796      12.81968747      12.06174065
Au      17.80863489      17.79292164      10.47454242
Au      17.77797123      18.91816895      12.99095514
Au      17.66566320      19.55216382      15.81603093
C       18.00513750      12.19210927      20.30098866
O       18.61379845      11.70122742      21.14119351
