36
Lattice="7.668573041968109 0.0 0.0 3.8342865209840546 6.641179065120891 0.0 0.0 0.0 34.174242446240996" Properties=species:S:1:pos:R:3:tags:I:1:forces:R:3 energy=-149.0963897705078 free_energy=-149.0963897705078 stress="0.00029295837157405913 -1.7569597332567355e-07 -5.911249445489375e-07 -1.7569597332567355e-07 0.00029220429132692516 5.5383498676064846e-08 -5.911249445489375e-07 5.5383498676064846e-08 3.866095084958943e-06" pbc="T T F"
Cu       1.27809551       0.73790879      15.00000000        3      -0.00009465      -0.00024236      -0.00874489
Cu       3.83428652       0.73790879      15.00000000        3      -0.00036704      -0.00028438      -0.01022484
Cu       6.39047753       0.73790879      15.00000000        3       0.00046892      -0.00043433      -0.01028777
Cu       2.55619101       2.95163514      15.00000000        3      -0.00018991       0.00012634      -0.01089952
Cu       5.11238203       2.95163514      15.00000000        3      -0.00012424       0.00046497      -0.01069979
Cu       7.66857304       2.95163514      15.00000000        3       0.00030577       0.00012859      -0.01067532
Cu       3.83428652       5.16536150      15.00000000        3       0.00015097       0.00023766      -0.00916070
Cu       6.39047753       5.16536150      15.00000000        3      -0.00014425       0.00015406      -0.00885530
Cu       8.94666855       5.16536150      15.00000000        3      -0.00000656      -0.00015662      -0.01059823
Cu      -0.00000000       1.47581757      17.08712122        2       0.00173107      -0.01024666       0.01856109
Cu       2.55619101       1.47581757      17.08712122        2      -0.00105066      -0.00523224       0.01302351
Cu       5.11238203       1.47581757      17.08712122        2      -0.00031012      -0.00175652       0.00815449
Cu       1.27809551       3.68954393      17.08712122        2      -0.00197912      -0.00092355       0.00567348
Cu       3.83428652       3.68954393      17.08712122        2       0.00749693       0.00542645       0.01427901
Cu       6.39047753       3.68954393      17.08712122        2      -0.00667246       0.00560554       0.01914287
Cu       2.55619101       5.90327028      17.08712122        2       0.00830546       0.00432612       0.01839326
Cu       5.11238203       5.90327028      17.08712122        2      -0.00222763       0.00169410       0.03385195
Cu       7.66857304       5.90327028      17.08712122        2      -0.00625514       0.00201693       0.01652484
Cu      -0.00069405      -0.00030453      19.18682867        1      -0.00022156       0.00095174      -0.00362313
Cu       2.55635017       0.00104122      19.18086075        1       0.00019491      -0.00031108      -0.00196611
Cu       5.11239759      -0.00069749      19.17617489        1       0.00000809       0.00026565      -0.00064112
Cu       1.27752667       2.21318570      19.17601635        1      -0.00041631       0.00078569      -0.00053460
Cu       3.83534008       2.21430566      19.17451078        1      -0.00026093      -0.00022306       0.00007608
Cu       6.39043548       2.21325540      19.17421147        1       0.00005912      -0.00021492      -0.00005659
Cu       2.55515595       4.42650529      19.17315123        1      -0.00097920       0.00002909       0.00017069
Cu       5.11266402       4.42934003      19.18096596        1       0.00026390      -0.00075431      -0.00242265
Cu       7.66802270       4.42749213      19.17694453        1       0.00067093       0.00005913      -0.00103059
O       -0.08467706      -0.06928435      23.18564517        0      -0.00356627       0.00624728      -0.01944420
C        1.12953275      -0.83171155      23.17606797        0       0.04688489       0.01284671      -0.00296787
C        2.41136191      -0.02155645      23.16675081        0       0.01007044       0.00856352       0.00172472
H        1.10983191      -1.48467446      24.06118730        0      -0.00782567       0.00419745       0.00028949
H        1.04715666      -1.45708003      22.27694112        0      -0.00363764      -0.00364977       0.00073077
H        3.27243915      -0.69536683      23.14271905        0      -0.02852716       0.01217548      -0.02104674
H        2.47102049       0.63624940      22.29142153        0      -0.01512825      -0.02003304       0.01203875
H        2.49181192       0.58867252      24.07290418        0       0.00705982      -0.01398946      -0.01152562
H       -0.01679285       0.53074238      23.94382601        0      -0.00368632      -0.00785045      -0.00722945
