36
Lattice="7.668573041968109 0.0 0.0 3.8342865209840546 6.641179065120891 0.0 0.0 0.0 34.174242446240996" Properties=species:S:1:pos:R:3:tags:I:1:forces:R:3 energy=-149.09454345703125 free_energy=-149.09454345703125 stress="0.0002951711358036846 -2.481056640135648e-07 -5.316536544341943e-07 -2.481056640135648e-07 0.0002942516002804041 -6.933534564268484e-07 -5.316536544341943e-07 -6.933534564268484e-07 4.575283583108103e-06" pbc="T T F"
Cu       1.27809551       0.73790879      15.00000000        3      -0.00028462      -0.00021140      -0.00956285
Cu       3.83428652       0.73790879      15.00000000        3       0.00004775      -0.00019576      -0.01061835
Cu       6.39047753       0.73790879      15.00000000        3       0.00020760      -0.00014595      -0.00869422
Cu       2.55619101       2.95163514      15.00000000        3      -0.00009122      -0.00027717      -0.01084173
Cu       5.11238203       2.95163514      15.00000000        3       0.00028385      -0.00010155      -0.01007652
Cu       7.66857304       2.95163514      15.00000000        3      -0.00017406      -0.00010842      -0.00953310
Cu       3.83428652       5.16536150      15.00000000        3       0.00014593       0.00063043      -0.00998463
Cu       6.39047753       5.16536150      15.00000000        3       0.00005756       0.00007150      -0.01064940
Cu       8.94666855       5.16536150      15.00000000        3      -0.00019411       0.00033683      -0.01050562
Cu      -0.00000000       1.47581757      17.08712122        2      -0.00163168      -0.00602783       0.02946620
Cu       2.55619101       1.47581757      17.08712122        2      -0.00442278       0.00288548       0.01119903
Cu       5.11238203       1.47581757      17.08712122        2       0.00288460       0.00155685       0.01355251
Cu       1.27809551       3.68954393      17.08712122        2      -0.00146383      -0.00435154       0.01747826
Cu       3.83428652       3.68954393      17.08712122        2       0.00176149       0.00027726       0.01058050
Cu       6.39047753       3.68954393      17.08712122        2       0.00019473      -0.00464250       0.01542945
Cu       2.55619101       5.90327028      17.08712122        2       0.00746678       0.00612227       0.02031276
Cu       5.11238203       5.90327028      17.08712122        2      -0.00887643       0.00345976       0.01877881
Cu       7.66857304       5.90327028      17.08712122        2       0.00206466      -0.00024102       0.00650829
Cu       0.00036867      -0.00078428      19.18729536        1      -0.00041186      -0.00020526      -0.00530206
Cu       2.55626118      -0.00008214      19.17296390        1      -0.00019993      -0.00062700       0.00052074
Cu       5.11290917      -0.00013522      19.17666398        1      -0.00066719      -0.00089531      -0.00099438
Cu       1.27636603       2.21328978      19.17804996        1       0.00047088       0.00034048      -0.00191548
Cu       3.83297341       2.21439064      19.17606508        1      -0.00030361       0.00015192      -0.00075947
Cu       6.39006206       2.21350135      19.17953403        1       0.00016543       0.00065510      -0.00248417
Cu       2.55625029       4.42739125      19.17514472        1      -0.00008671      -0.00011501      -0.00046266
Cu       5.11260158       4.42715476      19.17678708        1      -0.00036203       0.00002869      -0.00122475
Cu       7.66826718       4.42767574      19.17663274        1      -0.00053087      -0.00017194      -0.00127783
O        0.10914357      -0.01136975      23.18809099        0      -0.00453666      -0.00011265      -0.01695251
C       -0.20953151       1.38730132      23.17567345        0      -0.04816985       0.01225102       0.00224649
C       -1.68984564       1.72090673      23.16870266        0       0.00329697      -0.00009504       0.00244871
H        0.26689137       1.83385617      24.06166229        0      -0.00346240      -0.00438851      -0.02047821
H        0.29101893       1.76827071      22.27476111        0      -0.00931807      -0.00263220       0.02391522
H       -1.82243156       2.80666497      23.14450439        0       0.02002534      -0.03878364      -0.02157147
H       -2.19734814       1.29706304      22.29351399        0       0.02491384       0.00742855       0.02944636
H       -2.17686446       1.34615123      24.07614136        0       0.01052635       0.01948459      -0.02628025
H       -0.36502032      -0.38618131      23.94605244        0       0.01067394       0.00864883      -0.01171366
