36
Lattice="7.668573041968109 0.0 0.0 3.8342865209840546 6.641179065120891 0.0 0.0 0.0 34.174242446240996" Properties=species:S:1:pos:R:3:tags:I:1:forces:R:3 energy=-149.0963897705078 free_energy=-149.0963897705078 stress="0.0002929577021859586 -1.7580843802988966e-07 -5.909927836000861e-07 -1.7580843802988966e-07 0.00029220408760011196 5.5818386357486816e-08 -5.909927836000861e-07 5.5818386357486816e-08 3.866154202114558e-06" pbc="T T F"
Cu       1.27809551       0.73790879      15.00000000        3       0.00046976      -0.00043424      -0.01028731
Cu       3.83428652       0.73790879      15.00000000        3      -0.00009380      -0.00024234      -0.00874491
Cu       6.39047753       0.73790879      15.00000000        3      -0.00036871      -0.00028458      -0.01022521
Cu       2.55619101       2.95163514      15.00000000        3       0.00030501       0.00012832      -0.01067498
Cu       5.11238203       2.95163514      15.00000000        3      -0.00018982       0.00012673      -0.01089929
Cu       7.66857304       2.95163514      15.00000000        3      -0.00012365       0.00046495      -0.01070004
Cu       3.83428652       5.16536150      15.00000000        3      -0.00000546      -0.00015686      -0.01059803
Cu       6.39047753       5.16536150      15.00000000        3       0.00014916       0.00023770      -0.00916091
Cu       8.94666855       5.16536150      15.00000000        3      -0.00014364       0.00015435      -0.00885502
Cu      -0.00000000       1.47581757      17.08712122        2      -0.00030972      -0.00175690       0.00815485
Cu       2.55619101       1.47581757      17.08712122        2       0.00173050      -0.01024626       0.01856102
Cu       5.11238203       1.47581757      17.08712122        2      -0.00105080      -0.00523223       0.01302353
Cu       1.27809551       3.68954393      17.08712122        2      -0.00667135       0.00560560       0.01914309
Cu       3.83428652       3.68954393      17.08712122        2      -0.00197793      -0.00092409       0.00567425
Cu       6.39047753       3.68954393      17.08712122        2       0.00749493       0.00542693       0.01427955
Cu       2.55619101       5.90327028      17.08712122        2      -0.00625544       0.00201688       0.01652495
Cu       5.11238203       5.90327028      17.08712122        2       0.00830543       0.00432581       0.01839261
Cu       7.66857304       5.90327028      17.08712122        2      -0.00222731       0.00169463       0.03385212
Cu       0.00001562      -0.00069753      19.17617486        1       0.00000812       0.00026672      -0.00064121
Cu       2.55549687      -0.00030451      19.18682831        1      -0.00022201       0.00095266      -0.00362305
Cu       5.11254105       0.00104118      19.18086078        1       0.00019497      -0.00031105      -0.00196635
Cu       1.27805358       2.21325543      19.17421143        1       0.00006118      -0.00021570      -0.00005695
Cu       3.83371754       2.21318562      19.17601637        1      -0.00041686       0.00078806      -0.00053490
Cu       6.39153118       2.21430565      19.17451073        1      -0.00026201      -0.00022293       0.00007587
Cu       2.55564074       4.42749220      19.17694441        1       0.00067114       0.00005832      -0.00103094
Cu       5.11134696       4.42650549      19.17315108        1      -0.00098036       0.00002615       0.00017011
Cu       7.66885500       4.42933997      19.18096581        1       0.00026428      -0.00075439      -0.00242221
O        2.47151452      -0.06928389      23.18564570        0      -0.00357741       0.00618887      -0.01951337
C        3.68572409      -0.83171117      23.17606872        0       0.04686987       0.01280046      -0.00310016
C        4.96755248      -0.02155616      23.16675067        0       0.01008365       0.00856024       0.00172605
H        3.66602306      -1.48467459      24.06118738        0      -0.00782786       0.00417921       0.00031869
H        3.60334800      -1.45708065      22.27694025        0      -0.00362878      -0.00359160       0.00081971
H        5.82862941      -0.69536708      23.14271883        0      -0.02852371       0.01217678      -0.02104694
H        5.02721158       0.63624957      22.29142117        0      -0.01513149      -0.02003382       0.01203865
H        5.04800324       0.58867238      24.07290431        0       0.00706198      -0.01398340      -0.01152003
H        2.53939744       0.53074227      23.94382544        0      -0.00368221      -0.00778913      -0.00715336
