36
Lattice="7.668573041968109 0.0 0.0 3.8342865209840546 6.641179065120891 0.0 0.0 0.0 34.174242446240996" Properties=species:S:1:pos:R:3:tags:I:1:forces:R:3 energy=-149.0957489013672 free_energy=-149.0957489013672 stress="0.0002915874938480556 4.2031342672999017e-07 -5.627267896102239e-08 4.2031342672999017e-07 0.0002914316428359598 -8.460552294309309e-07 -5.627267896102239e-08 -8.460552294309309e-07 1.5387124676635722e-06" pbc="T T F"
Cu       1.27809551       0.73790879      15.00000000        3      -0.00006895       0.00014752      -0.00798939
Cu       3.83428652       0.73790879      15.00000000        3      -0.00029475      -0.00010689      -0.00992661
Cu       6.39047753       0.73790879      15.00000000        3       0.00038194      -0.00025223      -0.00990184
Cu       2.55619101       2.95163514      15.00000000        3      -0.00033859      -0.00018690      -0.00992472
Cu       5.11238203       2.95163514      15.00000000        3      -0.00010924      -0.00019619      -0.01144616
Cu       7.66857304       2.95163514      15.00000000        3       0.00044770      -0.00029955      -0.01017155
Cu       3.83428652       5.16536150      15.00000000        3      -0.00030884       0.00043331      -0.01012278
Cu       6.39047753       5.16536150      15.00000000        3       0.00017151       0.00045527      -0.01039644
Cu       8.94666855       5.16536150      15.00000000        3       0.00012258       0.00000190      -0.01092261
Cu      -0.00000000       1.47581757      17.08712122        2       0.00572828      -0.00639040       0.02547131
Cu       2.55619101       1.47581757      17.08712122        2      -0.00431286      -0.00493916       0.02199417
Cu       5.11238203       1.47581757      17.08712122        2      -0.00026642      -0.00108265       0.00932041
Cu       1.27809551       3.68954393      17.08712122        2       0.00243539      -0.00718505       0.01036835
Cu       3.83428652       3.68954393      17.08712122        2      -0.00383747      -0.00211395       0.00463093
Cu       6.39047753       3.68954393      17.08712122        2       0.00162685      -0.00216605       0.00600865
Cu       2.55619101       5.90327028      17.08712122        2       0.00712514       0.00457987       0.01815194
Cu       5.11238203       5.90327028      17.08712122        2      -0.00185813       0.00988324       0.02818649
Cu       7.66857304       5.90327028      17.08712122        2      -0.00668090       0.00689979       0.01575407
Cu      -0.00032967      -0.00036923      19.18659225        1      -0.00072149      -0.00019999      -0.00255033
Cu       2.55517694      -0.00043844      19.18190510        1       0.00097998      -0.00021928      -0.00199018
Cu       5.11233742       0.00005538      19.17489040        1       0.00034076      -0.00035851      -0.00037921
Cu       1.27835325       2.21355608      19.17999413        1      -0.00035986       0.00038749      -0.00119169
Cu       3.83461609       2.21309921      19.17656510        1       0.00086821       0.00054700      -0.00068590
Cu       6.39103487       2.21334381      19.17631773        1      -0.00067135       0.00002497      -0.00039946
Cu       2.55672025       4.42760331      19.17481684        1       0.00012605      -0.00017437      -0.00008763
Cu       5.11203659       4.42587673      19.17290061        1      -0.00017664      -0.00119291       0.00008754
Cu       7.66895560       4.42744747      19.17320570        1      -0.00004139      -0.00037749       0.00043977
O       -0.01151781      -0.10872596      23.18389554        0      -0.00620818       0.00687864      -0.01714797
C        1.38582808       0.21265727      23.17650428        0       0.01807380       0.01989320      -0.00556304
C        1.71995704       1.69062068      23.16773960        0       0.00102410       0.01780963       0.00217874
H        1.83463496      -0.26431025      24.06018696        0      -0.01195565      -0.00436154       0.00945494
H        1.77084866      -0.28714821      22.27803431        0       0.00089803      -0.00818774      -0.01004852
H        2.80494258       1.81913309      23.14138577        0      -0.00751451      -0.00355338      -0.02000721
H        1.29686972       2.20017688      22.29403109        0      -0.00545763      -0.01559601      -0.00325224
H        1.34830791       2.17983739      24.07387095        0       0.01047676       0.00217520       0.00809304
H       -0.38887422       0.35969588      23.94385651        0       0.00035508      -0.01097682      -0.00603480
