36
Lattice="7.668573041968109 0.0 0.0 3.8342865209840546 6.641179065120891 0.0 0.0 0.0 34.174242446240996" Properties=species:S:1:pos:R:3:tags:I:1:forces:R:3 energy=-149.09376525878906 free_energy=-149.09376525878906 stress="0.0002932265342678875 -5.662000717165938e-07 1.9679353613355488e-07 -5.662000717165938e-07 0.0002937986864708364 -2.2488973172585247e-07 1.9679353613355488e-07 -2.2488973172585247e-07 2.1768153146695113e-06" pbc="T T F"
Cu       1.27809551       0.73790879      15.00000000        3      -0.00028513       0.00012897      -0.00907661
Cu       3.83428652       0.73790879      15.00000000        3       0.00009691      -0.00019394      -0.01096550
Cu       6.39047753       0.73790879      15.00000000        3       0.00020150      -0.00004787      -0.00909094
Cu       2.55619101       2.95163514      15.00000000        3      -0.00044619      -0.00014681      -0.01050803
Cu       5.11238203       2.95163514      15.00000000        3       0.00025662      -0.00033035      -0.01093069
Cu       7.66857304       2.95163514      15.00000000        3       0.00017751      -0.00012443      -0.00908011
Cu       3.83428652       5.16536150      15.00000000        3      -0.00017194       0.00055499      -0.01033375
Cu       6.39047753       5.16536150      15.00000000        3       0.00034774       0.00013304      -0.01078273
Cu       8.94666855       5.16536150      15.00000000        3      -0.00017798       0.00002645      -0.01045630
Cu      -0.00000000       1.47581757      17.08712122        2       0.00330330      -0.00504854       0.02930718
Cu       2.55619101       1.47581757      17.08712122        2      -0.00533626       0.00217481       0.01344193
Cu       5.11238203       1.47581757      17.08712122        2       0.00383826      -0.00047644       0.01145726
Cu       1.27809551       3.68954393      17.08712122        2      -0.00064136      -0.00649392       0.01548414
Cu       3.83428652       3.68954393      17.08712122        2      -0.00306297       0.00015546       0.00781124
Cu       6.39047753       3.68954393      17.08712122        2       0.00327721      -0.00316317       0.01202156
Cu       2.55619101       5.90327028      17.08712122        2       0.00578467       0.00492163       0.02179763
Cu       5.11238203       5.90327028      17.08712122        2      -0.00709127       0.00751668       0.01910247
Cu       7.66857304       5.90327028      17.08712122        2       0.00124470       0.00066590       0.00789084
Cu      -0.00036946      -0.00064205      19.18694964        1      -0.00004258      -0.00017192      -0.00377132
Cu       2.55611528      -0.00039521      19.17399658        1       0.00086769      -0.00052806      -0.00021966
Cu       5.11255726       0.00050457      19.17598252        1      -0.00016370      -0.00055646      -0.00063352
Cu       1.27871419       2.21287307      19.18050239        1       0.00104296       0.00044522      -0.00227352
Cu       3.83476941       2.21432212      19.17437952        1      -0.00026174       0.00007593      -0.00000037
Cu       6.39144771       2.21372169      19.17841615        1      -0.00108114      -0.00015112      -0.00109881
Cu       2.55561859       4.42734447      19.17599597        1       0.00030327       0.00003056      -0.00078765
Cu       5.11233135       4.42771906      19.17386642        1       0.00014003       0.00018583       0.00004631
Cu       7.66895945       4.42834897      19.17663751        1      -0.00010741       0.00124705      -0.00079796
O        0.06968635      -0.08635277      23.18687037        0      -0.00755668      -0.00341642      -0.01890439
C        0.83027685       1.12920064      23.17610294        0      -0.01353753       0.04729915      -0.00325261
C        0.02084201       2.41145806      23.16909544        0      -0.00841209       0.01071519       0.00366451
H        1.48585560       1.10990849      24.05939503        0      -0.00311232      -0.00934851      -0.00108901
H        1.45329652       1.04755986      22.27572897        0       0.00082642      -0.00420946      -0.00058320
H        0.69774870       3.27000573      23.14234394        0      -0.01203013      -0.02847660      -0.02118781
H       -0.63983733       2.47261764      22.29559779        0       0.01691329      -0.01543777       0.01641539
H       -0.58740022       2.49445626      24.07629298        0       0.01607307       0.00702007      -0.00805958
H       -0.52990534      -0.01930442      23.94544574        0       0.00882337      -0.00497568      -0.00455626
